Mg18 B11                                
   1.00000000000000     
     6.9600856675196328    5.3996515399451370    0.0544586047214639
    -6.9600856675196328    5.3996515399451370    0.0544586047214639
     0.0000000000000000    5.3946893249400105    6.5736412064241376
   Mg   B 
    18    11
Direct
  0.2729659742128874  0.2729659742128874  0.5713252848658072
  0.2384361177295631  0.6436851874112932  0.9993966047733664
  0.9911001281069858  0.2476602726812089  0.9803302763241675
  0.2476602726812089  0.9911001281069858  0.9803302763241675
  0.6436851874112932  0.2384361177295631  0.9993966047733664
  0.3581108527913131  0.3581108527913131  0.9348444434789656
  0.7390764353703574  0.7390764353703574  0.6502908233084810
  0.6254378091475914  0.0178523150365066  0.7760023889689123
  0.0178523150365066  0.6254378091475914  0.7760023889689123
  0.9371419373340686  0.9371419373340686  0.7665308270200839
  0.5169972616851197  0.9576772375401319  0.4931096038326999
  0.9576772375401319  0.5169972616851197  0.4931096038326999
  0.9983292691691545  0.2188270915553829  0.3755916814311604
  0.2188270915553829  0.9983292691691545  0.3755916814311604
  0.6150083944333815  0.6150083944333815  0.4325175547331668
  0.3815797842188360  0.7641445267355209  0.2680579570620836
  0.7641445267355209  0.3815797842188360  0.2680579570620836
  0.5342972876417988  0.5342972876417988  0.1093585095647924
  0.6889589544140904  0.8122651972696175  0.0993967178442716
  0.8122651972696175  0.6889589544140904  0.0993967178442716
  0.7812626966556167  0.0459425677848770  0.9494252614136798
  0.0459425677848770  0.7812626966556167  0.9494252614136798
  0.9246279001664277  0.2280342490106833  0.7142251458049884
  0.2280342490106833  0.9246279001664277  0.7142251458049884
  0.8217947727685413  0.9475904743616752  0.3056891015199810
  0.9475904743616752  0.8217947727685413  0.3056891015199810
  0.6894756655256913  0.9468181346950075  0.2026200466850767
  0.9468181346950075  0.6894756655256913  0.2026200466850767
  0.0549015045466561  0.0549015045466561  0.2074439857078971
 
  0.00000000E+00  0.00000000E+00  0.00000000E+00
  0.00000000E+00  0.00000000E+00  0.00000000E+00
  0.00000000E+00  0.00000000E+00  0.00000000E+00
  0.00000000E+00  0.00000000E+00  0.00000000E+00
  0.00000000E+00  0.00000000E+00  0.00000000E+00
  0.00000000E+00  0.00000000E+00  0.00000000E+00
  0.00000000E+00  0.00000000E+00  0.00000000E+00
  0.00000000E+00  0.00000000E+00  0.00000000E+00
  0.00000000E+00  0.00000000E+00  0.00000000E+00
  0.00000000E+00  0.00000000E+00  0.00000000E+00
  0.00000000E+00  0.00000000E+00  0.00000000E+00
  0.00000000E+00  0.00000000E+00  0.00000000E+00
  0.00000000E+00  0.00000000E+00  0.00000000E+00
  0.00000000E+00  0.00000000E+00  0.00000000E+00
  0.00000000E+00  0.00000000E+00  0.00000000E+00
  0.00000000E+00  0.00000000E+00  0.00000000E+00
  0.00000000E+00  0.00000000E+00  0.00000000E+00
  0.00000000E+00  0.00000000E+00  0.00000000E+00
  0.00000000E+00  0.00000000E+00  0.00000000E+00
  0.00000000E+00  0.00000000E+00  0.00000000E+00
  0.00000000E+00  0.00000000E+00  0.00000000E+00
  0.00000000E+00  0.00000000E+00  0.00000000E+00
  0.00000000E+00  0.00000000E+00  0.00000000E+00
  0.00000000E+00  0.00000000E+00  0.00000000E+00
  0.00000000E+00  0.00000000E+00  0.00000000E+00
  0.00000000E+00  0.00000000E+00  0.00000000E+00
  0.00000000E+00  0.00000000E+00  0.00000000E+00
  0.00000000E+00  0.00000000E+00  0.00000000E+00
  0.00000000E+00  0.00000000E+00  0.00000000E+00
