Sr22 In14                               
   1.0000000000000000     
    -8.9277141691456432    8.9248331465177291    0.0013957992723847
     8.9290795968226782    0.0000000000000000   -8.9766095122823248
    -8.9277141691456432   -8.9248331465177291    0.0013957992723847
   Sr   In
    22    14
Direct
  0.0000029175107699  0.0000271123989535  0.0000029175107699
  0.3879233030513873  0.2580662108664171  0.1290705856001182
  0.8700266024667798  0.2578884036008873  0.1290558773233741
  0.8709334243323212  0.7421595756970589  0.1299343721623103
  0.5001963515845631  0.0001946744607011  0.1652012079470566
  0.1656330553631307  0.6665012527633181  0.1656330553631307
  0.5010905791263269  0.6666690433471558  0.1657271432427763
  0.1290705856001182  0.2580662108664171  0.3879233030513873
  0.1652012079470566  0.0001946744607011  0.5001963515845631
  0.4999942766282715  0.9999521106069267  0.4999942766282715
  0.8348889511136974  0.9998923098502246  0.4998691033101679
  0.4991289268988197  0.3335474335188167  0.4991289268988197
  0.8340909692032810  0.3332052587948411  0.4988166062833415
  0.1657271432427763  0.6666690433471558  0.5010905791263269
  0.5008153677835736  0.6663827654313650  0.5008153677835736
  0.8709612423918642  0.7419130990310734  0.6120535365762834
  0.4998691033101679  0.9998923098502246  0.8348889511136974
  0.4988166062833415  0.3332052587948411  0.8340909692032810
  0.8343870437968519  0.3334817619053396  0.8343870437968519
  0.1290558773233741  0.2578884036008873  0.8700266024667798
  0.1299343721623103  0.7421595756970589  0.8709334243323212
  0.6120535365762834  0.7419130990310734  0.8709612423918642
  0.6893076069429398  0.3787425113069816  0.0675937978291188
  0.2188055249307581  0.0001650976301235  0.2188055249307581
  0.7800704656758981  0.9999867799475410  0.2199752364143706
  0.2191460203543514  0.4384070237298872  0.2191460203543514
  0.6895172440563044  0.3788147761136571  0.3108068881784618
  0.6891655663348573  0.6212974614345654  0.3105082454504213
  0.9323895450241082  0.6214174029183255  0.3106125522568988
  0.0675937978291188  0.3787425113069816  0.6893076069429398
  0.3108068881784618  0.3788147761136571  0.6895172440563044
  0.3105082454504213  0.6212974614345654  0.6891655663348573
  0.2199752364143706  0.9999867799475410  0.7800704656758981
  0.7810679330460459  0.9994753025719021  0.7810679330460459
  0.7808319298083788  0.5615651247044795  0.7808319298083788
  0.3106125522568988  0.6214174029183255  0.9323895450241082

  0.00000000E+00  0.00000000E+00  0.00000000E+00
  0.00000000E+00  0.00000000E+00  0.00000000E+00
  0.00000000E+00  0.00000000E+00  0.00000000E+00
  0.00000000E+00  0.00000000E+00  0.00000000E+00
  0.00000000E+00  0.00000000E+00  0.00000000E+00
  0.00000000E+00  0.00000000E+00  0.00000000E+00
  0.00000000E+00  0.00000000E+00  0.00000000E+00
  0.00000000E+00  0.00000000E+00  0.00000000E+00
  0.00000000E+00  0.00000000E+00  0.00000000E+00
  0.00000000E+00  0.00000000E+00  0.00000000E+00
  0.00000000E+00  0.00000000E+00  0.00000000E+00
  0.00000000E+00  0.00000000E+00  0.00000000E+00
  0.00000000E+00  0.00000000E+00  0.00000000E+00
  0.00000000E+00  0.00000000E+00  0.00000000E+00
  0.00000000E+00  0.00000000E+00  0.00000000E+00
  0.00000000E+00  0.00000000E+00  0.00000000E+00
  0.00000000E+00  0.00000000E+00  0.00000000E+00
  0.00000000E+00  0.00000000E+00  0.00000000E+00
  0.00000000E+00  0.00000000E+00  0.00000000E+00
  0.00000000E+00  0.00000000E+00  0.00000000E+00
  0.00000000E+00  0.00000000E+00  0.00000000E+00
  0.00000000E+00  0.00000000E+00  0.00000000E+00
  0.00000000E+00  0.00000000E+00  0.00000000E+00
  0.00000000E+00  0.00000000E+00  0.00000000E+00
  0.00000000E+00  0.00000000E+00  0.00000000E+00
  0.00000000E+00  0.00000000E+00  0.00000000E+00
  0.00000000E+00  0.00000000E+00  0.00000000E+00
  0.00000000E+00  0.00000000E+00  0.00000000E+00
  0.00000000E+00  0.00000000E+00  0.00000000E+00
  0.00000000E+00  0.00000000E+00  0.00000000E+00
  0.00000000E+00  0.00000000E+00  0.00000000E+00
  0.00000000E+00  0.00000000E+00  0.00000000E+00
  0.00000000E+00  0.00000000E+00  0.00000000E+00
  0.00000000E+00  0.00000000E+00  0.00000000E+00
  0.00000000E+00  0.00000000E+00  0.00000000E+00
  0.00000000E+00  0.00000000E+00  0.00000000E+00
