In3Cl2                                  
   1.00000000000000     
    -6.2973883619444146    0.0052401347177065   -0.0182811194328815
     3.1537116832767267   -5.4453193214533293    0.0170990915448577
    -3.1265419264424561    1.8048631652796097    8.9342157545993004
   Cl   In
     4     6
Direct
  0.3179373416661306  0.6817221945064560  0.0490176312141415
  0.1818588927112046  0.8180572498282856  0.4509314858650839
  0.8182463880980535  0.1820636529658302  0.5490560751185498
  0.6822301918679017  0.3183850966628512  0.9509729989348017
  0.2469468204747685  0.1376902742007999  0.2491316096357110
  0.8570012920179551  0.3568329217517956  0.2498445195101340
  0.6377744216945160  0.7470048133679796  0.2509960149078196
  0.3621447097751869  0.2529099068735121  0.7490008285167917
  0.1429533623996235  0.6431081534732002  0.7500708684476436
  0.7529065792946597  0.8622257363692825  0.7508779678493198
 
  0.00000000E+00  0.00000000E+00  0.00000000E+00
  0.00000000E+00  0.00000000E+00  0.00000000E+00
  0.00000000E+00  0.00000000E+00  0.00000000E+00
  0.00000000E+00  0.00000000E+00  0.00000000E+00
  0.00000000E+00  0.00000000E+00  0.00000000E+00
  0.00000000E+00  0.00000000E+00  0.00000000E+00
  0.00000000E+00  0.00000000E+00  0.00000000E+00
  0.00000000E+00  0.00000000E+00  0.00000000E+00
  0.00000000E+00  0.00000000E+00  0.00000000E+00
  0.00000000E+00  0.00000000E+00  0.00000000E+00
