Ba2Al3                                  
   1.00000000000000     
    -2.3063707932525261    2.9386617382126428    5.5911692742843702
     2.3063707932525261   -2.9386617382126428    5.5911692742843702
     2.3063707932525261    2.9386617382126428   -5.5911692742843702
   Al   Ba
     3     2
Direct
  0.2566576483177130  0.0000000000000000  0.2566576483177130
  0.0000000000000000  0.5000000000000000  0.5000000000000000
  0.7433423516822870  0.0000000000000000  0.7433423516822870
  0.2970141743572015  0.2970141743572015  0.0000000000000000
  0.7029858256427985  0.7029858256427985  0.0000000000000000
 
  0.00000000E+00  0.00000000E+00  0.00000000E+00
  0.00000000E+00  0.00000000E+00  0.00000000E+00
  0.00000000E+00  0.00000000E+00  0.00000000E+00
  0.00000000E+00  0.00000000E+00  0.00000000E+00
  0.00000000E+00  0.00000000E+00  0.00000000E+00
