Mg4 B4 F20                              
   1.0000000000000000     
     3.8585090039954770   -0.0000000000000000    0.0000000000000003
    -0.0000000000000003    5.5081674271214807    0.0000000000000003
    -0.0000000000000002   -0.0000000000000001   13.0752966840340523
   Mg   B    F 
     4     4    20
Direct
  0.9853009077881438  0.6021634384083825  0.5641344965873856
  0.4853009077881438  0.8978365615916175  0.4358655034126144
  0.0146990922118562  0.1021634384083754  0.9358655034126144
  0.5146990922118562  0.3978365615916246  0.0641344965873785
  0.2484354851526192  0.1074331946722822  0.6552118887477434
  0.7484354851526192  0.3925668053277178  0.3447881112522637
  0.7515645148473808  0.6074331946722822  0.8447881112522566
  0.2515645148473808  0.8925668053277178  0.1552118887477363
  0.9875848444188335  0.8658602099493677  0.4530755703287284
  0.4875848444188335  0.6341397900506323  0.5469244296712716
  0.0124151555811665  0.3658602099493677  0.0469244296712716
  0.5124151555811665  0.1341397900506323  0.9530755703287284
  0.5336734146722080  0.6019286925247371  0.3475977197007936
  0.0336734146722151  0.8980713074752629  0.6524022802991993
  0.4663265853277849  0.1019286925247371  0.1524022802991993
  0.9663265853277920  0.3980713074752629  0.8475977197007936
  0.0265510694721200  0.3153287270213596  0.6493216366999377
  0.5265510694721200  0.1846712729786404  0.3506783633000623
  0.9734489305278800  0.8153287270213596  0.8506783633000623
  0.4734489305278871  0.6846712729786404  0.1493216366999377
  0.4393391224715728  0.1122883264100594  0.7422041560267232
  0.9393391224715657  0.3877116735899406  0.2577958439732768
  0.5606608775284343  0.6122883264100594  0.7577958439732768
  0.0606608775284272  0.8877116735899406  0.2422041560267232
  0.9560744799686489  0.3856638395821861  0.4353311365077133
  0.4560744799686489  0.1143361604178139  0.5646688634922867
  0.0439255200313511  0.8856638395821861  0.0646688634922867
  0.5439255200313511  0.6143361604178139  0.9353311365077133

  0.00000000E+00  0.00000000E+00  0.00000000E+00
  0.00000000E+00  0.00000000E+00  0.00000000E+00
  0.00000000E+00  0.00000000E+00  0.00000000E+00
  0.00000000E+00  0.00000000E+00  0.00000000E+00
  0.00000000E+00  0.00000000E+00  0.00000000E+00
  0.00000000E+00  0.00000000E+00  0.00000000E+00
  0.00000000E+00  0.00000000E+00  0.00000000E+00
  0.00000000E+00  0.00000000E+00  0.00000000E+00
  0.00000000E+00  0.00000000E+00  0.00000000E+00
  0.00000000E+00  0.00000000E+00  0.00000000E+00
  0.00000000E+00  0.00000000E+00  0.00000000E+00
  0.00000000E+00  0.00000000E+00  0.00000000E+00
  0.00000000E+00  0.00000000E+00  0.00000000E+00
  0.00000000E+00  0.00000000E+00  0.00000000E+00
  0.00000000E+00  0.00000000E+00  0.00000000E+00
  0.00000000E+00  0.00000000E+00  0.00000000E+00
  0.00000000E+00  0.00000000E+00  0.00000000E+00
  0.00000000E+00  0.00000000E+00  0.00000000E+00
  0.00000000E+00  0.00000000E+00  0.00000000E+00
  0.00000000E+00  0.00000000E+00  0.00000000E+00
  0.00000000E+00  0.00000000E+00  0.00000000E+00
  0.00000000E+00  0.00000000E+00  0.00000000E+00
  0.00000000E+00  0.00000000E+00  0.00000000E+00
  0.00000000E+00  0.00000000E+00  0.00000000E+00
  0.00000000E+00  0.00000000E+00  0.00000000E+00
  0.00000000E+00  0.00000000E+00  0.00000000E+00
  0.00000000E+00  0.00000000E+00  0.00000000E+00
  0.00000000E+00  0.00000000E+00  0.00000000E+00
