Ba4 Tl4 Cl20                            
   1.0000000000000000     
    10.2514309563634143    0.0000000000000000    0.0000000000000000
     0.0000000000000000    9.3658606242027140   -0.7939579600163080
     0.0000000000000000    3.3616361968385946    9.7754450022121802
   Ba   Tl   Cl
     4     4    20
Direct
  0.8952504614234869  0.3777232806119315  0.3831429211729898
  0.3952504614234869  0.6222767193880685  0.1168570788270102
  0.1047495385765131  0.6222767193880685  0.6168570788270102
  0.6047495385765131  0.3777232806119315  0.8831429211729898
  0.7247255074659265  0.9774563325228698  0.7591888586936903
  0.2247255074659265  0.0225436674771302  0.7408111413063097
  0.2752744925340735  0.0225436674771302  0.2408111413063097
  0.7752744925340735  0.9774563325228698  0.2591888586936903
  0.5936453650313922  0.4916552893532327  0.5445693215489271
  0.0936453650313922  0.5083447106467673  0.9554306784510729
  0.4063546349686149  0.5083447106467673  0.4554306784510729
  0.9063546349686078  0.4916552893532327  0.0445693215489271
  0.7272022960700397  0.0805557817715226  0.4831735238530115
  0.2272022960700397  0.9194442182284774  0.0168264761469885
  0.2727977039299603  0.9194442182284774  0.5168264761469885
  0.7727977039299603  0.0805557817715226  0.9831735238530115
  0.4807113392667191  0.1283489335366994  0.7634349843860804
  0.9807113392667191  0.8716510664633006  0.7365650156139196
  0.5192886607332809  0.8716510664633006  0.2365650156139196
  0.0192886607332809  0.1283489335366994  0.2634349843860804
  0.6148357412825476  0.7205806895449527  0.8787783373741647
  0.1148357412825476  0.2794193104550473  0.6212216626258353
  0.3851642587174524  0.2794193104550473  0.1212216626258282
  0.8851642587174524  0.7205806895449527  0.3787783373741718
  0.3322211097341139  0.5584203395937593  0.8255715857000894
  0.8322211097341139  0.4415796604062407  0.6744284142999106
  0.6677788902658861  0.4415796604062407  0.1744284142999106
  0.1677788902658861  0.5584203395937593  0.3255715857000894

  0.00000000E+00  0.00000000E+00  0.00000000E+00
  0.00000000E+00  0.00000000E+00  0.00000000E+00
  0.00000000E+00  0.00000000E+00  0.00000000E+00
  0.00000000E+00  0.00000000E+00  0.00000000E+00
  0.00000000E+00  0.00000000E+00  0.00000000E+00
  0.00000000E+00  0.00000000E+00  0.00000000E+00
  0.00000000E+00  0.00000000E+00  0.00000000E+00
  0.00000000E+00  0.00000000E+00  0.00000000E+00
  0.00000000E+00  0.00000000E+00  0.00000000E+00
  0.00000000E+00  0.00000000E+00  0.00000000E+00
  0.00000000E+00  0.00000000E+00  0.00000000E+00
  0.00000000E+00  0.00000000E+00  0.00000000E+00
  0.00000000E+00  0.00000000E+00  0.00000000E+00
  0.00000000E+00  0.00000000E+00  0.00000000E+00
  0.00000000E+00  0.00000000E+00  0.00000000E+00
  0.00000000E+00  0.00000000E+00  0.00000000E+00
  0.00000000E+00  0.00000000E+00  0.00000000E+00
  0.00000000E+00  0.00000000E+00  0.00000000E+00
  0.00000000E+00  0.00000000E+00  0.00000000E+00
  0.00000000E+00  0.00000000E+00  0.00000000E+00
  0.00000000E+00  0.00000000E+00  0.00000000E+00
  0.00000000E+00  0.00000000E+00  0.00000000E+00
  0.00000000E+00  0.00000000E+00  0.00000000E+00
  0.00000000E+00  0.00000000E+00  0.00000000E+00
  0.00000000E+00  0.00000000E+00  0.00000000E+00
  0.00000000E+00  0.00000000E+00  0.00000000E+00
  0.00000000E+00  0.00000000E+00  0.00000000E+00
  0.00000000E+00  0.00000000E+00  0.00000000E+00
