Be23 Al30                               
   1.00000000000000     
     0.2558401518678802   -7.4268720156679793    4.4435071638142523
     7.2797781537502022   -5.0080171169060286   -5.6712734543348704
     5.4789289832615085    3.7300908562181867    4.5860052929253277
   Al   Be
    30    23
Direct
  0.1397772823144336  0.6419753790251121  0.0681189896256882
  0.4430508064625513  0.7117687738626941  0.1630740156516524
  0.8325386341089640  0.7767105370298708  0.1093821840119560
  0.1651657631285275  0.3918391123746403  0.2006609866236886
  0.0072311759480286  0.1750902029999111  0.1608600168106165
  0.8340296615062286  0.3780995306192665  0.3137324627275717
  0.3533066726776326  0.9455892774261017  0.0225265691953425
  0.7936692549609532  0.0295125541143051  0.2782942616128139
  0.0076401782323643  0.5675747661635810  0.4036565120878777
  0.5230057465590789  0.4496426841873671  0.1331420821555298
  0.0815115309049759  0.7997165362523404  0.3840076065697176
  0.3229402448250340  0.4037562827933172  0.5071052084899534
  0.6835073272510286  0.8322728297831787  0.4009681867290382
  0.5756159084174115  0.2632182634026208  0.3615722785681470
  0.3204340869133517  0.9262654350146704  0.3423558135257991
  0.6905209692290413  0.1139686110184144  0.6193715708178615
  0.3859128497159858  0.7110687837417373  0.5601967828631160
  0.3439484789243323  0.1379240837214937  0.5886644360435227
  0.7110211320800275  0.6186418944832894  0.6171447144906423
  0.0082796673171259  0.1522148078641052  0.6885288083673231
  0.4829036794569532  0.5323112050419923  0.8101921473269300
  0.9205842380942428  0.4003203603954901  0.6375645058255941
  0.2209940603509182  0.9277665672751567  0.6754330810151288
  0.8105347853156672  0.0462334357326242  0.9407134159893786
  0.1400188694832991  0.5751895203466546  0.7234391782304215
  0.0094883693086700  0.8228345132104167  0.8502295920619503
  0.5636473108895999  0.7865762348722782  0.8587195902729405
  0.2470225135009585  0.2016711484103482  0.9659608770097279
  0.5195339398507954  0.2642463846027923  0.8563802895163590
  0.7788579406327898  0.3888575223927262  0.9223123729010538
  0.2933826328968934  0.4267017020914352  0.9438516230434715
  0.0426193268715949  0.9328194023543546  0.1398807194020080
  0.9033580610747407  0.5389875803771034  0.1157590291789035
  0.5210731522379533  0.1194759369045997  0.1027080824249609
  0.7149525267617562  0.2389605194859570  0.1127954484798437
  0.2898781813872233  0.5875824506026674  0.3265136783811968
  0.5268427948875782  0.0479696643622134  0.3690060510034670
  0.7138585733331411  0.6084342039142570  0.2895060275125374
  0.0636943311552187  0.0433278888844413  0.4119968059394452
  0.3219647552242364  0.1821999576044817  0.2840748152454609
  0.1037559716674110  0.2584390657859217  0.4438188376246046
  0.5327408790396433  0.5126171398252026  0.4312385819439299
  0.9127073637530856  0.7443763925773723  0.5870550490833892
  0.7404886355099123  0.8853138315570845  0.7065277242258858
  0.9200157434352718  0.9475212244803615  0.5690780861781164
  0.1933394146450453  0.3279177325791096  0.7195292634389219
  0.4964507951177879  0.9274836344327824  0.5935861565289287
  0.6393843089039493  0.3701399341483480  0.6344606658819032
  0.2938082181948118  0.7345642143608444  0.8531377253651797
  0.5440508691242982  0.0206276762784583  0.8360019859350984
  0.0488746134237203  0.4326062587920347  0.9208017901615690
  0.0955082273088621  0.0300666482723528  0.9261667216356031
  0.6711575456848564  0.6096097021701397  0.0187965942682382
 
  0.00000000E+00  0.00000000E+00  0.00000000E+00
  0.00000000E+00  0.00000000E+00  0.00000000E+00
  0.00000000E+00  0.00000000E+00  0.00000000E+00
  0.00000000E+00  0.00000000E+00  0.00000000E+00
  0.00000000E+00  0.00000000E+00  0.00000000E+00
  0.00000000E+00  0.00000000E+00  0.00000000E+00
  0.00000000E+00  0.00000000E+00  0.00000000E+00
  0.00000000E+00  0.00000000E+00  0.00000000E+00
  0.00000000E+00  0.00000000E+00  0.00000000E+00
  0.00000000E+00  0.00000000E+00  0.00000000E+00
  0.00000000E+00  0.00000000E+00  0.00000000E+00
  0.00000000E+00  0.00000000E+00  0.00000000E+00
  0.00000000E+00  0.00000000E+00  0.00000000E+00
  0.00000000E+00  0.00000000E+00  0.00000000E+00
  0.00000000E+00  0.00000000E+00  0.00000000E+00
  0.00000000E+00  0.00000000E+00  0.00000000E+00
  0.00000000E+00  0.00000000E+00  0.00000000E+00
  0.00000000E+00  0.00000000E+00  0.00000000E+00
  0.00000000E+00  0.00000000E+00  0.00000000E+00
  0.00000000E+00  0.00000000E+00  0.00000000E+00
  0.00000000E+00  0.00000000E+00  0.00000000E+00
  0.00000000E+00  0.00000000E+00  0.00000000E+00
  0.00000000E+00  0.00000000E+00  0.00000000E+00
  0.00000000E+00  0.00000000E+00  0.00000000E+00
  0.00000000E+00  0.00000000E+00  0.00000000E+00
  0.00000000E+00  0.00000000E+00  0.00000000E+00
  0.00000000E+00  0.00000000E+00  0.00000000E+00
  0.00000000E+00  0.00000000E+00  0.00000000E+00
  0.00000000E+00  0.00000000E+00  0.00000000E+00
  0.00000000E+00  0.00000000E+00  0.00000000E+00
  0.00000000E+00  0.00000000E+00  0.00000000E+00
  0.00000000E+00  0.00000000E+00  0.00000000E+00
  0.00000000E+00  0.00000000E+00  0.00000000E+00
  0.00000000E+00  0.00000000E+00  0.00000000E+00
  0.00000000E+00  0.00000000E+00  0.00000000E+00
  0.00000000E+00  0.00000000E+00  0.00000000E+00
  0.00000000E+00  0.00000000E+00  0.00000000E+00
  0.00000000E+00  0.00000000E+00  0.00000000E+00
  0.00000000E+00  0.00000000E+00  0.00000000E+00
  0.00000000E+00  0.00000000E+00  0.00000000E+00
  0.00000000E+00  0.00000000E+00  0.00000000E+00
  0.00000000E+00  0.00000000E+00  0.00000000E+00
  0.00000000E+00  0.00000000E+00  0.00000000E+00
  0.00000000E+00  0.00000000E+00  0.00000000E+00
  0.00000000E+00  0.00000000E+00  0.00000000E+00
  0.00000000E+00  0.00000000E+00  0.00000000E+00
  0.00000000E+00  0.00000000E+00  0.00000000E+00
  0.00000000E+00  0.00000000E+00  0.00000000E+00
  0.00000000E+00  0.00000000E+00  0.00000000E+00
  0.00000000E+00  0.00000000E+00  0.00000000E+00
  0.00000000E+00  0.00000000E+00  0.00000000E+00
  0.00000000E+00  0.00000000E+00  0.00000000E+00
  0.00000000E+00  0.00000000E+00  0.00000000E+00
