B8 Cl14                                 
   1.00000000000000     
     3.1598234836664107  -10.0229455870635835   -0.5327495376361420
    -3.1598234836664103  -10.0229455870635835   -0.5327495376361421
    -0.0000000000000002    5.5440208719434514  -12.5373077831950823
   Cl   B 
    14     8
Direct
  0.4094061975980878  0.4094061975980878  0.2111085691084611
  0.9470951405392611  0.4713734672769831  0.1088434209170330
  0.4713734672769831  0.9470951405392611  0.1088434209170330
  0.9923790512304151  0.9923790512304151  0.0870313380028236
  0.6063009049164236  0.0810430012369139  0.4281249953169848
  0.0810430012369139  0.6063009049164236  0.4281249953169848
  0.7061741109217010  0.7061741109217010  0.3941068174155049
  0.4375742740655681  0.4375742740655681  0.7044812639273417
  0.8577629125927757  0.3604945333909910  0.6004842355652329
  0.3604945333909910  0.8577629125927757  0.6004842355652329
  0.0916011321761161  0.0916011321761161  0.7916599166958562
  0.5207647172065890  0.0472402847298170  0.7952151342722900
  0.0472402847298170  0.5207647172065890  0.7952151342722900
  0.5770352693484568  0.5770352693484568  0.9776986598901232
  0.9700669894805785  0.9700669894805785  0.9531469329304869
  0.6647680402986040  0.6647680402986040  0.0648615832812354
  0.5011414648585344  0.5011414648585344  0.2551868160681039
  0.1455951057181366  0.1455951057181366  0.7159245001217442
  0.5723998703441850  0.5723998703441850  0.6300959578694574
  0.7971977593647424  0.7971977593647424  0.4166907370926367
  0.5081205662089658  0.5081205662089658  0.6661734257009826
  0.2352652064961447  0.2352652064961447  0.7661979097521368
 
  0.00000000E+00  0.00000000E+00  0.00000000E+00
  0.00000000E+00  0.00000000E+00  0.00000000E+00
  0.00000000E+00  0.00000000E+00  0.00000000E+00
  0.00000000E+00  0.00000000E+00  0.00000000E+00
  0.00000000E+00  0.00000000E+00  0.00000000E+00
  0.00000000E+00  0.00000000E+00  0.00000000E+00
  0.00000000E+00  0.00000000E+00  0.00000000E+00
  0.00000000E+00  0.00000000E+00  0.00000000E+00
  0.00000000E+00  0.00000000E+00  0.00000000E+00
  0.00000000E+00  0.00000000E+00  0.00000000E+00
  0.00000000E+00  0.00000000E+00  0.00000000E+00
  0.00000000E+00  0.00000000E+00  0.00000000E+00
  0.00000000E+00  0.00000000E+00  0.00000000E+00
  0.00000000E+00  0.00000000E+00  0.00000000E+00
  0.00000000E+00  0.00000000E+00  0.00000000E+00
  0.00000000E+00  0.00000000E+00  0.00000000E+00
  0.00000000E+00  0.00000000E+00  0.00000000E+00
  0.00000000E+00  0.00000000E+00  0.00000000E+00
  0.00000000E+00  0.00000000E+00  0.00000000E+00
  0.00000000E+00  0.00000000E+00  0.00000000E+00
  0.00000000E+00  0.00000000E+00  0.00000000E+00
  0.00000000E+00  0.00000000E+00  0.00000000E+00
