Mg1 Al2 I6                              
   1.00000000000000     
     4.0653179368649335    2.4666273601338466    8.1233607726992254
    -4.0653179368649335    2.4666273601338466    8.1233607726992254
     0.0000000000000000   -4.5576147562509162    7.8145227024359869
   Mg   I    Al
     1     6     2
Direct
  0.0000000000000000  0.0000000000000000  0.0000000000000000
  0.7688818442916414  0.7688818442916414  0.2272873148175663
  0.7441666130869891  0.2291809953240929  0.2582133695946993
  0.2291809953240929  0.7441666130869891  0.2582133695946993
  0.2311181557083586  0.2311181557083586  0.7727126851824337
  0.7708190046759071  0.2558333869130038  0.7417866304053007
  0.2558333869130038  0.7708190046759071  0.7417866304053007
  0.3575632948025813  0.3575632948025813  0.3717347260316259
  0.6424367051974187  0.6424367051974187  0.6282652739683741
 
  0.00000000E+00  0.00000000E+00  0.00000000E+00
  0.00000000E+00  0.00000000E+00  0.00000000E+00
  0.00000000E+00  0.00000000E+00  0.00000000E+00
  0.00000000E+00  0.00000000E+00  0.00000000E+00
  0.00000000E+00  0.00000000E+00  0.00000000E+00
  0.00000000E+00  0.00000000E+00  0.00000000E+00
  0.00000000E+00  0.00000000E+00  0.00000000E+00
  0.00000000E+00  0.00000000E+00  0.00000000E+00
  0.00000000E+00  0.00000000E+00  0.00000000E+00
