BeAl                                    
   1.00000000000000     
     1.8780033628250583    1.8780033628250581    0.0000000000000000
     0.0000000000000000    3.7560067256501162    0.0000000000000000
     0.0000000000000000    0.0000000000000000    3.5809752695551413
   Al   Be
     1     1
Direct
  0.0000000000000000  0.0000000000000000  0.0000000000000000
  0.0000000000000000  0.5000000000000000  0.5000000000000000
 
  0.00000000E+00  0.00000000E+00  0.00000000E+00
  0.00000000E+00  0.00000000E+00  0.00000000E+00
