Sr8 In8 I40                             
   1.0000000000000000     
   -10.3343756114058429   10.3343571246397126    7.3918235421618608
    10.3343756114058429  -10.3343571246397126    7.3918235421618608
    10.3343571246397126   10.3343756114058447   -7.3918235421618608
   Sr   In   I 
     8     8    40
Direct
  0.9690200464613383  0.1764198537649477  0.2540627534812359
  0.9223581002836596  0.7149572929800385  0.7459372465187641
  0.1764198537649477  0.9223581002836596  0.2074008073036282
  0.7149572929800385  0.9690200464613383  0.7925991926963718
  0.8607908628700756  0.6106488860921928  0.2716699849536326
  0.3389779011385627  0.5891208779165069  0.7283300150463674
  0.6106488860921928  0.3389779011385627  0.7498570232221269
  0.5891208779165069  0.8607908628700756  0.2501429767778731
  0.6847731777625441  0.6847731777625441  0.0000000000000000
  0.7033684611289601  0.2734356077316846  0.9773893094350967
  0.2960462982965879  0.7259791516939060  0.0226106905649104
  0.2734356077316846  0.2960462982965879  0.5700671466026819
  0.7259791516939060  0.7033684611289601  0.4299328533973181
  0.0996102373815191  0.0996102373815191  0.0000000000000000
  0.0652025369063551  0.5652025369063622  0.5000000000000000
  0.5652025369063622  0.0652025369063551  0.5000000000000000
  0.4565676515726267  0.8332629817390469  0.7421821256598236
  0.0910808560791949  0.7143855259127960  0.2578178743401622
  0.8332629817390469  0.0910808560791949  0.3766963301664106
  0.7143855259127960  0.4565676515726267  0.6233036698335894
  0.7462941622666435  0.2462941622666435  0.5000000000000000
  0.2462941622666435  0.7462941622666435  0.5000000000000000
  0.4988113287088254  0.4988113287088254  0.0000000000000000
  0.4924175440751100  0.1855866507823194  0.8727995267006037
  0.3127871240817086  0.6196190173745748  0.1272004732993963
  0.1855866507823194  0.3127871240817086  0.6931681067071622
  0.6196190173745748  0.4924175440751100  0.3068318932928378
  0.7280390864131263  0.3431442719141558  0.1553250299785631
  0.1878192419356424  0.5727140564346058  0.8446749700214298
  0.3431442719141558  0.1878192419356424  0.6151051855010152
  0.5727140564346058  0.7280390864131263  0.3848948144989848
  0.5113321449930126  0.9266009619687381  0.0864845262464726
  0.8401164357222726  0.4248476187465187  0.9135154737535203
  0.9266009619687381  0.8401164357222726  0.4152688169757255
  0.4248476187465187  0.5113321449930126  0.5847311830242674
  0.9129084615742471  0.9129084615742471  0.0000000000000000
  0.0269405090370540  0.4072123935354170  0.3145785258807905
  0.0926348676546311  0.7123619831562849  0.6854214741192024
  0.4072123935354170  0.0926348676546311  0.3802728844983534
  0.7123619831562849  0.0269405090370540  0.6197271155016466
  0.2694985740284324  0.1360065226006881  0.1470567271443812
  0.9889497954563282  0.1224428468840202  0.8529432728556259
  0.1360065226006881  0.9889497954563282  0.8665079485722913
  0.1224428468840202  0.2694985740284324  0.1334920514277016
  0.4998495810064938  0.0789943013382128  0.6425195618039936
  0.4364757395342096  0.8573300192025073  0.3574804381959993
  0.0789943013382128  0.4364757395342096  0.5791447203317190
  0.8573300192025073  0.4998495810064938  0.4208552796682739
  0.5936991357266663  0.7599135913706832  0.8913482122120797
  0.8685653791585963  0.7023509235145653  0.1086517877879203
  0.7599135913706832  0.8685653791585963  0.1662144556439884
  0.7023509235145653  0.5936991357266663  0.8337855443559974
  0.1633563953718991  0.7816985845279874  0.0173391184407734
  0.7643594660871855  0.1460182769311302  0.9826608815592195
  0.7816985845279874  0.7643594660871855  0.6183421891560812
  0.1460182769311302  0.1633563953718991  0.3816578108439117

  0.00000000E+00  0.00000000E+00  0.00000000E+00
  0.00000000E+00  0.00000000E+00  0.00000000E+00
  0.00000000E+00  0.00000000E+00  0.00000000E+00
  0.00000000E+00  0.00000000E+00  0.00000000E+00
  0.00000000E+00  0.00000000E+00  0.00000000E+00
  0.00000000E+00  0.00000000E+00  0.00000000E+00
  0.00000000E+00  0.00000000E+00  0.00000000E+00
  0.00000000E+00  0.00000000E+00  0.00000000E+00
  0.00000000E+00  0.00000000E+00  0.00000000E+00
  0.00000000E+00  0.00000000E+00  0.00000000E+00
  0.00000000E+00  0.00000000E+00  0.00000000E+00
  0.00000000E+00  0.00000000E+00  0.00000000E+00
  0.00000000E+00  0.00000000E+00  0.00000000E+00
  0.00000000E+00  0.00000000E+00  0.00000000E+00
  0.00000000E+00  0.00000000E+00  0.00000000E+00
  0.00000000E+00  0.00000000E+00  0.00000000E+00
  0.00000000E+00  0.00000000E+00  0.00000000E+00
  0.00000000E+00  0.00000000E+00  0.00000000E+00
  0.00000000E+00  0.00000000E+00  0.00000000E+00
  0.00000000E+00  0.00000000E+00  0.00000000E+00
  0.00000000E+00  0.00000000E+00  0.00000000E+00
  0.00000000E+00  0.00000000E+00  0.00000000E+00
  0.00000000E+00  0.00000000E+00  0.00000000E+00
  0.00000000E+00  0.00000000E+00  0.00000000E+00
  0.00000000E+00  0.00000000E+00  0.00000000E+00
  0.00000000E+00  0.00000000E+00  0.00000000E+00
  0.00000000E+00  0.00000000E+00  0.00000000E+00
  0.00000000E+00  0.00000000E+00  0.00000000E+00
  0.00000000E+00  0.00000000E+00  0.00000000E+00
  0.00000000E+00  0.00000000E+00  0.00000000E+00
  0.00000000E+00  0.00000000E+00  0.00000000E+00
  0.00000000E+00  0.00000000E+00  0.00000000E+00
  0.00000000E+00  0.00000000E+00  0.00000000E+00
  0.00000000E+00  0.00000000E+00  0.00000000E+00
  0.00000000E+00  0.00000000E+00  0.00000000E+00
  0.00000000E+00  0.00000000E+00  0.00000000E+00
  0.00000000E+00  0.00000000E+00  0.00000000E+00
  0.00000000E+00  0.00000000E+00  0.00000000E+00
  0.00000000E+00  0.00000000E+00  0.00000000E+00
  0.00000000E+00  0.00000000E+00  0.00000000E+00
  0.00000000E+00  0.00000000E+00  0.00000000E+00
  0.00000000E+00  0.00000000E+00  0.00000000E+00
  0.00000000E+00  0.00000000E+00  0.00000000E+00
  0.00000000E+00  0.00000000E+00  0.00000000E+00
  0.00000000E+00  0.00000000E+00  0.00000000E+00
  0.00000000E+00  0.00000000E+00  0.00000000E+00
  0.00000000E+00  0.00000000E+00  0.00000000E+00
  0.00000000E+00  0.00000000E+00  0.00000000E+00
  0.00000000E+00  0.00000000E+00  0.00000000E+00
  0.00000000E+00  0.00000000E+00  0.00000000E+00
  0.00000000E+00  0.00000000E+00  0.00000000E+00
  0.00000000E+00  0.00000000E+00  0.00000000E+00
  0.00000000E+00  0.00000000E+00  0.00000000E+00
  0.00000000E+00  0.00000000E+00  0.00000000E+00
  0.00000000E+00  0.00000000E+00  0.00000000E+00
  0.00000000E+00  0.00000000E+00  0.00000000E+00
