Ba40 Al4                                
   1.00000000000000     
     0.0000000000000000   10.9471665043396680   10.9471665043396680
    10.9471665043396680    0.0000000000000000   10.9471665043396680
    10.9471665043396680   10.9471665043396680    0.0000000000000000
   Ba   Al
    40     4
Direct
  0.6177997347393784  0.6177997347393784  0.8822002652606216
  0.3677997347393784  0.6322002652606216  0.6322002652606216
  0.6322002652606216  0.3677997347393784  0.3677997347393784
  0.3677997347393784  0.3677997347393784  0.6322002652606216
  0.3677997347393784  0.6322002652606216  0.3677997347393784
  0.6322002652606216  0.3677997347393784  0.6322002652606216
  0.8822002652606216  0.6177997347393784  0.8822002652606216
  0.8822002652606216  0.6177997347393784  0.6177997347393784
  0.6177997347393784  0.8822002652606216  0.8822002652606216
  0.6177997347393784  0.8822002652606216  0.6177997347393784
  0.6322002652606216  0.6322002652606216  0.3677997347393784
  0.8822002652606216  0.8822002652606216  0.6177997347393784
  0.7919335891066481  0.0700764868828756  0.3460553349038236
  0.4580664108933519  0.4580664108933519  0.1799235131171244
  0.1799235131171244  0.9039446650961764  0.4580664108933519
  0.4580664108933519  0.9039446650961764  0.4580664108933519
  0.9039446650961764  0.4580664108933519  0.1799235131171244
  0.9039446650961764  0.4580664108933519  0.4580664108933519
  0.1799235131171244  0.4580664108933519  0.4580664108933519
  0.3460553349038236  0.0700764868828756  0.7919335891066481
  0.7919335891066481  0.0700764868828756  0.7919335891066481
  0.0700764868828756  0.7919335891066481  0.3460553349038236
  0.7919335891066481  0.7919335891066481  0.3460553349038236
  0.0700764868828756  0.3460553349038236  0.7919335891066481
  0.3460553349038236  0.7919335891066481  0.0700764868828756
  0.7919335891066481  0.7919335891066481  0.0700764868828756
  0.7919335891066481  0.3460553349038236  0.7919335891066481
  0.1799235131171244  0.4580664108933519  0.9039446650961764
  0.4580664108933519  0.4580664108933519  0.9039446650961764
  0.4580664108933519  0.9039446650961764  0.1799235131171244
  0.4580664108933519  0.1799235131171244  0.9039446650961764
  0.9039446650961764  0.1799235131171244  0.4580664108933519
  0.4580664108933519  0.1799235131171244  0.4580664108933519
  0.3460553349038236  0.7919335891066481  0.7919335891066481
  0.0700764868828756  0.7919335891066481  0.7919335891066481
  0.7919335891066481  0.3460553349038236  0.0700764868828756
  0.1250000000000000  0.1250000000000000  0.1250000000000000
  0.6250000000000000  0.1250000000000000  0.1250000000000000
  0.1250000000000000  0.1250000000000000  0.6250000000000000
  0.1250000000000000  0.6250000000000000  0.1250000000000000
  0.6250000000000000  0.6250000000000000  0.6250000000000000
  0.1250000000000000  0.6250000000000000  0.6250000000000000
  0.6250000000000000  0.6250000000000000  0.1250000000000000
  0.6250000000000000  0.1250000000000000  0.6250000000000000
 
  0.00000000E+00  0.00000000E+00  0.00000000E+00
  0.00000000E+00  0.00000000E+00  0.00000000E+00
  0.00000000E+00  0.00000000E+00  0.00000000E+00
  0.00000000E+00  0.00000000E+00  0.00000000E+00
  0.00000000E+00  0.00000000E+00  0.00000000E+00
  0.00000000E+00  0.00000000E+00  0.00000000E+00
  0.00000000E+00  0.00000000E+00  0.00000000E+00
  0.00000000E+00  0.00000000E+00  0.00000000E+00
  0.00000000E+00  0.00000000E+00  0.00000000E+00
  0.00000000E+00  0.00000000E+00  0.00000000E+00
  0.00000000E+00  0.00000000E+00  0.00000000E+00
  0.00000000E+00  0.00000000E+00  0.00000000E+00
  0.00000000E+00  0.00000000E+00  0.00000000E+00
  0.00000000E+00  0.00000000E+00  0.00000000E+00
  0.00000000E+00  0.00000000E+00  0.00000000E+00
  0.00000000E+00  0.00000000E+00  0.00000000E+00
  0.00000000E+00  0.00000000E+00  0.00000000E+00
  0.00000000E+00  0.00000000E+00  0.00000000E+00
  0.00000000E+00  0.00000000E+00  0.00000000E+00
  0.00000000E+00  0.00000000E+00  0.00000000E+00
  0.00000000E+00  0.00000000E+00  0.00000000E+00
  0.00000000E+00  0.00000000E+00  0.00000000E+00
  0.00000000E+00  0.00000000E+00  0.00000000E+00
  0.00000000E+00  0.00000000E+00  0.00000000E+00
  0.00000000E+00  0.00000000E+00  0.00000000E+00
  0.00000000E+00  0.00000000E+00  0.00000000E+00
  0.00000000E+00  0.00000000E+00  0.00000000E+00
  0.00000000E+00  0.00000000E+00  0.00000000E+00
  0.00000000E+00  0.00000000E+00  0.00000000E+00
  0.00000000E+00  0.00000000E+00  0.00000000E+00
  0.00000000E+00  0.00000000E+00  0.00000000E+00
  0.00000000E+00  0.00000000E+00  0.00000000E+00
  0.00000000E+00  0.00000000E+00  0.00000000E+00
  0.00000000E+00  0.00000000E+00  0.00000000E+00
  0.00000000E+00  0.00000000E+00  0.00000000E+00
  0.00000000E+00  0.00000000E+00  0.00000000E+00
  0.00000000E+00  0.00000000E+00  0.00000000E+00
  0.00000000E+00  0.00000000E+00  0.00000000E+00
  0.00000000E+00  0.00000000E+00  0.00000000E+00
  0.00000000E+00  0.00000000E+00  0.00000000E+00
  0.00000000E+00  0.00000000E+00  0.00000000E+00
  0.00000000E+00  0.00000000E+00  0.00000000E+00
  0.00000000E+00  0.00000000E+00  0.00000000E+00
  0.00000000E+00  0.00000000E+00  0.00000000E+00
