Ca8 Ga6                                 
   1.00000000000000     
     6.6330037678640537    7.6579451519703090    0.0000000000000000
    -3.3157368370820826    9.5717252516960976    0.0000000000000000
     0.0000000000000000    0.0000000000000000    4.5871829075976365
   Ga   Ca
     6     8
Direct
  0.1811956228392972  0.2220675509280383  0.0000000000000000
  0.3110048374988565  0.6097864473961110  0.0000000000000000
  0.7934458902177965  0.7395850792001823  0.0000000000000000
  0.3427210466361998  0.1590171469647075  0.5000000000000000
  0.7305540593008999  0.6410142544357740  0.5000000000000000
  0.2124694980699715  0.7712668412024044  0.5000000000000000
  0.4704799082993816  0.2511526733086384  0.0000000000000000
  0.8225628303650225  0.4211408947389401  0.0000000000000000
  0.4285993657520066  0.8571312022626643  0.0000000000000000
  0.9926156144005844  0.8990148994054508  0.0000000000000000
  0.0536020257936372  0.1297267555288002  0.5000000000000000
  0.5308970129975634  0.4822096098306048  0.5000000000000000
  0.0952007062215756  0.5237767823921686  0.5000000000000000
  0.7012015816072363  0.9595098624054970  0.5000000000000000
 
  0.00000000E+00  0.00000000E+00  0.00000000E+00
  0.00000000E+00  0.00000000E+00  0.00000000E+00
  0.00000000E+00  0.00000000E+00  0.00000000E+00
  0.00000000E+00  0.00000000E+00  0.00000000E+00
  0.00000000E+00  0.00000000E+00  0.00000000E+00
  0.00000000E+00  0.00000000E+00  0.00000000E+00
  0.00000000E+00  0.00000000E+00  0.00000000E+00
  0.00000000E+00  0.00000000E+00  0.00000000E+00
  0.00000000E+00  0.00000000E+00  0.00000000E+00
  0.00000000E+00  0.00000000E+00  0.00000000E+00
  0.00000000E+00  0.00000000E+00  0.00000000E+00
  0.00000000E+00  0.00000000E+00  0.00000000E+00
  0.00000000E+00  0.00000000E+00  0.00000000E+00
  0.00000000E+00  0.00000000E+00  0.00000000E+00
