Ca8 Al12                                
   1.00000000000000     
     6.9655338744056072    0.0000000000000009    0.0000000167077679
     0.0000000000000009    6.9655338744056072    0.0000000167077679
    -3.4827663706640020   -3.4827663706640020   10.1096771124474021
   Ca   Al
     8    12
Direct
  0.2952987800270606  0.5123335097554929  0.5905975600568496
  0.2952987800267977  0.0782640502983583  0.5905975600563167
  0.3282640502983583  0.0452987800267977  0.0905975600563167
  0.9547012199732023  0.6717359497016417  0.9094024399436833
  0.9547012199729394  0.2376664902445071  0.9094024399431504
  0.7623335097554929  0.0452987800270606  0.0905975600568496
  0.9217359497016417  0.7047012199732023  0.4094024399436833
  0.4876664902445071  0.7047012199729394  0.4094024399431504
  0.8027241689109417  0.1095091141056983  0.6054483378215565
  0.8027241689074813  0.4959402237127222  0.6054483378146429
  0.7459402237127222  0.5527241689074813  0.1054483378146429
  0.4472758310925187  0.2540597762872778  0.8945516621853571
  0.4472758310890583  0.6404908858943017  0.8945516621784435
  0.3595091141056983  0.5527241689109417  0.1054483378215565
  0.5040597762872778  0.1972758310925187  0.3945516621853571
  0.8904908858943017  0.1972758310890654  0.3945516621784435
  0.1250000000000000  0.3750000000000000  0.2500000000000000
  0.1250000000000000  0.8750000000000000  0.2500000000000000
  0.1250000000000000  0.8750000000000000  0.7500000000000000
  0.6250000000000000  0.8750000000000000  0.7500000000000000
 
  0.00000000E+00  0.00000000E+00  0.00000000E+00
  0.00000000E+00  0.00000000E+00  0.00000000E+00
  0.00000000E+00  0.00000000E+00  0.00000000E+00
  0.00000000E+00  0.00000000E+00  0.00000000E+00
  0.00000000E+00  0.00000000E+00  0.00000000E+00
  0.00000000E+00  0.00000000E+00  0.00000000E+00
  0.00000000E+00  0.00000000E+00  0.00000000E+00
  0.00000000E+00  0.00000000E+00  0.00000000E+00
  0.00000000E+00  0.00000000E+00  0.00000000E+00
  0.00000000E+00  0.00000000E+00  0.00000000E+00
  0.00000000E+00  0.00000000E+00  0.00000000E+00
  0.00000000E+00  0.00000000E+00  0.00000000E+00
  0.00000000E+00  0.00000000E+00  0.00000000E+00
  0.00000000E+00  0.00000000E+00  0.00000000E+00
  0.00000000E+00  0.00000000E+00  0.00000000E+00
  0.00000000E+00  0.00000000E+00  0.00000000E+00
  0.00000000E+00  0.00000000E+00  0.00000000E+00
  0.00000000E+00  0.00000000E+00  0.00000000E+00
  0.00000000E+00  0.00000000E+00  0.00000000E+00
  0.00000000E+00  0.00000000E+00  0.00000000E+00
