Be1 Ga13                                
   1.00000000000000     
     5.8138335153057712   -4.1216284353271604   -0.0760655026688394
     5.8138335153057721    4.1216284353271604   -0.0760655026688394
    -1.2060310890552370    0.0000000000000000    5.3916369907481316
   Be   Ga
     1    13
Direct
  0.9999938654042992  0.9999938654042992  0.9999204034626175
  0.7760188583466459  0.7760188583466459  0.0963236013918731
  0.6377687016790006  0.2082412497359272  0.1766469069189185
  0.2082412497359272  0.6377687016790006  0.1766469069189185
  0.0014060135916836  0.3398992111858661  0.3200422278194637
  0.3398992111858661  0.0014060135916836  0.3200422278194637
  0.6133189257651992  0.6133189257651992  0.4079992000220756
  0.9999859094269468  0.9999859094269468  0.4999917993342322
  0.3866699373530409  0.3866699373530409  0.5919963251907490
  0.6600615421928779  0.9985764686969318  0.6799694678122776
  0.9985764686969318  0.6600615421928779  0.6799694678122776
  0.7917374150355627  0.3622312973533468  0.8233721987760987
  0.3622312973533468  0.7917374150355627  0.8233721987760987
  0.2239796042326816  0.2239796042326816  0.9037070679449144
 
  0.00000000E+00  0.00000000E+00  0.00000000E+00
  0.00000000E+00  0.00000000E+00  0.00000000E+00
  0.00000000E+00  0.00000000E+00  0.00000000E+00
  0.00000000E+00  0.00000000E+00  0.00000000E+00
  0.00000000E+00  0.00000000E+00  0.00000000E+00
  0.00000000E+00  0.00000000E+00  0.00000000E+00
  0.00000000E+00  0.00000000E+00  0.00000000E+00
  0.00000000E+00  0.00000000E+00  0.00000000E+00
  0.00000000E+00  0.00000000E+00  0.00000000E+00
  0.00000000E+00  0.00000000E+00  0.00000000E+00
  0.00000000E+00  0.00000000E+00  0.00000000E+00
  0.00000000E+00  0.00000000E+00  0.00000000E+00
  0.00000000E+00  0.00000000E+00  0.00000000E+00
  0.00000000E+00  0.00000000E+00  0.00000000E+00
