Mg4 B10 Cl2                             
   1.00000000000000     
     6.9156915234735052   -1.6731889171067502   -1.7012404166318558
    -1.2614622325185356    6.9439052455935766    1.6864776183915560
     2.0841095062586876    3.3293438539816052    4.8978606478850653
   Cl   Mg   B 
     2     4    10
Direct
  0.6484485876887760  0.4999405307660894  0.7708678887992235
  0.1967268424872586  0.1711808081026760  0.6420268985022730
  0.1133952642654350  0.1678448881145869  0.2480084079493210
  0.8795160154049881  0.3055892491969914  0.8419528569115897
  0.2847331937532260  0.7943069100799462  0.9278552096078272
  0.5925985308959980  0.6507048683007923  0.2456484357542621
  0.0043046337401620  0.9389979614531896  0.0539516201438559
  0.5160846693937913  0.6327081243860491  0.8535853388874557
  0.3919195659232670  0.7267115987049309  0.6223519554847243
  0.8930739420242020  0.3275490754873616  0.3022266702145586
  0.6904732017294677  0.2590561768438349  0.5236550776828111
  0.1545909735006248  0.8534374492884425  0.2584127040083288
  0.8919266928277594  0.5877034515655097  0.2489983765848081
  0.3577711549011724  0.7972931185192849  0.3146263635903139
  0.2172150373986881  0.8017467017364908  0.5241376590929576
  0.6671216940651732  0.9851290874538066  0.6216945367856894
 
  0.00000000E+00  0.00000000E+00  0.00000000E+00
  0.00000000E+00  0.00000000E+00  0.00000000E+00
  0.00000000E+00  0.00000000E+00  0.00000000E+00
  0.00000000E+00  0.00000000E+00  0.00000000E+00
  0.00000000E+00  0.00000000E+00  0.00000000E+00
  0.00000000E+00  0.00000000E+00  0.00000000E+00
  0.00000000E+00  0.00000000E+00  0.00000000E+00
  0.00000000E+00  0.00000000E+00  0.00000000E+00
  0.00000000E+00  0.00000000E+00  0.00000000E+00
  0.00000000E+00  0.00000000E+00  0.00000000E+00
  0.00000000E+00  0.00000000E+00  0.00000000E+00
  0.00000000E+00  0.00000000E+00  0.00000000E+00
  0.00000000E+00  0.00000000E+00  0.00000000E+00
  0.00000000E+00  0.00000000E+00  0.00000000E+00
  0.00000000E+00  0.00000000E+00  0.00000000E+00
  0.00000000E+00  0.00000000E+00  0.00000000E+00
