InF                                     
   1.00000000000000     
     1.5731022142595736   -5.8044902747894724    0.0000000000000000
     1.5731022142595736    5.8044902747894724    0.0000000000000000
     0.0000000000000000    0.0000000000000000    4.0964485951436425
   F    In
     2     2
Direct
  0.8118803837893722  0.1881196162106207  0.2933064803570886
  0.1881196162106207  0.8118803837893722  0.7933064803570886
  0.6157492356459215  0.3842507643540785  0.2226935196429096
  0.3842507643540785  0.6157492356459215  0.7226935196429096
 
  0.00000000E+00  0.00000000E+00  0.00000000E+00
  0.00000000E+00  0.00000000E+00  0.00000000E+00
  0.00000000E+00  0.00000000E+00  0.00000000E+00
  0.00000000E+00  0.00000000E+00  0.00000000E+00
