Ba4 Al4 F20                             
   1.0000000000000000     
     0.0000000000000000    5.2682313611255962    0.0047016374091407
     9.4408361217750318    0.0000000000000000    0.0000000000000000
     0.0000000000000000   -0.1415124513003842   -7.3442754560065593
   Ba   Al   F 
     4     4    20
Direct
  0.5120915419370107  0.3365065426818532  0.3585648592673039
  0.4879084580629893  0.8365065426818532  0.6414351407326961
  0.9851458787228609  0.9977736262593879  0.1152563459608587
  0.0148541212771391  0.4977736262593879  0.8847436540391413
  0.4762049833697688  0.7371294070496361  0.1315730272164828
  0.5237950166302312  0.2371294070496361  0.8684269727835172
  0.9833667826348602  0.6287485668817467  0.4252749697784779
  0.0166332173651398  0.1287485668817467  0.5747250302215221
  0.2422703618375763  0.0330791854538433  0.4444812960601610
  0.2458519546340980  0.5427891466659105  0.5357745338107662
  0.7541480453659020  0.0427891466659105  0.4642254661892267
  0.7256174115915641  0.7372678936056758  0.9677193567546780
  0.9535339667587337  0.5123922644451682  0.2383699277052926
  0.4867475643626591  0.9243179095468292  0.1560717953601198
  0.7930124769455915  0.2482277254105156  0.6975156360701362
  0.7138589849621582  0.7367504932713373  0.3232178071171035
  0.0464660332412663  0.0123922644451682  0.7616300722947074
  0.9881328984618989  0.7581271455117076  0.6052393759062085
  0.5132524356373480  0.4243179095468292  0.8439282046398802
  0.7577296381624237  0.5330791854538504  0.5555187039398390
  0.5571242247821289  0.0526157460873833  0.8562005680660079
  0.7580014442948624  0.2518733271289619  0.0494541918173894
  0.0118671015381011  0.2581271455117076  0.3947606240937844
  0.2069875230544085  0.7482277254105085  0.3024843639298638
  0.2743825884084288  0.2372678936056758  0.0322806432453149
  0.2419985557051305  0.7518733271289619  0.9505458081826106
  0.2861410150378418  0.2367504932713373  0.6767821928828965
  0.4428757752178711  0.5526157460873833  0.1437994319339921

  0.00000000E+00  0.00000000E+00  0.00000000E+00
  0.00000000E+00  0.00000000E+00  0.00000000E+00
  0.00000000E+00  0.00000000E+00  0.00000000E+00
  0.00000000E+00  0.00000000E+00  0.00000000E+00
  0.00000000E+00  0.00000000E+00  0.00000000E+00
  0.00000000E+00  0.00000000E+00  0.00000000E+00
  0.00000000E+00  0.00000000E+00  0.00000000E+00
  0.00000000E+00  0.00000000E+00  0.00000000E+00
  0.00000000E+00  0.00000000E+00  0.00000000E+00
  0.00000000E+00  0.00000000E+00  0.00000000E+00
  0.00000000E+00  0.00000000E+00  0.00000000E+00
  0.00000000E+00  0.00000000E+00  0.00000000E+00
  0.00000000E+00  0.00000000E+00  0.00000000E+00
  0.00000000E+00  0.00000000E+00  0.00000000E+00
  0.00000000E+00  0.00000000E+00  0.00000000E+00
  0.00000000E+00  0.00000000E+00  0.00000000E+00
  0.00000000E+00  0.00000000E+00  0.00000000E+00
  0.00000000E+00  0.00000000E+00  0.00000000E+00
  0.00000000E+00  0.00000000E+00  0.00000000E+00
  0.00000000E+00  0.00000000E+00  0.00000000E+00
  0.00000000E+00  0.00000000E+00  0.00000000E+00
  0.00000000E+00  0.00000000E+00  0.00000000E+00
  0.00000000E+00  0.00000000E+00  0.00000000E+00
  0.00000000E+00  0.00000000E+00  0.00000000E+00
  0.00000000E+00  0.00000000E+00  0.00000000E+00
  0.00000000E+00  0.00000000E+00  0.00000000E+00
  0.00000000E+00  0.00000000E+00  0.00000000E+00
  0.00000000E+00  0.00000000E+00  0.00000000E+00
