Ba4 Tl4 Cl20                            
   1.0000000000000000     
     5.0275960982832020    0.0000000000000000    0.0000000000000004
    -0.0000000000000004    9.1720099380740869    0.0000000000000005
    -0.0000000000000002    0.0000000000000006   19.6188683104018473
   Ba   Tl   Cl
     4     4    20
Direct
  0.0017722803704672  0.4205730693425380  0.3738058395370487
  0.5017722803704672  0.0794269306574620  0.6261941604629513
  0.9982277196295257  0.9205730693425380  0.1261941604629513
  0.4982277196295257  0.5794269306574620  0.8738058395370487
  0.5018627229955328  0.9232600627844008  0.3583624909452823
  0.0018627229955399  0.5767399372155992  0.6416375090547106
  0.4981372770044601  0.4232600627844008  0.1416375090547106
  0.9981372770044672  0.0767399372155992  0.8583624909452823
  0.0036374785589217  0.6115959810692857  0.5133532610994109
  0.5036374785589075  0.8884040189307143  0.4866467389005891
  0.9963625214410783  0.1115959810692857  0.9866467389005891
  0.4963625214410783  0.3884040189307143  0.0133532610994109
  0.0012401792257108  0.9145377259649479  0.3035678150910854
  0.5012401792257108  0.5854622740350521  0.6964321849089146
  0.9987598207742892  0.4145377259649479  0.1964321849089146
  0.4987598207742892  0.0854622740350521  0.8035678150910854
  0.7475366875451002  0.7500087621115128  0.0000000966035003
  0.2475366875451002  0.7499912378884872  0.9999999033964997
  0.2524633124548998  0.2500087621115128  0.4999999033964997
  0.7524633124548998  0.2499912378884872  0.5000000966035003
  0.4982940464763530  0.7204093416217319  0.1701727661838675
  0.9982940464763530  0.7795906583782681  0.8298272338161325
  0.5017059535236470  0.2204093416217319  0.3298272338161325
  0.0017059535236470  0.2795906583782681  0.6701727661838675
  0.9982901491879446  0.3863553397717325  0.8483178453532787
  0.4982901491879446  0.1136446602282675  0.1516821546467213
  0.0017098508120554  0.8863553397717325  0.6516821546467213
  0.5017098508120554  0.6136446602282746  0.3483178453532787

  0.00000000E+00  0.00000000E+00  0.00000000E+00
  0.00000000E+00  0.00000000E+00  0.00000000E+00
  0.00000000E+00  0.00000000E+00  0.00000000E+00
  0.00000000E+00  0.00000000E+00  0.00000000E+00
  0.00000000E+00  0.00000000E+00  0.00000000E+00
  0.00000000E+00  0.00000000E+00  0.00000000E+00
  0.00000000E+00  0.00000000E+00  0.00000000E+00
  0.00000000E+00  0.00000000E+00  0.00000000E+00
  0.00000000E+00  0.00000000E+00  0.00000000E+00
  0.00000000E+00  0.00000000E+00  0.00000000E+00
  0.00000000E+00  0.00000000E+00  0.00000000E+00
  0.00000000E+00  0.00000000E+00  0.00000000E+00
  0.00000000E+00  0.00000000E+00  0.00000000E+00
  0.00000000E+00  0.00000000E+00  0.00000000E+00
  0.00000000E+00  0.00000000E+00  0.00000000E+00
  0.00000000E+00  0.00000000E+00  0.00000000E+00
  0.00000000E+00  0.00000000E+00  0.00000000E+00
  0.00000000E+00  0.00000000E+00  0.00000000E+00
  0.00000000E+00  0.00000000E+00  0.00000000E+00
  0.00000000E+00  0.00000000E+00  0.00000000E+00
  0.00000000E+00  0.00000000E+00  0.00000000E+00
  0.00000000E+00  0.00000000E+00  0.00000000E+00
  0.00000000E+00  0.00000000E+00  0.00000000E+00
  0.00000000E+00  0.00000000E+00  0.00000000E+00
  0.00000000E+00  0.00000000E+00  0.00000000E+00
  0.00000000E+00  0.00000000E+00  0.00000000E+00
  0.00000000E+00  0.00000000E+00  0.00000000E+00
  0.00000000E+00  0.00000000E+00  0.00000000E+00
