Ba2 Tl2 I6                              
   1.0000000000000000     
     2.4857892075385992   -7.9948955558118895    0.0006732884487809
     2.4712000381482584    7.9903524455811601   -0.0004042547973665
     0.0004774965276942    0.0003043694957842   12.4702283248401873
   I    Ba   Tl
     6     2     2
Direct
  0.3594234418707245  0.6406945896092751  0.0689620000468523
  0.0934815621778498  0.9006372412495907  0.2504958714296421
  0.3568485507598638  0.6439112799695721  0.4337482685739076
  0.6404889585915470  0.3592138879727571  0.5689331930082631
  0.9064402124913045  0.0993157029575826  0.7505151689820835
  0.6432881002341659  0.3562901137996306  0.9337663417674449
  0.0009262279090407  0.9989665345579937  0.9999438652075057
  0.9990400960592680  0.0009937204357513  0.4999483684207959
  0.7442743836743162  0.2429590842899501  0.2469899806742291
  0.2553884662319206  0.7566178451578978  0.7471969418892712

  0.00000000E+00  0.00000000E+00  0.00000000E+00
  0.00000000E+00  0.00000000E+00  0.00000000E+00
  0.00000000E+00  0.00000000E+00  0.00000000E+00
  0.00000000E+00  0.00000000E+00  0.00000000E+00
  0.00000000E+00  0.00000000E+00  0.00000000E+00
  0.00000000E+00  0.00000000E+00  0.00000000E+00
  0.00000000E+00  0.00000000E+00  0.00000000E+00
  0.00000000E+00  0.00000000E+00  0.00000000E+00
  0.00000000E+00  0.00000000E+00  0.00000000E+00
  0.00000000E+00  0.00000000E+00  0.00000000E+00
