Mg2 In2 I10                             
   1.00000000000000     
    -5.5477384314762777   -5.7763034420339219    0.5326435004407644
     5.5501022061577725   -5.7815078695234021   -0.5320256858748801
    -4.8085273516183777    0.0021269270629676   10.3790567157334053
   In   Mg   I 
     2     2    10
Direct
  0.9988760492415167  0.0009651485588051  0.9950727853357080
  0.9989332354115703  0.0014129071888576  0.4959801208885182
  0.6357638455117609  0.6377971274689287  0.2504926627551995
  0.3622344343863872  0.3640523538546816  0.7499663330607049
  0.7895775966351337  0.7041754616281040  0.0209752650940160
  0.6571165801070080  0.2611204633754838  0.1590772632571387
  0.0838764427738852  0.0797870468560831  0.2488685401489619
  0.2599222391922282  0.6573258169527207  0.3461975196128151
  0.7051813406691281  0.7857451235374171  0.4797108072949499
  0.2941842491095557  0.2147813307185586  0.5205633241160612
  0.7388020146426086  0.3429668738024532  0.6590829089276298
  0.9150115080033885  0.9190600835018117  0.7491528010494406
  0.3426697411749444  0.7400654788254499  0.8461683602514967
  0.2177497231408836  0.2906447837306558  0.9783893082073547
 
  0.00000000E+00  0.00000000E+00  0.00000000E+00
  0.00000000E+00  0.00000000E+00  0.00000000E+00
  0.00000000E+00  0.00000000E+00  0.00000000E+00
  0.00000000E+00  0.00000000E+00  0.00000000E+00
  0.00000000E+00  0.00000000E+00  0.00000000E+00
  0.00000000E+00  0.00000000E+00  0.00000000E+00
  0.00000000E+00  0.00000000E+00  0.00000000E+00
  0.00000000E+00  0.00000000E+00  0.00000000E+00
  0.00000000E+00  0.00000000E+00  0.00000000E+00
  0.00000000E+00  0.00000000E+00  0.00000000E+00
  0.00000000E+00  0.00000000E+00  0.00000000E+00
  0.00000000E+00  0.00000000E+00  0.00000000E+00
  0.00000000E+00  0.00000000E+00  0.00000000E+00
  0.00000000E+00  0.00000000E+00  0.00000000E+00
