Sr17 B11 I1                             
   1.00000000000000     
     8.2590567821344418   -3.6188159249788225    3.7655911393567472
     1.2434228498649598    9.9738757072003743    4.2666552003397946
    -9.0794557434666761   -5.6759638560573578    3.0568815025806013
   B    I    Sr
    11     1    17
Direct
  0.6863896317004716  0.0733367445977819  0.9988353655591524
  0.3132424728133714  0.3267388238679985  0.2157399415198000
  0.7888489891685850  0.1951099678126127  0.1812073465103055
  0.3994047786010171  0.0800308973032458  0.2820701453738224
  0.2518910631149751  0.3392707271048110  0.3342218020444392
  0.3266202965835703  0.2024889710835893  0.2679641731384663
  0.0581650960292279  0.9343020448372599  0.7324661262288359
  0.9175473506599303  0.0052912733015518  0.6664441393745832
  0.1164315733994172  0.7973518693229167  0.7175380354555045
  0.6064107622617385  0.0128342972342779  0.8166060609001633
  0.0975924976957003  0.1111526191391690  0.7854756937479053
  0.8101988150008026  0.7223304286030441  0.9993861760373548
  0.7179912367367365  0.3395389174427450  0.9994945669111317
  0.1836338145644589  0.7660327375648421  0.9990450645678877
  0.3624152489886967  0.0885582385141959  0.0002476606947681
  0.9866697864334029  0.1654945933139516  0.0006595438743560
  0.3464144657889747  0.4250071934124620  0.0012289200721654
  0.8749396654328763  0.7550870248806945  0.4006550924555796
  0.6584789890021838  0.9849996898580002  0.2255539342936288
  0.0502419911207070  0.4530147234229958  0.4758445507019786
  0.0777923165187886  0.0786998089927238  0.2938106882336271
  0.2517242055962257  0.5897185640770175  0.3141071696925124
  0.6365462122261150  0.3767755699445985  0.3557727168016882
  0.2804707927479271  0.0214965548280546  0.6448979739548975
  0.9387611173908255  0.2760059642381378  0.6872804482651773
  0.7814703773227833  0.7862425854067610  0.7059512417443159
  0.5734124186414888  0.9777467970014868  0.5227841484937699
  0.4318115125315956  0.7591558025660703  0.7746213298385172
  0.4754385219274155  0.3555265703270010  0.6000909435136847
 
  0.00000000E+00  0.00000000E+00  0.00000000E+00
  0.00000000E+00  0.00000000E+00  0.00000000E+00
  0.00000000E+00  0.00000000E+00  0.00000000E+00
  0.00000000E+00  0.00000000E+00  0.00000000E+00
  0.00000000E+00  0.00000000E+00  0.00000000E+00
  0.00000000E+00  0.00000000E+00  0.00000000E+00
  0.00000000E+00  0.00000000E+00  0.00000000E+00
  0.00000000E+00  0.00000000E+00  0.00000000E+00
  0.00000000E+00  0.00000000E+00  0.00000000E+00
  0.00000000E+00  0.00000000E+00  0.00000000E+00
  0.00000000E+00  0.00000000E+00  0.00000000E+00
  0.00000000E+00  0.00000000E+00  0.00000000E+00
  0.00000000E+00  0.00000000E+00  0.00000000E+00
  0.00000000E+00  0.00000000E+00  0.00000000E+00
  0.00000000E+00  0.00000000E+00  0.00000000E+00
  0.00000000E+00  0.00000000E+00  0.00000000E+00
  0.00000000E+00  0.00000000E+00  0.00000000E+00
  0.00000000E+00  0.00000000E+00  0.00000000E+00
  0.00000000E+00  0.00000000E+00  0.00000000E+00
  0.00000000E+00  0.00000000E+00  0.00000000E+00
  0.00000000E+00  0.00000000E+00  0.00000000E+00
  0.00000000E+00  0.00000000E+00  0.00000000E+00
  0.00000000E+00  0.00000000E+00  0.00000000E+00
  0.00000000E+00  0.00000000E+00  0.00000000E+00
  0.00000000E+00  0.00000000E+00  0.00000000E+00
  0.00000000E+00  0.00000000E+00  0.00000000E+00
  0.00000000E+00  0.00000000E+00  0.00000000E+00
  0.00000000E+00  0.00000000E+00  0.00000000E+00
  0.00000000E+00  0.00000000E+00  0.00000000E+00
