Ba4 B4 I2                               
   1.00000000000000     
     4.6189660215507491   -0.6988179329105060    0.0000000000000000
    -2.9149411395942737    3.6682038593453883    0.0000000000000000
     0.0000000000000000    0.0000000000000000   18.2001108696956031
   B    Ba   I 
     4     4     2
Direct
  0.7348186002826509  0.2668467713198908  0.0009724586104412
  0.2651813997173491  0.7331532286801092  0.9990275413895588
  0.7348186002826509  0.2668467713198908  0.4990275413895588
  0.2651813997173491  0.7331532286801092  0.5009724586104412
  0.0032084447591174  0.9952495285918630  0.1058798263853404
  0.0032084447591174  0.9952495285918630  0.3941201736146596
  0.9967915552408897  0.0047504714081370  0.6058798263853404
  0.9967915552408897  0.0047504714081370  0.8941201736146596
  0.7111782127346942  0.2889532157115937  0.2500000000000000
  0.2888217872653058  0.7110467842884063  0.7500000000000000
 
  0.00000000E+00  0.00000000E+00  0.00000000E+00
  0.00000000E+00  0.00000000E+00  0.00000000E+00
  0.00000000E+00  0.00000000E+00  0.00000000E+00
  0.00000000E+00  0.00000000E+00  0.00000000E+00
  0.00000000E+00  0.00000000E+00  0.00000000E+00
  0.00000000E+00  0.00000000E+00  0.00000000E+00
  0.00000000E+00  0.00000000E+00  0.00000000E+00
  0.00000000E+00  0.00000000E+00  0.00000000E+00
  0.00000000E+00  0.00000000E+00  0.00000000E+00
  0.00000000E+00  0.00000000E+00  0.00000000E+00
