Be1 Ga3 I1                              
   1.00000000000000     
     5.9854050367408629    0.0000000000000000    0.0000000000000000
     0.0000000000000000    5.9854050367408629    0.0000000000000000
     0.0000000000000000    0.0000000000000000    5.9854050367408629
   I    Ga   Be
     1     3     1
Direct
  0.5000000000000000  0.5000000000000000  0.5000000000000000
  0.5000000000000000  0.5000000000000000  0.0000000000000000
  0.5000000000000000  0.0000000000000000  0.5000000000000000
  0.0000000000000000  0.5000000000000000  0.5000000000000000
  0.0000000000000000  0.0000000000000000  0.0000000000000000
 
  0.00000000E+00  0.00000000E+00  0.00000000E+00
  0.00000000E+00  0.00000000E+00  0.00000000E+00
  0.00000000E+00  0.00000000E+00  0.00000000E+00
  0.00000000E+00  0.00000000E+00  0.00000000E+00
  0.00000000E+00  0.00000000E+00  0.00000000E+00
