Ba3Cl                                   
   1.00000000000000     
    -2.6369005854433545    2.6369005854433545    7.7590292457730055
     2.6369005854433545   -2.6369005854433545    7.7590292457730055
     2.6369005854433545    2.6369005854433545   -7.7590292457730055
   Ba   Cl
     3     1
Direct
  0.7500000000000000  0.2500000000000000  0.5000000000000000
  0.2500000000000000  0.7500000000000000  0.5000000000000000
  0.5000000000000000  0.5000000000000000  0.0000000000000000
  0.0000000000000000  0.0000000000000000  0.0000000000000000
 
  0.00000000E+00  0.00000000E+00  0.00000000E+00
  0.00000000E+00  0.00000000E+00  0.00000000E+00
  0.00000000E+00  0.00000000E+00  0.00000000E+00
  0.00000000E+00  0.00000000E+00  0.00000000E+00
