Mg4 In8 Cl32                            
   1.00000000000000     
    -6.1065687254143359    6.1065687254143359   10.1054548213498130
     6.1065687254143359   -6.1065687254143359   10.1054548213498130
     6.1065687254143359    6.1065687254143359  -10.1054548213498130
   Mg   In   Cl
     4     8    32
Direct
  0.0000000000000000  0.0000000000000000  0.0000000000000000
  0.7500000000000000  0.2500000000000000  0.5000000000000000
  0.2500000000000000  0.7500000000000000  0.5000000000000000
  0.5000000000000000  0.5000000000000000  0.0000000000000000
  0.5766334243117441  0.8750000000000000  0.2016334243117370
  0.1250000000000000  0.8266334243117441  0.2016334243117370
  0.1250000000000000  0.3266334243117370  0.7016334243117441
  0.6733665756882559  0.3750000000000000  0.7983665756882559
  0.6250000000000000  0.9233665756882559  0.7983665756882559
  0.0766334243117370  0.8750000000000000  0.7016334243117441
  0.1733665756882630  0.3750000000000000  0.2983665756882630
  0.6250000000000000  0.4233665756882630  0.2983665756882630
  0.6127891275109292  0.2143640594294141  0.2511652934949566
  0.1116238340159654  0.8627891275109292  0.8984250680815222
  0.7868012340655568  0.8883761659840346  0.7511652934949566
  0.2922723385700934  0.2409302924972963  0.2267887240433524
  0.7922723385700934  0.5654836145267339  0.0513430460728017
  0.8154836145267339  0.5422723385700934  0.5513430460728017
  0.1372108724890708  0.0356359405705859  0.2488347065050434
  0.9643640594294141  0.2131987659344432  0.1015749319184778
  0.4631987659344432  0.7143640594294141  0.6015749319184778
  0.2590697075027037  0.2077276614299066  0.7732112759566476
  0.0141405684539251  0.0654836145267339  0.7732112759566476
  0.9577276614299066  0.6845163854732661  0.4486569539271983
  0.9345163854732661  0.7077276614299066  0.9486569539271983
  0.1383761659840346  0.5368012340655568  0.2511652934949566
  0.2868012340655568  0.5356359405705859  0.8984250680815222
  0.6116238340159654  0.7131987659344432  0.2488347065050434
  0.7358594315460749  0.1845163854732661  0.7267887240433524
  0.2856359405705859  0.8872108724890708  0.7488347065050434
  0.4643640594294141  0.3627891275109292  0.7511652934949566
  0.9631987659344432  0.3616238340159654  0.7488347065050434
  0.3154836145267339  0.7641405684539251  0.2732112759566476
  0.4345163854732661  0.4858594315460749  0.2267887240433524
  0.6383761659840346  0.3872108724890708  0.6015749319184778
  0.6372108724890708  0.3883761659840346  0.1015749319184778
  0.2358594315460749  0.5090697075027037  0.5513430460728017
  0.4577276614299066  0.0090697075027037  0.2732112759566476
  0.1127891275109292  0.8616238340159654  0.3984250680815222
  0.4909302924972963  0.0422723385700934  0.7267887240433524
  0.5141405684539251  0.7409302924972963  0.9486569539271983
  0.9909302924972963  0.2641405684539251  0.4486569539271983
  0.7856359405705859  0.0368012340655568  0.3984250680815222
  0.7590697075027037  0.9858594315460749  0.0513430460728017
 
  0.00000000E+00  0.00000000E+00  0.00000000E+00
  0.00000000E+00  0.00000000E+00  0.00000000E+00
  0.00000000E+00  0.00000000E+00  0.00000000E+00
  0.00000000E+00  0.00000000E+00  0.00000000E+00
  0.00000000E+00  0.00000000E+00  0.00000000E+00
  0.00000000E+00  0.00000000E+00  0.00000000E+00
  0.00000000E+00  0.00000000E+00  0.00000000E+00
  0.00000000E+00  0.00000000E+00  0.00000000E+00
  0.00000000E+00  0.00000000E+00  0.00000000E+00
  0.00000000E+00  0.00000000E+00  0.00000000E+00
  0.00000000E+00  0.00000000E+00  0.00000000E+00
  0.00000000E+00  0.00000000E+00  0.00000000E+00
  0.00000000E+00  0.00000000E+00  0.00000000E+00
  0.00000000E+00  0.00000000E+00  0.00000000E+00
  0.00000000E+00  0.00000000E+00  0.00000000E+00
  0.00000000E+00  0.00000000E+00  0.00000000E+00
  0.00000000E+00  0.00000000E+00  0.00000000E+00
  0.00000000E+00  0.00000000E+00  0.00000000E+00
  0.00000000E+00  0.00000000E+00  0.00000000E+00
  0.00000000E+00  0.00000000E+00  0.00000000E+00
  0.00000000E+00  0.00000000E+00  0.00000000E+00
  0.00000000E+00  0.00000000E+00  0.00000000E+00
  0.00000000E+00  0.00000000E+00  0.00000000E+00
  0.00000000E+00  0.00000000E+00  0.00000000E+00
  0.00000000E+00  0.00000000E+00  0.00000000E+00
  0.00000000E+00  0.00000000E+00  0.00000000E+00
  0.00000000E+00  0.00000000E+00  0.00000000E+00
  0.00000000E+00  0.00000000E+00  0.00000000E+00
  0.00000000E+00  0.00000000E+00  0.00000000E+00
  0.00000000E+00  0.00000000E+00  0.00000000E+00
  0.00000000E+00  0.00000000E+00  0.00000000E+00
  0.00000000E+00  0.00000000E+00  0.00000000E+00
  0.00000000E+00  0.00000000E+00  0.00000000E+00
  0.00000000E+00  0.00000000E+00  0.00000000E+00
  0.00000000E+00  0.00000000E+00  0.00000000E+00
  0.00000000E+00  0.00000000E+00  0.00000000E+00
  0.00000000E+00  0.00000000E+00  0.00000000E+00
  0.00000000E+00  0.00000000E+00  0.00000000E+00
  0.00000000E+00  0.00000000E+00  0.00000000E+00
  0.00000000E+00  0.00000000E+00  0.00000000E+00
  0.00000000E+00  0.00000000E+00  0.00000000E+00
  0.00000000E+00  0.00000000E+00  0.00000000E+00
  0.00000000E+00  0.00000000E+00  0.00000000E+00
  0.00000000E+00  0.00000000E+00  0.00000000E+00
