Ba2 In2 I10                             
   1.00000000000000     
     7.6422917048792289   -0.0465140519151395    2.7893259877143493
     1.6293648103606062    7.4667226797812845    2.7893260568101312
    -0.3021764898122536   -0.2418328696277450   11.9267070801076898
   Ba   In   I 
     2     2    10
Direct
  0.4364668442526138  0.5635331557477627  0.2499999999977405
  0.5635331557473862  0.4364668442522373  0.7500000000022595
  0.0000000000000000  0.0000000000000000  0.5000000000000000
  0.0000000000000000  0.0000000000000000  0.0000000000000000
  0.7027446732687324  0.8327000641742828  0.5908826977768271
  0.1672999358109095  0.2972543262847225  0.9091173024553925
  0.2972543267312773  0.1672999358257172  0.4091183022231775
  0.8327000641890905  0.7027446737152800  0.0908826975446075
  0.9270331090759143  0.0729668910112409  0.7499999999559819
  0.0729668909240857  0.9270331089887591  0.2500000000440181
  0.6515462761261546  0.2568657315494320  0.0483942772339034
  0.7431342682764495  0.3484537239532415  0.4516057228577139
  0.3484537238738454  0.7431342684505680  0.9516057227660966
  0.2568657317235505  0.6515462760467585  0.5483942771422861
 
  0.00000000E+00  0.00000000E+00  0.00000000E+00
  0.00000000E+00  0.00000000E+00  0.00000000E+00
  0.00000000E+00  0.00000000E+00  0.00000000E+00
  0.00000000E+00  0.00000000E+00  0.00000000E+00
  0.00000000E+00  0.00000000E+00  0.00000000E+00
  0.00000000E+00  0.00000000E+00  0.00000000E+00
  0.00000000E+00  0.00000000E+00  0.00000000E+00
  0.00000000E+00  0.00000000E+00  0.00000000E+00
  0.00000000E+00  0.00000000E+00  0.00000000E+00
  0.00000000E+00  0.00000000E+00  0.00000000E+00
  0.00000000E+00  0.00000000E+00  0.00000000E+00
  0.00000000E+00  0.00000000E+00  0.00000000E+00
  0.00000000E+00  0.00000000E+00  0.00000000E+00
  0.00000000E+00  0.00000000E+00  0.00000000E+00
