Ca4 Al4 F2                              
   1.00000000000000     
     4.4764863385232454    0.0010718136599343    0.0069358705347107
    -2.2404026807541535    3.8755188122312725   -0.0068358047939492
    -0.0178320754823916    0.0059066534853726   16.5420351692192789
   Al   F    Ca
     4     2     4
Direct
  0.3331877014708553  0.6707738070539477  0.0001742805476468
  0.3336821723382855  0.6628773616594614  0.4999514428799614
  0.6669903832416750  0.3295626230678579  0.5000856555897712
  0.6664967194420299  0.3374587458955176  0.9999017900913074
  0.0023295070340978  0.9976557722085246  0.2500201934917854
  0.9970295884855602  0.0011528572038983  0.7500269433632738
  0.9999951925295179  0.0039295928016827  0.1208330811343217
  0.0005925655170529  0.9960305135374270  0.3792226680337833
  0.9999928877219588  0.9968550072145206  0.6208267140561148
  0.9997032822189595  0.0037037193571621  0.8792372308120449
 
  0.00000000E+00  0.00000000E+00  0.00000000E+00
  0.00000000E+00  0.00000000E+00  0.00000000E+00
  0.00000000E+00  0.00000000E+00  0.00000000E+00
  0.00000000E+00  0.00000000E+00  0.00000000E+00
  0.00000000E+00  0.00000000E+00  0.00000000E+00
  0.00000000E+00  0.00000000E+00  0.00000000E+00
  0.00000000E+00  0.00000000E+00  0.00000000E+00
  0.00000000E+00  0.00000000E+00  0.00000000E+00
  0.00000000E+00  0.00000000E+00  0.00000000E+00
  0.00000000E+00  0.00000000E+00  0.00000000E+00
