Sr2 Ga2 F10                             
   1.00000000000000     
     4.9430283489123905    0.0898689093244113    1.8574384519935407
     1.1709102926575017    4.8031833893349294    1.8574385634360873
    -0.2046605346955270   -0.1637905374721677    7.9538901911188820
   Sr   Ga   F 
     2     2    10
Direct
  0.4778873024386669  0.5221126975216137  0.2500000000361240
  0.5221126975613259  0.4778873024783863  0.7499999999638760
  0.0000000000000000  0.0000000000000000  0.5000000000000000
  0.0000000000000000  0.0000000000000000  0.0000000000000000
  0.9206251468642108  0.6631442673438386  0.6177098668850221
  0.3368557329237944  0.0793738533038706  0.8822901327777615
  0.0793738531357917  0.3368557326561614  0.3822911331149825
  0.6631442670762056  0.9206251466961319  0.1177098672222385
  0.9481341310756335  0.0518658686703475  0.7500000002219807
  0.0518658689243665  0.9481341313296525  0.2499999997780193
  0.8003058175441780  0.3811378825186935  0.9814356097945378
  0.6188621172617275  0.1996941825072938  0.5185643902971506
  0.1996941824558220  0.6188621174813065  0.0185643902054622
  0.3811378827382725  0.8003058174927062  0.4814356097028494
 
  0.00000000E+00  0.00000000E+00  0.00000000E+00
  0.00000000E+00  0.00000000E+00  0.00000000E+00
  0.00000000E+00  0.00000000E+00  0.00000000E+00
  0.00000000E+00  0.00000000E+00  0.00000000E+00
  0.00000000E+00  0.00000000E+00  0.00000000E+00
  0.00000000E+00  0.00000000E+00  0.00000000E+00
  0.00000000E+00  0.00000000E+00  0.00000000E+00
  0.00000000E+00  0.00000000E+00  0.00000000E+00
  0.00000000E+00  0.00000000E+00  0.00000000E+00
  0.00000000E+00  0.00000000E+00  0.00000000E+00
  0.00000000E+00  0.00000000E+00  0.00000000E+00
  0.00000000E+00  0.00000000E+00  0.00000000E+00
  0.00000000E+00  0.00000000E+00  0.00000000E+00
  0.00000000E+00  0.00000000E+00  0.00000000E+00
