Be17 Ga11 Cl1                           
   1.00000000000000     
     7.8338731490375819   -3.5049601054371879    3.5542921716455700
     0.5323124693963682    7.4693093750788329    2.9662729956592004
    -6.7824049632588919   -3.4819987759510260    0.9822228709364311
   Ga   Cl   Be
    11     1    17
Direct
  0.7136044480970298  0.7124217513864011  0.0006134716142299
  0.3836868349464169  0.4220892999899277  0.2407106203039575
  0.7393178956045006  0.0953220752407447  0.2453686848622993
  0.2170117759269345  0.8760162543395040  0.2521252870310420
  0.0831059629980260  0.3096475812420181  0.2705388486798768
  0.4591166173111958  0.3069204953714717  0.5429231916185415
  0.9161779470286149  0.7640343306094834  0.4566748210974154
  0.8126865877632028  0.0405625528548228  0.7306609909244060
  0.9649212689427529  0.6242871527385958  0.7472396633300917
  0.4938822147603403  0.8481552661511600  0.7552055842514918
  0.1426002743314640  0.1809349632744812  0.7592460037297286
  0.7122092301596936  0.3345499694351730  0.0002010088213424
  0.1665240615789614  0.5141247319194662  0.9997247496533959
  0.3919126848883536  0.0086004072095278  0.9997765066047535
  0.4984190710691294  0.2588890162334323  0.9982673548763614
  0.9367058877408994  0.9195466033756219  0.9999362237675484
  0.3428866540088009  0.7375708491299520  0.9993176746254022
  0.5935738992172332  0.7051676400424327  0.2194773611503038
  0.5509527064365471  0.0429994889531571  0.3811470035821287
  0.2050197048306543  0.6266422569666901  0.3390963091819827
  0.1739391592897874  0.1397659449467881  0.4626078227642196
  0.4632019473857270  0.7742499855210383  0.3868050879536398
  0.6224269405051785  0.3293946567369872  0.4019051320282756
  0.2208522093926533  0.9276001205835911  0.5978367117399017
  0.0761534381858908  0.3874537763206902  0.6131611042840461
  0.7117362256452964  0.6785482450673257  0.5379905925319548
  0.8647270593769889  0.2883644948655757  0.6613821430333147
  0.1692369327454628  0.6613465122202271  0.6176121219933464
  0.3743663598322300  0.4841335772737310  0.7824489239649992
 
  0.00000000E+00  0.00000000E+00  0.00000000E+00
  0.00000000E+00  0.00000000E+00  0.00000000E+00
  0.00000000E+00  0.00000000E+00  0.00000000E+00
  0.00000000E+00  0.00000000E+00  0.00000000E+00
  0.00000000E+00  0.00000000E+00  0.00000000E+00
  0.00000000E+00  0.00000000E+00  0.00000000E+00
  0.00000000E+00  0.00000000E+00  0.00000000E+00
  0.00000000E+00  0.00000000E+00  0.00000000E+00
  0.00000000E+00  0.00000000E+00  0.00000000E+00
  0.00000000E+00  0.00000000E+00  0.00000000E+00
  0.00000000E+00  0.00000000E+00  0.00000000E+00
  0.00000000E+00  0.00000000E+00  0.00000000E+00
  0.00000000E+00  0.00000000E+00  0.00000000E+00
  0.00000000E+00  0.00000000E+00  0.00000000E+00
  0.00000000E+00  0.00000000E+00  0.00000000E+00
  0.00000000E+00  0.00000000E+00  0.00000000E+00
  0.00000000E+00  0.00000000E+00  0.00000000E+00
  0.00000000E+00  0.00000000E+00  0.00000000E+00
  0.00000000E+00  0.00000000E+00  0.00000000E+00
  0.00000000E+00  0.00000000E+00  0.00000000E+00
  0.00000000E+00  0.00000000E+00  0.00000000E+00
  0.00000000E+00  0.00000000E+00  0.00000000E+00
  0.00000000E+00  0.00000000E+00  0.00000000E+00
  0.00000000E+00  0.00000000E+00  0.00000000E+00
  0.00000000E+00  0.00000000E+00  0.00000000E+00
  0.00000000E+00  0.00000000E+00  0.00000000E+00
  0.00000000E+00  0.00000000E+00  0.00000000E+00
  0.00000000E+00  0.00000000E+00  0.00000000E+00
  0.00000000E+00  0.00000000E+00  0.00000000E+00
