Be5 Tl9                                 
   1.0000000000000000     
     4.5971702505655454    1.2335214094154510   -0.5936366728149489
    -1.1460328398704309    4.9146296092611736    1.1248975727246013
    -1.0590879584769146    2.0777076838079935   14.3424377500765274
   Tl   Be
     9     5
Direct
  0.0185558136238910  0.0114465448762289  0.9947662749959463
  0.1127604491827441  0.3189443622174366  0.1917319310622503
  0.2044560598587495  0.6291402118035521  0.3779986551918313
  0.6115216967322965  0.8318337090331553  0.1880607637939349
  0.3117288228974786  0.8948126395329083  0.5939950012265811
  0.7095998046676826  0.1201693179645176  0.3872356886022246
  0.4242455386440653  0.1743112160464335  0.8047096037740218
  0.8173029162224452  0.3869519724712802  0.6024026505583464
  0.9195132866395568  0.6890710739346204  0.7999135185166182
  0.7478600361118879  0.5062048883935688  0.9941071881593260
  0.5872178187534516  0.3904076375982797  0.1369179262283708
  0.3057710447017854  0.4107701544574738  0.5776655653768685
  0.4448813041253956  0.6180592020010636  0.8543213948525050
  0.2845854078385557  0.5178770696694883  0.9956738376611796

  0.00000000E+00  0.00000000E+00  0.00000000E+00
  0.00000000E+00  0.00000000E+00  0.00000000E+00
  0.00000000E+00  0.00000000E+00  0.00000000E+00
  0.00000000E+00  0.00000000E+00  0.00000000E+00
  0.00000000E+00  0.00000000E+00  0.00000000E+00
  0.00000000E+00  0.00000000E+00  0.00000000E+00
  0.00000000E+00  0.00000000E+00  0.00000000E+00
  0.00000000E+00  0.00000000E+00  0.00000000E+00
  0.00000000E+00  0.00000000E+00  0.00000000E+00
  0.00000000E+00  0.00000000E+00  0.00000000E+00
  0.00000000E+00  0.00000000E+00  0.00000000E+00
  0.00000000E+00  0.00000000E+00  0.00000000E+00
  0.00000000E+00  0.00000000E+00  0.00000000E+00
  0.00000000E+00  0.00000000E+00  0.00000000E+00
