Sr4 Ga4 Br20                            
   1.0000000000000000     
     6.1689094342865802   -0.0000000000000000    0.0000000000000006
    -0.0000000000000003   12.7684953535388939    0.0000000000000005
    -0.0000000000000004    0.0000000000000004   15.0696353113827382
   Sr   Ga   Br
     4     4    20
Direct
  0.8421375763019938  0.8200903610402648  0.6037796942481179
  0.3421375763020009  0.6799096389597352  0.3962203057518821
  0.1578624236980062  0.3200903610402648  0.8962203057518821
  0.6578624236980062  0.1799096389597352  0.1037796942481179
  0.1279127131440916  0.4693659830381378  0.6561553891481893
  0.6279127131440916  0.0306340169618551  0.3438446108517965
  0.8720872868559084  0.9693659830381449  0.8438446108518107
  0.3720872868559084  0.5306340169618551  0.1561553891481893
  0.3434778452304101  0.7799652055892139  0.5838170473514310
  0.8434778452304101  0.7200347944107861  0.4161829526485832
  0.6565221547695899  0.2799652055892139  0.9161829526485832
  0.1565221547695970  0.2200347944107861  0.0838170473514168
  0.5226537074349622  0.2049142058392448  0.3098368896199801
  0.0226537074349551  0.2950857941607623  0.6901631103800128
  0.4773462925650449  0.7049142058392377  0.1901631103800128
  0.9773462925650378  0.7950857941607623  0.8098368896199801
  0.3203173882549706  0.5207692403210302  0.7854750882474590
  0.8203173882549706  0.9792307596789698  0.2145249117525410
  0.6796826117450294  0.0207692403210231  0.7145249117525410
  0.1796826117450294  0.4792307596789769  0.2854750882474590
  0.8208013805687315  0.0333343854426218  0.4793319425457270
  0.3208013805687244  0.4666656145573711  0.5206680574542730
  0.1791986194312685  0.5333343854426218  0.0206680574542730
  0.6791986194312685  0.9666656145573782  0.9793319425457270
  0.8133756142773905  0.5744589451742925  0.6451688846579344
  0.3133756142773905  0.9255410548257075  0.3548311153420656
  0.1866243857226095  0.0744589451742854  0.8548311153420656
  0.6866243857226095  0.4255410548257146  0.1451688846579344

  0.00000000E+00  0.00000000E+00  0.00000000E+00
  0.00000000E+00  0.00000000E+00  0.00000000E+00
  0.00000000E+00  0.00000000E+00  0.00000000E+00
  0.00000000E+00  0.00000000E+00  0.00000000E+00
  0.00000000E+00  0.00000000E+00  0.00000000E+00
  0.00000000E+00  0.00000000E+00  0.00000000E+00
  0.00000000E+00  0.00000000E+00  0.00000000E+00
  0.00000000E+00  0.00000000E+00  0.00000000E+00
  0.00000000E+00  0.00000000E+00  0.00000000E+00
  0.00000000E+00  0.00000000E+00  0.00000000E+00
  0.00000000E+00  0.00000000E+00  0.00000000E+00
  0.00000000E+00  0.00000000E+00  0.00000000E+00
  0.00000000E+00  0.00000000E+00  0.00000000E+00
  0.00000000E+00  0.00000000E+00  0.00000000E+00
  0.00000000E+00  0.00000000E+00  0.00000000E+00
  0.00000000E+00  0.00000000E+00  0.00000000E+00
  0.00000000E+00  0.00000000E+00  0.00000000E+00
  0.00000000E+00  0.00000000E+00  0.00000000E+00
  0.00000000E+00  0.00000000E+00  0.00000000E+00
  0.00000000E+00  0.00000000E+00  0.00000000E+00
  0.00000000E+00  0.00000000E+00  0.00000000E+00
  0.00000000E+00  0.00000000E+00  0.00000000E+00
  0.00000000E+00  0.00000000E+00  0.00000000E+00
  0.00000000E+00  0.00000000E+00  0.00000000E+00
  0.00000000E+00  0.00000000E+00  0.00000000E+00
  0.00000000E+00  0.00000000E+00  0.00000000E+00
  0.00000000E+00  0.00000000E+00  0.00000000E+00
  0.00000000E+00  0.00000000E+00  0.00000000E+00
