Ca1 B2 Cl10                             
   1.00000000000000     
     5.1407204681641963    3.4934962946100536    1.5511047740831416
    -5.1407204681641963    3.4934962946100536    1.5511047740831416
     0.0000000000000000    3.2504237800306388   12.4637214688282434
   Ca   B    Cl
     1     2    10
Direct
  0.5710229971311733  0.4289770028688267  0.0000000000000000
  0.9605511310744674  0.8627463754334386  0.6549052542757536
  0.1372536245665614  0.0394488689255326  0.3450947457242464
  0.9967440009983619  0.1780530115950612  0.5958104218241758
  0.8219469884049388  0.0032559990016381  0.4041895781758242
  0.6219749490801760  0.5947345755574034  0.7484711516697260
  0.4052654244425966  0.3780250509198240  0.2515288483302740
  0.8591507638897724  0.1408492361102276  0.0000000000000000
  0.1606193916220491  0.8393806083779509  0.5000000000000000
  0.6034159633147382  0.9118930031995589  0.9501256591591201
  0.0881069968004411  0.3965840366852618  0.0498743408408799
  0.1004232669969340  0.7824764983222394  0.7568942293264342
  0.2175235016777606  0.8995767330030660  0.2431057706735587
 
  0.00000000E+00  0.00000000E+00  0.00000000E+00
  0.00000000E+00  0.00000000E+00  0.00000000E+00
  0.00000000E+00  0.00000000E+00  0.00000000E+00
  0.00000000E+00  0.00000000E+00  0.00000000E+00
  0.00000000E+00  0.00000000E+00  0.00000000E+00
  0.00000000E+00  0.00000000E+00  0.00000000E+00
  0.00000000E+00  0.00000000E+00  0.00000000E+00
  0.00000000E+00  0.00000000E+00  0.00000000E+00
  0.00000000E+00  0.00000000E+00  0.00000000E+00
  0.00000000E+00  0.00000000E+00  0.00000000E+00
  0.00000000E+00  0.00000000E+00  0.00000000E+00
  0.00000000E+00  0.00000000E+00  0.00000000E+00
  0.00000000E+00  0.00000000E+00  0.00000000E+00
