Sr16 Al16 F80                           
   1.0000000000000000     
    13.9798199232376366   -0.0000000146623274    0.0000000000000009
     0.0000000146623265   13.9798199232376366    0.0000000000000009
    -0.0000000000000000   -0.0000000000000000    7.1160753242420656
   Sr   Al   F 
    16    16    80
Direct
  0.5514470845243693  0.7193818431797396  0.4957741133872915
  0.2193818431797396  0.9485529154756307  0.9957741133872915
  0.7806181568202604  0.0514470845243693  0.9957741133872915
  0.4485529154756307  0.2806181568202533  0.4957741133872915
  0.2446161378021117  0.0712199089568273  0.4953109964415816
  0.5712199089568273  0.2553838621978883  0.9953109964415816
  0.4287800910431727  0.7446161378021117  0.9953109964415816
  0.7553838621978883  0.9287800910431727  0.4953109964415816
  0.0514470845243693  0.2193818431797396  0.9957741133872915
  0.7193818431797396  0.4485529154756307  0.4957741133872915
  0.2806181568202533  0.5514470845243693  0.4957741133872915
  0.9485529154756307  0.7806181568202604  0.9957741133872915
  0.7446161378021117  0.5712199089568273  0.9953109964415816
  0.0712199089568273  0.7553838621978883  0.4953109964415816
  0.9287800910431727  0.2446161378021117  0.4953109964415816
  0.2553838621978883  0.4287800910431727  0.9953109964415816
  0.0000000000000000  0.0000000000000000  0.7406742106360511
  0.0000000000000000  0.0000000000000000  0.2449221121499718
  0.5000000000000000  0.0000000000000000  0.9951242564552416
  0.5000000000000000  0.0000000000000000  0.4951242564552416
  0.3345361710737222  0.1834570837368901  0.9961413093021960
  0.6834570837368901  0.1654638289262778  0.4961413093021960
  0.3165429162631099  0.8345361710737222  0.4961413093021960
  0.6654638289262778  0.8165429162631099  0.9961413093021960
  0.5000000000000000  0.5000000000000000  0.2406742106360511
  0.5000000000000000  0.5000000000000000  0.7449221121499718
  0.0000000000000000  0.5000000000000000  0.4951242564552416
  0.0000000000000000  0.5000000000000000  0.9951242564552416
  0.8345361710737222  0.6834570837368901  0.4961413093021960
  0.1834570837368901  0.6654638289262778  0.9961413093021960
  0.8165429162631099  0.3345361710737222  0.9961413093021960
  0.1654638289262778  0.3165429162631099  0.4961413093021960
  0.0000000000000000  0.0000000000000000  0.9927858143607722
  0.0000000000000000  0.0000000000000000  0.4926930877128370
  0.1191076717915536  0.0464964557254248  0.7522042959378794
  0.5464964557254248  0.3808923282084535  0.2522042959378794
  0.4535035442745752  0.6191076717915465  0.2522042959378794
  0.8808923282084535  0.9535035442745752  0.7522042959378794
  0.1187833531900253  0.0474813101368952  0.2334789302576539
  0.5474813101368952  0.3812166468099747  0.7334789302576539
  0.4525186898631048  0.6187833531900253  0.7334789302576539
  0.8812166468099747  0.9525186898631048  0.2334789302576539
  0.5000000000000000  0.0000000000000000  0.7451506649649957
  0.5000000000000000  0.0000000000000000  0.2451506649650028
  0.4488730989128982  0.1178746964735922  0.9946646926002884
  0.6178746964735922  0.0511269010871018  0.4946646926002884
  0.3821253035264078  0.9488730989128982  0.4946646926002884
  0.5511269010871018  0.8821253035264078  0.9946646926002884
  0.4351233729366655  0.1116974838620308  0.4951897617518171
  0.6116974838620308  0.0648766270633274  0.9951897617518171
  0.3883025161379692  0.9351233729366655  0.9951897617518171
  0.5648766270633274  0.8883025161379692  0.4951897617518171
  0.3931679208474748  0.2601560065120481  0.8242127912154373
  0.7601560065120481  0.1068320791525252  0.3242127912154373
  0.2398439934879519  0.8931679208474819  0.3242127912154373
  0.6068320791525181  0.7398439934879519  0.8242127912154373
  0.3930411399062095  0.2591175346860837  0.1696462507280572
  0.7591175346860837  0.1069588600937905  0.6696462507280572
  0.2408824653139163  0.8930411399062095  0.6696462507280572
  0.6069588600937905  0.7408824653139163  0.1696462507280572
  0.2913133735502029  0.1007519572042241  0.8211228557681025
  0.6007519572042241  0.2086866264497971  0.3211228557681025
  0.3992480427957759  0.7913133735502029  0.3211228557681025
  0.7086866264497971  0.8992480427957759  0.8211228557681025
  0.2918621114479407  0.1000621592652777  0.1705214224590392
  0.6000621592652706  0.2081378885520593  0.6705214224590392
  0.3999378407347223  0.7918621114479407  0.6705214224590392
  0.7081378885520593  0.8999378407347294  0.1705214224590392
  0.7277687502367058  0.7539917229446260  0.4966700632256362
  0.2539917229446260  0.7722312497632871  0.9966700632256362
  0.7460082770553740  0.2277687502367058  0.9966700632256362
  0.2722312497632871  0.2460082770553740  0.4966700632256362
  0.5000000000000000  0.5000000000000000  0.4927858143607722
  0.5000000000000000  0.5000000000000000  0.9926930877128370
  0.6191076717915465  0.5464964557254248  0.2522042959378794
  0.0464964557254248  0.8808923282084535  0.7522042959378794
  0.9535035442745752  0.1191076717915536  0.7522042959378794
  0.3808923282084535  0.4535035442745752  0.2522042959378794
  0.6187833531900253  0.5474813101368952  0.7334789302576539
  0.0474813101368952  0.8812166468099747  0.2334789302576539
  0.9525186898631048  0.1187833531900253  0.2334789302576539
  0.3812166468099747  0.4525186898631048  0.7334789302576539
  0.0000000000000000  0.5000000000000000  0.2451506649650028
  0.0000000000000000  0.5000000000000000  0.7451506649649957
  0.9488730989128982  0.6178746964735922  0.4946646926002884
  0.1178746964735922  0.5511269010871018  0.9946646926002884
  0.8821253035264078  0.4488730989128982  0.9946646926002884
  0.0511269010871018  0.3821253035264078  0.4946646926002884
  0.9351233729366655  0.6116974838620308  0.9951897617518171
  0.1116974838620308  0.5648766270633274  0.4951897617518171
  0.8883025161379692  0.4351233729366655  0.4951897617518171
  0.0648766270633274  0.3883025161379692  0.9951897617518171
  0.8931679208474819  0.7601560065120481  0.3242127912154373
  0.2601560065120481  0.6068320791525181  0.8242127912154373
  0.7398439934879519  0.3931679208474748  0.8242127912154373
  0.1068320791525252  0.2398439934879519  0.3242127912154373
  0.8930411399062095  0.7591175346860837  0.6696462507280572
  0.2591175346860837  0.6069588600937905  0.1696462507280572
  0.7408824653139163  0.3930411399062095  0.1696462507280572
  0.1069588600937905  0.2408824653139163  0.6696462507280572
  0.7913133735502029  0.6007519572042241  0.3211228557681025
  0.1007519572042241  0.7086866264497971  0.8211228557681025
  0.8992480427957759  0.2913133735502029  0.8211228557681025
  0.2086866264497971  0.3992480427957759  0.3211228557681025
  0.7918621114479407  0.6000621592652706  0.6705214224590392
  0.1000621592652777  0.7081378885520593  0.1705214224590392
  0.8999378407347294  0.2918621114479407  0.1705214224590392
  0.2081378885520593  0.3999378407347223  0.6705214224590392
  0.2277687502367058  0.2539917229446260  0.9966700632256362
  0.7539917229446260  0.2722312497632871  0.4966700632256362
  0.2460082770553740  0.7277687502367058  0.4966700632256362
  0.7722312497632871  0.7460082770553740  0.9966700632256362

  0.00000000E+00  0.00000000E+00  0.00000000E+00
  0.00000000E+00  0.00000000E+00  0.00000000E+00
  0.00000000E+00  0.00000000E+00  0.00000000E+00
  0.00000000E+00  0.00000000E+00  0.00000000E+00
  0.00000000E+00  0.00000000E+00  0.00000000E+00
  0.00000000E+00  0.00000000E+00  0.00000000E+00
  0.00000000E+00  0.00000000E+00  0.00000000E+00
  0.00000000E+00  0.00000000E+00  0.00000000E+00
  0.00000000E+00  0.00000000E+00  0.00000000E+00
  0.00000000E+00  0.00000000E+00  0.00000000E+00
  0.00000000E+00  0.00000000E+00  0.00000000E+00
  0.00000000E+00  0.00000000E+00  0.00000000E+00
  0.00000000E+00  0.00000000E+00  0.00000000E+00
  0.00000000E+00  0.00000000E+00  0.00000000E+00
  0.00000000E+00  0.00000000E+00  0.00000000E+00
  0.00000000E+00  0.00000000E+00  0.00000000E+00
  0.00000000E+00  0.00000000E+00  0.00000000E+00
  0.00000000E+00  0.00000000E+00  0.00000000E+00
  0.00000000E+00  0.00000000E+00  0.00000000E+00
  0.00000000E+00  0.00000000E+00  0.00000000E+00
  0.00000000E+00  0.00000000E+00  0.00000000E+00
  0.00000000E+00  0.00000000E+00  0.00000000E+00
  0.00000000E+00  0.00000000E+00  0.00000000E+00
  0.00000000E+00  0.00000000E+00  0.00000000E+00
  0.00000000E+00  0.00000000E+00  0.00000000E+00
  0.00000000E+00  0.00000000E+00  0.00000000E+00
  0.00000000E+00  0.00000000E+00  0.00000000E+00
  0.00000000E+00  0.00000000E+00  0.00000000E+00
  0.00000000E+00  0.00000000E+00  0.00000000E+00
  0.00000000E+00  0.00000000E+00  0.00000000E+00
  0.00000000E+00  0.00000000E+00  0.00000000E+00
  0.00000000E+00  0.00000000E+00  0.00000000E+00
  0.00000000E+00  0.00000000E+00  0.00000000E+00
  0.00000000E+00  0.00000000E+00  0.00000000E+00
  0.00000000E+00  0.00000000E+00  0.00000000E+00
  0.00000000E+00  0.00000000E+00  0.00000000E+00
  0.00000000E+00  0.00000000E+00  0.00000000E+00
  0.00000000E+00  0.00000000E+00  0.00000000E+00
  0.00000000E+00  0.00000000E+00  0.00000000E+00
  0.00000000E+00  0.00000000E+00  0.00000000E+00
  0.00000000E+00  0.00000000E+00  0.00000000E+00
  0.00000000E+00  0.00000000E+00  0.00000000E+00
  0.00000000E+00  0.00000000E+00  0.00000000E+00
  0.00000000E+00  0.00000000E+00  0.00000000E+00
  0.00000000E+00  0.00000000E+00  0.00000000E+00
  0.00000000E+00  0.00000000E+00  0.00000000E+00
  0.00000000E+00  0.00000000E+00  0.00000000E+00
  0.00000000E+00  0.00000000E+00  0.00000000E+00
  0.00000000E+00  0.00000000E+00  0.00000000E+00
  0.00000000E+00  0.00000000E+00  0.00000000E+00
  0.00000000E+00  0.00000000E+00  0.00000000E+00
  0.00000000E+00  0.00000000E+00  0.00000000E+00
  0.00000000E+00  0.00000000E+00  0.00000000E+00
  0.00000000E+00  0.00000000E+00  0.00000000E+00
  0.00000000E+00  0.00000000E+00  0.00000000E+00
  0.00000000E+00  0.00000000E+00  0.00000000E+00
  0.00000000E+00  0.00000000E+00  0.00000000E+00
  0.00000000E+00  0.00000000E+00  0.00000000E+00
  0.00000000E+00  0.00000000E+00  0.00000000E+00
  0.00000000E+00  0.00000000E+00  0.00000000E+00
  0.00000000E+00  0.00000000E+00  0.00000000E+00
  0.00000000E+00  0.00000000E+00  0.00000000E+00
  0.00000000E+00  0.00000000E+00  0.00000000E+00
  0.00000000E+00  0.00000000E+00  0.00000000E+00
  0.00000000E+00  0.00000000E+00  0.00000000E+00
  0.00000000E+00  0.00000000E+00  0.00000000E+00
  0.00000000E+00  0.00000000E+00  0.00000000E+00
  0.00000000E+00  0.00000000E+00  0.00000000E+00
  0.00000000E+00  0.00000000E+00  0.00000000E+00
  0.00000000E+00  0.00000000E+00  0.00000000E+00
  0.00000000E+00  0.00000000E+00  0.00000000E+00
  0.00000000E+00  0.00000000E+00  0.00000000E+00
  0.00000000E+00  0.00000000E+00  0.00000000E+00
  0.00000000E+00  0.00000000E+00  0.00000000E+00
  0.00000000E+00  0.00000000E+00  0.00000000E+00
  0.00000000E+00  0.00000000E+00  0.00000000E+00
  0.00000000E+00  0.00000000E+00  0.00000000E+00
  0.00000000E+00  0.00000000E+00  0.00000000E+00
  0.00000000E+00  0.00000000E+00  0.00000000E+00
  0.00000000E+00  0.00000000E+00  0.00000000E+00
  0.00000000E+00  0.00000000E+00  0.00000000E+00
  0.00000000E+00  0.00000000E+00  0.00000000E+00
  0.00000000E+00  0.00000000E+00  0.00000000E+00
  0.00000000E+00  0.00000000E+00  0.00000000E+00
  0.00000000E+00  0.00000000E+00  0.00000000E+00
  0.00000000E+00  0.00000000E+00  0.00000000E+00
  0.00000000E+00  0.00000000E+00  0.00000000E+00
  0.00000000E+00  0.00000000E+00  0.00000000E+00
  0.00000000E+00  0.00000000E+00  0.00000000E+00
  0.00000000E+00  0.00000000E+00  0.00000000E+00
  0.00000000E+00  0.00000000E+00  0.00000000E+00
  0.00000000E+00  0.00000000E+00  0.00000000E+00
  0.00000000E+00  0.00000000E+00  0.00000000E+00
  0.00000000E+00  0.00000000E+00  0.00000000E+00
  0.00000000E+00  0.00000000E+00  0.00000000E+00
  0.00000000E+00  0.00000000E+00  0.00000000E+00
  0.00000000E+00  0.00000000E+00  0.00000000E+00
  0.00000000E+00  0.00000000E+00  0.00000000E+00
  0.00000000E+00  0.00000000E+00  0.00000000E+00
  0.00000000E+00  0.00000000E+00  0.00000000E+00
  0.00000000E+00  0.00000000E+00  0.00000000E+00
  0.00000000E+00  0.00000000E+00  0.00000000E+00
  0.00000000E+00  0.00000000E+00  0.00000000E+00
  0.00000000E+00  0.00000000E+00  0.00000000E+00
  0.00000000E+00  0.00000000E+00  0.00000000E+00
  0.00000000E+00  0.00000000E+00  0.00000000E+00
  0.00000000E+00  0.00000000E+00  0.00000000E+00
  0.00000000E+00  0.00000000E+00  0.00000000E+00
  0.00000000E+00  0.00000000E+00  0.00000000E+00
  0.00000000E+00  0.00000000E+00  0.00000000E+00
  0.00000000E+00  0.00000000E+00  0.00000000E+00
  0.00000000E+00  0.00000000E+00  0.00000000E+00
