MAPbBr3                                 
   1.00000000000000     
     5.9457848767677506    0.0000000000000000    0.0000000000000000
     0.0000000000000000    5.9457848767677506    0.0000000000000000
     0.0000000000000000    0.0000000000000000    5.9457848767677506
   C    N    H    Pb   Br
     1     1     6     1     3
Direct
  0.9234552045078814  0.9998101359339984  0.9657153366885751
  0.1575756040422718  0.9998138796502118  0.0552045519143434
  0.9307436421040833  0.9998251769136246  0.7818546622187270
  0.8374124372213103  0.1510988798406530  0.0258090487365834
  0.8374282624548641  0.8485018999048748  0.0257845709603757
  0.2462744975036131  0.1411960942474693  0.0030612629360718
  0.2462852836851326  0.8584462447372943  0.0030439190987295
  0.1637463251395630  0.9998027174905175  0.2294284331228269
  0.5065980713097460  0.4998287245017750  0.4976791162731828
  0.4526421829520260  0.4998180303754935  0.9933834977656133
  0.4578894245471901  0.9998294164076782  0.5362792528053006
  0.9933720255323166  0.4998498049964084  0.4467704114797115
 
  0.00000000E+00  0.00000000E+00  0.00000000E+00
  0.00000000E+00  0.00000000E+00  0.00000000E+00
  0.00000000E+00  0.00000000E+00  0.00000000E+00
  0.00000000E+00  0.00000000E+00  0.00000000E+00
  0.00000000E+00  0.00000000E+00  0.00000000E+00
  0.00000000E+00  0.00000000E+00  0.00000000E+00
  0.00000000E+00  0.00000000E+00  0.00000000E+00
  0.00000000E+00  0.00000000E+00  0.00000000E+00
  0.00000000E+00  0.00000000E+00  0.00000000E+00
  0.00000000E+00  0.00000000E+00  0.00000000E+00
  0.00000000E+00  0.00000000E+00  0.00000000E+00
  0.00000000E+00  0.00000000E+00  0.00000000E+00
