Ca2 Al2 Br6                             
   1.00000000000000     
     2.1402200201202288   -7.2557913897663306   -0.0070035891780017
     2.1376515619693461    7.2554305897801710    0.0071816363551163
    -0.0000637787961241    0.0035494096443759   11.0694993379777635
   Br   Ca   Al
     6     2     2
Direct
  0.3770324719174809  0.6228647480661564  0.0271029552322801
  0.0680517147680035  0.9319512068416103  0.2442166392253355
  0.3580750446277960  0.6419022757230124  0.4422259791851957
  0.6230779583354433  0.3768783131198319  0.5277828853274826
  0.9317234106825723  0.0681018539434177  0.7439945028546546
  0.6417526607946300  0.3581028053204847  0.9416954694494990
  0.0124633780825505  0.9872244248462891  0.9866404746475652
  0.9875377370345220  0.0125964836773065  0.4869432198493229
  0.7101748302384934  0.2898411822925837  0.3004876600029576
  0.2897107935185019  0.7101367061693153  0.7994102142257091
 
  0.00000000E+00  0.00000000E+00  0.00000000E+00
  0.00000000E+00  0.00000000E+00  0.00000000E+00
  0.00000000E+00  0.00000000E+00  0.00000000E+00
  0.00000000E+00  0.00000000E+00  0.00000000E+00
  0.00000000E+00  0.00000000E+00  0.00000000E+00
  0.00000000E+00  0.00000000E+00  0.00000000E+00
  0.00000000E+00  0.00000000E+00  0.00000000E+00
  0.00000000E+00  0.00000000E+00  0.00000000E+00
  0.00000000E+00  0.00000000E+00  0.00000000E+00
  0.00000000E+00  0.00000000E+00  0.00000000E+00
