Be16 Al13                               
   1.00000000000000     
     5.8810908480204702   -3.6019056582803635    2.3456201815351316
    -0.0723426268516309    7.4210088838032835    2.7978124942321889
    -6.1468025268618600   -3.7134211011697444    2.9095070165192696
   Al   Be
    13    16
Direct
  0.4902168344860200  0.8019454991910067  0.9388276789051702
  0.8526414153181108  0.7666027664141453  0.0423811562836320
  0.4607403445654157  0.1566133175659274  0.9542688785494917
  0.4641949673501600  0.4752020977274611  0.3278650674726009
  0.2842966984087241  0.7866935646516566  0.2341301450221209
  0.8700118065160112  0.2126127824799511  0.1770306299050475
  0.2150142696625679  0.1193191001592808  0.3281733123303781
  0.2157894725624629  0.4701343492261856  0.5726736600077587
  0.6935493886405055  0.8668024751076473  0.3327903768832456
  0.8776734899383740  0.8412731449938846  0.6949279475321788
  0.7676800072966259  0.1516444495301243  0.7673154834041682
  0.0079054691188318  0.5432686385602636  0.8159633835894766
  0.1241971275408460  0.1669137788668920  0.6714727220062144
  0.1958124561012227  0.9147293425316434  0.9931126634550935
  0.1256510544748011  0.1696525019595114  0.0033451461970486
  0.0988427693346523  0.4338854403580896  0.0806768650073479
  0.3807769231776135  0.4677228717401221  0.0043450712877657
  0.7322155903844987  0.5255615607202557  0.1747712352907911
  0.5441559311581656  0.0929649427770016  0.2514231740761659
  0.0807078063928799  0.5919375579211916  0.3487799445618052
  0.0106949600651305  0.8314328947580307  0.4122279558245552
  0.8398400757506934  0.4982282485809861  0.4594766214023096
  0.4774055049910686  0.7795407546144446  0.5820480614550476
  0.8551752040214780  0.2399993118973072  0.5026891196198093
  0.3743929760309470  0.0315288308355477  0.5935745205086747
  0.5965870611722508  0.5806367241863555  0.6833492731701725
  0.6084282310285190  0.3038548827619962  0.5518940984507594
  0.1947702827790607  0.7904171007614309  0.6746858535192004
  0.5603018817323573  0.3890410691216815  0.8257829542819835
 
  0.00000000E+00  0.00000000E+00  0.00000000E+00
  0.00000000E+00  0.00000000E+00  0.00000000E+00
  0.00000000E+00  0.00000000E+00  0.00000000E+00
  0.00000000E+00  0.00000000E+00  0.00000000E+00
  0.00000000E+00  0.00000000E+00  0.00000000E+00
  0.00000000E+00  0.00000000E+00  0.00000000E+00
  0.00000000E+00  0.00000000E+00  0.00000000E+00
  0.00000000E+00  0.00000000E+00  0.00000000E+00
  0.00000000E+00  0.00000000E+00  0.00000000E+00
  0.00000000E+00  0.00000000E+00  0.00000000E+00
  0.00000000E+00  0.00000000E+00  0.00000000E+00
  0.00000000E+00  0.00000000E+00  0.00000000E+00
  0.00000000E+00  0.00000000E+00  0.00000000E+00
  0.00000000E+00  0.00000000E+00  0.00000000E+00
  0.00000000E+00  0.00000000E+00  0.00000000E+00
  0.00000000E+00  0.00000000E+00  0.00000000E+00
  0.00000000E+00  0.00000000E+00  0.00000000E+00
  0.00000000E+00  0.00000000E+00  0.00000000E+00
  0.00000000E+00  0.00000000E+00  0.00000000E+00
  0.00000000E+00  0.00000000E+00  0.00000000E+00
  0.00000000E+00  0.00000000E+00  0.00000000E+00
  0.00000000E+00  0.00000000E+00  0.00000000E+00
  0.00000000E+00  0.00000000E+00  0.00000000E+00
  0.00000000E+00  0.00000000E+00  0.00000000E+00
  0.00000000E+00  0.00000000E+00  0.00000000E+00
  0.00000000E+00  0.00000000E+00  0.00000000E+00
  0.00000000E+00  0.00000000E+00  0.00000000E+00
  0.00000000E+00  0.00000000E+00  0.00000000E+00
  0.00000000E+00  0.00000000E+00  0.00000000E+00
