Sr17 In11 F1                            
   1.0000000000000000     
     8.7731167731906545   -5.5327277576692326    3.4152347477129670
     0.0751203956050795   11.7282622333344175    4.1886240209473629
    -8.6593352644649162   -5.5429010885529175    3.1120386708315366
   In   F    Sr
    11     1    17
Direct
  0.6019169689502277  0.8147961478597878  0.9996776473609188
  0.3780022645098029  0.3563261472603827  0.1985638268870886
  0.1937529938252567  0.8953802034645548  0.1935823976500330
  0.8031884579523236  0.1543717916785354  0.1852344991375290
  0.1921469360302197  0.3531800680188795  0.3814519818216198
  0.4011119333660886  0.2245839320616980  0.4009349922530987
  0.0007064257574996  0.8241774942240454  0.5993272032418275
  0.8118662556491572  0.9726373499983083  0.6184911878816379
  0.6182039208964270  0.9690895026584059  0.8144451253903924
  0.0002175849455739  0.7017987129533836  0.8059802970467231
  0.1808439529976482  0.1587215686705576  0.8028627493488472
  0.8534913116270886  0.4068375662965948  0.0000074936433023
  0.0009856476451162  0.2977481472986199  0.0002256201073578
  0.2611531344793860  0.6542453911173567  0.9999260076678382
  0.3562578148088704  0.0111463871947777  0.0001168255783739
  0.6131357879850370  0.2899720701529063  0.9998497483317337
  0.0008938049345417  0.0069161142331851  0.9997644018048533
  0.6432761172825039  0.6565846076393740  0.2393623214655278
  0.9916413934766268  0.6444838209595076  0.2370370349871891
  0.5921083377525136  0.0201721604755249  0.3521618467434990
  0.9778816947189242  0.9930917756923634  0.3450759489519655
  0.4051672507994368  0.7046883494651581  0.4039151724836003
  0.7553941250188743  0.4333037070052654  0.4209886914476400
  0.3342459025670053  0.0126195254359729  0.5787701345713501
  0.0011546723132696  0.3003432882514403  0.5964035718917060
  0.6324788719401226  0.6475318528866580  0.6540519307247337
  0.2399395341608468  0.6679160945937710  0.6477185052270613
  0.7550388353734760  0.4079070301430292  0.7633844887266434
  0.4042120682360917  0.4175851923099714  0.7606883476259014

  0.00000000E+00  0.00000000E+00  0.00000000E+00
  0.00000000E+00  0.00000000E+00  0.00000000E+00
  0.00000000E+00  0.00000000E+00  0.00000000E+00
  0.00000000E+00  0.00000000E+00  0.00000000E+00
  0.00000000E+00  0.00000000E+00  0.00000000E+00
  0.00000000E+00  0.00000000E+00  0.00000000E+00
  0.00000000E+00  0.00000000E+00  0.00000000E+00
  0.00000000E+00  0.00000000E+00  0.00000000E+00
  0.00000000E+00  0.00000000E+00  0.00000000E+00
  0.00000000E+00  0.00000000E+00  0.00000000E+00
  0.00000000E+00  0.00000000E+00  0.00000000E+00
  0.00000000E+00  0.00000000E+00  0.00000000E+00
  0.00000000E+00  0.00000000E+00  0.00000000E+00
  0.00000000E+00  0.00000000E+00  0.00000000E+00
  0.00000000E+00  0.00000000E+00  0.00000000E+00
  0.00000000E+00  0.00000000E+00  0.00000000E+00
  0.00000000E+00  0.00000000E+00  0.00000000E+00
  0.00000000E+00  0.00000000E+00  0.00000000E+00
  0.00000000E+00  0.00000000E+00  0.00000000E+00
  0.00000000E+00  0.00000000E+00  0.00000000E+00
  0.00000000E+00  0.00000000E+00  0.00000000E+00
  0.00000000E+00  0.00000000E+00  0.00000000E+00
  0.00000000E+00  0.00000000E+00  0.00000000E+00
  0.00000000E+00  0.00000000E+00  0.00000000E+00
  0.00000000E+00  0.00000000E+00  0.00000000E+00
  0.00000000E+00  0.00000000E+00  0.00000000E+00
  0.00000000E+00  0.00000000E+00  0.00000000E+00
  0.00000000E+00  0.00000000E+00  0.00000000E+00
  0.00000000E+00  0.00000000E+00  0.00000000E+00
