In6 I24                                 
   1.00000000000000     
     0.0000000000000000   10.1970614742555750   10.1970614742555750
    10.1970614742555750    0.0000000000000000   10.1970614742555750
    10.1970614742555750   10.1970614742555750    0.0000000000000000
   In   I 
     6    24
Direct
  0.7500000000000000  0.2500000000000000  0.2500000000000000
  0.2500000000000000  0.2500000000000000  0.7500000000000000
  0.2500000000000000  0.7500000000000000  0.2500000000000000
  0.7500000000000000  0.2500000000000000  0.7500000000000000
  0.2500000000000000  0.7500000000000000  0.7500000000000000
  0.7500000000000000  0.7500000000000000  0.2500000000000000
  0.7834893330259405  0.5618134022528949  0.2165106669740595
  0.4381865977471051  0.5618134022528949  0.7834893330259405
  0.2165106669740595  0.7834893330259405  0.5618134022528949
  0.5618134022528949  0.7834893330259405  0.4381865977471051
  0.5618134022528949  0.2165106669740595  0.7834893330259405
  0.2165106669740595  0.5618134022528949  0.4381865977471051
  0.7834893330259405  0.4381865977471051  0.5618134022528949
  0.4381865977471051  0.7834893330259405  0.2165106669740595
  0.4381865977471051  0.2165106669740595  0.5618134022528949
  0.7834893330259405  0.2165106669740595  0.4381865977471051
  0.5618134022528949  0.4381865977471051  0.2165106669740595
  0.2165106669740595  0.4381865977471051  0.7834893330259405
  0.7165106669740595  0.0618134022528949  0.2834893330259405
  0.0618134022528949  0.2834893330259405  0.7165106669740595
  0.2834893330259405  0.0618134022528949  0.9381865977471051
  0.9381865977471051  0.2834893330259405  0.0618134022528949
  0.2834893330259405  0.7165106669740595  0.0618134022528949
  0.9381865977471051  0.0618134022528949  0.7165106669740595
  0.0618134022528949  0.9381865977471051  0.2834893330259405
  0.7165106669740595  0.2834893330259405  0.9381865977471051
  0.0618134022528949  0.7165106669740595  0.9381865977471051
  0.9381865977471051  0.7165106669740595  0.2834893330259405
  0.7165106669740595  0.9381865977471051  0.0618134022528949
  0.2834893330259405  0.9381865977471051  0.7165106669740595
 
  0.00000000E+00  0.00000000E+00  0.00000000E+00
  0.00000000E+00  0.00000000E+00  0.00000000E+00
  0.00000000E+00  0.00000000E+00  0.00000000E+00
  0.00000000E+00  0.00000000E+00  0.00000000E+00
  0.00000000E+00  0.00000000E+00  0.00000000E+00
  0.00000000E+00  0.00000000E+00  0.00000000E+00
  0.00000000E+00  0.00000000E+00  0.00000000E+00
  0.00000000E+00  0.00000000E+00  0.00000000E+00
  0.00000000E+00  0.00000000E+00  0.00000000E+00
  0.00000000E+00  0.00000000E+00  0.00000000E+00
  0.00000000E+00  0.00000000E+00  0.00000000E+00
  0.00000000E+00  0.00000000E+00  0.00000000E+00
  0.00000000E+00  0.00000000E+00  0.00000000E+00
  0.00000000E+00  0.00000000E+00  0.00000000E+00
  0.00000000E+00  0.00000000E+00  0.00000000E+00
  0.00000000E+00  0.00000000E+00  0.00000000E+00
  0.00000000E+00  0.00000000E+00  0.00000000E+00
  0.00000000E+00  0.00000000E+00  0.00000000E+00
  0.00000000E+00  0.00000000E+00  0.00000000E+00
  0.00000000E+00  0.00000000E+00  0.00000000E+00
  0.00000000E+00  0.00000000E+00  0.00000000E+00
  0.00000000E+00  0.00000000E+00  0.00000000E+00
  0.00000000E+00  0.00000000E+00  0.00000000E+00
  0.00000000E+00  0.00000000E+00  0.00000000E+00
  0.00000000E+00  0.00000000E+00  0.00000000E+00
  0.00000000E+00  0.00000000E+00  0.00000000E+00
  0.00000000E+00  0.00000000E+00  0.00000000E+00
  0.00000000E+00  0.00000000E+00  0.00000000E+00
  0.00000000E+00  0.00000000E+00  0.00000000E+00
  0.00000000E+00  0.00000000E+00  0.00000000E+00
