Sr4 B4 Br20                             
   1.0000000000000000     
     9.1420698510170642    0.0000000000000000    0.0000000000000000
     0.0000000000000000   15.9971589680344461   -5.0984832208769184
     0.0000000000000000    2.0862540861409147    7.9564350883476873
   Sr   B    Br
     4     4    20
Direct
  0.1246232315363045  0.4976163800614799  0.2501040781241315
  0.6246232315363045  0.5023836199385201  0.2498959218758685
  0.8753767684636955  0.5023836199385201  0.7498959218758685
  0.3753767684636955  0.4976163800614799  0.7501040781241315
  0.7417258108174494  0.8843903053538966  0.6276189410534130
  0.2417258108174565  0.1156096946461105  0.8723810589465870
  0.2582741891825435  0.1156096946461105  0.3723810589465941
  0.7582741891825506  0.8843903053538966  0.1276189410534059
  0.6277978615321089  0.4086137481998620  0.5688535872936313
  0.1277978615321089  0.5913862518001380  0.9311464127063687
  0.3722021384678911  0.5913862518001380  0.4311464127063687
  0.8722021384678911  0.4086137481998620  0.0688535872936313
  0.7447032781184291  0.9908166601292194  0.5579419328600537
  0.2447032781184291  0.0091833398707806  0.9420580671399463
  0.2552967218815709  0.0091833398707806  0.4420580671399392
  0.7552967218815709  0.9908166601292194  0.0579419328600608
  0.4209010347620108  0.1703949639933100  0.8365342267305351
  0.9209010347620108  0.8296050360066900  0.6634657732694649
  0.5790989652379892  0.8296050360066900  0.1634657732694649
  0.0790989652379892  0.1703949639933100  0.3365342267305422
  0.5597410184412581  0.8318927604556805  0.6608509638751556
  0.0597410184412510  0.1681072395443195  0.8391490361248444
  0.4402589815587490  0.1681072395443195  0.3391490361248515
  0.9402589815587419  0.8318927604556805  0.1608509638751556
  0.3772524846814989  0.4078549188913456  0.0722672595274005
  0.8772524846814989  0.5921450811086544  0.4277327404725995
  0.6227475153185011  0.5921450811086544  0.9277327404726066
  0.1227475153185011  0.4078549188913456  0.5722672595273934

  0.00000000E+00  0.00000000E+00  0.00000000E+00
  0.00000000E+00  0.00000000E+00  0.00000000E+00
  0.00000000E+00  0.00000000E+00  0.00000000E+00
  0.00000000E+00  0.00000000E+00  0.00000000E+00
  0.00000000E+00  0.00000000E+00  0.00000000E+00
  0.00000000E+00  0.00000000E+00  0.00000000E+00
  0.00000000E+00  0.00000000E+00  0.00000000E+00
  0.00000000E+00  0.00000000E+00  0.00000000E+00
  0.00000000E+00  0.00000000E+00  0.00000000E+00
  0.00000000E+00  0.00000000E+00  0.00000000E+00
  0.00000000E+00  0.00000000E+00  0.00000000E+00
  0.00000000E+00  0.00000000E+00  0.00000000E+00
  0.00000000E+00  0.00000000E+00  0.00000000E+00
  0.00000000E+00  0.00000000E+00  0.00000000E+00
  0.00000000E+00  0.00000000E+00  0.00000000E+00
  0.00000000E+00  0.00000000E+00  0.00000000E+00
  0.00000000E+00  0.00000000E+00  0.00000000E+00
  0.00000000E+00  0.00000000E+00  0.00000000E+00
  0.00000000E+00  0.00000000E+00  0.00000000E+00
  0.00000000E+00  0.00000000E+00  0.00000000E+00
  0.00000000E+00  0.00000000E+00  0.00000000E+00
  0.00000000E+00  0.00000000E+00  0.00000000E+00
  0.00000000E+00  0.00000000E+00  0.00000000E+00
  0.00000000E+00  0.00000000E+00  0.00000000E+00
  0.00000000E+00  0.00000000E+00  0.00000000E+00
  0.00000000E+00  0.00000000E+00  0.00000000E+00
  0.00000000E+00  0.00000000E+00  0.00000000E+00
  0.00000000E+00  0.00000000E+00  0.00000000E+00
