Ca5 Ga1                                 
   1.00000000000000     
    -5.6878638955003629    2.7153767979155297   -0.2085349519639888
    -0.4521505709807198   -6.2066052236924625    0.2470962488497992
    -1.6376926074644524    2.7486046909102879    6.0481798563572990
   Ga   Ca
     1     5
Direct
  0.7683415674807961  0.4498132677157187  0.5106960342720583
  0.6316593424169312  0.2929267438451646  0.9994129369543643
  0.9946462926486461  0.8769952287337759  0.8453785295436091
  0.2050731831200494  0.6442957938174345  0.1528339426755210
  0.6696380542328768  0.9015936366619997  0.4487307883163183
  0.2296415601007169  0.3343753292259208  0.5429477682381432
 
  0.00000000E+00  0.00000000E+00  0.00000000E+00
  0.00000000E+00  0.00000000E+00  0.00000000E+00
  0.00000000E+00  0.00000000E+00  0.00000000E+00
  0.00000000E+00  0.00000000E+00  0.00000000E+00
  0.00000000E+00  0.00000000E+00  0.00000000E+00
  0.00000000E+00  0.00000000E+00  0.00000000E+00
