Mg2 In2 Cl10                            
   1.0000000000000000     
     4.6257552747255843   -0.0000000000000001    0.0000000000000003
    -0.0000000000000010   10.8184029766789891    0.0000000000000010
     0.0000000000000001    0.0000000000000004   11.3643422340848375
   Mg   In   Cl
     2     2    10
Direct
  0.0000000000000000  0.0000000000000000  0.5000000000000000
  0.5000000000000000  0.5000000000000000  0.0000000000000000
  0.5000000000000000  0.0000000000000000  0.0000000000000000
  0.0000000000000000  0.5000000000000000  0.5000000000000000
  0.5000000000000000  0.8559709135311024  0.5000000000000000
  0.5000000000000000  0.1440290864688976  0.5000000000000000
  0.5000000000000000  0.0000000000000000  0.2089559181784679
  0.5000000000000000  0.0000000000000000  0.7910440818215321
  0.0000000000000000  0.0000000000000000  0.0000000000000000
  0.0000000000000000  0.3559709135311024  0.0000000000000000
  0.0000000000000000  0.6440290864688976  0.0000000000000000
  0.0000000000000000  0.5000000000000000  0.7089559181784679
  0.0000000000000000  0.5000000000000000  0.2910440818215321
  0.5000000000000000  0.5000000000000000  0.5000000000000000

  0.00000000E+00  0.00000000E+00  0.00000000E+00
  0.00000000E+00  0.00000000E+00  0.00000000E+00
  0.00000000E+00  0.00000000E+00  0.00000000E+00
  0.00000000E+00  0.00000000E+00  0.00000000E+00
  0.00000000E+00  0.00000000E+00  0.00000000E+00
  0.00000000E+00  0.00000000E+00  0.00000000E+00
  0.00000000E+00  0.00000000E+00  0.00000000E+00
  0.00000000E+00  0.00000000E+00  0.00000000E+00
  0.00000000E+00  0.00000000E+00  0.00000000E+00
  0.00000000E+00  0.00000000E+00  0.00000000E+00
  0.00000000E+00  0.00000000E+00  0.00000000E+00
  0.00000000E+00  0.00000000E+00  0.00000000E+00
  0.00000000E+00  0.00000000E+00  0.00000000E+00
  0.00000000E+00  0.00000000E+00  0.00000000E+00
