Ba2                                     
   1.00000000000000     
     0.0000000000000000    4.4599139669433470    0.0000000103058740
     0.0000000000000000   -2.2299574813064651    3.8603170878005235
     7.3105465771196103    0.0000000000000000    0.0000000000000000
   Ba
     2
Direct
  0.8334594016743821  0.1669198033798693  0.7500000000000000
  0.1665405983256179  0.8330801966201307  0.2500000000000000
 
  0.00000000E+00  0.00000000E+00  0.00000000E+00
  0.00000000E+00  0.00000000E+00  0.00000000E+00
