In4 Br2                                 
   1.00000000000000     
     8.2429986403704518    0.0000000000000001    0.0000000000000000
     0.0000000000000001    8.2429986403704518    0.0000000000000000
     0.0000000000000000    0.0000000000000000    3.6164848001843359
   In   Br
     4     2
Direct
  0.2734266863981176  0.2734266863981176  0.0000000000000000
  0.7265733136018824  0.7265733136018824  0.0000000000000000
  0.7734266863981176  0.2265733136018824  0.5000000000000000
  0.2265733136018824  0.7734266863981176  0.5000000000000000
  0.0000000000000000  0.0000000000000000  0.0000000000000000
  0.5000000000000000  0.5000000000000000  0.5000000000000000
 
  0.00000000E+00  0.00000000E+00  0.00000000E+00
  0.00000000E+00  0.00000000E+00  0.00000000E+00
  0.00000000E+00  0.00000000E+00  0.00000000E+00
  0.00000000E+00  0.00000000E+00  0.00000000E+00
  0.00000000E+00  0.00000000E+00  0.00000000E+00
  0.00000000E+00  0.00000000E+00  0.00000000E+00
