Sr1 Tl2 F10                             
   1.0000000000000000     
     3.4846648598321104    3.7530749501244896    0.4689503724715143
    -3.4846648598321104    3.7530749501244896    0.4689503724715143
     0.0000000000000000    3.3031192772048863    6.9164101738866526
   Sr   Tl   F 
     1     2    10
Direct
  0.4561508904243254  0.5438491095756746  0.0000000000000000
  0.2178326528321506  0.2496003673573313  0.5663216386589198
  0.7503996326426687  0.7821673471678210  0.4336783613410802
  0.3597101352986343  0.4855599993945248  0.7033556921551565
  0.5144400006054752  0.6402898647013657  0.2966443078448506
  0.9323819497536689  0.8066313647301371  0.8741101440441952
  0.1933686352698629  0.0676180502463311  0.1258898559558048
  0.0529057580421650  0.9470942419578350  0.0000000000000000
  0.0858357843511897  0.9141642156488103  0.5000000000000000
  0.8263795732289267  0.3994599309937570  0.7321528846517609
  0.6005400690062430  0.1736204267710733  0.2678471153482391
  0.5297405902644172  0.9756866717197283  0.6720091301659110
  0.0243133282802717  0.4702594097355828  0.3279908698340890

  0.00000000E+00  0.00000000E+00  0.00000000E+00
  0.00000000E+00  0.00000000E+00  0.00000000E+00
  0.00000000E+00  0.00000000E+00  0.00000000E+00
  0.00000000E+00  0.00000000E+00  0.00000000E+00
  0.00000000E+00  0.00000000E+00  0.00000000E+00
  0.00000000E+00  0.00000000E+00  0.00000000E+00
  0.00000000E+00  0.00000000E+00  0.00000000E+00
  0.00000000E+00  0.00000000E+00  0.00000000E+00
  0.00000000E+00  0.00000000E+00  0.00000000E+00
  0.00000000E+00  0.00000000E+00  0.00000000E+00
  0.00000000E+00  0.00000000E+00  0.00000000E+00
  0.00000000E+00  0.00000000E+00  0.00000000E+00
  0.00000000E+00  0.00000000E+00  0.00000000E+00
