Tl8 Cl14                                
   1.0000000000000000     
     3.7930739975967591   -6.5681663041834710    0.0163181625929748
    -3.7930739975967591   -6.5681663041834710    0.0163181625929748
     0.0000000000000000    4.4154838247310231  -15.6112487555992949
   Cl   Tl
    14     8
Direct
  0.3448361763216070  0.3448361763216070  0.0383506406131602
  0.9015585279755527  0.3699996631879472  0.1714469737802844
  0.3699996631879472  0.9015585279755527  0.1714469737802844
  0.9027533089785820  0.9027533089785820  0.1727191163872845
  0.6297317500308139  0.1418067363607349  0.4009716183570120
  0.1418067363607349  0.6297317500308139  0.4009716183570120
  0.6297976424059257  0.6297976424059257  0.4018793879475808
  0.3700730414960915  0.3700730414960915  0.5981974728248431
  0.8581250865417189  0.3700110982572440  0.5990934138769788
  0.3700110982572440  0.8581250865417189  0.5990934138769788
  0.0974798396866206  0.0974798396866206  0.8272799391188386
  0.6300921696197364  0.0986465857985266  0.8283576886031270
  0.0986465857985266  0.6300921696197364  0.8283576886031270
  0.6555397374259542  0.6555397374259542  0.9615817362728833
  0.0001603674354342  0.0001603674354342  0.9998394800169734
  0.7079110986647592  0.7079110986647592  0.1203155241730727
  0.4162191351571209  0.4162191351571209  0.2483955155356909
  0.1505601979956879  0.1505601979956879  0.4566676018900608
  0.4999593351431457  0.4999593351431457  0.5000315471973096
  0.8494086043513533  0.8494086043513533  0.5433993093458440
  0.5837418852982950  0.5837418852982950  0.7516823645357960
  0.2923880118671391  0.2923880118671391  0.8796209749058406

  0.00000000E+00  0.00000000E+00  0.00000000E+00
  0.00000000E+00  0.00000000E+00  0.00000000E+00
  0.00000000E+00  0.00000000E+00  0.00000000E+00
  0.00000000E+00  0.00000000E+00  0.00000000E+00
  0.00000000E+00  0.00000000E+00  0.00000000E+00
  0.00000000E+00  0.00000000E+00  0.00000000E+00
  0.00000000E+00  0.00000000E+00  0.00000000E+00
  0.00000000E+00  0.00000000E+00  0.00000000E+00
  0.00000000E+00  0.00000000E+00  0.00000000E+00
  0.00000000E+00  0.00000000E+00  0.00000000E+00
  0.00000000E+00  0.00000000E+00  0.00000000E+00
  0.00000000E+00  0.00000000E+00  0.00000000E+00
  0.00000000E+00  0.00000000E+00  0.00000000E+00
  0.00000000E+00  0.00000000E+00  0.00000000E+00
  0.00000000E+00  0.00000000E+00  0.00000000E+00
  0.00000000E+00  0.00000000E+00  0.00000000E+00
  0.00000000E+00  0.00000000E+00  0.00000000E+00
  0.00000000E+00  0.00000000E+00  0.00000000E+00
  0.00000000E+00  0.00000000E+00  0.00000000E+00
  0.00000000E+00  0.00000000E+00  0.00000000E+00
  0.00000000E+00  0.00000000E+00  0.00000000E+00
  0.00000000E+00  0.00000000E+00  0.00000000E+00
