Sr4 B4 Cl2                              
   1.00000000000000     
     4.2764792548681143   -0.5646223662774472    0.0003419030570985
    -2.6247720517400115    3.4220533853811679   -0.0003741783773569
     0.0013784936425973   -0.0008196085981468   16.0258988328656251
   B    Cl   Sr
     4     2     4
Direct
  0.2716591379690527  0.7282813898852467  0.9995802854837876
  0.2716209125160489  0.7282959830075271  0.5004877494745301
  0.7283174639079277  0.2717504542857583  0.4995725341054111
  0.7283116391671172  0.2717512882536539  0.0004782887782895
  0.6710685605857520  0.3292035029379505  0.2499620982064386
  0.3290895830420837  0.6706430826857499  0.7500889940643276
  0.0034324410164928  0.9974262277828458  0.1110712900894413
  0.0035645630163899  0.9973758801342285  0.3889538691916599
  0.9963932595649680  0.0026732577279986  0.6110900652932401
  0.9965424392141315  0.0025989332990406  0.8889948253128850
 
  0.00000000E+00  0.00000000E+00  0.00000000E+00
  0.00000000E+00  0.00000000E+00  0.00000000E+00
  0.00000000E+00  0.00000000E+00  0.00000000E+00
  0.00000000E+00  0.00000000E+00  0.00000000E+00
  0.00000000E+00  0.00000000E+00  0.00000000E+00
  0.00000000E+00  0.00000000E+00  0.00000000E+00
  0.00000000E+00  0.00000000E+00  0.00000000E+00
  0.00000000E+00  0.00000000E+00  0.00000000E+00
  0.00000000E+00  0.00000000E+00  0.00000000E+00
  0.00000000E+00  0.00000000E+00  0.00000000E+00
