Ca4 Al4 Cl20                            
   1.0000000000000000     
     6.9181095025040280   -0.0000000000000004    0.0000000000000003
    -0.0000000000000008   11.9183985055408961    0.0000000000000005
     0.0000000000000003    0.0000000000000008   12.5724926729211841
   Ca   Al   Cl
     4     4    20
Direct
  0.7450516250652441  0.7460508436907674  0.6162289911783887
  0.2450516250652441  0.7539491563092326  0.3837710088216113
  0.2549483749347559  0.2460508436907674  0.8837710088216113
  0.7549483749347559  0.2539491563092326  0.1162289911783887
  0.2949509933230985  0.9751271765196492  0.6413281465303484
  0.7949509933230985  0.5248728234803508  0.3586718534696516
  0.7050490066769015  0.4751271765196492  0.8586718534696516
  0.2050490066769015  0.0248728234803508  0.1413281465303484
  0.8855223871779714  0.8153611338879401  0.4329664642590316
  0.3855223871779714  0.6846388661120599  0.5670335357409684
  0.1144776128220286  0.3153611338879401  0.0670335357409684
  0.6144776128220286  0.1846388661120599  0.9329664642590316
  0.5699715515332855  0.6272885481740644  0.2897740362519343
  0.0699715515332855  0.8727114518259356  0.7102259637480586
  0.4300284484667145  0.1272885481740644  0.2102259637480586
  0.9300284484667145  0.3727114518259356  0.7897740362519343
  0.2258365336896304  0.1496612861395406  0.6782848962993810
  0.7258365336896233  0.3503387138604594  0.3217151037006261
  0.7741634663103767  0.6496612861395406  0.8217151037006190
  0.2741634663103696  0.8503387138604594  0.1782848962993739
  0.5698372349346172  0.9358849601642873  0.7151020570277851
  0.0698372349346172  0.5641150398357127  0.2848979429722149
  0.4301627650653828  0.4358849601642945  0.7848979429722149
  0.9301627650653828  0.0641150398357055  0.2151020570277851
  0.8304821638012072  0.5281803348126033  0.5300590095049103
  0.3304821638012072  0.9718196651874038  0.4699409904950897
  0.1695178361987928  0.0281803348125962  0.9699409904950897
  0.6695178361987928  0.4718196651874038  0.0300590095049103

  0.00000000E+00  0.00000000E+00  0.00000000E+00
  0.00000000E+00  0.00000000E+00  0.00000000E+00
  0.00000000E+00  0.00000000E+00  0.00000000E+00
  0.00000000E+00  0.00000000E+00  0.00000000E+00
  0.00000000E+00  0.00000000E+00  0.00000000E+00
  0.00000000E+00  0.00000000E+00  0.00000000E+00
  0.00000000E+00  0.00000000E+00  0.00000000E+00
  0.00000000E+00  0.00000000E+00  0.00000000E+00
  0.00000000E+00  0.00000000E+00  0.00000000E+00
  0.00000000E+00  0.00000000E+00  0.00000000E+00
  0.00000000E+00  0.00000000E+00  0.00000000E+00
  0.00000000E+00  0.00000000E+00  0.00000000E+00
  0.00000000E+00  0.00000000E+00  0.00000000E+00
  0.00000000E+00  0.00000000E+00  0.00000000E+00
  0.00000000E+00  0.00000000E+00  0.00000000E+00
  0.00000000E+00  0.00000000E+00  0.00000000E+00
  0.00000000E+00  0.00000000E+00  0.00000000E+00
  0.00000000E+00  0.00000000E+00  0.00000000E+00
  0.00000000E+00  0.00000000E+00  0.00000000E+00
  0.00000000E+00  0.00000000E+00  0.00000000E+00
  0.00000000E+00  0.00000000E+00  0.00000000E+00
  0.00000000E+00  0.00000000E+00  0.00000000E+00
  0.00000000E+00  0.00000000E+00  0.00000000E+00
  0.00000000E+00  0.00000000E+00  0.00000000E+00
  0.00000000E+00  0.00000000E+00  0.00000000E+00
  0.00000000E+00  0.00000000E+00  0.00000000E+00
  0.00000000E+00  0.00000000E+00  0.00000000E+00
  0.00000000E+00  0.00000000E+00  0.00000000E+00
