Be6 Tl10                                
   1.0000000000000000     
    -6.6357246862276922   -5.6823620082484361    1.2061962261577992
    -5.5650857519340482    3.8525101509018249    0.5107184901477173
     1.2742523853094772    0.7449401730397609   -6.7172340233161556
   Be   Tl
     6    10
Direct
  0.2791243188504495  0.3310999976233404  0.0928496525570139
  0.7435348743556958  0.6314615381015969  0.1143659756824178
  0.8341327911718039  0.8700290438683211  0.3335135933796423
  0.3715909454457815  0.4280233190832732  0.4275777148436291
  0.8364973930449011  0.6003110873382553  0.4505298733771212
  0.8870671688018419  0.8769494703431988  0.6625574671539383
  0.7679833252098973  0.9918555408132761  0.9719108634723668
  0.5081630303474540  0.9857623369398141  0.3379361798112299
  0.0528871766953500  0.3715229937899807  0.2711942832885654
  0.5249585236221961  0.4945078218367840  0.1767983148967218
  0.8398027534497530  0.2324326900931837  0.5301331142283772
  0.1759838736145412  0.8327250799625787  0.4090135019076513
  0.5779029775510196  0.5906449902022857  0.7307531015676858
  0.0528528664258729  0.5550157634223254  0.8380965654928971
  0.3813797608940419  0.2123531065742412  0.7342649736823574
  0.1662382205194248  0.9954052200075623  0.9187048246583771

  0.00000000E+00  0.00000000E+00  0.00000000E+00
  0.00000000E+00  0.00000000E+00  0.00000000E+00
  0.00000000E+00  0.00000000E+00  0.00000000E+00
  0.00000000E+00  0.00000000E+00  0.00000000E+00
  0.00000000E+00  0.00000000E+00  0.00000000E+00
  0.00000000E+00  0.00000000E+00  0.00000000E+00
  0.00000000E+00  0.00000000E+00  0.00000000E+00
  0.00000000E+00  0.00000000E+00  0.00000000E+00
  0.00000000E+00  0.00000000E+00  0.00000000E+00
  0.00000000E+00  0.00000000E+00  0.00000000E+00
  0.00000000E+00  0.00000000E+00  0.00000000E+00
  0.00000000E+00  0.00000000E+00  0.00000000E+00
  0.00000000E+00  0.00000000E+00  0.00000000E+00
  0.00000000E+00  0.00000000E+00  0.00000000E+00
  0.00000000E+00  0.00000000E+00  0.00000000E+00
  0.00000000E+00  0.00000000E+00  0.00000000E+00
