Be2 Ga7                                 
   1.00000000000000     
     4.1925110223606952    1.6393109707498357    0.7090909478075684
    -0.9513183940378608    5.4218888349487404   -0.4463746787680846
     0.3367563641713504    0.1044292448529472    6.1822160296302773
   Ga   Be
     7     2
Direct
  0.1966909298753663  0.3989557003378721  0.2709337002295271
  0.2152819850170431  0.7901584288412238  0.0030063193115026
  0.6187654163884986  0.8035374752693656  0.2688815821149930
  0.0000000000000000  0.0000000000000000  0.5000000000000000
  0.3812345836114943  0.1964625247306344  0.7311184178850070
  0.7847180149829427  0.2098415711587833  0.9969936806884974
  0.8033090701246266  0.6010442996621279  0.7290662997704729
  0.6751456664460065  0.3522196788668737  0.3946248317031262
  0.3248543335539935  0.6477803211331263  0.6053751682968667
 
  0.00000000E+00  0.00000000E+00  0.00000000E+00
  0.00000000E+00  0.00000000E+00  0.00000000E+00
  0.00000000E+00  0.00000000E+00  0.00000000E+00
  0.00000000E+00  0.00000000E+00  0.00000000E+00
  0.00000000E+00  0.00000000E+00  0.00000000E+00
  0.00000000E+00  0.00000000E+00  0.00000000E+00
  0.00000000E+00  0.00000000E+00  0.00000000E+00
  0.00000000E+00  0.00000000E+00  0.00000000E+00
  0.00000000E+00  0.00000000E+00  0.00000000E+00
