ALGO = Normal
EDIFF = 0.000001
EDIFFG = -0.01
EMAX = 28
EMIN = -18
ENCUT = 800
ICHARG = 11
ISMEAR = 0
ISTART = 1
LASPH = True
LCHARG = False
LORBIT = 11
LREAL = False
LWAVE = False
NBANDS = 116
NCORE = 4
NEDOS = 4601
SIGMA = 0.05
