Sr3In11                                 
   1.0000000000000000     
     4.9154733813581988    0.0000000000000000    0.0000000000000000
    -2.4577366906790994   -5.8454643696390907    7.1853515801912478
    -2.4577366906790994   -5.8454643696390907   -7.1853515801912478
   In   Sr
    11     3
Direct
  0.3751741539724378  0.7166319885344024  0.0337163194104804
  0.2759467981679862  0.4224785698825713  0.1294150264533940
  0.6248258460275622  0.9662836805895196  0.2833680114655976
  0.8014456873869449  0.3014456873869449  0.3014456873869449
  0.2759467981679862  0.1294150264533940  0.4224785698825713
  0.5000000000000000  0.5000000000000000  0.5000000000000000
  0.7240532018320138  0.8705849735466060  0.5775214301174287
  0.1985543126130551  0.6985543126130551  0.6985543126130551
  0.3751741539724378  0.0337163194104804  0.7166319885344024
  0.7240532018320138  0.5775214301174287  0.8705849735466060
  0.6248258460275622  0.2833680114655976  0.9662836805895196
  0.0000000000000000  0.0000000000000000  0.0000000000000000
  0.0000000000000000  0.6874644483377210  0.3125355516622790
  0.0000000000000000  0.3125355516622790  0.6874644483377210

  0.00000000E+00  0.00000000E+00  0.00000000E+00
  0.00000000E+00  0.00000000E+00  0.00000000E+00
  0.00000000E+00  0.00000000E+00  0.00000000E+00
  0.00000000E+00  0.00000000E+00  0.00000000E+00
  0.00000000E+00  0.00000000E+00  0.00000000E+00
  0.00000000E+00  0.00000000E+00  0.00000000E+00
  0.00000000E+00  0.00000000E+00  0.00000000E+00
  0.00000000E+00  0.00000000E+00  0.00000000E+00
  0.00000000E+00  0.00000000E+00  0.00000000E+00
  0.00000000E+00  0.00000000E+00  0.00000000E+00
  0.00000000E+00  0.00000000E+00  0.00000000E+00
  0.00000000E+00  0.00000000E+00  0.00000000E+00
  0.00000000E+00  0.00000000E+00  0.00000000E+00
  0.00000000E+00  0.00000000E+00  0.00000000E+00
