Sr1 Tl2 F4                              
   1.0000000000000000     
    -2.3414981952138838    2.3414981952138834    6.9053279134678069
     2.3414981952138829   -2.3414981952138834    6.9053279134678069
     2.3414981952138838    2.3414981952138838   -6.9053279134678069
   Sr   F    Tl
     1     4     2
Direct
  0.0000000000000000  0.0000000000000000  0.0000000000000000
  0.1745079111888117  0.1745079111888117  0.0000000000000000
  0.8254920888111883  0.8254920888111883  0.0000000000000000
  0.5000000000000000  0.0000000000000000  0.5000000000000000
  0.0000000000000000  0.5000000000000000  0.5000000000000000
  0.3516594018764962  0.3516594018764962  0.0000000000000000
  0.6483405981235038  0.6483405981235038  0.0000000000000000

  0.00000000E+00  0.00000000E+00  0.00000000E+00
  0.00000000E+00  0.00000000E+00  0.00000000E+00
  0.00000000E+00  0.00000000E+00  0.00000000E+00
  0.00000000E+00  0.00000000E+00  0.00000000E+00
  0.00000000E+00  0.00000000E+00  0.00000000E+00
  0.00000000E+00  0.00000000E+00  0.00000000E+00
  0.00000000E+00  0.00000000E+00  0.00000000E+00
