Mg1 Al2 I10                             
   1.00000000000000     
     5.4861759517887636    6.5709532246762485   -0.1674965415043433
    -5.4861759517887636    6.5709532246762485   -0.1674965415043432
     0.0000000000000000    4.4232850392670660    9.6475047157494274
   Mg   Al   I 
     1     2    10
Direct
  0.2822333404559743  0.7177666595440257  0.0000000000000000
  0.0022529273896907  0.0399716813786952  0.7156590377002132
  0.9600283186213048  0.9977470726103093  0.2843409622997868
  0.2073697321484360  0.2338323702122977  0.6739014643921593
  0.7661676297877023  0.7926302678515711  0.3260985356078407
  0.9784034970644413  0.7727206790430259  0.9106292933555267
  0.2272793209569741  0.0215965029355587  0.0893707066444733
  0.7472541639862627  0.2527458360137373  0.0000000000000000
  0.0884144941940477  0.9115855058059523  0.5000000000000000
  0.7056587113407744  0.1969057399290790  0.7509360731142323
  0.8030942600709210  0.2943412886592256  0.2490639268857677
  0.5235386818287751  0.7476960778453048  0.7722476136389815
  0.2523039221546952  0.4764613181712249  0.2277523863610185
 
  0.00000000E+00  0.00000000E+00  0.00000000E+00
  0.00000000E+00  0.00000000E+00  0.00000000E+00
  0.00000000E+00  0.00000000E+00  0.00000000E+00
  0.00000000E+00  0.00000000E+00  0.00000000E+00
  0.00000000E+00  0.00000000E+00  0.00000000E+00
  0.00000000E+00  0.00000000E+00  0.00000000E+00
  0.00000000E+00  0.00000000E+00  0.00000000E+00
  0.00000000E+00  0.00000000E+00  0.00000000E+00
  0.00000000E+00  0.00000000E+00  0.00000000E+00
  0.00000000E+00  0.00000000E+00  0.00000000E+00
  0.00000000E+00  0.00000000E+00  0.00000000E+00
  0.00000000E+00  0.00000000E+00  0.00000000E+00
  0.00000000E+00  0.00000000E+00  0.00000000E+00
