TlCl4                                   
   1.0000000000000000     
     3.3985838928208603   -5.8880900828952232    0.0195603659858855
     3.3985838928208603    5.8880900828952232    0.0195603659858855
    -1.3490941998464738    0.0000000000000000    9.7303897313086036
   Cl   Tl
     8     2
Direct
  0.8919204383052630  0.8919204383052630  0.1551019304727532
  0.5286101590152228  0.1660447397428726  0.1553250069270788
  0.1660447397428726  0.5286101590152228  0.1553250069270788
  0.6324959748607881  0.6324959748607881  0.4661520150144298
  0.3675040251392119  0.3675040251392119  0.5338479849855702
  0.8339552602571274  0.4713898409847772  0.8446749930729212
  0.4713898409847772  0.8339552602571274  0.8446749930729212
  0.1080795616947370  0.1080795616947370  0.8448980695272539
  0.8329222903044382  0.1670777096955618  0.0000000000000000
  0.1670777096955618  0.8329222903044382  0.0000000000000000

  0.00000000E+00  0.00000000E+00  0.00000000E+00
  0.00000000E+00  0.00000000E+00  0.00000000E+00
  0.00000000E+00  0.00000000E+00  0.00000000E+00
  0.00000000E+00  0.00000000E+00  0.00000000E+00
  0.00000000E+00  0.00000000E+00  0.00000000E+00
  0.00000000E+00  0.00000000E+00  0.00000000E+00
  0.00000000E+00  0.00000000E+00  0.00000000E+00
  0.00000000E+00  0.00000000E+00  0.00000000E+00
  0.00000000E+00  0.00000000E+00  0.00000000E+00
  0.00000000E+00  0.00000000E+00  0.00000000E+00
