Mg8 Tl4 Br28                            
   1.0000000000000000     
     6.9624901898932876    0.1625845471781480    0.8047849137017518
     0.3149094844174639   15.8934339947345791    0.1299122005728705
     1.0144875734994698    0.2104159983643951   13.3869364557668415
   Br   Tl   Mg
    28     4     8
Direct
  0.0165177278430733  0.8567018594745903  0.9844287738451314
  0.5992216486262834  0.5835539442389077  0.0561434878771578
  0.0885589447607344  0.6162950634110160  0.9717005092008790
  0.3784114681233177  0.0372624039890681  0.2013958764397970
  0.8739844672674479  0.2131177276397267  0.3040144458991847
  0.4359903417742714  0.2649524407417516  0.1448897992900484
  0.8912717649460333  0.9817702394834740  0.2604735393141411
  0.1884790233412019  0.4931537241925525  0.2309132943664736
  0.6043084456580274  0.7847536882862229  0.1728412191917528
  0.0710657438706974  0.7433627804706973  0.2379402603158809
  0.6906937473547075  0.5420677829816896  0.3113580998971841
  0.7779792903166012  0.0685733963940933  0.5431418277929652
  0.2502416604992703  0.1782219306462736  0.4603744590348740
  0.7126736936253835  0.3240937191654254  0.5389877972316697
  0.2873893708569568  0.6759198050127679  0.4610091863133121
  0.7498159191682987  0.8217904268501997  0.5396324579423109
  0.2220555234375325  0.9314461949979886  0.4568546562984892
  0.3093183152552044  0.4579273207556867  0.6886409874643391
  0.9289797407127907  0.2566502011290979  0.7620645326660096
  0.3957283781217100  0.2152430257307003  0.8271440988807370
  0.8115437812090178  0.5068509344411325  0.7690716640261641
  0.1087553482411607  0.0182367189511510  0.7395366398201304
  0.5640613686746079  0.7350388803370080  0.8551008763880148
  0.1260428778080467  0.7868856892675424  0.6959986265507894
  0.6216147030643882  0.9627332804463791  0.7986175529466806
  0.9114771585498929  0.3837107628819041  0.0282956875154596
  0.4008109535233757  0.4164434482294581  0.9438474409613349
  0.9835096752587091  0.1433089084883221  0.0155837444130142
  0.6953003930542536  0.1265585053927225  0.1827449397646319
  0.3942247782699866  0.6389086136483471  0.2550224096606328
  0.6058045347049372  0.3610893597596245  0.7449734083013766
  0.3047334751589190  0.8734369836030851  0.8172700800679351
  0.7674361161179775  0.7301518330842427  0.9949170733399200
  0.9070982102164606  0.5251071944309942  0.1330275614444574
  0.0705993029372678  0.0714788170110410  0.3689988025065531
  0.9358727458604434  0.2038314828957226  0.5825835960085897
  0.0641852836049992  0.7961815607545617  0.4174222180475908
  0.9294394042579484  0.9285443603292052  0.6309993134710865
  0.0929103269638176  0.4748976871440433  0.8669689547555350
  0.2326143469642119  0.2698473033115647  0.0050701007478295

  0.00000000E+00  0.00000000E+00  0.00000000E+00
  0.00000000E+00  0.00000000E+00  0.00000000E+00
  0.00000000E+00  0.00000000E+00  0.00000000E+00
  0.00000000E+00  0.00000000E+00  0.00000000E+00
  0.00000000E+00  0.00000000E+00  0.00000000E+00
  0.00000000E+00  0.00000000E+00  0.00000000E+00
  0.00000000E+00  0.00000000E+00  0.00000000E+00
  0.00000000E+00  0.00000000E+00  0.00000000E+00
  0.00000000E+00  0.00000000E+00  0.00000000E+00
  0.00000000E+00  0.00000000E+00  0.00000000E+00
  0.00000000E+00  0.00000000E+00  0.00000000E+00
  0.00000000E+00  0.00000000E+00  0.00000000E+00
  0.00000000E+00  0.00000000E+00  0.00000000E+00
  0.00000000E+00  0.00000000E+00  0.00000000E+00
  0.00000000E+00  0.00000000E+00  0.00000000E+00
  0.00000000E+00  0.00000000E+00  0.00000000E+00
  0.00000000E+00  0.00000000E+00  0.00000000E+00
  0.00000000E+00  0.00000000E+00  0.00000000E+00
  0.00000000E+00  0.00000000E+00  0.00000000E+00
  0.00000000E+00  0.00000000E+00  0.00000000E+00
  0.00000000E+00  0.00000000E+00  0.00000000E+00
  0.00000000E+00  0.00000000E+00  0.00000000E+00
  0.00000000E+00  0.00000000E+00  0.00000000E+00
  0.00000000E+00  0.00000000E+00  0.00000000E+00
  0.00000000E+00  0.00000000E+00  0.00000000E+00
  0.00000000E+00  0.00000000E+00  0.00000000E+00
  0.00000000E+00  0.00000000E+00  0.00000000E+00
  0.00000000E+00  0.00000000E+00  0.00000000E+00
  0.00000000E+00  0.00000000E+00  0.00000000E+00
  0.00000000E+00  0.00000000E+00  0.00000000E+00
  0.00000000E+00  0.00000000E+00  0.00000000E+00
  0.00000000E+00  0.00000000E+00  0.00000000E+00
  0.00000000E+00  0.00000000E+00  0.00000000E+00
  0.00000000E+00  0.00000000E+00  0.00000000E+00
  0.00000000E+00  0.00000000E+00  0.00000000E+00
  0.00000000E+00  0.00000000E+00  0.00000000E+00
  0.00000000E+00  0.00000000E+00  0.00000000E+00
  0.00000000E+00  0.00000000E+00  0.00000000E+00
  0.00000000E+00  0.00000000E+00  0.00000000E+00
  0.00000000E+00  0.00000000E+00  0.00000000E+00
