Ca6 Al33                                
   1.00000000000000     
     9.1085011330943679    0.0000000000000000    0.0000000000000000
     0.0000000000000000    9.1085011330943715    0.0000000000000000
     0.0000000000000000    0.0000000000000000    9.1085011330943697
   Ca   Al
     6    33
Direct
  0.2129926269708520  0.5000000000000000  0.0000000000000000
  0.7870073730291480  0.5000000000000000  0.0000000000000000
  0.5000000000000000  0.0000000000000000  0.2129926269708520
  0.0000000000000000  0.2129926269708520  0.5000000000000000
  0.0000000000000000  0.7870073730291480  0.5000000000000000
  0.5000000000000000  0.0000000000000000  0.7870073730291480
  0.0000000000000000  0.0000000000000000  0.0000000000000000
  0.2559250507594584  0.1505208710797206  0.0000000000000000
  0.7440749492405416  0.1505208710797206  0.0000000000000000
  0.5000000000000000  0.3101764928120900  0.0000000000000000
  0.5000000000000000  0.6898235071879100  0.0000000000000000
  0.2559250507594584  0.8494791289202794  0.0000000000000000
  0.7440749492405416  0.8494791289202794  0.0000000000000000
  0.0000000000000000  0.2559250507594584  0.1505208710797206
  0.0000000000000000  0.7440749492405416  0.1505208710797206
  0.5000000000000000  0.5000000000000000  0.2617776835195684
  0.1505208710797206  0.0000000000000000  0.2559250507594584
  0.8494791289202794  0.0000000000000000  0.2559250507594584
  0.2820764439365533  0.2820764439365533  0.2820764439365533
  0.7179235560634467  0.2820764439365533  0.2820764439365533
  0.2820764439365533  0.7179235560634467  0.2820764439365533
  0.7179235560634467  0.7179235560634467  0.2820764439365533
  0.0000000000000000  0.5000000000000000  0.3101764928120900
  0.3101764928120900  0.0000000000000000  0.5000000000000000
  0.6898235071879100  0.0000000000000000  0.5000000000000000
  0.5000000000000000  0.2617776835195684  0.5000000000000000
  0.2617776835195684  0.5000000000000000  0.5000000000000000
  0.7382223164804316  0.5000000000000000  0.5000000000000000
  0.5000000000000000  0.7382223164804316  0.5000000000000000
  0.0000000000000000  0.5000000000000000  0.6898235071879100
  0.2820764439365533  0.2820764439365533  0.7179235560634467
  0.7179235560634467  0.2820764439365533  0.7179235560634467
  0.2820764439365533  0.7179235560634467  0.7179235560634467
  0.7179235560634467  0.7179235560634467  0.7179235560634467
  0.1505208710797206  0.0000000000000000  0.7440749492405416
  0.8494791289202794  0.0000000000000000  0.7440749492405416
  0.5000000000000000  0.5000000000000000  0.7382223164804316
  0.0000000000000000  0.2559250507594584  0.8494791289202794
  0.0000000000000000  0.7440749492405416  0.8494791289202794
 
  0.00000000E+00  0.00000000E+00  0.00000000E+00
  0.00000000E+00  0.00000000E+00  0.00000000E+00
  0.00000000E+00  0.00000000E+00  0.00000000E+00
  0.00000000E+00  0.00000000E+00  0.00000000E+00
  0.00000000E+00  0.00000000E+00  0.00000000E+00
  0.00000000E+00  0.00000000E+00  0.00000000E+00
  0.00000000E+00  0.00000000E+00  0.00000000E+00
  0.00000000E+00  0.00000000E+00  0.00000000E+00
  0.00000000E+00  0.00000000E+00  0.00000000E+00
  0.00000000E+00  0.00000000E+00  0.00000000E+00
  0.00000000E+00  0.00000000E+00  0.00000000E+00
  0.00000000E+00  0.00000000E+00  0.00000000E+00
  0.00000000E+00  0.00000000E+00  0.00000000E+00
  0.00000000E+00  0.00000000E+00  0.00000000E+00
  0.00000000E+00  0.00000000E+00  0.00000000E+00
  0.00000000E+00  0.00000000E+00  0.00000000E+00
  0.00000000E+00  0.00000000E+00  0.00000000E+00
  0.00000000E+00  0.00000000E+00  0.00000000E+00
  0.00000000E+00  0.00000000E+00  0.00000000E+00
  0.00000000E+00  0.00000000E+00  0.00000000E+00
  0.00000000E+00  0.00000000E+00  0.00000000E+00
  0.00000000E+00  0.00000000E+00  0.00000000E+00
  0.00000000E+00  0.00000000E+00  0.00000000E+00
  0.00000000E+00  0.00000000E+00  0.00000000E+00
  0.00000000E+00  0.00000000E+00  0.00000000E+00
  0.00000000E+00  0.00000000E+00  0.00000000E+00
  0.00000000E+00  0.00000000E+00  0.00000000E+00
  0.00000000E+00  0.00000000E+00  0.00000000E+00
  0.00000000E+00  0.00000000E+00  0.00000000E+00
  0.00000000E+00  0.00000000E+00  0.00000000E+00
  0.00000000E+00  0.00000000E+00  0.00000000E+00
  0.00000000E+00  0.00000000E+00  0.00000000E+00
  0.00000000E+00  0.00000000E+00  0.00000000E+00
  0.00000000E+00  0.00000000E+00  0.00000000E+00
  0.00000000E+00  0.00000000E+00  0.00000000E+00
  0.00000000E+00  0.00000000E+00  0.00000000E+00
  0.00000000E+00  0.00000000E+00  0.00000000E+00
  0.00000000E+00  0.00000000E+00  0.00000000E+00
  0.00000000E+00  0.00000000E+00  0.00000000E+00
