Ba41 B67                                
   1.00000000000000     
    13.1697893317999615    0.0000000000000000    0.0000000000000000
     0.0000000000000000   13.1697893317999615    0.0000000000000000
     0.0000000000000000    0.0000000000000000   13.1697893317999615
   B    Ba
    67    41
Direct
  0.3804191926251477  0.1896519860302917  0.0000000000000000
  0.6195808073748523  0.1896519860302917  0.0000000000000000
  0.5000000000000000  0.2145189080144903  0.0000000000000000
  0.1896519860302917  0.3804191926251477  0.0000000000000000
  0.8103480139697083  0.3804191926251477  0.0000000000000000
  0.2145189080144903  0.5000000000000000  0.0000000000000000
  0.7854810919855097  0.5000000000000000  0.0000000000000000
  0.1896519860302917  0.6195808073748523  0.0000000000000000
  0.8103480139697083  0.6195808073748523  0.0000000000000000
  0.5000000000000000  0.7854810919855097  0.0000000000000000
  0.3804191926251477  0.8103480139697083  0.0000000000000000
  0.6195808073748523  0.8103480139697083  0.0000000000000000
  0.5000000000000000  0.1533814334780175  0.1533814334780175
  0.1533814334780175  0.5000000000000000  0.1533814334780175
  0.8466185665219825  0.5000000000000000  0.1533814334780175
  0.5000000000000000  0.8466185665219825  0.1533814334780175
  0.5000000000000000  0.5000000000000000  0.3032151491559176
  0.3804191926251477  0.0000000000000000  0.1896519860302917
  0.6195808073748523  0.0000000000000000  0.1896519860302917
  0.0000000000000000  0.3804191926251477  0.1896519860302917
  0.0000000000000000  0.6195808073748523  0.1896519860302917
  0.5000000000000000  0.0000000000000000  0.2145189080144903
  0.0000000000000000  0.5000000000000000  0.2145189080144903
  0.5000000000000000  0.3997858521756470  0.3997858521756470
  0.3997858521756470  0.5000000000000000  0.3997858521756470
  0.6002141478243530  0.5000000000000000  0.3997858521756470
  0.5000000000000000  0.6002141478243530  0.3997858521756470
  0.1896519860302917  0.0000000000000000  0.3804191926251477
  0.8103480139697083  0.0000000000000000  0.3804191926251477
  0.0000000000000000  0.1896519860302917  0.3804191926251477
  0.0000000000000000  0.8103480139697083  0.3804191926251477
  0.2145189080144903  0.0000000000000000  0.5000000000000000
  0.7854810919855097  0.0000000000000000  0.5000000000000000
  0.1533814334780175  0.1533814334780175  0.5000000000000000
  0.8466185665219825  0.1533814334780175  0.5000000000000000
  0.5000000000000000  0.3032151491559176  0.5000000000000000
  0.0000000000000000  0.2145189080144903  0.5000000000000000
  0.3997858521756470  0.3997858521756470  0.5000000000000000
  0.6002141478243530  0.3997858521756470  0.5000000000000000
  0.3032151491559176  0.5000000000000000  0.5000000000000000
  0.5000000000000000  0.5000000000000000  0.5000000000000000
  0.6967848508440824  0.5000000000000000  0.5000000000000000
  0.3997858521756470  0.6002141478243530  0.5000000000000000
  0.6002141478243530  0.6002141478243530  0.5000000000000000
  0.0000000000000000  0.7854810919855097  0.5000000000000000
  0.5000000000000000  0.6967848508440824  0.5000000000000000
  0.1533814334780175  0.8466185665219825  0.5000000000000000
  0.8466185665219825  0.8466185665219825  0.5000000000000000
  0.1896519860302917  0.0000000000000000  0.6195808073748523
  0.8103480139697083  0.0000000000000000  0.6195808073748523
  0.0000000000000000  0.1896519860302917  0.6195808073748523
  0.0000000000000000  0.8103480139697083  0.6195808073748523
  0.5000000000000000  0.3997858521756470  0.6002141478243530
  0.3997858521756470  0.5000000000000000  0.6002141478243530
  0.6002141478243530  0.5000000000000000  0.6002141478243530
  0.5000000000000000  0.6002141478243530  0.6002141478243530
  0.5000000000000000  0.0000000000000000  0.7854810919855097
  0.0000000000000000  0.5000000000000000  0.7854810919855097
  0.3804191926251477  0.0000000000000000  0.8103480139697083
  0.6195808073748523  0.0000000000000000  0.8103480139697083
  0.0000000000000000  0.3804191926251477  0.8103480139697083
  0.0000000000000000  0.6195808073748523  0.8103480139697083
  0.5000000000000000  0.5000000000000000  0.6967848508440824
  0.5000000000000000  0.1533814334780175  0.8466185665219825
  0.1533814334780175  0.5000000000000000  0.8466185665219825
  0.8466185665219825  0.5000000000000000  0.8466185665219825
  0.5000000000000000  0.8466185665219825  0.8466185665219825
  0.2577978249518367  0.0000000000000000  0.0000000000000000
  0.5000000000000000  0.0000000000000000  0.0000000000000000
  0.7422021750481633  0.0000000000000000  0.0000000000000000
  0.0000000000000000  0.2577978249518367  0.0000000000000000
  0.0000000000000000  0.5000000000000000  0.0000000000000000
  0.0000000000000000  0.7422021750481633  0.0000000000000000
  0.3693403966669990  0.3693403966669990  0.1516907407246748
  0.6306596033330010  0.3693403966669990  0.1516907407246748
  0.3693403966669990  0.6306596033330010  0.1516907407246748
  0.6306596033330010  0.6306596033330010  0.1516907407246748
  0.1768841246412123  0.1768841246412123  0.1768841246412123
  0.8231158753587877  0.1768841246412123  0.1768841246412123
  0.1768841246412123  0.8231158753587877  0.1768841246412123
  0.8231158753587877  0.8231158753587877  0.1768841246412123
  0.0000000000000000  0.0000000000000000  0.2577978249518367
  0.3693403966669990  0.1516907407246748  0.3693403966669990
  0.6306596033330010  0.1516907407246748  0.3693403966669990
  0.1516907407246748  0.3693403966669990  0.3693403966669990
  0.8483092592753252  0.3693403966669990  0.3693403966669990
  0.1516907407246748  0.6306596033330010  0.3693403966669990
  0.8483092592753252  0.6306596033330010  0.3693403966669990
  0.3693403966669990  0.8483092592753252  0.3693403966669990
  0.6306596033330010  0.8483092592753252  0.3693403966669990
  0.0000000000000000  0.0000000000000000  0.5000000000000000
  0.3693403966669990  0.1516907407246748  0.6306596033330010
  0.6306596033330010  0.1516907407246748  0.6306596033330010
  0.1516907407246748  0.3693403966669990  0.6306596033330010
  0.8483092592753252  0.3693403966669990  0.6306596033330010
  0.1516907407246748  0.6306596033330010  0.6306596033330010
  0.8483092592753252  0.6306596033330010  0.6306596033330010
  0.3693403966669990  0.8483092592753252  0.6306596033330010
  0.6306596033330010  0.8483092592753252  0.6306596033330010
  0.0000000000000000  0.0000000000000000  0.7422021750481633
  0.1768841246412123  0.1768841246412123  0.8231158753587877
  0.8231158753587877  0.1768841246412123  0.8231158753587877
  0.1768841246412123  0.8231158753587877  0.8231158753587877
  0.8231158753587877  0.8231158753587877  0.8231158753587877
  0.3693403966669990  0.3693403966669990  0.8483092592753252
  0.6306596033330010  0.3693403966669990  0.8483092592753252
  0.3693403966669990  0.6306596033330010  0.8483092592753252
  0.6306596033330010  0.6306596033330010  0.8483092592753252
 
  0.00000000E+00  0.00000000E+00  0.00000000E+00
  0.00000000E+00  0.00000000E+00  0.00000000E+00
  0.00000000E+00  0.00000000E+00  0.00000000E+00
  0.00000000E+00  0.00000000E+00  0.00000000E+00
  0.00000000E+00  0.00000000E+00  0.00000000E+00
  0.00000000E+00  0.00000000E+00  0.00000000E+00
  0.00000000E+00  0.00000000E+00  0.00000000E+00
  0.00000000E+00  0.00000000E+00  0.00000000E+00
  0.00000000E+00  0.00000000E+00  0.00000000E+00
  0.00000000E+00  0.00000000E+00  0.00000000E+00
  0.00000000E+00  0.00000000E+00  0.00000000E+00
  0.00000000E+00  0.00000000E+00  0.00000000E+00
  0.00000000E+00  0.00000000E+00  0.00000000E+00
  0.00000000E+00  0.00000000E+00  0.00000000E+00
  0.00000000E+00  0.00000000E+00  0.00000000E+00
  0.00000000E+00  0.00000000E+00  0.00000000E+00
  0.00000000E+00  0.00000000E+00  0.00000000E+00
  0.00000000E+00  0.00000000E+00  0.00000000E+00
  0.00000000E+00  0.00000000E+00  0.00000000E+00
  0.00000000E+00  0.00000000E+00  0.00000000E+00
  0.00000000E+00  0.00000000E+00  0.00000000E+00
  0.00000000E+00  0.00000000E+00  0.00000000E+00
  0.00000000E+00  0.00000000E+00  0.00000000E+00
  0.00000000E+00  0.00000000E+00  0.00000000E+00
  0.00000000E+00  0.00000000E+00  0.00000000E+00
  0.00000000E+00  0.00000000E+00  0.00000000E+00
  0.00000000E+00  0.00000000E+00  0.00000000E+00
  0.00000000E+00  0.00000000E+00  0.00000000E+00
  0.00000000E+00  0.00000000E+00  0.00000000E+00
  0.00000000E+00  0.00000000E+00  0.00000000E+00
  0.00000000E+00  0.00000000E+00  0.00000000E+00
  0.00000000E+00  0.00000000E+00  0.00000000E+00
  0.00000000E+00  0.00000000E+00  0.00000000E+00
  0.00000000E+00  0.00000000E+00  0.00000000E+00
  0.00000000E+00  0.00000000E+00  0.00000000E+00
  0.00000000E+00  0.00000000E+00  0.00000000E+00
  0.00000000E+00  0.00000000E+00  0.00000000E+00
  0.00000000E+00  0.00000000E+00  0.00000000E+00
  0.00000000E+00  0.00000000E+00  0.00000000E+00
  0.00000000E+00  0.00000000E+00  0.00000000E+00
  0.00000000E+00  0.00000000E+00  0.00000000E+00
  0.00000000E+00  0.00000000E+00  0.00000000E+00
  0.00000000E+00  0.00000000E+00  0.00000000E+00
  0.00000000E+00  0.00000000E+00  0.00000000E+00
  0.00000000E+00  0.00000000E+00  0.00000000E+00
  0.00000000E+00  0.00000000E+00  0.00000000E+00
  0.00000000E+00  0.00000000E+00  0.00000000E+00
  0.00000000E+00  0.00000000E+00  0.00000000E+00
  0.00000000E+00  0.00000000E+00  0.00000000E+00
  0.00000000E+00  0.00000000E+00  0.00000000E+00
  0.00000000E+00  0.00000000E+00  0.00000000E+00
  0.00000000E+00  0.00000000E+00  0.00000000E+00
  0.00000000E+00  0.00000000E+00  0.00000000E+00
  0.00000000E+00  0.00000000E+00  0.00000000E+00
  0.00000000E+00  0.00000000E+00  0.00000000E+00
  0.00000000E+00  0.00000000E+00  0.00000000E+00
  0.00000000E+00  0.00000000E+00  0.00000000E+00
  0.00000000E+00  0.00000000E+00  0.00000000E+00
  0.00000000E+00  0.00000000E+00  0.00000000E+00
  0.00000000E+00  0.00000000E+00  0.00000000E+00
  0.00000000E+00  0.00000000E+00  0.00000000E+00
  0.00000000E+00  0.00000000E+00  0.00000000E+00
  0.00000000E+00  0.00000000E+00  0.00000000E+00
  0.00000000E+00  0.00000000E+00  0.00000000E+00
  0.00000000E+00  0.00000000E+00  0.00000000E+00
  0.00000000E+00  0.00000000E+00  0.00000000E+00
  0.00000000E+00  0.00000000E+00  0.00000000E+00
  0.00000000E+00  0.00000000E+00  0.00000000E+00
  0.00000000E+00  0.00000000E+00  0.00000000E+00
  0.00000000E+00  0.00000000E+00  0.00000000E+00
  0.00000000E+00  0.00000000E+00  0.00000000E+00
  0.00000000E+00  0.00000000E+00  0.00000000E+00
  0.00000000E+00  0.00000000E+00  0.00000000E+00
  0.00000000E+00  0.00000000E+00  0.00000000E+00
  0.00000000E+00  0.00000000E+00  0.00000000E+00
  0.00000000E+00  0.00000000E+00  0.00000000E+00
  0.00000000E+00  0.00000000E+00  0.00000000E+00
  0.00000000E+00  0.00000000E+00  0.00000000E+00
  0.00000000E+00  0.00000000E+00  0.00000000E+00
  0.00000000E+00  0.00000000E+00  0.00000000E+00
  0.00000000E+00  0.00000000E+00  0.00000000E+00
  0.00000000E+00  0.00000000E+00  0.00000000E+00
  0.00000000E+00  0.00000000E+00  0.00000000E+00
  0.00000000E+00  0.00000000E+00  0.00000000E+00
  0.00000000E+00  0.00000000E+00  0.00000000E+00
  0.00000000E+00  0.00000000E+00  0.00000000E+00
  0.00000000E+00  0.00000000E+00  0.00000000E+00
  0.00000000E+00  0.00000000E+00  0.00000000E+00
  0.00000000E+00  0.00000000E+00  0.00000000E+00
  0.00000000E+00  0.00000000E+00  0.00000000E+00
  0.00000000E+00  0.00000000E+00  0.00000000E+00
  0.00000000E+00  0.00000000E+00  0.00000000E+00
  0.00000000E+00  0.00000000E+00  0.00000000E+00
  0.00000000E+00  0.00000000E+00  0.00000000E+00
  0.00000000E+00  0.00000000E+00  0.00000000E+00
  0.00000000E+00  0.00000000E+00  0.00000000E+00
  0.00000000E+00  0.00000000E+00  0.00000000E+00
  0.00000000E+00  0.00000000E+00  0.00000000E+00
  0.00000000E+00  0.00000000E+00  0.00000000E+00
  0.00000000E+00  0.00000000E+00  0.00000000E+00
  0.00000000E+00  0.00000000E+00  0.00000000E+00
  0.00000000E+00  0.00000000E+00  0.00000000E+00
  0.00000000E+00  0.00000000E+00  0.00000000E+00
  0.00000000E+00  0.00000000E+00  0.00000000E+00
  0.00000000E+00  0.00000000E+00  0.00000000E+00
  0.00000000E+00  0.00000000E+00  0.00000000E+00
  0.00000000E+00  0.00000000E+00  0.00000000E+00
  0.00000000E+00  0.00000000E+00  0.00000000E+00
