Mg3B2                                   
   1.00000000000000     
    -5.8456915172315354   -0.0006414581846579    0.0139738170082113
     2.9227065550670215   -5.0625137153632958   -0.0143593477253147
    -2.9101780202170113    1.6796456994130902    5.1003964623170921
   B    Mg
     4     6
Direct
  0.3021908144491903  0.6976850280253402  0.0933846929778284
  0.1976962155498967  0.8021884419006611  0.4065465203018093
  0.8024045454355786  0.1978918394385758  0.5933868244166050
  0.6979108508284853  0.3023948655022650  0.9065423434119424
  0.6421890795932939  0.7502609925812180  0.2500661633164043
  0.8580561278815821  0.3580422033081732  0.2499704196094967
  0.2502800697607270  0.1421777097340282  0.2498591131526453
  0.7498178169667042  0.8579004761994824  0.7500697122286439
  0.1420437177666471  0.6420387269673640  0.7499594602284958
  0.3579107617678901  0.2498197163428912  0.7498647503561244
 
  0.00000000E+00  0.00000000E+00  0.00000000E+00
  0.00000000E+00  0.00000000E+00  0.00000000E+00
  0.00000000E+00  0.00000000E+00  0.00000000E+00
  0.00000000E+00  0.00000000E+00  0.00000000E+00
  0.00000000E+00  0.00000000E+00  0.00000000E+00
  0.00000000E+00  0.00000000E+00  0.00000000E+00
  0.00000000E+00  0.00000000E+00  0.00000000E+00
  0.00000000E+00  0.00000000E+00  0.00000000E+00
  0.00000000E+00  0.00000000E+00  0.00000000E+00
  0.00000000E+00  0.00000000E+00  0.00000000E+00
