Sr2 B2 Cl10                             
   1.00000000000000     
     7.5907245205395144    0.0238581221040120    3.4043092798360650
     1.6867260502173467    7.4009872393044995    3.4043090184786968
     1.6426663660152721    1.3146462662945086    9.1401741933713421
   Sr   B    Cl
     2     2    10
Direct
  0.4371939335749531  0.5628060656977709  0.2500000004093508
  0.5628060664250469  0.4371939343022291  0.7499999995906492
  0.0000000000000000  0.0000000000000000  0.5000000000000000
  0.0000000000000000  0.0000000000000000  0.0000000000000000
  0.8309985285653880  0.8349764053188693  0.6647361911663197
  0.1650235959938158  0.1690004710727067  0.8352638083185582
  0.1690004714346145  0.1650235946811307  0.3352648088336849
  0.8349764040061842  0.8309985289272959  0.1647361916814418
  0.8721659079410955  0.1278340925580039  0.7499999997143547
  0.1278340920588974  0.8721659074419961  0.2500000002856453
  0.6667225917439268  0.3280393174322143  0.0526753803296600
  0.6719606829828919  0.3332774082955865  0.4473246192530596
  0.3332774082560732  0.6719606825677857  0.9473246196703400
  0.3280393170171081  0.6667225917044135  0.5526753807469404
 
  0.00000000E+00  0.00000000E+00  0.00000000E+00
  0.00000000E+00  0.00000000E+00  0.00000000E+00
  0.00000000E+00  0.00000000E+00  0.00000000E+00
  0.00000000E+00  0.00000000E+00  0.00000000E+00
  0.00000000E+00  0.00000000E+00  0.00000000E+00
  0.00000000E+00  0.00000000E+00  0.00000000E+00
  0.00000000E+00  0.00000000E+00  0.00000000E+00
  0.00000000E+00  0.00000000E+00  0.00000000E+00
  0.00000000E+00  0.00000000E+00  0.00000000E+00
  0.00000000E+00  0.00000000E+00  0.00000000E+00
  0.00000000E+00  0.00000000E+00  0.00000000E+00
  0.00000000E+00  0.00000000E+00  0.00000000E+00
  0.00000000E+00  0.00000000E+00  0.00000000E+00
  0.00000000E+00  0.00000000E+00  0.00000000E+00
