Mg4 Al4 Br20                            
   1.0000000000000000     
     7.2563767560199270   -0.0000000000000000    0.0000000000000006
    -0.0000000000000005    6.5737682250356970    0.0000000000000005
     0.0000000000000006    0.0000000000000001   21.6123300929806987
   Mg   Al   Br
     4     4    20
Direct
  0.5809812151786744  0.4118324410326792  0.4614895405293211
  0.0809812151786744  0.0881675589673208  0.5385104594706789
  0.4190187848213185  0.9118324410326792  0.0385104594706789
  0.9190187848213185  0.5881675589673208  0.9614895405293211
  0.3437965794707409  0.8713706374420980  0.3679749643558523
  0.8437965794707409  0.6286293625579020  0.6320250356441406
  0.6562034205292591  0.3713706374420980  0.1320250356441406
  0.1562034205292591  0.1286293625579020  0.8679749643558523
  0.6949656521219438  0.7287692404407693  0.5398207824282579
  0.1949656521219438  0.7712307595592307  0.4601792175717421
  0.3050343478780491  0.2287692404407693  0.9601792175717350
  0.8050343478780562  0.2712307595592307  0.0398207824282579
  0.1815558858640927  0.7808520181873817  0.2830395256175038
  0.6815558858640927  0.7191479818126183  0.7169604743824962
  0.8184441141359073  0.2808520181873817  0.2169604743824962
  0.3184441141359073  0.2191479818126183  0.7830395256175038
  0.1104262180351938  0.7328707255915887  0.0504705469668707
  0.6104262180351938  0.7671292744084113  0.9495294530331293
  0.8895737819648062  0.2328707255915887  0.4495294530331293
  0.3895737819648062  0.2671292744084113  0.5504705469668707
  0.6018469325213047  0.7240482150401775  0.1333762174161137
  0.1018469325213047  0.7759517849598225  0.8666237825838863
  0.3981530674786953  0.2240482150401775  0.3666237825838863
  0.8981530674786953  0.2759517849598225  0.6333762174161137
  0.8676380256417957  0.2970041286200029  0.8742648911177113
  0.3676380256417957  0.2029958713799971  0.1257351088822887
  0.1323619743582114  0.7970041286200029  0.6257351088822887
  0.6323619743582043  0.7029958713799971  0.3742648911177113

  0.00000000E+00  0.00000000E+00  0.00000000E+00
  0.00000000E+00  0.00000000E+00  0.00000000E+00
  0.00000000E+00  0.00000000E+00  0.00000000E+00
  0.00000000E+00  0.00000000E+00  0.00000000E+00
  0.00000000E+00  0.00000000E+00  0.00000000E+00
  0.00000000E+00  0.00000000E+00  0.00000000E+00
  0.00000000E+00  0.00000000E+00  0.00000000E+00
  0.00000000E+00  0.00000000E+00  0.00000000E+00
  0.00000000E+00  0.00000000E+00  0.00000000E+00
  0.00000000E+00  0.00000000E+00  0.00000000E+00
  0.00000000E+00  0.00000000E+00  0.00000000E+00
  0.00000000E+00  0.00000000E+00  0.00000000E+00
  0.00000000E+00  0.00000000E+00  0.00000000E+00
  0.00000000E+00  0.00000000E+00  0.00000000E+00
  0.00000000E+00  0.00000000E+00  0.00000000E+00
  0.00000000E+00  0.00000000E+00  0.00000000E+00
  0.00000000E+00  0.00000000E+00  0.00000000E+00
  0.00000000E+00  0.00000000E+00  0.00000000E+00
  0.00000000E+00  0.00000000E+00  0.00000000E+00
  0.00000000E+00  0.00000000E+00  0.00000000E+00
  0.00000000E+00  0.00000000E+00  0.00000000E+00
  0.00000000E+00  0.00000000E+00  0.00000000E+00
  0.00000000E+00  0.00000000E+00  0.00000000E+00
  0.00000000E+00  0.00000000E+00  0.00000000E+00
  0.00000000E+00  0.00000000E+00  0.00000000E+00
  0.00000000E+00  0.00000000E+00  0.00000000E+00
  0.00000000E+00  0.00000000E+00  0.00000000E+00
  0.00000000E+00  0.00000000E+00  0.00000000E+00
