Mg4 Tl4 I20                             
   1.0000000000000000     
     0.0000000000000000    8.6002497260173598   -2.9947161148891377
     9.4483738179445922    0.0000000000000000    0.0000000000000000
     0.0000000000000000    2.5243138525114728  -18.8971215566305979
   Mg   Tl   I 
     4     4    20
Direct
  0.4669498467912376  0.3621463837613064  0.4348389486026889
  0.5330501532087837  0.8621463837613064  0.5651610513973111
  0.9985166140848065  0.9205589700563763  0.1746844577659346
  0.0014833859151935  0.4205589700563763  0.8253155422340654
  0.5458155715734208  0.6278762558873225  0.0882937509371118
  0.4541844284265792  0.1278762558873154  0.9117062490628669
  0.0190605172985201  0.6928353956459858  0.3744786236214424
  0.9809394827014870  0.1928353956459858  0.6255213763785648
  0.6798269209041692  0.7792468326024959  0.2420911372584555
  0.6285328155704377  0.4161542654919757  0.7307217179512762
  0.3714671844295552  0.9161542654919757  0.2692782820487096
  0.2688779232980920  0.8271796169068324  0.7103176385279539
  0.8926505315250850  0.1516446546002541  0.8272339360702787
  0.5615004458061392  0.3136552184097710  0.1845278224375093
  0.9559651927608144  0.5474401338732520  0.7031830056296400
  0.5885628097817772  0.5860577462854053  0.4931690920661111
  0.1073494684749221  0.6516446546002541  0.1727660639297213
  0.0515287613913173  0.0756871507445922  0.0488150929720774
  0.4384995541938608  0.8136552184097710  0.8154721775624978
  0.3201730790958308  0.2792468326025102  0.7579088627415445
  0.6057470082621776  0.7894073476886661  0.9110978201495570
  0.1610452378888851  0.4077090080458134  0.4508188519381022
  0.9484712386086898  0.5756871507445851  0.9511849070279226
  0.0440348072391856  0.0474401338732520  0.2968169943703600
  0.7311220767019009  0.3271796169068324  0.2896823614720390
  0.8389547621111149  0.9077090080458063  0.5491811480618907
  0.4114371902182228  0.0860577462853982  0.5068309079338960
  0.3942529917378295  0.2894073476886661  0.0889021798504430

  0.00000000E+00  0.00000000E+00  0.00000000E+00
  0.00000000E+00  0.00000000E+00  0.00000000E+00
  0.00000000E+00  0.00000000E+00  0.00000000E+00
  0.00000000E+00  0.00000000E+00  0.00000000E+00
  0.00000000E+00  0.00000000E+00  0.00000000E+00
  0.00000000E+00  0.00000000E+00  0.00000000E+00
  0.00000000E+00  0.00000000E+00  0.00000000E+00
  0.00000000E+00  0.00000000E+00  0.00000000E+00
  0.00000000E+00  0.00000000E+00  0.00000000E+00
  0.00000000E+00  0.00000000E+00  0.00000000E+00
  0.00000000E+00  0.00000000E+00  0.00000000E+00
  0.00000000E+00  0.00000000E+00  0.00000000E+00
  0.00000000E+00  0.00000000E+00  0.00000000E+00
  0.00000000E+00  0.00000000E+00  0.00000000E+00
  0.00000000E+00  0.00000000E+00  0.00000000E+00
  0.00000000E+00  0.00000000E+00  0.00000000E+00
  0.00000000E+00  0.00000000E+00  0.00000000E+00
  0.00000000E+00  0.00000000E+00  0.00000000E+00
  0.00000000E+00  0.00000000E+00  0.00000000E+00
  0.00000000E+00  0.00000000E+00  0.00000000E+00
  0.00000000E+00  0.00000000E+00  0.00000000E+00
  0.00000000E+00  0.00000000E+00  0.00000000E+00
  0.00000000E+00  0.00000000E+00  0.00000000E+00
  0.00000000E+00  0.00000000E+00  0.00000000E+00
  0.00000000E+00  0.00000000E+00  0.00000000E+00
  0.00000000E+00  0.00000000E+00  0.00000000E+00
  0.00000000E+00  0.00000000E+00  0.00000000E+00
  0.00000000E+00  0.00000000E+00  0.00000000E+00
