Be1 Ga8                                 
   1.00000000000000     
    10.4841145277453407   -2.7719466354277884    0.0000000000000000
    -7.6291785698945773    7.7386712680395364    0.0000000000000000
     0.0000000000000000    0.0000000000000000    2.7410120141855874
   Ga   Be
     8     1
Direct
  0.3365121630262422  0.1969240570551989  0.0000000000000000
  0.8161816305959135  0.1787612004865480  0.0000000000000000
  0.6922650468731320  0.3139710655309003  0.0000000000000000
  0.1972315586058073  0.3359582928692149  0.0000000000000000
  0.8027684413941927  0.6640417071307851  0.0000000000000000
  0.3077349531268680  0.6860289344690997  0.0000000000000000
  0.1838183694040865  0.8212387995134520  0.0000000000000000
  0.6634878369737578  0.8030759429448011  0.0000000000000000
  0.0000000000000000  0.0000000000000000  0.5000000000000000
 
  0.00000000E+00  0.00000000E+00  0.00000000E+00
  0.00000000E+00  0.00000000E+00  0.00000000E+00
  0.00000000E+00  0.00000000E+00  0.00000000E+00
  0.00000000E+00  0.00000000E+00  0.00000000E+00
  0.00000000E+00  0.00000000E+00  0.00000000E+00
  0.00000000E+00  0.00000000E+00  0.00000000E+00
  0.00000000E+00  0.00000000E+00  0.00000000E+00
  0.00000000E+00  0.00000000E+00  0.00000000E+00
  0.00000000E+00  0.00000000E+00  0.00000000E+00
