Sr7 B13                                 
   1.00000000000000     
     7.2107439888476677   -1.6903399295874024    1.2692670926047129
    -5.0056196466299108    5.3566356367948869   -1.6489161194990951
     3.3959674545984480   -3.1019430898472722   14.0410190912377946
   B    Sr
    13     7
Direct
  0.4826099670620039  0.6238277829894230  0.1814337910958841
  0.1054801943745431  0.4229967531883929  0.2174678630180864
  0.3442423502377352  0.7787321423669837  0.1981255947105964
  0.7193213607100120  0.0368840299358908  0.2174921861945052
  0.4304594772604773  0.8022578915875016  0.3078707391350122
  0.3621210840986322  0.1031365675848122  0.5401396321016563
  0.4376051735624884  0.9293633443424625  0.4421352561589345
  0.4773679441711494  0.0127636033618828  0.5648825255206020
  0.5345669428808151  0.0719110737198534  0.6811690521131624
  0.2537050825251015  0.8260532856172489  0.7682098763744207
  0.6371681086000933  0.0458297687610241  0.7578627227429280
  0.8672431909634710  0.4395865325733439  0.7681943363852355
  0.5133170214501277  0.2388161577050454  0.8271593901722838
  0.9742553629222215  0.9541669915119897  0.0047593430134398
  0.7188191475874959  0.3431686640188616  0.1371773611904459
  0.8127328075029965  0.5097749250706514  0.3974327166868079
  0.0616993664166188  0.1885467013602735  0.3257736723533640
  0.8887788813073740  0.7300428195710609  0.6935315968349016
  0.1540008194550282  0.3663862483015947  0.5946159115587406
  0.2245077169116101  0.5757567164317194  0.8749664326389990
 
  0.00000000E+00  0.00000000E+00  0.00000000E+00
  0.00000000E+00  0.00000000E+00  0.00000000E+00
  0.00000000E+00  0.00000000E+00  0.00000000E+00
  0.00000000E+00  0.00000000E+00  0.00000000E+00
  0.00000000E+00  0.00000000E+00  0.00000000E+00
  0.00000000E+00  0.00000000E+00  0.00000000E+00
  0.00000000E+00  0.00000000E+00  0.00000000E+00
  0.00000000E+00  0.00000000E+00  0.00000000E+00
  0.00000000E+00  0.00000000E+00  0.00000000E+00
  0.00000000E+00  0.00000000E+00  0.00000000E+00
  0.00000000E+00  0.00000000E+00  0.00000000E+00
  0.00000000E+00  0.00000000E+00  0.00000000E+00
  0.00000000E+00  0.00000000E+00  0.00000000E+00
  0.00000000E+00  0.00000000E+00  0.00000000E+00
  0.00000000E+00  0.00000000E+00  0.00000000E+00
  0.00000000E+00  0.00000000E+00  0.00000000E+00
  0.00000000E+00  0.00000000E+00  0.00000000E+00
  0.00000000E+00  0.00000000E+00  0.00000000E+00
  0.00000000E+00  0.00000000E+00  0.00000000E+00
  0.00000000E+00  0.00000000E+00  0.00000000E+00
