Ca7 Al13                                
   1.00000000000000     
     5.6488040104613582   -0.0002562513990675   -0.0000144401414426
    -2.8241575562277830    4.8921396478421562    0.0000181417883971
    -0.0000372329084764    0.0000333075087091   16.1599124526536819
   Al   Ca
    13     7
Direct
  0.3333248823859165  0.6666726453961331  0.0817034219507207
  0.1631522603746802  0.3263168673104389  0.2142636974399537
  0.1631488136202250  0.8368508218197022  0.2142638138428410
  0.6736878479145929  0.8368506351546330  0.2142621795151456
  0.3333302532452791  0.6666760767495106  0.3553300567450322
  0.9999883703061627  0.5000093597813446  0.5000206500628508
  0.4999983879829628  0.5000085551089271  0.5000200654881155
  0.4999975821634024  0.0000185350914137  0.5000205729932716
  0.6666689001331818  0.3333313204293731  0.6447168743937937
  0.3263172182268121  0.1631400076669323  0.7857809588800961
  0.8368511536318408  0.1631402543609468  0.7857810549651347
  0.8368552505593385  0.6736774669433956  0.7857804410535891
  0.6666831053919395  0.3333147415357658  0.9183366383788751
  0.0000023168847392  0.9999913363014201  0.9999975873347040
  0.6666633423804242  0.3333360162374390  0.1087492468624518
  0.6666580418702921  0.3333464341553238  0.3212398633836600
  0.9999933883650343  0.0000136342579538  0.3933179711964598
  0.9999983776853369  0.0000035456009115  0.6067311786559983
  0.3333388765614558  0.6666584971724134  0.6787895575343086
  0.3333436303163779  0.6666452489260379  0.8912941693230110
 
  0.00000000E+00  0.00000000E+00  0.00000000E+00
  0.00000000E+00  0.00000000E+00  0.00000000E+00
  0.00000000E+00  0.00000000E+00  0.00000000E+00
  0.00000000E+00  0.00000000E+00  0.00000000E+00
  0.00000000E+00  0.00000000E+00  0.00000000E+00
  0.00000000E+00  0.00000000E+00  0.00000000E+00
  0.00000000E+00  0.00000000E+00  0.00000000E+00
  0.00000000E+00  0.00000000E+00  0.00000000E+00
  0.00000000E+00  0.00000000E+00  0.00000000E+00
  0.00000000E+00  0.00000000E+00  0.00000000E+00
  0.00000000E+00  0.00000000E+00  0.00000000E+00
  0.00000000E+00  0.00000000E+00  0.00000000E+00
  0.00000000E+00  0.00000000E+00  0.00000000E+00
  0.00000000E+00  0.00000000E+00  0.00000000E+00
  0.00000000E+00  0.00000000E+00  0.00000000E+00
  0.00000000E+00  0.00000000E+00  0.00000000E+00
  0.00000000E+00  0.00000000E+00  0.00000000E+00
  0.00000000E+00  0.00000000E+00  0.00000000E+00
  0.00000000E+00  0.00000000E+00  0.00000000E+00
  0.00000000E+00  0.00000000E+00  0.00000000E+00
