Mg16 In16 F80                           
   1.0000000000000000     
    13.6450727119306574   -0.0000012409302447    0.0000000000000009
     0.0000012409302440   13.6450727119306574    0.0000000000000009
     0.0000000000000000    0.0000000000000000    8.1289389998502237
   Mg   In   F 
    16    16    80
Direct
  0.4875943099715982  0.7480601499274968  0.6525819276800036
  0.2480601499275110  0.0124056900283946  0.1525819276800036
  0.7519398500724890  0.9875943099716125  0.1525819276800036
  0.5124056900283875  0.2519398500724961  0.6525819276800036
  0.2495942279901726  0.0673434350006445  0.6753649756938174
  0.5673434350006445  0.2504057720098274  0.1753649756938103
  0.4326565649993555  0.7495942279901797  0.1753649756938103
  0.7504057720098203  0.9326565649993555  0.6753649756938174
  0.9875943099716125  0.2480601499275110  0.1525819276800036
  0.7480601499274968  0.5124056900283875  0.6525819276800036
  0.2519398500724961  0.4875943099715982  0.6525819276800036
  0.0124056900283946  0.7519398500724890  0.1525819276800036
  0.7495942279901797  0.5673434350006445  0.1753649756938103
  0.0673434350006445  0.7504057720098203  0.6753649756938174
  0.9326565649993555  0.2495942279901726  0.6753649756938174
  0.2504057720098274  0.4326565649993555  0.1753649756938103
  0.0000000000000000  0.0000000000000000  0.5131677264499857
  0.0000000000000000  0.0000000000000000  0.0104895777312493
  0.5000000000000000  0.0000000000000000  0.0201429395126524
  0.5000000000000000  0.0000000000000000  0.5201429395126596
  0.3503309558700423  0.2352802989491565  0.0252301476993395
  0.7352802989491352  0.1496690441299577  0.5252301476993324
  0.2647197010508506  0.8503309558700423  0.5252301476993324
  0.6496690441299577  0.7647197010508648  0.0252301476993395
  0.5000000000000000  0.5000000000000000  0.0131677264499857
  0.5000000000000000  0.5000000000000000  0.5104895777312493
  0.0000000000000000  0.5000000000000000  0.5201429395126596
  0.0000000000000000  0.5000000000000000  0.0201429395126524
  0.8503309558700423  0.7352802989491352  0.5252301476993324
  0.2352802989491565  0.6496690441299577  0.0252301476993395
  0.7647197010508648  0.3503309558700423  0.0252301476993395
  0.1496690441299577  0.2647197010508506  0.5252301476993324
  0.0000000000000000  0.0000000000000000  0.7625682529677533
  0.0000000000000000  0.0000000000000000  0.2643067947593138
  0.1375206113244047  0.0710548141078249  0.5219879492099793
  0.5710548141078249  0.3624793886755953  0.0219879492099864
  0.4289451858921680  0.6375206113244118  0.0219879492099864
  0.8624793886755882  0.9289451858921751  0.5219879492099864
  0.1420947766490741  0.0528127786763335  0.0201233747402725
  0.5528127786763477  0.3579052233509188  0.5201233747402796
  0.4471872213236594  0.6420947766490670  0.5201233747402796
  0.8579052233509330  0.9471872213236523  0.0201233747402725
  0.5000000000000000  0.0000000000000000  0.7722680181875532
  0.5000000000000000  0.0000000000000000  0.2722680181875461
  0.4917331236832325  0.1562733240963681  0.0289229916268283
  0.6562733240963681  0.0082668763167533  0.5289229916268212
  0.3437266759036319  0.9917331236832467  0.5289229916268212
  0.5082668763167533  0.8437266759036319  0.0289229916268283
  0.4606169211851281  0.1441422199487192  0.5367466209954443
  0.6441422199487192  0.0393830788148648  0.0367466209954443
  0.3558577800512808  0.9606169211851210  0.0367466209954443
  0.5393830788148648  0.8558577800512808  0.5367466209954443
  0.4179038698915605  0.2893864004254780  0.8107759225972302
  0.7893864004254780  0.0820961301084324  0.3107759225972373
  0.2106135995745220  0.9179038698915605  0.3107759225972373
  0.5820961301084395  0.7106135995745220  0.8107759225972302
  0.4330657079381339  0.2906488277284254  0.2261963603748924
  0.7906488277284396  0.0669342920618661  0.7261963603748853
  0.2093511722715675  0.9330657079381410  0.7261963603748853
  0.5669342920618590  0.7093511722715604  0.2261963603748924
  0.3071059225236823  0.1189464489186776  0.8708612266976630
  0.6189464489186776  0.1928940774763177  0.3708612266976701
  0.3810535510813224  0.8071059225236894  0.3708612266976701
  0.6928940774763106  0.8810535510813224  0.8708612266976630
  0.3072184452436559  0.1325391691043478  0.2096078138565431
  0.6325391691043478  0.1927815547563441  0.7096078138565503
  0.3674608308956522  0.8072184452436701  0.7096078138565503
  0.6927815547563299  0.8674608308956522  0.2096078138565431
  0.7230830069427938  0.8065106483299616  0.5706058720008187
  0.3065106483299616  0.7769169930572062  0.0706058720008258
  0.6934893516700384  0.2230830069427938  0.0706058720008258
  0.2769169930572062  0.1934893516700384  0.5706058720008187
  0.5000000000000000  0.5000000000000000  0.2625682529677533
  0.5000000000000000  0.5000000000000000  0.7643067947593138
  0.6375206113244118  0.5710548141078249  0.0219879492099864
  0.0710548141078249  0.8624793886755882  0.5219879492099793
  0.9289451858921751  0.1375206113244047  0.5219879492099793
  0.3624793886755953  0.4289451858921680  0.0219879492099864
  0.6420947766490670  0.5528127786763477  0.5201233747402796
  0.0528127786763335  0.8579052233509330  0.0201233747402725
  0.9471872213236523  0.1420947766490741  0.0201233747402725
  0.3579052233509188  0.4471872213236594  0.5201233747402796
  0.0000000000000000  0.5000000000000000  0.2722680181875461
  0.0000000000000000  0.5000000000000000  0.7722680181875532
  0.9917331236832467  0.6562733240963681  0.5289229916268212
  0.1562733240963681  0.5082668763167533  0.0289229916268283
  0.8437266759036319  0.4917331236832325  0.0289229916268283
  0.0082668763167533  0.3437266759036319  0.5289229916268212
  0.9606169211851210  0.6441422199487192  0.0367466209954443
  0.1441422199487192  0.5393830788148648  0.5367466209954443
  0.8558577800512808  0.4606169211851281  0.5367466209954443
  0.0393830788148648  0.3558577800512808  0.0367466209954443
  0.9179038698915605  0.7893864004254780  0.3107759225972373
  0.2893864004254780  0.5820961301084395  0.8107759225972302
  0.7106135995745220  0.4179038698915605  0.8107759225972302
  0.0820961301084324  0.2106135995745220  0.3107759225972373
  0.9330657079381410  0.7906488277284396  0.7261963603748853
  0.2906488277284254  0.5669342920618590  0.2261963603748924
  0.7093511722715604  0.4330657079381339  0.2261963603748924
  0.0669342920618661  0.2093511722715675  0.7261963603748853
  0.8071059225236894  0.6189464489186776  0.3708612266976701
  0.1189464489186776  0.6928940774763106  0.8708612266976630
  0.8810535510813224  0.3071059225236823  0.8708612266976630
  0.1928940774763177  0.3810535510813224  0.3708612266976701
  0.8072184452436701  0.6325391691043478  0.7096078138565503
  0.1325391691043478  0.6927815547563299  0.2096078138565431
  0.8674608308956522  0.3072184452436559  0.2096078138565431
  0.1927815547563441  0.3674608308956522  0.7096078138565503
  0.2230830069427938  0.3065106483299616  0.0706058720008258
  0.8065106483299616  0.2769169930572062  0.5706058720008187
  0.1934893516700384  0.7230830069427938  0.5706058720008187
  0.7769169930572062  0.6934893516700384  0.0706058720008258

  0.00000000E+00  0.00000000E+00  0.00000000E+00
  0.00000000E+00  0.00000000E+00  0.00000000E+00
  0.00000000E+00  0.00000000E+00  0.00000000E+00
  0.00000000E+00  0.00000000E+00  0.00000000E+00
  0.00000000E+00  0.00000000E+00  0.00000000E+00
  0.00000000E+00  0.00000000E+00  0.00000000E+00
  0.00000000E+00  0.00000000E+00  0.00000000E+00
  0.00000000E+00  0.00000000E+00  0.00000000E+00
  0.00000000E+00  0.00000000E+00  0.00000000E+00
  0.00000000E+00  0.00000000E+00  0.00000000E+00
  0.00000000E+00  0.00000000E+00  0.00000000E+00
  0.00000000E+00  0.00000000E+00  0.00000000E+00
  0.00000000E+00  0.00000000E+00  0.00000000E+00
  0.00000000E+00  0.00000000E+00  0.00000000E+00
  0.00000000E+00  0.00000000E+00  0.00000000E+00
  0.00000000E+00  0.00000000E+00  0.00000000E+00
  0.00000000E+00  0.00000000E+00  0.00000000E+00
  0.00000000E+00  0.00000000E+00  0.00000000E+00
  0.00000000E+00  0.00000000E+00  0.00000000E+00
  0.00000000E+00  0.00000000E+00  0.00000000E+00
  0.00000000E+00  0.00000000E+00  0.00000000E+00
  0.00000000E+00  0.00000000E+00  0.00000000E+00
  0.00000000E+00  0.00000000E+00  0.00000000E+00
  0.00000000E+00  0.00000000E+00  0.00000000E+00
  0.00000000E+00  0.00000000E+00  0.00000000E+00
  0.00000000E+00  0.00000000E+00  0.00000000E+00
  0.00000000E+00  0.00000000E+00  0.00000000E+00
  0.00000000E+00  0.00000000E+00  0.00000000E+00
  0.00000000E+00  0.00000000E+00  0.00000000E+00
  0.00000000E+00  0.00000000E+00  0.00000000E+00
  0.00000000E+00  0.00000000E+00  0.00000000E+00
  0.00000000E+00  0.00000000E+00  0.00000000E+00
  0.00000000E+00  0.00000000E+00  0.00000000E+00
  0.00000000E+00  0.00000000E+00  0.00000000E+00
  0.00000000E+00  0.00000000E+00  0.00000000E+00
  0.00000000E+00  0.00000000E+00  0.00000000E+00
  0.00000000E+00  0.00000000E+00  0.00000000E+00
  0.00000000E+00  0.00000000E+00  0.00000000E+00
  0.00000000E+00  0.00000000E+00  0.00000000E+00
  0.00000000E+00  0.00000000E+00  0.00000000E+00
  0.00000000E+00  0.00000000E+00  0.00000000E+00
  0.00000000E+00  0.00000000E+00  0.00000000E+00
  0.00000000E+00  0.00000000E+00  0.00000000E+00
  0.00000000E+00  0.00000000E+00  0.00000000E+00
  0.00000000E+00  0.00000000E+00  0.00000000E+00
  0.00000000E+00  0.00000000E+00  0.00000000E+00
  0.00000000E+00  0.00000000E+00  0.00000000E+00
  0.00000000E+00  0.00000000E+00  0.00000000E+00
  0.00000000E+00  0.00000000E+00  0.00000000E+00
  0.00000000E+00  0.00000000E+00  0.00000000E+00
  0.00000000E+00  0.00000000E+00  0.00000000E+00
  0.00000000E+00  0.00000000E+00  0.00000000E+00
  0.00000000E+00  0.00000000E+00  0.00000000E+00
  0.00000000E+00  0.00000000E+00  0.00000000E+00
  0.00000000E+00  0.00000000E+00  0.00000000E+00
  0.00000000E+00  0.00000000E+00  0.00000000E+00
  0.00000000E+00  0.00000000E+00  0.00000000E+00
  0.00000000E+00  0.00000000E+00  0.00000000E+00
  0.00000000E+00  0.00000000E+00  0.00000000E+00
  0.00000000E+00  0.00000000E+00  0.00000000E+00
  0.00000000E+00  0.00000000E+00  0.00000000E+00
  0.00000000E+00  0.00000000E+00  0.00000000E+00
  0.00000000E+00  0.00000000E+00  0.00000000E+00
  0.00000000E+00  0.00000000E+00  0.00000000E+00
  0.00000000E+00  0.00000000E+00  0.00000000E+00
  0.00000000E+00  0.00000000E+00  0.00000000E+00
  0.00000000E+00  0.00000000E+00  0.00000000E+00
  0.00000000E+00  0.00000000E+00  0.00000000E+00
  0.00000000E+00  0.00000000E+00  0.00000000E+00
  0.00000000E+00  0.00000000E+00  0.00000000E+00
  0.00000000E+00  0.00000000E+00  0.00000000E+00
  0.00000000E+00  0.00000000E+00  0.00000000E+00
  0.00000000E+00  0.00000000E+00  0.00000000E+00
  0.00000000E+00  0.00000000E+00  0.00000000E+00
  0.00000000E+00  0.00000000E+00  0.00000000E+00
  0.00000000E+00  0.00000000E+00  0.00000000E+00
  0.00000000E+00  0.00000000E+00  0.00000000E+00
  0.00000000E+00  0.00000000E+00  0.00000000E+00
  0.00000000E+00  0.00000000E+00  0.00000000E+00
  0.00000000E+00  0.00000000E+00  0.00000000E+00
  0.00000000E+00  0.00000000E+00  0.00000000E+00
  0.00000000E+00  0.00000000E+00  0.00000000E+00
  0.00000000E+00  0.00000000E+00  0.00000000E+00
  0.00000000E+00  0.00000000E+00  0.00000000E+00
  0.00000000E+00  0.00000000E+00  0.00000000E+00
  0.00000000E+00  0.00000000E+00  0.00000000E+00
  0.00000000E+00  0.00000000E+00  0.00000000E+00
  0.00000000E+00  0.00000000E+00  0.00000000E+00
  0.00000000E+00  0.00000000E+00  0.00000000E+00
  0.00000000E+00  0.00000000E+00  0.00000000E+00
  0.00000000E+00  0.00000000E+00  0.00000000E+00
  0.00000000E+00  0.00000000E+00  0.00000000E+00
  0.00000000E+00  0.00000000E+00  0.00000000E+00
  0.00000000E+00  0.00000000E+00  0.00000000E+00
  0.00000000E+00  0.00000000E+00  0.00000000E+00
  0.00000000E+00  0.00000000E+00  0.00000000E+00
  0.00000000E+00  0.00000000E+00  0.00000000E+00
  0.00000000E+00  0.00000000E+00  0.00000000E+00
  0.00000000E+00  0.00000000E+00  0.00000000E+00
  0.00000000E+00  0.00000000E+00  0.00000000E+00
  0.00000000E+00  0.00000000E+00  0.00000000E+00
  0.00000000E+00  0.00000000E+00  0.00000000E+00
  0.00000000E+00  0.00000000E+00  0.00000000E+00
  0.00000000E+00  0.00000000E+00  0.00000000E+00
  0.00000000E+00  0.00000000E+00  0.00000000E+00
  0.00000000E+00  0.00000000E+00  0.00000000E+00
  0.00000000E+00  0.00000000E+00  0.00000000E+00
  0.00000000E+00  0.00000000E+00  0.00000000E+00
  0.00000000E+00  0.00000000E+00  0.00000000E+00
  0.00000000E+00  0.00000000E+00  0.00000000E+00
  0.00000000E+00  0.00000000E+00  0.00000000E+00
  0.00000000E+00  0.00000000E+00  0.00000000E+00
