MgIn3                                   
   1.00000000000000     
     4.6539362321441669    0.0000000000000000    0.0000000000000000
     0.0000000000000000    4.6539362321441669    0.0000000000000000
     0.0000000000000000    0.0000000000000000    4.6539362321441669
   In   Mg
     3     1
Direct
  0.5000000000000000  0.5000000000000000  0.0000000000000000
  0.5000000000000000  0.0000000000000000  0.5000000000000000
  0.0000000000000000  0.5000000000000000  0.5000000000000000
  0.0000000000000000  0.0000000000000000  0.0000000000000000
 
  0.00000000E+00  0.00000000E+00  0.00000000E+00
  0.00000000E+00  0.00000000E+00  0.00000000E+00
  0.00000000E+00  0.00000000E+00  0.00000000E+00
  0.00000000E+00  0.00000000E+00  0.00000000E+00
