BF3                                     
   1.00000000000000     
     4.2349034630005331   -0.0308893282044888    0.0389443542702436
     1.9183725854252616    6.3308913309048354    0.0079232790473665
     0.2777015196741213    0.5617683834581503   12.7926614809076842
   B    F 
     8    24
Direct
  0.5062605197436270  0.7187899406924672  0.1116004588637551
  0.8492753675330391  0.1899487199495837  0.1408299567363116
  0.8600182193434804  0.6956804129916634  0.3634097508688043
  0.5196952093827676  0.2213538357470952  0.3869789513078032
  0.4802064955521885  0.7785994261754610  0.6130479906264057
  0.1398659070920729  0.3042715906318136  0.6366279193378546
  0.1508202739138156  0.8100755989419355  0.8591976524219547
  0.4938113639276693  0.2812315832333141  0.8884343371121659
  0.7568696566308972  0.1516609777555402  0.0479457393250442
  0.7838363841984872  0.7283855070604304  0.0658819127359394
  0.0561599408873477  0.3014837795330507  0.1517389936411249
  0.4264230958232957  0.5389336726862552  0.1179461329475302
  0.3024771333496830  0.8883774398170630  0.1525985346701333
  0.7202856459284632  0.1134392030232121  0.2241670254240233
  0.7497787153484481  0.6448714358685734  0.2754573418597630
  0.3198998917136251  0.3919676764887043  0.3407043408778279
  0.0776105935484281  0.8027500354480850  0.3607443829420802
  0.4321256717247905  0.0443741857565527  0.3956144914748876
  0.8020607504838253  0.2285437116139022  0.4239718209854928
  0.7408486610464209  0.6375622248089527  0.4530230184898443
  0.2590104943182681  0.3623971919226179  0.5470118426928607
  0.1978046627130610  0.7713773575997891  0.5760968747096271
  0.5677516798496711  0.9555841226104249  0.6043630985224482
  0.9222646544979156  0.1972072091907577  0.6392941199225390
  0.6800438638971613  0.6080120042106572  0.6593306361770956
  0.2501428642900407  0.3550549475213316  0.7245798160826382
  0.2798096191818829  0.8866038439041972  0.7758661645534275
  0.6975675768227703  0.1116294161426552  0.8474409965386869
  0.5736595120354835  0.4610839924567784  0.8820594169823153
  0.9439458746249016  0.6985367569051704  0.8482790736034858
  0.2162517086253501  0.2716591796364156  0.9341725744151788
  0.2432179919711572  0.8483530196755638  0.9520846331509603
 
  0.00000000E+00  0.00000000E+00  0.00000000E+00
  0.00000000E+00  0.00000000E+00  0.00000000E+00
  0.00000000E+00  0.00000000E+00  0.00000000E+00
  0.00000000E+00  0.00000000E+00  0.00000000E+00
  0.00000000E+00  0.00000000E+00  0.00000000E+00
  0.00000000E+00  0.00000000E+00  0.00000000E+00
  0.00000000E+00  0.00000000E+00  0.00000000E+00
  0.00000000E+00  0.00000000E+00  0.00000000E+00
  0.00000000E+00  0.00000000E+00  0.00000000E+00
  0.00000000E+00  0.00000000E+00  0.00000000E+00
  0.00000000E+00  0.00000000E+00  0.00000000E+00
  0.00000000E+00  0.00000000E+00  0.00000000E+00
  0.00000000E+00  0.00000000E+00  0.00000000E+00
  0.00000000E+00  0.00000000E+00  0.00000000E+00
  0.00000000E+00  0.00000000E+00  0.00000000E+00
  0.00000000E+00  0.00000000E+00  0.00000000E+00
  0.00000000E+00  0.00000000E+00  0.00000000E+00
  0.00000000E+00  0.00000000E+00  0.00000000E+00
  0.00000000E+00  0.00000000E+00  0.00000000E+00
  0.00000000E+00  0.00000000E+00  0.00000000E+00
  0.00000000E+00  0.00000000E+00  0.00000000E+00
  0.00000000E+00  0.00000000E+00  0.00000000E+00
  0.00000000E+00  0.00000000E+00  0.00000000E+00
  0.00000000E+00  0.00000000E+00  0.00000000E+00
  0.00000000E+00  0.00000000E+00  0.00000000E+00
  0.00000000E+00  0.00000000E+00  0.00000000E+00
  0.00000000E+00  0.00000000E+00  0.00000000E+00
  0.00000000E+00  0.00000000E+00  0.00000000E+00
  0.00000000E+00  0.00000000E+00  0.00000000E+00
  0.00000000E+00  0.00000000E+00  0.00000000E+00
  0.00000000E+00  0.00000000E+00  0.00000000E+00
  0.00000000E+00  0.00000000E+00  0.00000000E+00
