Mg2 Tl2 Br10                            
   1.0000000000000000     
     6.5781488575364460   -3.4619502981959411   -0.0494591244714259
     6.6873847633234620    3.5704196045269345    0.1253164847259974
    -4.7928101511855941    0.1544372377831536   10.1506866747598252
   Tl   Mg   Br
     2     2    10
Direct
  0.0418181087178411  0.9554083242812652  0.9653672142690866
  0.9556392298526930  0.0499051856361561  0.4675153134912051
  0.5336920936317568  0.6829428877052379  0.2582686953539408
  0.4663099406643738  0.3202998476331587  0.7592394356661245
  0.2407346607684318  0.5833159751135426  0.0653874681828839
  0.3631350490431160  0.0288173927877011  0.1612549961423326
  0.7848429341421195  0.2417345058717828  0.2531694979667378
  0.9264423158920820  0.6744527099881310  0.3596018887896477
  0.4076521026781137  0.7857064520026213  0.4673662801694505
  0.5535951941199002  0.2387075474909324  0.5368292675087574
  0.0612893731913857  0.3415863118144316  0.6651948200821778
  0.2310791386997266  0.7499139031277338  0.7559445446099531
  0.6418323107645705  0.9629682832921844  0.8474706691329672
  0.7921375478339030  0.3844406732551207  0.9376899086347308

  0.00000000E+00  0.00000000E+00  0.00000000E+00
  0.00000000E+00  0.00000000E+00  0.00000000E+00
  0.00000000E+00  0.00000000E+00  0.00000000E+00
  0.00000000E+00  0.00000000E+00  0.00000000E+00
  0.00000000E+00  0.00000000E+00  0.00000000E+00
  0.00000000E+00  0.00000000E+00  0.00000000E+00
  0.00000000E+00  0.00000000E+00  0.00000000E+00
  0.00000000E+00  0.00000000E+00  0.00000000E+00
  0.00000000E+00  0.00000000E+00  0.00000000E+00
  0.00000000E+00  0.00000000E+00  0.00000000E+00
  0.00000000E+00  0.00000000E+00  0.00000000E+00
  0.00000000E+00  0.00000000E+00  0.00000000E+00
  0.00000000E+00  0.00000000E+00  0.00000000E+00
  0.00000000E+00  0.00000000E+00  0.00000000E+00
