Be17 Al11 Cl1                           
   1.00000000000000     
     6.7777971581445353   -3.1620168820754766    3.1538890705026552
     0.9391197671193421    8.2719906166974848    3.6017807027349900
    -6.3648094758767932   -4.0061898010304109    0.8609557438538856
   Al   Cl   Be
    11     1    17
Direct
  0.7284394953933244  0.6516263082914264  0.9843519894272816
  0.4639614665258591  0.4763435116665136  0.2809518873750889
  0.8108834794924320  0.0538290645237751  0.2851673819144622
  0.2065460224021010  0.9497634501768530  0.2818717697145559
  0.0874874673195976  0.3722581639242577  0.2506555836553517
  0.4549482689848077  0.3101938719808714  0.4773549896763001
  0.9516426420157984  0.8095975064910306  0.4886113952017155
  0.8631050521108108  0.1109720766942104  0.7241953944426598
  0.9309956186040012  0.6785276236322844  0.7442460875153785
  0.5320119356920401  0.8004296838913518  0.7473163487887007
  0.2182481506418625  0.1839440283874083  0.7480390471676017
  0.7260542379239681  0.3216496890652252  0.1024325914075206
  0.1250608948575689  0.4305977069671485  0.9935128420591397
  0.3146855643101318  0.7609331998827784  0.0022110784132607
  0.4058550803562397  0.9998296594254157  0.9879334780357141
  0.9148400634493044  0.9818157057097281  0.0080523888422022
  0.3725528017436801  0.5263726041672570  0.9813076575517172
  0.6294422151227650  0.8148175668584727  0.2783748529236192
  0.5598253910076494  0.0652521282410774  0.3610606477074825
  0.0557601556984011  0.6390231373703301  0.2169804338776444
  0.1444941391321635  0.2242292949363431  0.4332024145838318
  0.3870705752715224  0.7546287787626227  0.3322723857682277
  0.6880017940738767  0.3047032393705749  0.3474684691835108
  0.2885017836827473  0.9089640193216226  0.6023150138028868
  0.0612288938153824  0.4324606812223095  0.6665200602600123
  0.7186007086784372  0.8041336610998897  0.5884980050582627
  0.8252876540538665  0.3981564267893845  0.7474972472000161
  0.1886830028827617  0.6974955296515617  0.6380145053431505
  0.3467414447569013  0.5367916814983076  0.6995850531027088
 
  0.00000000E+00  0.00000000E+00  0.00000000E+00
  0.00000000E+00  0.00000000E+00  0.00000000E+00
  0.00000000E+00  0.00000000E+00  0.00000000E+00
  0.00000000E+00  0.00000000E+00  0.00000000E+00
  0.00000000E+00  0.00000000E+00  0.00000000E+00
  0.00000000E+00  0.00000000E+00  0.00000000E+00
  0.00000000E+00  0.00000000E+00  0.00000000E+00
  0.00000000E+00  0.00000000E+00  0.00000000E+00
  0.00000000E+00  0.00000000E+00  0.00000000E+00
  0.00000000E+00  0.00000000E+00  0.00000000E+00
  0.00000000E+00  0.00000000E+00  0.00000000E+00
  0.00000000E+00  0.00000000E+00  0.00000000E+00
  0.00000000E+00  0.00000000E+00  0.00000000E+00
  0.00000000E+00  0.00000000E+00  0.00000000E+00
  0.00000000E+00  0.00000000E+00  0.00000000E+00
  0.00000000E+00  0.00000000E+00  0.00000000E+00
  0.00000000E+00  0.00000000E+00  0.00000000E+00
  0.00000000E+00  0.00000000E+00  0.00000000E+00
  0.00000000E+00  0.00000000E+00  0.00000000E+00
  0.00000000E+00  0.00000000E+00  0.00000000E+00
  0.00000000E+00  0.00000000E+00  0.00000000E+00
  0.00000000E+00  0.00000000E+00  0.00000000E+00
  0.00000000E+00  0.00000000E+00  0.00000000E+00
  0.00000000E+00  0.00000000E+00  0.00000000E+00
  0.00000000E+00  0.00000000E+00  0.00000000E+00
  0.00000000E+00  0.00000000E+00  0.00000000E+00
  0.00000000E+00  0.00000000E+00  0.00000000E+00
  0.00000000E+00  0.00000000E+00  0.00000000E+00
  0.00000000E+00  0.00000000E+00  0.00000000E+00
