Ca4 Ga4 Br20                            
   1.0000000000000000     
    14.2233827437190037    0.0000000000000000    0.0000000000000000
     0.0000000000000000    7.3865101479822561    0.6401115683430416
     0.0000000000000000    4.9006752150145374   10.5850688546921337
   Ca   Ga   Br
     4     4    20
Direct
  0.8896636921180843  0.4202349533401275  0.4226758330744218
  0.3896636921180843  0.5797650466598654  0.0773241669255782
  0.1103363078819157  0.5797650466598654  0.5773241669255782
  0.6103363078819157  0.4202349533401275  0.9226758330744218
  0.6762031600598348  0.1189032953746221  0.6292074256553519
  0.1762031600598348  0.8810967046253779  0.8707925743446481
  0.3237968399401510  0.8810967046253779  0.3707925743446481
  0.8237968399401652  0.1189032953746221  0.1292074256553519
  0.5743990587729257  0.2402695789586886  0.7368727249038045
  0.0743990587729186  0.7597304210413043  0.7631272750961955
  0.4256009412270743  0.7597304210413043  0.2631272750962026
  0.9256009412270743  0.2402695789586886  0.2368727249038045
  0.6826418360983766  0.3811340848014098  0.4018770584747102
  0.1826418360983766  0.6188659151985973  0.0981229415252898
  0.3173581639016234  0.6188659151985973  0.5981229415252898
  0.8173581639016234  0.3811340848014098  0.9018770584747102
  0.3356970960848074  0.9335540104514308  0.8050413514309724
  0.8356970960848216  0.0664459895485692  0.6949586485690276
  0.6643029039151855  0.0664459895485692  0.1949586485690276
  0.1643029039151855  0.9335540104514308  0.3050413514309724
  0.6129991693732393  0.8089588839143218  0.6467151536845321
  0.1129991693732393  0.1910411160856853  0.8532848463154679
  0.3870008306267607  0.1910411160856853  0.3532848463154679
  0.8870008306267607  0.8089588839143218  0.1467151536845321
  0.4162047168440353  0.3313764376679842  0.9609654283339921
  0.9162047168440424  0.6686235623320158  0.5390345716660079
  0.5837952831559576  0.6686235623320158  0.0390345716660079
  0.0837952831559576  0.3313764376679842  0.4609654283339921

  0.00000000E+00  0.00000000E+00  0.00000000E+00
  0.00000000E+00  0.00000000E+00  0.00000000E+00
  0.00000000E+00  0.00000000E+00  0.00000000E+00
  0.00000000E+00  0.00000000E+00  0.00000000E+00
  0.00000000E+00  0.00000000E+00  0.00000000E+00
  0.00000000E+00  0.00000000E+00  0.00000000E+00
  0.00000000E+00  0.00000000E+00  0.00000000E+00
  0.00000000E+00  0.00000000E+00  0.00000000E+00
  0.00000000E+00  0.00000000E+00  0.00000000E+00
  0.00000000E+00  0.00000000E+00  0.00000000E+00
  0.00000000E+00  0.00000000E+00  0.00000000E+00
  0.00000000E+00  0.00000000E+00  0.00000000E+00
  0.00000000E+00  0.00000000E+00  0.00000000E+00
  0.00000000E+00  0.00000000E+00  0.00000000E+00
  0.00000000E+00  0.00000000E+00  0.00000000E+00
  0.00000000E+00  0.00000000E+00  0.00000000E+00
  0.00000000E+00  0.00000000E+00  0.00000000E+00
  0.00000000E+00  0.00000000E+00  0.00000000E+00
  0.00000000E+00  0.00000000E+00  0.00000000E+00
  0.00000000E+00  0.00000000E+00  0.00000000E+00
  0.00000000E+00  0.00000000E+00  0.00000000E+00
  0.00000000E+00  0.00000000E+00  0.00000000E+00
  0.00000000E+00  0.00000000E+00  0.00000000E+00
  0.00000000E+00  0.00000000E+00  0.00000000E+00
  0.00000000E+00  0.00000000E+00  0.00000000E+00
  0.00000000E+00  0.00000000E+00  0.00000000E+00
  0.00000000E+00  0.00000000E+00  0.00000000E+00
  0.00000000E+00  0.00000000E+00  0.00000000E+00
