Sr4 Al10 Cl2                            
   1.00000000000000     
     8.7583053282766503   -0.0013028019755118   -0.0000516650102224
    -0.0013026881736506    8.7589162069715130    0.0004200195136452
     4.3778871655892617    4.3786096747475636    5.7078746127007074
   Cl   Sr   Al
     2     4    10
Direct
  0.7498874000763038  0.7498671748791566  0.5001922251346969
  0.2499467936016941  0.2499033638314501  0.5002139366914804
  0.3467716209022242  0.1532552629974262  0.9999852434037422
  0.8467313859225101  0.3467570864773890  0.9999960433048116
  0.1531980180026338  0.6532426341860287  0.0000290217260996
  0.6532338289421560  0.8467442715257647  0.0000293167219283
  0.0000457910661567  0.0000692535160312  0.9999066102454961
  0.5001920815583532  0.5002352435234201  0.9995732499298171
  0.4416337737740434  0.9416851741062757  0.4098382467853341
  0.9417251766637520  0.1484353550107329  0.4097965100469523
  0.6484026678435768  0.4416656342731358  0.4098501517296711
  0.1484672957846840  0.6485165592760609  0.4098309927562767
  0.8515951510660571  0.3515118653796137  0.5901689441947653
  0.3516212902085272  0.5582139703256956  0.5902015241694940
  0.0581738973130683  0.8516148501083762  0.5901901427764145
  0.5582738272742560  0.0581823005834465  0.5901978403830057
 
  0.00000000E+00  0.00000000E+00  0.00000000E+00
  0.00000000E+00  0.00000000E+00  0.00000000E+00
  0.00000000E+00  0.00000000E+00  0.00000000E+00
  0.00000000E+00  0.00000000E+00  0.00000000E+00
  0.00000000E+00  0.00000000E+00  0.00000000E+00
  0.00000000E+00  0.00000000E+00  0.00000000E+00
  0.00000000E+00  0.00000000E+00  0.00000000E+00
  0.00000000E+00  0.00000000E+00  0.00000000E+00
  0.00000000E+00  0.00000000E+00  0.00000000E+00
  0.00000000E+00  0.00000000E+00  0.00000000E+00
  0.00000000E+00  0.00000000E+00  0.00000000E+00
  0.00000000E+00  0.00000000E+00  0.00000000E+00
  0.00000000E+00  0.00000000E+00  0.00000000E+00
  0.00000000E+00  0.00000000E+00  0.00000000E+00
  0.00000000E+00  0.00000000E+00  0.00000000E+00
  0.00000000E+00  0.00000000E+00  0.00000000E+00
