Mg8 Al12                                
   1.00000000000000     
     6.5707275437099799   -0.0000000000000006   -0.0000000116799521
    -0.0000000000000006    6.5707275437099790   -0.0000000116799521
    -3.2853632793954177   -3.2853632793954177    9.2772348571268743
   Mg   Al
     8    12
Direct
  0.2914548115955213  0.5122951620265539  0.5829096231891739
  0.2914548115960471  0.0706144611650075  0.5829096231902255
  0.3206144611650075  0.0414548115960471  0.0829096231902255
  0.9585451884039529  0.6793855388349925  0.9170903768097745
  0.9585451884044787  0.2377048379734461  0.9170903768108261
  0.7622951620265539  0.0414548115955213  0.0829096231891739
  0.9293855388349925  0.7085451884039529  0.4170903768097673
  0.4877048379734461  0.7085451884044787  0.4170903768108261
  0.8034641233048205  0.0924358748560792  0.6069282466097192
  0.8034641233047850  0.5144933717535238  0.6069282466096553
  0.7644933717535238  0.5534641233047850  0.1069282466096553
  0.4465358766952150  0.2355066282464762  0.8930717533903447
  0.4465358766951795  0.6575641251439208  0.8930717533902808
  0.3424358748560792  0.5534641233048205  0.1069282466097192
  0.4855066282464762  0.1965358766952150  0.3930717533903447
  0.9075641251439208  0.1965358766951795  0.3930717533902808
  0.1250000000000000  0.3750000000000000  0.2500000000000000
  0.1250000000000000  0.8750000000000000  0.2500000000000000
  0.1250000000000000  0.8750000000000000  0.7500000000000000
  0.6250000000000000  0.8750000000000000  0.7500000000000000
 
  0.00000000E+00  0.00000000E+00  0.00000000E+00
  0.00000000E+00  0.00000000E+00  0.00000000E+00
  0.00000000E+00  0.00000000E+00  0.00000000E+00
  0.00000000E+00  0.00000000E+00  0.00000000E+00
  0.00000000E+00  0.00000000E+00  0.00000000E+00
  0.00000000E+00  0.00000000E+00  0.00000000E+00
  0.00000000E+00  0.00000000E+00  0.00000000E+00
  0.00000000E+00  0.00000000E+00  0.00000000E+00
  0.00000000E+00  0.00000000E+00  0.00000000E+00
  0.00000000E+00  0.00000000E+00  0.00000000E+00
  0.00000000E+00  0.00000000E+00  0.00000000E+00
  0.00000000E+00  0.00000000E+00  0.00000000E+00
  0.00000000E+00  0.00000000E+00  0.00000000E+00
  0.00000000E+00  0.00000000E+00  0.00000000E+00
  0.00000000E+00  0.00000000E+00  0.00000000E+00
  0.00000000E+00  0.00000000E+00  0.00000000E+00
  0.00000000E+00  0.00000000E+00  0.00000000E+00
  0.00000000E+00  0.00000000E+00  0.00000000E+00
  0.00000000E+00  0.00000000E+00  0.00000000E+00
  0.00000000E+00  0.00000000E+00  0.00000000E+00
