Ca3B                                    
   1.00000000000000     
     7.5321366733312560    0.9896336318724417    0.0000000000000000
    -3.0268209775651038    8.4236923208157002    0.0000000000000000
     0.0000000000000000    0.0000000000000000    3.6152868224612704
   B    Ca
     2     6
Direct
  0.3116123326717357  0.7282224695200554  0.7500000000000000
  0.6883876673282643  0.2717775304799446  0.2500000000000000
  0.2535235728525294  0.4969486466371151  0.2500000000000000
  0.5722281805624476  0.8373290297575977  0.2500000000000000
  0.0992323354393818  0.8318781424466195  0.2500000000000000
  0.7464764271474706  0.5030513533628849  0.7500000000000000
  0.4277718194375524  0.1626709702424023  0.7500000000000000
  0.9007676645606182  0.1681218575533805  0.7500000000000000
 
  0.00000000E+00  0.00000000E+00  0.00000000E+00
  0.00000000E+00  0.00000000E+00  0.00000000E+00
  0.00000000E+00  0.00000000E+00  0.00000000E+00
  0.00000000E+00  0.00000000E+00  0.00000000E+00
  0.00000000E+00  0.00000000E+00  0.00000000E+00
  0.00000000E+00  0.00000000E+00  0.00000000E+00
  0.00000000E+00  0.00000000E+00  0.00000000E+00
  0.00000000E+00  0.00000000E+00  0.00000000E+00
