Be4 Al4 I20                             
   1.0000000000000000     
     4.0658175922549997    0.0000000000000000    0.0000000000000002
    -0.0000000000000002   11.7117811846690199    0.0000000000000008
    -0.0000000000000012    0.0000000000000004   27.8247526841894555
   Be   Al   I 
     4     4    20
Direct
  0.0606616588128119  0.7221381903531352  0.6784339107114903
  0.5606616588128190  0.7778618096468648  0.3215660892885097
  0.9393383411871810  0.2221381903531352  0.8215660892885097
  0.4393383411871881  0.2778618096468648  0.1784339107114903
  0.0675050809308857  0.0030465234340653  0.5658152732290986
  0.5675050809308857  0.4969534765659347  0.4341847267709014
  0.9324949190691143  0.5030465234340653  0.9341847267709014
  0.4324949190691143  0.9969534765659347  0.0658152732290986
  0.0639707322125957  0.7911991913060632  0.5855576217796497
  0.5639707322125957  0.7088008086939368  0.4144423782203503
  0.9360292677874043  0.2911991913060632  0.9144423782203503
  0.4360292677874114  0.2088008086939368  0.0855576217796497
  0.0597182995635421  0.6897919918375237  0.2864958439242073
  0.5597182995635421  0.8102080081624763  0.7135041560757855
  0.9402817004364579  0.1897919918375237  0.2135041560757855
  0.4402817004364579  0.3102080081624763  0.7864958439242073
  0.0564952525810440  0.5304167684277914  0.6658891288860858
  0.5564952525810440  0.9695832315722015  0.3341108711139071
  0.9435047474189560  0.0304167684277914  0.8341108711139142
  0.4435047474189560  0.4695832315722015  0.1658891288860858
  0.5677502277997917  0.1061685465725333  0.6123418841039481
  0.0677502277997917  0.3938314534274667  0.3876581158960519
  0.4322497722002083  0.6061685465725333  0.8876581158960519
  0.9322497722002083  0.8938314534274667  0.1123418841039481
  0.5699398831654179  0.4526399802194163  0.5210008041567065
  0.0699398831654179  0.0473600197805837  0.4789991958432935
  0.4300601168345821  0.9526399802194163  0.9789991958432935
  0.9300601168345821  0.5473600197805837  0.0210008041567065

  0.00000000E+00  0.00000000E+00  0.00000000E+00
  0.00000000E+00  0.00000000E+00  0.00000000E+00
  0.00000000E+00  0.00000000E+00  0.00000000E+00
  0.00000000E+00  0.00000000E+00  0.00000000E+00
  0.00000000E+00  0.00000000E+00  0.00000000E+00
  0.00000000E+00  0.00000000E+00  0.00000000E+00
  0.00000000E+00  0.00000000E+00  0.00000000E+00
  0.00000000E+00  0.00000000E+00  0.00000000E+00
  0.00000000E+00  0.00000000E+00  0.00000000E+00
  0.00000000E+00  0.00000000E+00  0.00000000E+00
  0.00000000E+00  0.00000000E+00  0.00000000E+00
  0.00000000E+00  0.00000000E+00  0.00000000E+00
  0.00000000E+00  0.00000000E+00  0.00000000E+00
  0.00000000E+00  0.00000000E+00  0.00000000E+00
  0.00000000E+00  0.00000000E+00  0.00000000E+00
  0.00000000E+00  0.00000000E+00  0.00000000E+00
  0.00000000E+00  0.00000000E+00  0.00000000E+00
  0.00000000E+00  0.00000000E+00  0.00000000E+00
  0.00000000E+00  0.00000000E+00  0.00000000E+00
  0.00000000E+00  0.00000000E+00  0.00000000E+00
  0.00000000E+00  0.00000000E+00  0.00000000E+00
  0.00000000E+00  0.00000000E+00  0.00000000E+00
  0.00000000E+00  0.00000000E+00  0.00000000E+00
  0.00000000E+00  0.00000000E+00  0.00000000E+00
  0.00000000E+00  0.00000000E+00  0.00000000E+00
  0.00000000E+00  0.00000000E+00  0.00000000E+00
  0.00000000E+00  0.00000000E+00  0.00000000E+00
  0.00000000E+00  0.00000000E+00  0.00000000E+00
