Mg4 In4 F20                             
   1.0000000000000000     
    10.0968541489540211    0.0000000000000000    0.0000000000000000
     0.0000000000000000    4.8002953075600230    0.0174214525492868
     0.0000000000000000    2.2515949175736836    7.3534266904070851
   Mg   In   F 
     4     4    20
Direct
  0.9898619471664176  0.4641482691978638  0.2156040398637415
  0.4898619471664176  0.5358517308021291  0.2843959601362585
  0.0101380528335824  0.5358517308021291  0.7843959601362585
  0.5101380528335824  0.4641482691978638  0.7156040398637415
  0.7675059771431947  0.1126111851597145  0.6227210710305044
  0.2675059771431947  0.8873888148402855  0.8772789289694956
  0.2324940228568053  0.8873888148402855  0.3772789289694956
  0.7324940228568053  0.1126111851597145  0.1227210710305044
  0.6047398921766813  0.3540531472305659  0.4970702311800821
  0.1047398921766813  0.6459468527694341  0.0029297688199179
  0.3952601078233187  0.6459468527694341  0.5029297688199179
  0.8952601078233187  0.3540531472305659  0.9970702311800821
  0.8422589570779877  0.1726292088663968  0.3562049564621930
  0.3422589570779877  0.8273707911336032  0.1437950435378070
  0.1577410429220123  0.8273707911336032  0.6437950435378070
  0.6577410429220123  0.1726292088663968  0.8562049564621930
  0.4197522953007677  0.0987617441319912  0.7234659695049217
  0.9197522953007677  0.9012382558680088  0.7765340304950783
  0.5802477046992323  0.9012382558680088  0.2765340304950783
  0.0802477046992323  0.0987617441319912  0.2234659695049217
  0.6494210317289344  0.7493373735732689  0.6779232981789534
  0.1494210317289344  0.2506626264267311  0.8220767018210466
  0.3505789682710656  0.2506626264267311  0.3220767018210466
  0.8505789682710656  0.7493373735732689  0.1779232981789534
  0.3850087354693699  0.5196951197898656  0.8945785349001909
  0.8850087354693699  0.4803048802101344  0.6054214650998091
  0.6149912645306301  0.4803048802101344  0.1054214650998091
  0.1149912645306301  0.5196951197898656  0.3945785349001909

  0.00000000E+00  0.00000000E+00  0.00000000E+00
  0.00000000E+00  0.00000000E+00  0.00000000E+00
  0.00000000E+00  0.00000000E+00  0.00000000E+00
  0.00000000E+00  0.00000000E+00  0.00000000E+00
  0.00000000E+00  0.00000000E+00  0.00000000E+00
  0.00000000E+00  0.00000000E+00  0.00000000E+00
  0.00000000E+00  0.00000000E+00  0.00000000E+00
  0.00000000E+00  0.00000000E+00  0.00000000E+00
  0.00000000E+00  0.00000000E+00  0.00000000E+00
  0.00000000E+00  0.00000000E+00  0.00000000E+00
  0.00000000E+00  0.00000000E+00  0.00000000E+00
  0.00000000E+00  0.00000000E+00  0.00000000E+00
  0.00000000E+00  0.00000000E+00  0.00000000E+00
  0.00000000E+00  0.00000000E+00  0.00000000E+00
  0.00000000E+00  0.00000000E+00  0.00000000E+00
  0.00000000E+00  0.00000000E+00  0.00000000E+00
  0.00000000E+00  0.00000000E+00  0.00000000E+00
  0.00000000E+00  0.00000000E+00  0.00000000E+00
  0.00000000E+00  0.00000000E+00  0.00000000E+00
  0.00000000E+00  0.00000000E+00  0.00000000E+00
  0.00000000E+00  0.00000000E+00  0.00000000E+00
  0.00000000E+00  0.00000000E+00  0.00000000E+00
  0.00000000E+00  0.00000000E+00  0.00000000E+00
  0.00000000E+00  0.00000000E+00  0.00000000E+00
  0.00000000E+00  0.00000000E+00  0.00000000E+00
  0.00000000E+00  0.00000000E+00  0.00000000E+00
  0.00000000E+00  0.00000000E+00  0.00000000E+00
  0.00000000E+00  0.00000000E+00  0.00000000E+00
