Ca10 B38                                
   1.00000000000000     
     4.6351834674864225    0.0001785757099748   -0.0000753872112448
    -2.3170794001997930    4.0144519433142785    0.0001047043807313
    -0.0008988815047520    0.0007631028156011   29.0977871051454287
   Ca   B 
    10    38
Direct
  0.3334024442572741  0.6666813216885004  0.0294803543317315
  0.3333383393413101  0.6666127836095939  0.1367610659418474
  0.3331990806658993  0.6666447775356659  0.2452186271031209
  0.3330937456572727  0.6667402986816739  0.3624825418503903
  0.3334316334698570  0.6666197780741783  0.4712424605859340
  0.6667155013788033  0.3333329742737163  0.5294289458502703
  0.6666644771341765  0.3333516295184751  0.6367787729209056
  0.6667386233596062  0.3332385015438675  0.7452684916058985
  0.6668113748294502  0.3331548106282440  0.8625296495353680
  0.6666137969379164  0.3334551871963356  0.9713079233609676
  0.0000159687335355  0.0000602411582875  0.9993499788279863
  0.7847521414374299  0.2153200766264973  0.0700381298929429
  0.4308439906887571  0.2153609427753054  0.0700481774117421
  0.7847135179468054  0.5692328815887748  0.0700477739569791
  0.0001294980432007  0.9999517572784100  0.0572198269708721
  0.6665186425938785  0.3333393926184556  0.1976797013321843
  0.8795860934888822  0.1202833645030239  0.1951808684807617
  0.8796368835670236  0.7594151725411322  0.1951850039000220
  0.2404443577973652  0.1202274868893980  0.1951852179820293
  0.9997394644196405  0.0000943151213519  0.2494169769917747
  0.6665949013732018  0.3332457730238687  0.2577296630747270
  0.2514332566072071  0.1258401593043388  0.2995158885538345
  0.8738485757842369  0.1259618095291017  0.2994798568750952
  0.8739627787956721  0.7483649991393904  0.2995128259182991
  0.6663300795764329  0.3334589973950912  0.3140384491865689
  0.0001457501246449  0.9999040532983798  0.4414401373589314
  0.7848473148194515  0.5694569130645490  0.4310122168706769
  0.7848970975992415  0.2151466977667127  0.4310178391326005
  0.4305912231030575  0.2151994680459453  0.4310118497391429
  0.0000679741598475  0.9999807990555780  0.4992025126963568
  0.5693053081663422  0.7846313464732191  0.5699849092640150
  0.2154106205166570  0.4307358080156760  0.5699843437516776
  0.2153735942913642  0.7846669417681866  0.5699758572598697
  0.0000061204832988  0.0000361400115310  0.5570852235136385
  0.3334253739997806  0.6665698870028365  0.6977180471406399
  0.7595043939293120  0.8796843064644904  0.6952274130323488
  0.1203599310524766  0.8796314345766945  0.6952248091730553
  0.1203085913727691  0.2404902442017018  0.6952279203257419
  0.0001921355105097  0.9997929170765474  0.7494615088570313
  0.3333504518662878  0.6666189297518272  0.7577686092647582
  0.1260593550283531  0.8739018087335140  0.7995351665711823
  0.1259514619954345  0.2514632690653613  0.7995625423533141
  0.7485021513135379  0.8740117765745765  0.7995620760740749
  0.3335837008145361  0.6663808427709341  0.8140775848513115
  0.9998615517572702  0.0002023502555062  0.9415893217406079
  0.2151775334805777  0.4306714052082157  0.9310949513481290
  0.2151242035689265  0.7849435427062730  0.9311136510373075
  0.5693949931615023  0.7848896858690821  0.9310943362013404
 
  0.00000000E+00  0.00000000E+00  0.00000000E+00
  0.00000000E+00  0.00000000E+00  0.00000000E+00
  0.00000000E+00  0.00000000E+00  0.00000000E+00
  0.00000000E+00  0.00000000E+00  0.00000000E+00
  0.00000000E+00  0.00000000E+00  0.00000000E+00
  0.00000000E+00  0.00000000E+00  0.00000000E+00
  0.00000000E+00  0.00000000E+00  0.00000000E+00
  0.00000000E+00  0.00000000E+00  0.00000000E+00
  0.00000000E+00  0.00000000E+00  0.00000000E+00
  0.00000000E+00  0.00000000E+00  0.00000000E+00
  0.00000000E+00  0.00000000E+00  0.00000000E+00
  0.00000000E+00  0.00000000E+00  0.00000000E+00
  0.00000000E+00  0.00000000E+00  0.00000000E+00
  0.00000000E+00  0.00000000E+00  0.00000000E+00
  0.00000000E+00  0.00000000E+00  0.00000000E+00
  0.00000000E+00  0.00000000E+00  0.00000000E+00
  0.00000000E+00  0.00000000E+00  0.00000000E+00
  0.00000000E+00  0.00000000E+00  0.00000000E+00
  0.00000000E+00  0.00000000E+00  0.00000000E+00
  0.00000000E+00  0.00000000E+00  0.00000000E+00
  0.00000000E+00  0.00000000E+00  0.00000000E+00
  0.00000000E+00  0.00000000E+00  0.00000000E+00
  0.00000000E+00  0.00000000E+00  0.00000000E+00
  0.00000000E+00  0.00000000E+00  0.00000000E+00
  0.00000000E+00  0.00000000E+00  0.00000000E+00
  0.00000000E+00  0.00000000E+00  0.00000000E+00
  0.00000000E+00  0.00000000E+00  0.00000000E+00
  0.00000000E+00  0.00000000E+00  0.00000000E+00
  0.00000000E+00  0.00000000E+00  0.00000000E+00
  0.00000000E+00  0.00000000E+00  0.00000000E+00
  0.00000000E+00  0.00000000E+00  0.00000000E+00
  0.00000000E+00  0.00000000E+00  0.00000000E+00
  0.00000000E+00  0.00000000E+00  0.00000000E+00
  0.00000000E+00  0.00000000E+00  0.00000000E+00
  0.00000000E+00  0.00000000E+00  0.00000000E+00
  0.00000000E+00  0.00000000E+00  0.00000000E+00
  0.00000000E+00  0.00000000E+00  0.00000000E+00
  0.00000000E+00  0.00000000E+00  0.00000000E+00
  0.00000000E+00  0.00000000E+00  0.00000000E+00
  0.00000000E+00  0.00000000E+00  0.00000000E+00
  0.00000000E+00  0.00000000E+00  0.00000000E+00
  0.00000000E+00  0.00000000E+00  0.00000000E+00
  0.00000000E+00  0.00000000E+00  0.00000000E+00
  0.00000000E+00  0.00000000E+00  0.00000000E+00
  0.00000000E+00  0.00000000E+00  0.00000000E+00
  0.00000000E+00  0.00000000E+00  0.00000000E+00
  0.00000000E+00  0.00000000E+00  0.00000000E+00
  0.00000000E+00  0.00000000E+00  0.00000000E+00
