Ca2 Ga2 Br10                            
   1.0000000000000000     
     4.8555761477011767   -0.0000000000000002    0.0000000000000003
    -0.0000000000000010   11.9426495013416005    0.0000000000000007
     0.0000000000000001    0.0000000000000003    9.3306333547510292
   Ca   Ga   Br
     2     2    10
Direct
  0.0000000000000000  0.0000000000000000  0.5000000000000000
  0.5000000000000000  0.5000000000000000  0.0000000000000000
  0.5000000000000000  0.0000000000000000  0.0000000000000000
  0.0000000000000000  0.5000000000000000  0.5000000000000000
  0.5000000000000000  0.7526416784370014  0.5000000000000000
  0.5000000000000000  0.2473583215629986  0.5000000000000000
  0.5000000000000000  0.0000000000000000  0.3059867992674370
  0.5000000000000000  0.0000000000000000  0.6940132007325630
  0.0000000000000000  0.0000000000000000  0.0000000000000000
  0.0000000000000000  0.2526416784370014  0.0000000000000000
  0.0000000000000000  0.7473583215629986  0.0000000000000000
  0.0000000000000000  0.5000000000000000  0.8059867992674370
  0.0000000000000000  0.5000000000000000  0.1940132007325630
  0.5000000000000000  0.5000000000000000  0.5000000000000000

  0.00000000E+00  0.00000000E+00  0.00000000E+00
  0.00000000E+00  0.00000000E+00  0.00000000E+00
  0.00000000E+00  0.00000000E+00  0.00000000E+00
  0.00000000E+00  0.00000000E+00  0.00000000E+00
  0.00000000E+00  0.00000000E+00  0.00000000E+00
  0.00000000E+00  0.00000000E+00  0.00000000E+00
  0.00000000E+00  0.00000000E+00  0.00000000E+00
  0.00000000E+00  0.00000000E+00  0.00000000E+00
  0.00000000E+00  0.00000000E+00  0.00000000E+00
  0.00000000E+00  0.00000000E+00  0.00000000E+00
  0.00000000E+00  0.00000000E+00  0.00000000E+00
  0.00000000E+00  0.00000000E+00  0.00000000E+00
  0.00000000E+00  0.00000000E+00  0.00000000E+00
  0.00000000E+00  0.00000000E+00  0.00000000E+00
