Ca4 In4 F20                             
   1.0000000000000000     
     0.0000000000000000    5.3114744084092553    0.1035357729517825
     8.1096242319412060    0.0000000000000000    0.0000000000000000
     0.0000000000000000   -0.2974483304588306   -7.9400608366823153
   Ca   In   F 
     4     4    20
Direct
  0.4733344048123840  0.2987034101089705  0.4528993630715377
  0.5266655951876231  0.7987034101089705  0.5471006369284623
  0.0006975208406459  0.0362267092035609  0.2152225031615842
  0.9993024791593541  0.5362267092035609  0.7847774968384158
  0.5114909497470919  0.6902257976285000  0.0616841834225710
  0.4885090502529152  0.1902257976284929  0.9383158165774219
  0.0257760917699414  0.5731905706350204  0.3288260312598794
  0.9742239082300586  0.0731905706350204  0.6711739687401206
  0.2474846859967030  0.0331099064670397  0.4863241457963809
  0.2606222725654135  0.5732031501915813  0.5576441715296951
  0.7393777274345865  0.0732031501915813  0.4423558284702978
  0.6251994082108538  0.6731253778207034  0.8086547282059229
  0.8557843619275616  0.5493173057736129  0.0835203067691594
  0.6409007694750954  0.9384289652179874  0.0512863279959603
  0.7538104034746169  0.2938696977124877  0.7278392810396070
  0.7544434098402562  0.7700216843331162  0.3010562166656285
  0.1442156380724384  0.0493173057736129  0.9164796932308406
  0.9641211152544216  0.8178321359013268  0.6284918679566758
  0.3590992305249046  0.4384289652179802  0.9487136720040397
  0.7525153140032970  0.5331099064670468  0.5136758542036119
  0.5923035373460124  0.0097698670267192  0.7461391255558283
  0.8298282585454828  0.2405744019794227  0.0584327326426433
  0.0358788847455784  0.3178321359013268  0.3715081320433242
  0.2461895965253902  0.7938696977124877  0.2721607189603930
  0.3748005917891390  0.1731253778207034  0.1913452717940700
  0.1701717414545172  0.7405744019794227  0.9415672673573567
  0.2455565901597438  0.2700216843331162  0.6989437833343786
  0.4076964626539876  0.5097698670267192  0.2538608744441788

  0.00000000E+00  0.00000000E+00  0.00000000E+00
  0.00000000E+00  0.00000000E+00  0.00000000E+00
  0.00000000E+00  0.00000000E+00  0.00000000E+00
  0.00000000E+00  0.00000000E+00  0.00000000E+00
  0.00000000E+00  0.00000000E+00  0.00000000E+00
  0.00000000E+00  0.00000000E+00  0.00000000E+00
  0.00000000E+00  0.00000000E+00  0.00000000E+00
  0.00000000E+00  0.00000000E+00  0.00000000E+00
  0.00000000E+00  0.00000000E+00  0.00000000E+00
  0.00000000E+00  0.00000000E+00  0.00000000E+00
  0.00000000E+00  0.00000000E+00  0.00000000E+00
  0.00000000E+00  0.00000000E+00  0.00000000E+00
  0.00000000E+00  0.00000000E+00  0.00000000E+00
  0.00000000E+00  0.00000000E+00  0.00000000E+00
  0.00000000E+00  0.00000000E+00  0.00000000E+00
  0.00000000E+00  0.00000000E+00  0.00000000E+00
  0.00000000E+00  0.00000000E+00  0.00000000E+00
  0.00000000E+00  0.00000000E+00  0.00000000E+00
  0.00000000E+00  0.00000000E+00  0.00000000E+00
  0.00000000E+00  0.00000000E+00  0.00000000E+00
  0.00000000E+00  0.00000000E+00  0.00000000E+00
  0.00000000E+00  0.00000000E+00  0.00000000E+00
  0.00000000E+00  0.00000000E+00  0.00000000E+00
  0.00000000E+00  0.00000000E+00  0.00000000E+00
  0.00000000E+00  0.00000000E+00  0.00000000E+00
  0.00000000E+00  0.00000000E+00  0.00000000E+00
  0.00000000E+00  0.00000000E+00  0.00000000E+00
  0.00000000E+00  0.00000000E+00  0.00000000E+00
