Ga6                                     
   1.00000000000000     
     4.9861543960038279   -0.0000000065060078   -1.7628731330477039
    -2.4930782290736269    4.3181367410862368   -1.7628731329331913
    -0.0000000378318330   -0.0000000579167402    5.2886151884765304
   Ga
     6
Direct
  0.1250000000000000  0.7500000000000000  0.8750000000000000
  0.6250000000000000  0.3750000000000000  0.2500000000000000
  0.3750000000000000  0.2500000000000000  0.6250000000000000
  0.7500000000000000  0.8750000000000000  0.1250000000000000
  0.2500000000000000  0.6250000000000000  0.3750000000000000
  0.8750000000000000  0.1250000000000000  0.7500000000000000
 
  0.00000000E+00  0.00000000E+00  0.00000000E+00
  0.00000000E+00  0.00000000E+00  0.00000000E+00
  0.00000000E+00  0.00000000E+00  0.00000000E+00
  0.00000000E+00  0.00000000E+00  0.00000000E+00
  0.00000000E+00  0.00000000E+00  0.00000000E+00
  0.00000000E+00  0.00000000E+00  0.00000000E+00
