Ca1 B2 F6                               
   1.00000000000000     
     3.1211960604157825   -0.3499753503751297    4.3712580875748630
    -3.1211960604157825   -0.3499753503751297    4.3712580875748630
     0.0000000000000000   -3.8067945335628455    4.5269743862834053
   Ca   F    B 
     1     6     2
Direct
  0.0000000000000000  0.0000000000000000  0.0000000000000000
  0.6747142972276094  0.6747142972276094  0.0907586736307593
  0.6158159665448224  0.9855236072270017  0.6212335818455657
  0.9855236072270017  0.6158159665448224  0.6212335818455657
  0.3252857027723763  0.3252857027723763  0.9092413263692407
  0.0144763927729983  0.3841840334551776  0.3787664181544343
  0.3841840334551776  0.0144763927729983  0.3787664181544343
  0.3455579903613142  0.3455579903613142  0.1271118790788677
  0.6544420096386858  0.6544420096386858  0.8728881209211323
 
  0.00000000E+00  0.00000000E+00  0.00000000E+00
  0.00000000E+00  0.00000000E+00  0.00000000E+00
  0.00000000E+00  0.00000000E+00  0.00000000E+00
  0.00000000E+00  0.00000000E+00  0.00000000E+00
  0.00000000E+00  0.00000000E+00  0.00000000E+00
  0.00000000E+00  0.00000000E+00  0.00000000E+00
  0.00000000E+00  0.00000000E+00  0.00000000E+00
  0.00000000E+00  0.00000000E+00  0.00000000E+00
  0.00000000E+00  0.00000000E+00  0.00000000E+00
