Al3Cl                                   
   1.00000000000000     
    -2.2390837994887063    2.2390837994887063    3.8313535560203991
     2.2390837994887063   -2.2390837994887063    3.8313535560203991
     2.2390837994887063    2.2390837994887063   -3.8313535560203991
   Al   Cl
     3     1
Direct
  0.5000000000000000  0.5000000000000000  0.0000000000000000
  0.7500000000000000  0.2500000000000000  0.5000000000000000
  0.2500000000000000  0.7500000000000000  0.5000000000000000
  0.0000000000000000  0.0000000000000000  0.0000000000000000
 
  0.00000000E+00  0.00000000E+00  0.00000000E+00
  0.00000000E+00  0.00000000E+00  0.00000000E+00
  0.00000000E+00  0.00000000E+00  0.00000000E+00
  0.00000000E+00  0.00000000E+00  0.00000000E+00
