B6 Br2                                  
   1.00000000000000     
     8.4829410207900544    2.3597276637962956    0.0000000000000000
    -1.7072630186977582    6.7803357378102689    0.0000000000000000
     0.0000000000000000    0.0000000000000000    3.0580155526106871
   B    Br
     6     2
Direct
  0.1897493458987114  0.1263829476300202  0.2500000000000000
  0.8139445958363893  0.0473949578468620  0.2500000000000000
  0.0028498629261691  0.0209243265743098  0.2500000000000000
  0.0959550002355272  0.9036296095829357  0.7500000000000000
  0.2221347262091058  0.1014985891212064  0.7500000000000000
  0.9056151408442901  0.9861283420716234  0.7500000000000000
  0.1452293368878586  0.6338739605782067  0.7500000000000000
  0.6251219911619401  0.1807672665948417  0.2500000000000000
 
  0.00000000E+00  0.00000000E+00  0.00000000E+00
  0.00000000E+00  0.00000000E+00  0.00000000E+00
  0.00000000E+00  0.00000000E+00  0.00000000E+00
  0.00000000E+00  0.00000000E+00  0.00000000E+00
  0.00000000E+00  0.00000000E+00  0.00000000E+00
  0.00000000E+00  0.00000000E+00  0.00000000E+00
  0.00000000E+00  0.00000000E+00  0.00000000E+00
  0.00000000E+00  0.00000000E+00  0.00000000E+00
