Be1 B12                                 
   1.00000000000000     
     0.0000000000000000    3.6841814444832104    3.6841814444832104
     3.6841814444832104    0.0000000000000000    3.6841814444832104
     3.6841814444832104    3.6841814444832104    0.0000000000000000
   B    Be
    12     1
Direct
  0.8382220242707064  0.5000000000000000  0.1617779757292936
  0.5000000000000000  0.8382220242707064  0.1617779757292936
  0.5000000000000000  0.5000000000000000  0.1617779757292936
  0.5000000000000000  0.1617779757292936  0.5000000000000000
  0.8382220242707064  0.1617779757292936  0.5000000000000000
  0.1617779757292936  0.5000000000000000  0.5000000000000000
  0.8382220242707064  0.5000000000000000  0.5000000000000000
  0.5000000000000000  0.8382220242707064  0.5000000000000000
  0.1617779757292936  0.8382220242707064  0.5000000000000000
  0.5000000000000000  0.1617779757292936  0.8382220242707064
  0.5000000000000000  0.5000000000000000  0.8382220242707064
  0.1617779757292936  0.5000000000000000  0.8382220242707064
  0.0000000000000000  0.0000000000000000  0.0000000000000000
 
  0.00000000E+00  0.00000000E+00  0.00000000E+00
  0.00000000E+00  0.00000000E+00  0.00000000E+00
  0.00000000E+00  0.00000000E+00  0.00000000E+00
  0.00000000E+00  0.00000000E+00  0.00000000E+00
  0.00000000E+00  0.00000000E+00  0.00000000E+00
  0.00000000E+00  0.00000000E+00  0.00000000E+00
  0.00000000E+00  0.00000000E+00  0.00000000E+00
  0.00000000E+00  0.00000000E+00  0.00000000E+00
  0.00000000E+00  0.00000000E+00  0.00000000E+00
  0.00000000E+00  0.00000000E+00  0.00000000E+00
  0.00000000E+00  0.00000000E+00  0.00000000E+00
  0.00000000E+00  0.00000000E+00  0.00000000E+00
  0.00000000E+00  0.00000000E+00  0.00000000E+00
