Sr3                                     
   1.00000000000000     
     4.2236545213835184    0.0005749636482021   -0.0160601915395206
    -2.1123263677886626   -3.6597353896537550   -0.0014003304007634
     2.1506010197238017   -1.2458035016141793  -10.7505199718280569
   Sr
     3
Direct
  0.9999993292525247  0.9999997223722730  0.0000003370424011
  0.4447343280019069  0.2224716287312702  0.3331218342441034
  0.5552643327455584  0.7775306488964659  0.6668778387134964
 
  0.00000000E+00  0.00000000E+00  0.00000000E+00
  0.00000000E+00  0.00000000E+00  0.00000000E+00
  0.00000000E+00  0.00000000E+00  0.00000000E+00
