Ca4 B4 F20                              
   1.0000000000000000     
     8.7049175384113386    0.0000000000000000    0.0000000000000000
     0.0000000000000000    4.0689060044804224    0.6454940020524856
     0.0000000000000000    2.5269276715624458    8.8754132352394688
   Ca   B    F 
     4     4    20
Direct
  0.0119584093277041  0.4190590946973671  0.3228330232374645
  0.5119584093276970  0.5809409053026329  0.1771669767625355
  0.9880415906722959  0.5809409053026329  0.6771669767625355
  0.4880415906722959  0.4190590946973671  0.8228330232374645
  0.6720892504908207  0.1118885315081926  0.5755406557761518
  0.1720892504908207  0.8881114684918074  0.9244593442238482
  0.3279107495091793  0.8881114684918074  0.4244593442238340
  0.8279107495091793  0.1118885315081926  0.0755406557761660
  0.5289615628653834  0.1896766853094292  0.6227163157790940
  0.0289615628653834  0.8103233146905708  0.8772836842209060
  0.4710384371346166  0.8103233146905708  0.3772836842209060
  0.9710384371346166  0.1896766853094292  0.1227163157790940
  0.6953090026404141  0.3202381731151007  0.4114879742076809
  0.1953090026404283  0.6797618268848993  0.0885120257923120
  0.3046909973595717  0.6797618268848993  0.5885120257923120
  0.8046909973595859  0.3202381731151007  0.9114879742076880
  0.2942555592014386  0.8423885413222791  0.8356930006984200
  0.7942555592014386  0.1576114586777209  0.6643069993015800
  0.7057444407985614  0.1576114586777209  0.1643069993015729
  0.2057444407985614  0.8423885413222791  0.3356930006984413
  0.6711946583463444  0.7426093619963865  0.6129317502836571
  0.1711946583463444  0.2573906380036064  0.8870682497163429
  0.3288053416536556  0.2573906380036064  0.3870682497163429
  0.8288053416536556  0.7426093619963865  0.1129317502836571
  0.4268491520174607  0.1750088290456304  0.0771845768271646
  0.9268491520174607  0.8249911709543767  0.4228154231728354
  0.5731508479825393  0.8249911709543767  0.9228154231728425
  0.0731508479825393  0.1750088290456304  0.5771845768271575

  0.00000000E+00  0.00000000E+00  0.00000000E+00
  0.00000000E+00  0.00000000E+00  0.00000000E+00
  0.00000000E+00  0.00000000E+00  0.00000000E+00
  0.00000000E+00  0.00000000E+00  0.00000000E+00
  0.00000000E+00  0.00000000E+00  0.00000000E+00
  0.00000000E+00  0.00000000E+00  0.00000000E+00
  0.00000000E+00  0.00000000E+00  0.00000000E+00
  0.00000000E+00  0.00000000E+00  0.00000000E+00
  0.00000000E+00  0.00000000E+00  0.00000000E+00
  0.00000000E+00  0.00000000E+00  0.00000000E+00
  0.00000000E+00  0.00000000E+00  0.00000000E+00
  0.00000000E+00  0.00000000E+00  0.00000000E+00
  0.00000000E+00  0.00000000E+00  0.00000000E+00
  0.00000000E+00  0.00000000E+00  0.00000000E+00
  0.00000000E+00  0.00000000E+00  0.00000000E+00
  0.00000000E+00  0.00000000E+00  0.00000000E+00
  0.00000000E+00  0.00000000E+00  0.00000000E+00
  0.00000000E+00  0.00000000E+00  0.00000000E+00
  0.00000000E+00  0.00000000E+00  0.00000000E+00
  0.00000000E+00  0.00000000E+00  0.00000000E+00
  0.00000000E+00  0.00000000E+00  0.00000000E+00
  0.00000000E+00  0.00000000E+00  0.00000000E+00
  0.00000000E+00  0.00000000E+00  0.00000000E+00
  0.00000000E+00  0.00000000E+00  0.00000000E+00
  0.00000000E+00  0.00000000E+00  0.00000000E+00
  0.00000000E+00  0.00000000E+00  0.00000000E+00
  0.00000000E+00  0.00000000E+00  0.00000000E+00
  0.00000000E+00  0.00000000E+00  0.00000000E+00
