Ca2 Al2 I10                             
   1.00000000000000     
     7.3578857001364790    0.0895469215393482    2.7809171754320494
     1.6997932117969234    7.1594130902425945    2.7809171808944777
     0.0137192878359449    0.0109818062187908   11.0541582656417852
   Ca   Al   I 
     2     2    10
Direct
  0.4283827920163148  0.5716172079781643  0.2500000000002487
  0.5716172079836852  0.4283827920218357  0.7499999999997513
  0.0000000000000000  0.0000000000000000  0.5000000000000000
  0.0000000000000000  0.0000000000000000  0.0000000000000000
  0.7791067653371826  0.7458857935390242  0.6251021668527628
  0.2541142065155455  0.2208922346057776  0.8748978331457096
  0.2208922346628199  0.2541142064609758  0.3748988331472418
  0.7458857934844474  0.7791067653942250  0.1251021668542904
  0.9226529304875584  0.0773470695024230  0.7500000000027001
  0.0773470695124416  0.9226529304975770  0.2499999999972999
  0.7156090054252928  0.3171715586289636  0.0246483630732257
  0.6828284413625170  0.2843909945885699  0.4753516369444739
  0.2843909945747072  0.6828284413710293  0.9753516369267743
  0.3171715586374830  0.7156090054114301  0.5246483630555261
 
  0.00000000E+00  0.00000000E+00  0.00000000E+00
  0.00000000E+00  0.00000000E+00  0.00000000E+00
  0.00000000E+00  0.00000000E+00  0.00000000E+00
  0.00000000E+00  0.00000000E+00  0.00000000E+00
  0.00000000E+00  0.00000000E+00  0.00000000E+00
  0.00000000E+00  0.00000000E+00  0.00000000E+00
  0.00000000E+00  0.00000000E+00  0.00000000E+00
  0.00000000E+00  0.00000000E+00  0.00000000E+00
  0.00000000E+00  0.00000000E+00  0.00000000E+00
  0.00000000E+00  0.00000000E+00  0.00000000E+00
  0.00000000E+00  0.00000000E+00  0.00000000E+00
  0.00000000E+00  0.00000000E+00  0.00000000E+00
  0.00000000E+00  0.00000000E+00  0.00000000E+00
  0.00000000E+00  0.00000000E+00  0.00000000E+00
