Sr2 Al2 F10                             
   1.0000000000000000     
     3.4372681523784201   -0.0000000000000000    0.0000000000000002
    -0.0000000000000005    8.1440555999150899    0.0000000000000005
    -0.0000000000000000    0.0000000000000000    7.5147780078717616
   Sr   Al   F 
     2     2    10
Direct
  0.0000000000000000  0.0000000000000000  0.5000000000000000
  0.5000000000000000  0.5000000000000000  0.0000000000000000
  0.5000000000000000  0.0000000000000000  0.0000000000000000
  0.0000000000000000  0.5000000000000000  0.5000000000000000
  0.5000000000000000  0.7916943322560428  0.5000000000000000
  0.5000000000000000  0.2083056677439572  0.5000000000000000
  0.5000000000000000  0.0000000000000000  0.2266672980826812
  0.5000000000000000  0.0000000000000000  0.7733327019173188
  0.0000000000000000  0.0000000000000000  0.0000000000000000
  0.0000000000000000  0.2916943322560428  0.0000000000000000
  0.0000000000000000  0.7083056677439572  0.0000000000000000
  0.0000000000000000  0.5000000000000000  0.7266672980826812
  0.0000000000000000  0.5000000000000000  0.2733327019173188
  0.5000000000000000  0.5000000000000000  0.5000000000000000

  0.00000000E+00  0.00000000E+00  0.00000000E+00
  0.00000000E+00  0.00000000E+00  0.00000000E+00
  0.00000000E+00  0.00000000E+00  0.00000000E+00
  0.00000000E+00  0.00000000E+00  0.00000000E+00
  0.00000000E+00  0.00000000E+00  0.00000000E+00
  0.00000000E+00  0.00000000E+00  0.00000000E+00
  0.00000000E+00  0.00000000E+00  0.00000000E+00
  0.00000000E+00  0.00000000E+00  0.00000000E+00
  0.00000000E+00  0.00000000E+00  0.00000000E+00
  0.00000000E+00  0.00000000E+00  0.00000000E+00
  0.00000000E+00  0.00000000E+00  0.00000000E+00
  0.00000000E+00  0.00000000E+00  0.00000000E+00
  0.00000000E+00  0.00000000E+00  0.00000000E+00
  0.00000000E+00  0.00000000E+00  0.00000000E+00
