Be2 B2 F10                              
   1.0000000000000000     
     2.8412005495370121   -0.0000000000000000    0.0000000000000002
    -0.0000000000000004    7.1366965923454053    0.0000000000000005
    -0.0000000000000001   -0.0000000000000000    7.5296583448936163
   Be   B    F 
     2     2    10
Direct
  0.0000000000000000  0.0000000000000000  0.5000000000000000
  0.5000000000000000  0.5000000000000000  0.0000000000000000
  0.5000000000000000  0.0000000000000000  0.0000000000000000
  0.0000000000000000  0.5000000000000000  0.5000000000000000
  0.5000000000000000  0.8483768825655176  0.5000000000000000
  0.5000000000000000  0.1516231174344753  0.5000000000000000
  0.5000000000000000  0.0000000000000000  0.1898581210539305
  0.5000000000000000  0.0000000000000000  0.8101418789460695
  0.0000000000000000  0.0000000000000000  0.0000000000000000
  0.0000000000000000  0.3483768825655176  0.0000000000000000
  0.0000000000000000  0.6516231174344824  0.0000000000000000
  0.0000000000000000  0.5000000000000000  0.6898581210539305
  0.0000000000000000  0.5000000000000000  0.3101418789460695
  0.5000000000000000  0.5000000000000000  0.5000000000000000

  0.00000000E+00  0.00000000E+00  0.00000000E+00
  0.00000000E+00  0.00000000E+00  0.00000000E+00
  0.00000000E+00  0.00000000E+00  0.00000000E+00
  0.00000000E+00  0.00000000E+00  0.00000000E+00
  0.00000000E+00  0.00000000E+00  0.00000000E+00
  0.00000000E+00  0.00000000E+00  0.00000000E+00
  0.00000000E+00  0.00000000E+00  0.00000000E+00
  0.00000000E+00  0.00000000E+00  0.00000000E+00
  0.00000000E+00  0.00000000E+00  0.00000000E+00
  0.00000000E+00  0.00000000E+00  0.00000000E+00
  0.00000000E+00  0.00000000E+00  0.00000000E+00
  0.00000000E+00  0.00000000E+00  0.00000000E+00
  0.00000000E+00  0.00000000E+00  0.00000000E+00
  0.00000000E+00  0.00000000E+00  0.00000000E+00
