Be2 B2 I10                              
   1.0000000000000000     
     4.6121111089867082   -0.0000000000000002    0.0000000000000003
    -0.0000000000000011   12.8733683049584826    0.0000000000000011
     0.0000000000000001    0.0000000000000005   11.6524504537040023
   Be   B    I 
     2     2    10
Direct
  0.0000000000000000  0.0000000000000000  0.5000000000000000
  0.5000000000000000  0.5000000000000000  0.0000000000000000
  0.5000000000000000  0.0000000000000000  0.0000000000000000
  0.0000000000000000  0.5000000000000000  0.5000000000000000
  0.5000000000000000  0.8629675368534961  0.5000000000000000
  0.5000000000000000  0.1370324631465039  0.5000000000000000
  0.5000000000000000  0.0000000000000000  0.1976779696385123
  0.5000000000000000  0.0000000000000000  0.8023220303614877
  0.0000000000000000  0.0000000000000000  0.0000000000000000
  0.0000000000000000  0.3629675368534961  0.0000000000000000
  0.0000000000000000  0.6370324631465039  0.0000000000000000
  0.0000000000000000  0.5000000000000000  0.6976779696385123
  0.0000000000000000  0.5000000000000000  0.3023220303614877
  0.5000000000000000  0.5000000000000000  0.5000000000000000

  0.00000000E+00  0.00000000E+00  0.00000000E+00
  0.00000000E+00  0.00000000E+00  0.00000000E+00
  0.00000000E+00  0.00000000E+00  0.00000000E+00
  0.00000000E+00  0.00000000E+00  0.00000000E+00
  0.00000000E+00  0.00000000E+00  0.00000000E+00
  0.00000000E+00  0.00000000E+00  0.00000000E+00
  0.00000000E+00  0.00000000E+00  0.00000000E+00
  0.00000000E+00  0.00000000E+00  0.00000000E+00
  0.00000000E+00  0.00000000E+00  0.00000000E+00
  0.00000000E+00  0.00000000E+00  0.00000000E+00
  0.00000000E+00  0.00000000E+00  0.00000000E+00
  0.00000000E+00  0.00000000E+00  0.00000000E+00
  0.00000000E+00  0.00000000E+00  0.00000000E+00
  0.00000000E+00  0.00000000E+00  0.00000000E+00
