Be4 Al4 F20                             
   1.0000000000000000     
     5.0095715476420715   -0.0000000000000000    0.0000000000000003
    -0.0000000000000003    5.1417539725723316    0.0000000000000003
    -0.0000000000000001   -0.0000000000000001   10.7246562114212907
   Be   Al   F 
     4     4    20
Direct
  0.6347234409155931  0.3294336478371989  0.3745321467647003
  0.1347234409155931  0.1705663521628082  0.6254678532352997
  0.3652765590843998  0.8294336478371918  0.1254678532352997
  0.8652765590843998  0.6705663521628082  0.8745321467647003
  0.2863050095502686  0.8453923684346236  0.4030622051513859
  0.7863050095502757  0.6546076315653764  0.5969377948486070
  0.7136949904497243  0.3453923684346236  0.0969377948486070
  0.2136949904497314  0.1546076315653764  0.9030622051513859
  0.9644635580554066  0.7193261499652834  0.4467107635801852
  0.4644635580553995  0.7806738500347166  0.5532892364198219
  0.0355364419445934  0.2193261499652834  0.0532892364198219
  0.5355364419445934  0.2806738500347237  0.9467107635801781
  0.1754664685327825  0.8926765502121228  0.2413312040733899
  0.6754664685327754  0.6073234497878772  0.7586687959266101
  0.8245335314672246  0.3926765502121228  0.2586687959266030
  0.3245335314672175  0.1073234497878772  0.7413312040733899
  0.8126429337418486  0.6426083892267798  0.0191907168085450
  0.3126429337418415  0.8573916107732202  0.9808092831914621
  0.1873570662581585  0.1426083892267798  0.4808092831914550
  0.6873570662581514  0.3573916107732202  0.5191907168085379
  0.4196837964856499  0.5318799428486258  0.1373957882054953
  0.9196837964856428  0.9681200571513742  0.8626042117945047
  0.5803162035143572  0.0318799428486258  0.3626042117945047
  0.0803162035143572  0.4681200571513742  0.6373957882054953
  0.0994852221047609  0.4708097662180037  0.8597271870749381
  0.5994852221047609  0.0291902337819963  0.1402728129250619
  0.9005147778952391  0.9708097662180037  0.6402728129250619
  0.4005147778952391  0.5291902337819963  0.3597271870749381

  0.00000000E+00  0.00000000E+00  0.00000000E+00
  0.00000000E+00  0.00000000E+00  0.00000000E+00
  0.00000000E+00  0.00000000E+00  0.00000000E+00
  0.00000000E+00  0.00000000E+00  0.00000000E+00
  0.00000000E+00  0.00000000E+00  0.00000000E+00
  0.00000000E+00  0.00000000E+00  0.00000000E+00
  0.00000000E+00  0.00000000E+00  0.00000000E+00
  0.00000000E+00  0.00000000E+00  0.00000000E+00
  0.00000000E+00  0.00000000E+00  0.00000000E+00
  0.00000000E+00  0.00000000E+00  0.00000000E+00
  0.00000000E+00  0.00000000E+00  0.00000000E+00
  0.00000000E+00  0.00000000E+00  0.00000000E+00
  0.00000000E+00  0.00000000E+00  0.00000000E+00
  0.00000000E+00  0.00000000E+00  0.00000000E+00
  0.00000000E+00  0.00000000E+00  0.00000000E+00
  0.00000000E+00  0.00000000E+00  0.00000000E+00
  0.00000000E+00  0.00000000E+00  0.00000000E+00
  0.00000000E+00  0.00000000E+00  0.00000000E+00
  0.00000000E+00  0.00000000E+00  0.00000000E+00
  0.00000000E+00  0.00000000E+00  0.00000000E+00
  0.00000000E+00  0.00000000E+00  0.00000000E+00
  0.00000000E+00  0.00000000E+00  0.00000000E+00
  0.00000000E+00  0.00000000E+00  0.00000000E+00
  0.00000000E+00  0.00000000E+00  0.00000000E+00
  0.00000000E+00  0.00000000E+00  0.00000000E+00
  0.00000000E+00  0.00000000E+00  0.00000000E+00
  0.00000000E+00  0.00000000E+00  0.00000000E+00
  0.00000000E+00  0.00000000E+00  0.00000000E+00
