Ba5Tl3                                  
   1.0000000000000000     
     7.4605675028624061    0.0000000000000000    0.0000000000000000
     0.0000000000000000   10.7123592432671355    0.0004288202004703
     0.0000000000000000   -5.3563212809268821    9.2774011722379104
   Ba   Tl
    10     6
Direct
  0.7500000000000000  0.2670183950610934  0.0000926968256181
  0.2500000000000000  0.7329816049389066  0.9999073031743819
  0.2500000000000000  0.2667465074621020  0.2669206749451192
  0.7500000000000000  0.9998978674170402  0.2667373969529621
  0.9999261288482089  0.6667131975458958  0.3333768715946448
  0.5000738711517911  0.6667131975458958  0.3333768715946448
  0.0000738711517911  0.3332868024541042  0.6666231284053552
  0.4999261288482089  0.3332868024541042  0.6666231284053552
  0.2500000000000000  0.0001021325829598  0.7332626030470379
  0.7500000000000000  0.7332534925378980  0.7330793250548808
  0.2500000000000000  0.3940342117982070  0.0005811112169454
  0.7500000000000000  0.6059657882017930  0.9994188887830546
  0.2500000000000000  0.9994133063013066  0.3935113422625491
  0.7500000000000000  0.3937649136854233  0.3938752263371725
  0.2500000000000000  0.6062350863145767  0.6061247736628275
  0.7500000000000000  0.0005866936986934  0.6064886577374509

  0.00000000E+00  0.00000000E+00  0.00000000E+00
  0.00000000E+00  0.00000000E+00  0.00000000E+00
  0.00000000E+00  0.00000000E+00  0.00000000E+00
  0.00000000E+00  0.00000000E+00  0.00000000E+00
  0.00000000E+00  0.00000000E+00  0.00000000E+00
  0.00000000E+00  0.00000000E+00  0.00000000E+00
  0.00000000E+00  0.00000000E+00  0.00000000E+00
  0.00000000E+00  0.00000000E+00  0.00000000E+00
  0.00000000E+00  0.00000000E+00  0.00000000E+00
  0.00000000E+00  0.00000000E+00  0.00000000E+00
  0.00000000E+00  0.00000000E+00  0.00000000E+00
  0.00000000E+00  0.00000000E+00  0.00000000E+00
  0.00000000E+00  0.00000000E+00  0.00000000E+00
  0.00000000E+00  0.00000000E+00  0.00000000E+00
  0.00000000E+00  0.00000000E+00  0.00000000E+00
  0.00000000E+00  0.00000000E+00  0.00000000E+00
