Ba2 B2 Br10                             
   1.00000000000000     
     9.7436384978135937    0.1717215322845010    2.7906200644075012
     2.3027894903705706    9.4691651498356961    2.7906199733970358
     1.4885882346690709    1.1913363740186143    9.0952485225964512
   Ba   B    Br
     2     2    10
Direct
  0.4320827938748479  0.5679172048882464  0.2500000011329391
  0.5679172061251521  0.4320827951117536  0.7499999988670609
  0.0000000000000000  0.0000000000000000  0.5000000000000000
  0.0000000000000000  0.0000000000000000  0.0000000000000000
  0.8874947812322276  0.8555457038967447  0.6369009042920126
  0.1444542962621611  0.1125042167539689  0.8630990979147697
  0.1125042187677749  0.1444542961032553  0.3631000957079848
  0.8555457037378389  0.8874947832460336  0.1369009020852303
  0.8325141627174304  0.1674858394247067  0.7499999992615827
  0.1674858372825696  0.8325141605752933  0.2500000007384173
  0.6978153336332795  0.5742662537914498  0.9063532886540528
  0.4257337517388748  0.3021846666648145  0.5936467094519955
  0.3021846663667134  0.4257337462085431  0.0936467113459472
  0.5742662482611252  0.6978153333351855  0.4063532905480045
 
  0.00000000E+00  0.00000000E+00  0.00000000E+00
  0.00000000E+00  0.00000000E+00  0.00000000E+00
  0.00000000E+00  0.00000000E+00  0.00000000E+00
  0.00000000E+00  0.00000000E+00  0.00000000E+00
  0.00000000E+00  0.00000000E+00  0.00000000E+00
  0.00000000E+00  0.00000000E+00  0.00000000E+00
  0.00000000E+00  0.00000000E+00  0.00000000E+00
  0.00000000E+00  0.00000000E+00  0.00000000E+00
  0.00000000E+00  0.00000000E+00  0.00000000E+00
  0.00000000E+00  0.00000000E+00  0.00000000E+00
  0.00000000E+00  0.00000000E+00  0.00000000E+00
  0.00000000E+00  0.00000000E+00  0.00000000E+00
  0.00000000E+00  0.00000000E+00  0.00000000E+00
  0.00000000E+00  0.00000000E+00  0.00000000E+00
