Sr9 In4                                 
   1.0000000000000000     
    -6.8243272661042509    6.8306233391969977    2.8140003591419349
     6.8290999847765850   -6.8348880975845558    2.8359674425891783
     6.8571800044970574    6.8679698743186481   -2.8243685706957868
   In   Sr
     4     9
Direct
  0.4094887643947516  0.7395535908332178  0.1477183846880834
  0.7373353796260886  0.5922489400670869  0.3302246449431507
  0.2626092773951640  0.4076938662218126  0.6698296053411070
  0.5905614244170394  0.2604875971027099  0.8523452140795982
  0.4999991012193163  0.5000097101541670  0.0000292773952282
  0.1876791599975434  0.8892291962856476  0.0782442344526331
  0.8844101342357504  0.3890030891757661  0.2731030217506003
  0.1088061943165570  0.1880624070883741  0.2974017577586991
  0.6121892781402565  0.8846210638994165  0.4968194219624920
  0.3877905659640533  0.1153652593409831  0.5032363782191425
  0.8911497017618970  0.8119013185987924  0.7026568803371092
  0.1156124373959102  0.6110089691679121  0.7269640637833561
  0.8123685811356509  0.1108149920641139  0.9218271152887993

  0.00000000E+00  0.00000000E+00  0.00000000E+00
  0.00000000E+00  0.00000000E+00  0.00000000E+00
  0.00000000E+00  0.00000000E+00  0.00000000E+00
  0.00000000E+00  0.00000000E+00  0.00000000E+00
  0.00000000E+00  0.00000000E+00  0.00000000E+00
  0.00000000E+00  0.00000000E+00  0.00000000E+00
  0.00000000E+00  0.00000000E+00  0.00000000E+00
  0.00000000E+00  0.00000000E+00  0.00000000E+00
  0.00000000E+00  0.00000000E+00  0.00000000E+00
  0.00000000E+00  0.00000000E+00  0.00000000E+00
  0.00000000E+00  0.00000000E+00  0.00000000E+00
  0.00000000E+00  0.00000000E+00  0.00000000E+00
  0.00000000E+00  0.00000000E+00  0.00000000E+00
