Ba4 Tl10 Br2                            
   1.0000000000000000     
     8.9249814340430120   -0.0000067343963940   -0.0109435588481653
    -0.0006284810097003    8.9230105249166662    0.0072997793043197
     4.4695805462997953    4.4560057798785317    7.1847151374708282
   Br   Ba   Tl
     2     4    10
Direct
  0.9341056032045785  0.9340996587399246  0.1318484551052919
  0.4340083198398403  0.4340136343187027  0.1318700886686059
  0.2742962491475254  0.1029850752093182  0.1226511496296538
  0.7743129003150386  0.2743836641428175  0.1225549632499678
  0.1030494602654670  0.6031076909905835  0.1225673365928870
  0.6031850135099930  0.7745361653525578  0.1222480907701851
  0.1833264446465321  0.1833483746738978  0.6332285134805034
  0.6834208979588112  0.6834345689938743  0.6332498296121258
  0.4008956919234095  0.9007758709417857  0.4866709785432164
  0.9006381692481895  0.1125389308317040  0.4868668189152245
  0.6123732660027983  0.4005477255780576  0.4869936808156297
  0.1125821702013141  0.6124852540458505  0.4866676763504429
  0.7658075138108629  0.2659969401661400  0.7581515967791361
  0.2657798168992898  0.4760934356933575  0.7580936033046086
  0.9763229722064608  0.7656007819965680  0.7580756810476217
  0.4757955108198999  0.9759522283248288  0.7582615371349135

  0.00000000E+00  0.00000000E+00  0.00000000E+00
  0.00000000E+00  0.00000000E+00  0.00000000E+00
  0.00000000E+00  0.00000000E+00  0.00000000E+00
  0.00000000E+00  0.00000000E+00  0.00000000E+00
  0.00000000E+00  0.00000000E+00  0.00000000E+00
  0.00000000E+00  0.00000000E+00  0.00000000E+00
  0.00000000E+00  0.00000000E+00  0.00000000E+00
  0.00000000E+00  0.00000000E+00  0.00000000E+00
  0.00000000E+00  0.00000000E+00  0.00000000E+00
  0.00000000E+00  0.00000000E+00  0.00000000E+00
  0.00000000E+00  0.00000000E+00  0.00000000E+00
  0.00000000E+00  0.00000000E+00  0.00000000E+00
  0.00000000E+00  0.00000000E+00  0.00000000E+00
  0.00000000E+00  0.00000000E+00  0.00000000E+00
  0.00000000E+00  0.00000000E+00  0.00000000E+00
  0.00000000E+00  0.00000000E+00  0.00000000E+00
