In1 F6                                  
   1.00000000000000     
     3.0149594643346260    2.2858147821738268    4.4488633345300235
    -2.3201791281463393    2.0416552290143999    4.1080116629621060
     0.1644701086815042   -2.2055382393333978    3.4065327008209976
   F    In
     6     1
Direct
  0.0801349349387479  0.4590507280989797  0.8361345613036093
  0.5714427424104755  0.0000709403461343  0.0718166881156819
  0.6246244373087677  0.2120735436495025  0.2371206461126860
  0.0712822697100322  0.0001830576139312  0.5715103880460859
  0.5183486680892742  0.7879869834352746  0.9064391512851273
  0.0630570539069808  0.5409913699003681  0.3059384874791817
  0.0715098936356924  0.0000433769558299  0.0714400776576412
 
  0.00000000E+00  0.00000000E+00  0.00000000E+00
  0.00000000E+00  0.00000000E+00  0.00000000E+00
  0.00000000E+00  0.00000000E+00  0.00000000E+00
  0.00000000E+00  0.00000000E+00  0.00000000E+00
  0.00000000E+00  0.00000000E+00  0.00000000E+00
  0.00000000E+00  0.00000000E+00  0.00000000E+00
  0.00000000E+00  0.00000000E+00  0.00000000E+00
