Ba2 Ga2 Cl10                            
   1.0000000000000000     
     4.7609954965800769   -0.0000000000000002    0.0000000000000003
    -0.0000000000000011   11.5428951907309116    0.0000000000000011
     0.0000000000000002    0.0000000000000005   10.4999306793556073
   Ba   Ga   Cl
     2     2    10
Direct
  0.0000000000000000  0.0000000000000000  0.5000000000000000
  0.5000000000000000  0.5000000000000000  0.0000000000000000
  0.5000000000000000  0.0000000000000000  0.0000000000000000
  0.0000000000000000  0.5000000000000000  0.5000000000000000
  0.5000000000000000  0.8350261216810537  0.5000000000000000
  0.5000000000000000  0.1649738783189463  0.5000000000000000
  0.5000000000000000  0.0000000000000000  0.2060928363500310
  0.5000000000000000  0.0000000000000000  0.7939071636499690
  0.0000000000000000  0.0000000000000000  0.0000000000000000
  0.0000000000000000  0.3350261216810537  0.0000000000000000
  0.0000000000000000  0.6649738783189463  0.0000000000000000
  0.0000000000000000  0.5000000000000000  0.7060928363500310
  0.0000000000000000  0.5000000000000000  0.2939071636499690
  0.5000000000000000  0.5000000000000000  0.5000000000000000

  0.00000000E+00  0.00000000E+00  0.00000000E+00
  0.00000000E+00  0.00000000E+00  0.00000000E+00
  0.00000000E+00  0.00000000E+00  0.00000000E+00
  0.00000000E+00  0.00000000E+00  0.00000000E+00
  0.00000000E+00  0.00000000E+00  0.00000000E+00
  0.00000000E+00  0.00000000E+00  0.00000000E+00
  0.00000000E+00  0.00000000E+00  0.00000000E+00
  0.00000000E+00  0.00000000E+00  0.00000000E+00
  0.00000000E+00  0.00000000E+00  0.00000000E+00
  0.00000000E+00  0.00000000E+00  0.00000000E+00
  0.00000000E+00  0.00000000E+00  0.00000000E+00
  0.00000000E+00  0.00000000E+00  0.00000000E+00
  0.00000000E+00  0.00000000E+00  0.00000000E+00
  0.00000000E+00  0.00000000E+00  0.00000000E+00
