Ca32 Al28                               
   1.00000000000000     
    12.0976586911538533   -0.0000226563386402   -0.0000226743955854
    -0.0000226743955854   12.0976586911538533   -0.0000226563386402
    -0.0000226563386402   -0.0000226743955854   12.0976586911538533
   Al   Ca
    28    32
Direct
  0.4335619885241258  0.5664195828872067  0.0664773992910810
  0.2471171626119713  0.6916489162558932  0.0741836625344376
  0.2578441501670028  0.1852038352008805  0.0777932177788188
  0.0777932177788188  0.2578441501670028  0.1852038352008805
  0.4258184085528853  0.7528714135791574  0.1916983373293704
  0.3083056836747247  0.5741899263037382  0.2528848663587979
  0.8147779456301336  0.5778320807898396  0.2422532314292880
  0.1852038352008805  0.0777932177788188  0.2578441501670028
  0.6916489162558932  0.0741836625344376  0.2471171626119713
  0.5741899263037382  0.2528848663587979  0.3083056836747247
  0.9222203053675173  0.7579425925514585  0.3147920724445541
  0.7422134878507478  0.6853153363089675  0.4223048562168827
  0.7528714135791574  0.1916983373293704  0.4258184085528853
  0.5664195828872067  0.0664773992910810  0.4335619885241258
  0.0664773992910810  0.4335619885241258  0.5664195828872067
  0.2528848663587979  0.3083056836747247  0.5741899263037382
  0.2422532314292880  0.8147779456301336  0.5778320807898396
  0.4223048562168827  0.7422134878507478  0.6853153363089675
  0.0741836625344376  0.2471171626119713  0.6916489162558932
  0.1916983373293704  0.4258184085528853  0.7528714135791574
  0.6853153363089675  0.4223048562168827  0.7422134878507478
  0.3147920724445541  0.9222203053675173  0.7579425925514585
  0.8083211560403143  0.9258425378029358  0.7471404834642925
  0.9258425378029358  0.7471404834642925  0.8083211560403143
  0.5778320807898396  0.2422532314292880  0.8147779456301336
  0.7579425925514585  0.3147920724445541  0.9222203053675173
  0.7471404834642925  0.8083211560403143  0.9258425378029358
  0.9335693545175587  0.9335693545175587  0.9335693545175587
  0.1952403677923726  0.9413386885502248  0.0081210482281691
  0.2058259957107822  0.4355787753077749  0.0240015863291845
  0.5081174980057384  0.3047435602205510  0.0586365833835458
  0.9759747594944770  0.7058237830987721  0.0644115093305970
  0.8161794048767561  0.3161957323107458  0.1838611592554855
  0.6870687018565533  0.8129612826198951  0.1871014850225876
  0.9413386885502248  0.0081210482281691  0.1952403677923726
  0.4355787753077749  0.0240015863291845  0.2058259957107822
  0.5644098278630167  0.5240309455065528  0.2942082201721874
  0.0586365833835458  0.5081174980057384  0.3047435602205510
  0.3129514908079685  0.3129514908079685  0.3129514908079685
  0.1838611592554855  0.8161794048767561  0.3161957323107458
  0.0240015863291845  0.2058259957107822  0.4355787753077749
  0.4919208525745944  0.8047721905019216  0.4414023437259686
  0.7941806557896953  0.9356497856143235  0.4760438113232510
  0.8047721905019216  0.4414023437259686  0.4919208525745944
  0.3047435602205510  0.0586365833835458  0.5081174980057384
  0.2942082201721874  0.5644098278630167  0.5240309455065528
  0.9919612833120652  0.6952473888569557  0.5586135509959504
  0.5240309455065528  0.2942082201721874  0.5644098278630167
  0.6838817400967514  0.6838817400967514  0.6838817400967514
  0.8129612826198951  0.1871014850225876  0.6870687018565533
  0.5586135509959504  0.9919612833120652  0.6952473888569557
  0.0644115093305970  0.9759747594944770  0.7058237830987721
  0.9356497856143235  0.4760438113232510  0.7941806557896953
  0.4414023437259686  0.4919208525745944  0.8047721905019216
  0.1871014850225876  0.6870687018565533  0.8129612826198951
  0.3161957323107458  0.1838611592554855  0.8161794048767561
  0.4760438113232510  0.7941806557896953  0.9356497856143235
  0.0081210482281691  0.1952403677923726  0.9413386885502248
  0.7058237830987721  0.0644115093305970  0.9759747594944770
  0.6952473888569557  0.5586135509959504  0.9919612833120652
 
  0.00000000E+00  0.00000000E+00  0.00000000E+00
  0.00000000E+00  0.00000000E+00  0.00000000E+00
  0.00000000E+00  0.00000000E+00  0.00000000E+00
  0.00000000E+00  0.00000000E+00  0.00000000E+00
  0.00000000E+00  0.00000000E+00  0.00000000E+00
  0.00000000E+00  0.00000000E+00  0.00000000E+00
  0.00000000E+00  0.00000000E+00  0.00000000E+00
  0.00000000E+00  0.00000000E+00  0.00000000E+00
  0.00000000E+00  0.00000000E+00  0.00000000E+00
  0.00000000E+00  0.00000000E+00  0.00000000E+00
  0.00000000E+00  0.00000000E+00  0.00000000E+00
  0.00000000E+00  0.00000000E+00  0.00000000E+00
  0.00000000E+00  0.00000000E+00  0.00000000E+00
  0.00000000E+00  0.00000000E+00  0.00000000E+00
  0.00000000E+00  0.00000000E+00  0.00000000E+00
  0.00000000E+00  0.00000000E+00  0.00000000E+00
  0.00000000E+00  0.00000000E+00  0.00000000E+00
  0.00000000E+00  0.00000000E+00  0.00000000E+00
  0.00000000E+00  0.00000000E+00  0.00000000E+00
  0.00000000E+00  0.00000000E+00  0.00000000E+00
  0.00000000E+00  0.00000000E+00  0.00000000E+00
  0.00000000E+00  0.00000000E+00  0.00000000E+00
  0.00000000E+00  0.00000000E+00  0.00000000E+00
  0.00000000E+00  0.00000000E+00  0.00000000E+00
  0.00000000E+00  0.00000000E+00  0.00000000E+00
  0.00000000E+00  0.00000000E+00  0.00000000E+00
  0.00000000E+00  0.00000000E+00  0.00000000E+00
  0.00000000E+00  0.00000000E+00  0.00000000E+00
  0.00000000E+00  0.00000000E+00  0.00000000E+00
  0.00000000E+00  0.00000000E+00  0.00000000E+00
  0.00000000E+00  0.00000000E+00  0.00000000E+00
  0.00000000E+00  0.00000000E+00  0.00000000E+00
  0.00000000E+00  0.00000000E+00  0.00000000E+00
  0.00000000E+00  0.00000000E+00  0.00000000E+00
  0.00000000E+00  0.00000000E+00  0.00000000E+00
  0.00000000E+00  0.00000000E+00  0.00000000E+00
  0.00000000E+00  0.00000000E+00  0.00000000E+00
  0.00000000E+00  0.00000000E+00  0.00000000E+00
  0.00000000E+00  0.00000000E+00  0.00000000E+00
  0.00000000E+00  0.00000000E+00  0.00000000E+00
  0.00000000E+00  0.00000000E+00  0.00000000E+00
  0.00000000E+00  0.00000000E+00  0.00000000E+00
  0.00000000E+00  0.00000000E+00  0.00000000E+00
  0.00000000E+00  0.00000000E+00  0.00000000E+00
  0.00000000E+00  0.00000000E+00  0.00000000E+00
  0.00000000E+00  0.00000000E+00  0.00000000E+00
  0.00000000E+00  0.00000000E+00  0.00000000E+00
  0.00000000E+00  0.00000000E+00  0.00000000E+00
  0.00000000E+00  0.00000000E+00  0.00000000E+00
  0.00000000E+00  0.00000000E+00  0.00000000E+00
  0.00000000E+00  0.00000000E+00  0.00000000E+00
  0.00000000E+00  0.00000000E+00  0.00000000E+00
  0.00000000E+00  0.00000000E+00  0.00000000E+00
  0.00000000E+00  0.00000000E+00  0.00000000E+00
  0.00000000E+00  0.00000000E+00  0.00000000E+00
  0.00000000E+00  0.00000000E+00  0.00000000E+00
  0.00000000E+00  0.00000000E+00  0.00000000E+00
  0.00000000E+00  0.00000000E+00  0.00000000E+00
  0.00000000E+00  0.00000000E+00  0.00000000E+00
  0.00000000E+00  0.00000000E+00  0.00000000E+00
