Ba4 B4 Cl20                             
   1.0000000000000000     
     0.0000000000000000    5.7961776998721604   -0.2825570467430649
    10.6560671597930661    0.0000000000000000    0.0000000000000000
     0.0000000000000000    0.3471456333393630  -14.9498248839620675
   Ba   B    Cl
     4     4    20
Direct
  0.5538514073850962  0.1763663906787585  0.4369431486781679
  0.4461485926149038  0.6763663906787585  0.5630568513218250
  0.1060734913415615  0.8801283116142287  0.2579814356059842
  0.8939265086584456  0.3801283116142287  0.7420185643940158
  0.6262421229977164  0.9591270673354515  0.0989903681059943
  0.3737578770022836  0.4591270673354515  0.9010096318940057
  0.0031604201579896  0.5245467939216866  0.3392842356182371
  0.9968395798420033  0.0245467939216866  0.6607157643817700
  0.4397837459815150  0.8858479669589130  0.4159731434864327
  0.1849302937336006  0.4592505851134305  0.4264439996768132
  0.8150697062663994  0.9592505851134376  0.5735560003231726
  0.7492405160525522  0.0778783027596361  0.1767922276623040
  0.7822093263496157  0.4125331917965198  0.3064695536261723
  0.3245645002196156  0.0040610654264341  0.0809522728163756
  0.8132496743921251  0.0754337800396314  0.7602436674518955
  0.6194331901247168  0.8021890984599409  0.1636352644952979
  0.2177906736503914  0.9125331917965198  0.6935304463738277
  0.8515585134202865  0.6696014641760115  0.3891315574502769
  0.6754354997803844  0.5040610654264412  0.9190477271836244
  0.5602162540184850  0.3858479669589201  0.5840268565135673
  0.2006768051896657  0.4431984183190636  0.0051656416220140
  0.0664674953346491  0.1274365434002718  0.3638294969527180
  0.1484414865797135  0.1696014641760186  0.6108684425497231
  0.1867503256078749  0.5754337800396314  0.2397563325481045
  0.2507594839474336  0.5778783027596361  0.8232077723376960
  0.9335325046653509  0.6274365434002789  0.6361705030472820
  0.3805668098752761  0.3021890984599409  0.8363647355047021
  0.7993231948103272  0.9431984183190636  0.9948343583779788

  0.00000000E+00  0.00000000E+00  0.00000000E+00
  0.00000000E+00  0.00000000E+00  0.00000000E+00
  0.00000000E+00  0.00000000E+00  0.00000000E+00
  0.00000000E+00  0.00000000E+00  0.00000000E+00
  0.00000000E+00  0.00000000E+00  0.00000000E+00
  0.00000000E+00  0.00000000E+00  0.00000000E+00
  0.00000000E+00  0.00000000E+00  0.00000000E+00
  0.00000000E+00  0.00000000E+00  0.00000000E+00
  0.00000000E+00  0.00000000E+00  0.00000000E+00
  0.00000000E+00  0.00000000E+00  0.00000000E+00
  0.00000000E+00  0.00000000E+00  0.00000000E+00
  0.00000000E+00  0.00000000E+00  0.00000000E+00
  0.00000000E+00  0.00000000E+00  0.00000000E+00
  0.00000000E+00  0.00000000E+00  0.00000000E+00
  0.00000000E+00  0.00000000E+00  0.00000000E+00
  0.00000000E+00  0.00000000E+00  0.00000000E+00
  0.00000000E+00  0.00000000E+00  0.00000000E+00
  0.00000000E+00  0.00000000E+00  0.00000000E+00
  0.00000000E+00  0.00000000E+00  0.00000000E+00
  0.00000000E+00  0.00000000E+00  0.00000000E+00
  0.00000000E+00  0.00000000E+00  0.00000000E+00
  0.00000000E+00  0.00000000E+00  0.00000000E+00
  0.00000000E+00  0.00000000E+00  0.00000000E+00
  0.00000000E+00  0.00000000E+00  0.00000000E+00
  0.00000000E+00  0.00000000E+00  0.00000000E+00
  0.00000000E+00  0.00000000E+00  0.00000000E+00
  0.00000000E+00  0.00000000E+00  0.00000000E+00
  0.00000000E+00  0.00000000E+00  0.00000000E+00
