Ba1 In2 I10                             
   1.0000000000000000     
     6.9445872797282746    6.0432155695822356    1.3445078942320126
    -6.9445872797282746    6.0432155695822356    1.3445078942320126
     0.0000000000000000    5.8894535770408423   10.0406553909915903
   Ba   In   I 
     1     2    10
Direct
  0.6188599737696237  0.3811400262303692  0.0000000000000000
  0.9381549356969359  0.1042016800274226  0.7193551419709294
  0.8957983199725774  0.0618450643030641  0.2806448580290706
  0.2604962916730713  0.3960564625186080  0.5085646752615887
  0.6039435374813991  0.7395037083269287  0.4914353247384113
  0.9129704851451805  0.7689253783357728  0.9145431665328658
  0.2310746216642272  0.0870295148548195  0.0854568334671342
  0.8628321706375459  0.1371678293624541  0.0000000000000000
  0.9983600654762057  0.0016399345237943  0.5000000000000000
  0.6826412876710748  0.2373141628160198  0.7294747311628811
  0.7626858371839802  0.3173587123289252  0.2705252688371118
  0.4457050441228745  0.6695235704947038  0.8435271057375147
  0.3304764295052962  0.5542949558771184  0.1564728942624853

  0.00000000E+00  0.00000000E+00  0.00000000E+00
  0.00000000E+00  0.00000000E+00  0.00000000E+00
  0.00000000E+00  0.00000000E+00  0.00000000E+00
  0.00000000E+00  0.00000000E+00  0.00000000E+00
  0.00000000E+00  0.00000000E+00  0.00000000E+00
  0.00000000E+00  0.00000000E+00  0.00000000E+00
  0.00000000E+00  0.00000000E+00  0.00000000E+00
  0.00000000E+00  0.00000000E+00  0.00000000E+00
  0.00000000E+00  0.00000000E+00  0.00000000E+00
  0.00000000E+00  0.00000000E+00  0.00000000E+00
  0.00000000E+00  0.00000000E+00  0.00000000E+00
  0.00000000E+00  0.00000000E+00  0.00000000E+00
  0.00000000E+00  0.00000000E+00  0.00000000E+00
