Ca17 Ga11 F1                            
   1.00000000000000     
     8.4750952001893811   -4.7697941039948084    2.8957100338877697
    -0.2921845791492032    9.2047701830914814    3.0101733633087666
    -9.0650737419719629   -4.8413959871237289    4.2723755709810645
   Ga   F    Ca
    11     1    17
Direct
  0.5620183128631240  0.7881733053147428  0.0453551853206378
  0.1975598894368886  0.2496763639220347  0.2371438959674848
  0.2058820533157188  0.9390633094955305  0.2361147136510340
  0.0540785700465278  0.3737247338364327  0.3720858089091976
  0.3200499616557124  0.3676117386772830  0.5403760280781498
  0.4718413743586822  0.2595248273686721  0.4137313267842231
  0.9308476429382679  0.7978904330348016  0.4930531927226198
  0.8091784898353325  0.9881847229676879  0.5809510244845626
  0.6276396563834581  0.9848082396408628  0.7061468246030032
  0.0225930040721423  0.7585563547593921  0.7474953696176527
  0.1398969704936732  0.0689515255574449  0.7462281706537368
  0.7579863672182157  0.5482216056222455  0.9231773991953176
  0.0284274020847874  0.2373934056945899  0.9354435697918717
  0.2135003784562599  0.6888514800762096  0.9917746440319561
  0.3404865623064879  0.1136796890927982  0.0584601582464401
  0.7268596658814630  0.1375361282684580  0.0497658293635510
  0.8782894273071378  0.8365638769821402  0.9653662071554407
  0.5573701682011531  0.5935546941468601  0.2264279093510737
  0.9065908524267599  0.6026126317962763  0.1711108979344118
  0.5780646255276807  0.0114994129466481  0.3385710883096493
  0.9370879716570570  0.0058638102861437  0.3246518165325298
  0.2981228568829266  0.6536077507647491  0.3561315509974250
  0.8194192836030254  0.4438904302688300  0.4254718569894251
  0.3054997907393542  0.0263288908259369  0.5571597749552879
  0.0792254486842694  0.3273305669630489  0.6517977002354556
  0.6470709204238076  0.6547096058545776  0.5869284445506437
  0.3428272648053081  0.7342673402602173  0.7209943945038475
  0.7584701306613795  0.3733197180838062  0.7322518601456736
  0.4835289577333910  0.4327594074915595  0.8658333569176833
 
  0.00000000E+00  0.00000000E+00  0.00000000E+00
  0.00000000E+00  0.00000000E+00  0.00000000E+00
  0.00000000E+00  0.00000000E+00  0.00000000E+00
  0.00000000E+00  0.00000000E+00  0.00000000E+00
  0.00000000E+00  0.00000000E+00  0.00000000E+00
  0.00000000E+00  0.00000000E+00  0.00000000E+00
  0.00000000E+00  0.00000000E+00  0.00000000E+00
  0.00000000E+00  0.00000000E+00  0.00000000E+00
  0.00000000E+00  0.00000000E+00  0.00000000E+00
  0.00000000E+00  0.00000000E+00  0.00000000E+00
  0.00000000E+00  0.00000000E+00  0.00000000E+00
  0.00000000E+00  0.00000000E+00  0.00000000E+00
  0.00000000E+00  0.00000000E+00  0.00000000E+00
  0.00000000E+00  0.00000000E+00  0.00000000E+00
  0.00000000E+00  0.00000000E+00  0.00000000E+00
  0.00000000E+00  0.00000000E+00  0.00000000E+00
  0.00000000E+00  0.00000000E+00  0.00000000E+00
  0.00000000E+00  0.00000000E+00  0.00000000E+00
  0.00000000E+00  0.00000000E+00  0.00000000E+00
  0.00000000E+00  0.00000000E+00  0.00000000E+00
  0.00000000E+00  0.00000000E+00  0.00000000E+00
  0.00000000E+00  0.00000000E+00  0.00000000E+00
  0.00000000E+00  0.00000000E+00  0.00000000E+00
  0.00000000E+00  0.00000000E+00  0.00000000E+00
  0.00000000E+00  0.00000000E+00  0.00000000E+00
  0.00000000E+00  0.00000000E+00  0.00000000E+00
  0.00000000E+00  0.00000000E+00  0.00000000E+00
  0.00000000E+00  0.00000000E+00  0.00000000E+00
  0.00000000E+00  0.00000000E+00  0.00000000E+00
