Ba1 B6                                  
   1.00000000000000     
     4.2755074036744416    0.0000000000000000    0.0000000000000000
     0.0000000000000000    4.2755074036744416    0.0000000000000000
     0.0000000000000000    0.0000000000000000    4.2755074036744416
   Ba   B 
     1     6
Direct
  0.0000000000000000  0.0000000000000000  0.0000000000000000
  0.2052396433780643  0.5000000000000000  0.5000000000000000
  0.5000000000000000  0.5000000000000000  0.7947603566219357
  0.5000000000000000  0.5000000000000000  0.2052396433780643
  0.5000000000000000  0.2052396433780643  0.5000000000000000
  0.5000000000000000  0.7947603566219357  0.5000000000000000
  0.7947603566219357  0.5000000000000000  0.5000000000000000
 
  0.00000000E+00  0.00000000E+00  0.00000000E+00
  0.00000000E+00  0.00000000E+00  0.00000000E+00
  0.00000000E+00  0.00000000E+00  0.00000000E+00
  0.00000000E+00  0.00000000E+00  0.00000000E+00
  0.00000000E+00  0.00000000E+00  0.00000000E+00
  0.00000000E+00  0.00000000E+00  0.00000000E+00
  0.00000000E+00  0.00000000E+00  0.00000000E+00
