B                                       
   1.00000000000000     
     2.4478966919259628    4.2391602872965661    0.0003389245579426
    -4.8952625670642034    0.0002717617476966   -0.0003724916806481
    -2.4478916468097340    1.4130505191900309    4.1789404184557419
   B 
    12
Direct
  0.7790155179709330  0.1483414798873142  0.0727413824858587
  0.3694860464840986  0.1483355217916795  0.0727550857116199
  0.7790019196694544  0.5578830695361461  0.0727228866695953
  0.0103756109868200  0.0205760017349732  0.3254155851419327
  0.6540914809851941  0.6643182572836039  0.3254030448035294
  0.0103614196917050  0.6643070189587732  0.3254010724756782
  0.3460438328841278  0.3356560604486560  0.6747023385339546
  0.9897668641597690  0.3356525332343665  0.6746906548866036
  0.9897699435776772  0.9793888907338797  0.6746861211003576
  0.2211221206463065  0.4420825569790736  0.9273771107808528
  0.2211177092896364  0.8516239585377576  0.9273593549925252
  0.6306475336542690  0.8516346508737911  0.9273453624174763
 
  0.00000000E+00  0.00000000E+00  0.00000000E+00
  0.00000000E+00  0.00000000E+00  0.00000000E+00
  0.00000000E+00  0.00000000E+00  0.00000000E+00
  0.00000000E+00  0.00000000E+00  0.00000000E+00
  0.00000000E+00  0.00000000E+00  0.00000000E+00
  0.00000000E+00  0.00000000E+00  0.00000000E+00
  0.00000000E+00  0.00000000E+00  0.00000000E+00
  0.00000000E+00  0.00000000E+00  0.00000000E+00
  0.00000000E+00  0.00000000E+00  0.00000000E+00
  0.00000000E+00  0.00000000E+00  0.00000000E+00
  0.00000000E+00  0.00000000E+00  0.00000000E+00
  0.00000000E+00  0.00000000E+00  0.00000000E+00
