Ba10 Al4 Cl32                           
   1.00000000000000     
     4.7933674496077598   -8.0423759369723129    0.0000000000000000
     4.7933674496077598    8.0423759369723129    0.0000000000000000
     0.0000000000000000    0.0000000000000000   17.8780751205288979
   Ba   Al   Cl
    10     4    32
Direct
  0.0000000000000000  0.0000000000000000  0.7164242234641947
  0.0000000000000000  0.0000000000000000  0.2835757765358053
  0.5000000000000000  0.5000000000000000  0.7835757765358053
  0.5000000000000000  0.5000000000000000  0.2164242234641947
  0.5000000000000000  0.5000000000000000  0.5000000000000000
  0.0000000000000000  0.0000000000000000  0.0000000000000000
  0.0000000000000000  0.5000000000000000  0.6328991134823809
  0.5000000000000000  0.0000000000000000  0.3671008865176191
  0.5000000000000000  0.0000000000000000  0.8671008865176191
  0.0000000000000000  0.5000000000000000  0.1328991134823809
  0.5000000000000000  0.0000000000000000  0.6185699252201857
  0.0000000000000000  0.5000000000000000  0.3814300747798143
  0.0000000000000000  0.5000000000000000  0.8814300747798143
  0.5000000000000000  0.0000000000000000  0.1185699252201857
  0.5269676830200893  0.1863708856998443  0.7103442963161299
  0.4730323169799107  0.8136291143001557  0.7103442963161299
  0.1863708856998443  0.5269676830200893  0.2896557036838630
  0.8136291143001557  0.4730323169799107  0.2896557036838630
  0.9730323169799107  0.3136291143001557  0.7896557036838701
  0.0269676830200893  0.6863708856998443  0.7896557036838701
  0.3136291143001557  0.9730323169799107  0.2103442963161299
  0.6863708856998443  0.0269676830200893  0.2103442963161299
  0.2078714836063256  0.8826873843008869  0.6166704648273367
  0.7921285163936744  0.1173126156991131  0.6166704648273367
  0.8826873843008869  0.2078714836063256  0.3833295351726633
  0.1173126156991131  0.7921285163936744  0.3833295351726633
  0.2921285163936744  0.6173126156991131  0.8833295351726633
  0.7078714836063256  0.3826873843008869  0.8833295351726633
  0.6683641510175349  0.9978596298894900  0.0246636108120839
  0.3316358489824651  0.0021403701105100  0.0246636108120839
  0.9978596298894900  0.6683641510175349  0.9753363891879161
  0.0021403701105100  0.3316358489824651  0.9753363891879161
  0.8316358489824651  0.5021403701105100  0.4753363891879161
  0.1683641510175349  0.4978596298894900  0.4753363891879161
  0.5021403701105100  0.8316358489824651  0.5246636108120839
  0.4978596298894900  0.1683641510175349  0.5246636108120839
  0.8588903518007029  0.7583609025069791  0.1462898780221167
  0.1411096481992971  0.2416390974930209  0.1462898780221167
  0.7583609025069791  0.8588903518007029  0.8537101219778833
  0.2416390974930209  0.1411096481992971  0.8537101219778833
  0.6411096481992971  0.7416390974930209  0.3537101219778833
  0.3588903518007029  0.2583609025069791  0.3537101219778833
  0.7416390974930209  0.6411096481992971  0.6462898780221167
  0.2583609025069791  0.3588903518007029  0.6462898780221167
  0.3826873843008869  0.7078714836063256  0.1166704648273367
  0.6173126156991131  0.2921285163936744  0.1166704648273367
 
  0.00000000E+00  0.00000000E+00  0.00000000E+00
  0.00000000E+00  0.00000000E+00  0.00000000E+00
  0.00000000E+00  0.00000000E+00  0.00000000E+00
  0.00000000E+00  0.00000000E+00  0.00000000E+00
  0.00000000E+00  0.00000000E+00  0.00000000E+00
  0.00000000E+00  0.00000000E+00  0.00000000E+00
  0.00000000E+00  0.00000000E+00  0.00000000E+00
  0.00000000E+00  0.00000000E+00  0.00000000E+00
  0.00000000E+00  0.00000000E+00  0.00000000E+00
  0.00000000E+00  0.00000000E+00  0.00000000E+00
  0.00000000E+00  0.00000000E+00  0.00000000E+00
  0.00000000E+00  0.00000000E+00  0.00000000E+00
  0.00000000E+00  0.00000000E+00  0.00000000E+00
  0.00000000E+00  0.00000000E+00  0.00000000E+00
  0.00000000E+00  0.00000000E+00  0.00000000E+00
  0.00000000E+00  0.00000000E+00  0.00000000E+00
  0.00000000E+00  0.00000000E+00  0.00000000E+00
  0.00000000E+00  0.00000000E+00  0.00000000E+00
  0.00000000E+00  0.00000000E+00  0.00000000E+00
  0.00000000E+00  0.00000000E+00  0.00000000E+00
  0.00000000E+00  0.00000000E+00  0.00000000E+00
  0.00000000E+00  0.00000000E+00  0.00000000E+00
  0.00000000E+00  0.00000000E+00  0.00000000E+00
  0.00000000E+00  0.00000000E+00  0.00000000E+00
  0.00000000E+00  0.00000000E+00  0.00000000E+00
  0.00000000E+00  0.00000000E+00  0.00000000E+00
  0.00000000E+00  0.00000000E+00  0.00000000E+00
  0.00000000E+00  0.00000000E+00  0.00000000E+00
  0.00000000E+00  0.00000000E+00  0.00000000E+00
  0.00000000E+00  0.00000000E+00  0.00000000E+00
  0.00000000E+00  0.00000000E+00  0.00000000E+00
  0.00000000E+00  0.00000000E+00  0.00000000E+00
  0.00000000E+00  0.00000000E+00  0.00000000E+00
  0.00000000E+00  0.00000000E+00  0.00000000E+00
  0.00000000E+00  0.00000000E+00  0.00000000E+00
  0.00000000E+00  0.00000000E+00  0.00000000E+00
  0.00000000E+00  0.00000000E+00  0.00000000E+00
  0.00000000E+00  0.00000000E+00  0.00000000E+00
  0.00000000E+00  0.00000000E+00  0.00000000E+00
  0.00000000E+00  0.00000000E+00  0.00000000E+00
  0.00000000E+00  0.00000000E+00  0.00000000E+00
  0.00000000E+00  0.00000000E+00  0.00000000E+00
  0.00000000E+00  0.00000000E+00  0.00000000E+00
  0.00000000E+00  0.00000000E+00  0.00000000E+00
  0.00000000E+00  0.00000000E+00  0.00000000E+00
  0.00000000E+00  0.00000000E+00  0.00000000E+00
