Ca4 Tl4 I2                              
   1.0000000000000000     
     4.7563894625309979   -0.0026530172046258    0.0002247343223461
    -2.3804934393342871    4.1180676931397873   -0.0001442960274096
     0.0004805841065395   -0.0000204030785857   17.3758122780425914
   Tl   I    Ca
     4     2     4
Direct
  0.3334681615431307  0.6665962147099833  0.0338285689545970
  0.3334795380292377  0.6666234651893674  0.4661058156162028
  0.6666692130706622  0.3333983659464153  0.5338421733510259
  0.6666940331613489  0.3333749209342329  0.9661082630365456
  0.6658177112591588  0.3338071674471479  0.2500285476563704
  0.3336150762432908  0.6662070939096694  0.7502469617712535
  0.0000804430695709  0.9999445738520265  0.1217433036305167
  0.0001373277273586  0.9999725429490596  0.3781027786824538
  0.9999812373268639  0.0000500833613160  0.6217824762666027
  0.0000572585693845  0.0000255717007889  0.8781411110344308

  0.00000000E+00  0.00000000E+00  0.00000000E+00
  0.00000000E+00  0.00000000E+00  0.00000000E+00
  0.00000000E+00  0.00000000E+00  0.00000000E+00
  0.00000000E+00  0.00000000E+00  0.00000000E+00
  0.00000000E+00  0.00000000E+00  0.00000000E+00
  0.00000000E+00  0.00000000E+00  0.00000000E+00
  0.00000000E+00  0.00000000E+00  0.00000000E+00
  0.00000000E+00  0.00000000E+00  0.00000000E+00
  0.00000000E+00  0.00000000E+00  0.00000000E+00
  0.00000000E+00  0.00000000E+00  0.00000000E+00
