Sr10 Tl4 Br32                           
   1.0000000000000000     
     5.0725496475216785   -8.1896885780417144    0.0000000000000000
     5.0725496475216785    8.1896885780417144    0.0000000000000000
     0.0000000000000000    0.0000000000000000   19.1170140523718182
   Sr   Tl   Br
    10     4    32
Direct
  0.0000000000000000  0.0000000000000000  0.7198679083919259
  0.0000000000000000  0.0000000000000000  0.2801320916080741
  0.5000000000000000  0.5000000000000000  0.7801320916080741
  0.5000000000000000  0.5000000000000000  0.2198679083919259
  0.5000000000000000  0.5000000000000000  0.5000000000000000
  0.0000000000000000  0.0000000000000000  0.0000000000000000
  0.0000000000000000  0.5000000000000000  0.6425457882890626
  0.5000000000000000  0.0000000000000000  0.3574542117109374
  0.5000000000000000  0.0000000000000000  0.8574542117109374
  0.0000000000000000  0.5000000000000000  0.1425457882890626
  0.5000000000000000  0.0000000000000000  0.6118489728788816
  0.0000000000000000  0.5000000000000000  0.3881510271211184
  0.0000000000000000  0.5000000000000000  0.8881510271211184
  0.5000000000000000  0.0000000000000000  0.1118489728788816
  0.5499380234126221  0.2078625879859217  0.7190782227862016
  0.4500619765873779  0.7921374120140783  0.7190782227862016
  0.2078625879859217  0.5499380234126221  0.2809217772137984
  0.7921374120140783  0.4500619765873779  0.2809217772137984
  0.9500619765873779  0.2921374120140783  0.7809217772137984
  0.0499380234126221  0.7078625879859217  0.7809217772137984
  0.2921374120140783  0.9500619765873779  0.2190782227862016
  0.7078625879859217  0.0499380234126221  0.2190782227862016
  0.1617790218553594  0.8678057735030862  0.6109981637663395
  0.8382209781446406  0.1321942264969138  0.6109981637663395
  0.8678057735030862  0.1617790218553594  0.3890018362336605
  0.1321942264969138  0.8382209781446406  0.3890018362336605
  0.3382209781446406  0.6321942264969138  0.8890018362336605
  0.6617790218553594  0.3678057735030933  0.8890018362336605
  0.6672361892931278  0.9658520799353170  0.0011863589348735
  0.3327638107068722  0.0341479200646830  0.0011863589348735
  0.9658520799353170  0.6672361892931278  0.9988136410651265
  0.0341479200646830  0.3327638107068722  0.9988136410651265
  0.8327638107068722  0.5341479200646830  0.4988136410651265
  0.1672361892931278  0.4658520799353170  0.4988136410651265
  0.5341479200646830  0.8327638107068722  0.5011863589348735
  0.4658520799353170  0.1672361892931278  0.5011863589348735
  0.8637261879258062  0.7694448794097539  0.1547437815160109
  0.1362738120741938  0.2305551205902461  0.1547437815160109
  0.7694448794097539  0.8637261879258062  0.8452562184839891
  0.2305551205902461  0.1362738120741938  0.8452562184839891
  0.6362738120741938  0.7305551205902461  0.3452562184839891
  0.3637261879258062  0.2694448794097539  0.3452562184839891
  0.7305551205902461  0.6362738120741938  0.6547437815160109
  0.2694448794097539  0.3637261879258062  0.6547437815160109
  0.3678057735030933  0.6617790218553594  0.1109981637663395
  0.6321942264969138  0.3382209781446406  0.1109981637663395

  0.00000000E+00  0.00000000E+00  0.00000000E+00
  0.00000000E+00  0.00000000E+00  0.00000000E+00
  0.00000000E+00  0.00000000E+00  0.00000000E+00
  0.00000000E+00  0.00000000E+00  0.00000000E+00
  0.00000000E+00  0.00000000E+00  0.00000000E+00
  0.00000000E+00  0.00000000E+00  0.00000000E+00
  0.00000000E+00  0.00000000E+00  0.00000000E+00
  0.00000000E+00  0.00000000E+00  0.00000000E+00
  0.00000000E+00  0.00000000E+00  0.00000000E+00
  0.00000000E+00  0.00000000E+00  0.00000000E+00
  0.00000000E+00  0.00000000E+00  0.00000000E+00
  0.00000000E+00  0.00000000E+00  0.00000000E+00
  0.00000000E+00  0.00000000E+00  0.00000000E+00
  0.00000000E+00  0.00000000E+00  0.00000000E+00
  0.00000000E+00  0.00000000E+00  0.00000000E+00
  0.00000000E+00  0.00000000E+00  0.00000000E+00
  0.00000000E+00  0.00000000E+00  0.00000000E+00
  0.00000000E+00  0.00000000E+00  0.00000000E+00
  0.00000000E+00  0.00000000E+00  0.00000000E+00
  0.00000000E+00  0.00000000E+00  0.00000000E+00
  0.00000000E+00  0.00000000E+00  0.00000000E+00
  0.00000000E+00  0.00000000E+00  0.00000000E+00
  0.00000000E+00  0.00000000E+00  0.00000000E+00
  0.00000000E+00  0.00000000E+00  0.00000000E+00
  0.00000000E+00  0.00000000E+00  0.00000000E+00
  0.00000000E+00  0.00000000E+00  0.00000000E+00
  0.00000000E+00  0.00000000E+00  0.00000000E+00
  0.00000000E+00  0.00000000E+00  0.00000000E+00
  0.00000000E+00  0.00000000E+00  0.00000000E+00
  0.00000000E+00  0.00000000E+00  0.00000000E+00
  0.00000000E+00  0.00000000E+00  0.00000000E+00
  0.00000000E+00  0.00000000E+00  0.00000000E+00
  0.00000000E+00  0.00000000E+00  0.00000000E+00
  0.00000000E+00  0.00000000E+00  0.00000000E+00
  0.00000000E+00  0.00000000E+00  0.00000000E+00
  0.00000000E+00  0.00000000E+00  0.00000000E+00
  0.00000000E+00  0.00000000E+00  0.00000000E+00
  0.00000000E+00  0.00000000E+00  0.00000000E+00
  0.00000000E+00  0.00000000E+00  0.00000000E+00
  0.00000000E+00  0.00000000E+00  0.00000000E+00
  0.00000000E+00  0.00000000E+00  0.00000000E+00
  0.00000000E+00  0.00000000E+00  0.00000000E+00
  0.00000000E+00  0.00000000E+00  0.00000000E+00
  0.00000000E+00  0.00000000E+00  0.00000000E+00
  0.00000000E+00  0.00000000E+00  0.00000000E+00
  0.00000000E+00  0.00000000E+00  0.00000000E+00
