Mg4 Ga4 Br20                            
   1.0000000000000000     
     6.5929319210258601   -0.0000000000000001    0.0000000000000004
    -0.0000000000000005   10.6895756397810846    0.0000000000000006
     0.0000000000000000    0.0000000000000007   16.3089803178454780
   Mg   Ga   Br
     4     4    20
Direct
  0.3961437351771835  0.2880502463702896  0.4203117854772103
  0.8961437351771835  0.2119497536297033  0.5796882145228111
  0.6038562648228094  0.7880502463702967  0.0796882145228039
  0.1038562648228094  0.7119497536297033  0.9203117854771889
  0.3685585106490663  0.7308365755258848  0.4241700371250943
  0.8685585106490521  0.7691634244741152  0.5758299628748915
  0.6314414893509479  0.2308365755258848  0.0758299628748915
  0.1314414893509408  0.2691634244741223  0.9241700371250943
  0.2488232973640976  0.7397773169327664  0.5676171189759742
  0.7488232973640834  0.7602226830672336  0.4323828810240258
  0.7511767026359166  0.2397773169327664  0.9323828810240258
  0.2511767026359024  0.2602226830672407  0.0676171189759742
  0.2559581071939334  0.9022962667030896  0.3545823238189669
  0.7559581071939334  0.5977037332969104  0.6454176761810189
  0.7440418928060666  0.4022962667030967  0.1454176761810331
  0.2440418928060666  0.0977037332969033  0.8545823238189811
  0.2237387595863822  0.7806193421125229  0.0603287770044503
  0.7237387595863822  0.7193806578874771  0.9396712229955426
  0.7762612404136178  0.2806193421125229  0.4396712229955497
  0.2762612404136178  0.2193806578874771  0.5603287770044574
  0.7393309331438545  0.7205211400629707  0.2094776930923317
  0.2393309331438545  0.7794788599370293  0.7905223069076754
  0.2606690668561455  0.2205211400629921  0.2905223069076683
  0.7606690668561455  0.2794788599370150  0.7094776930923246
  0.1975822535505216  0.4689098617456295  0.8695814376843316
  0.6975822535505216  0.0310901382543634  0.1304185623156613
  0.8024177464494784  0.9689098617456295  0.6304185623156684
  0.3024177464494713  0.5310901382543705  0.3695814376843316

  0.00000000E+00  0.00000000E+00  0.00000000E+00
  0.00000000E+00  0.00000000E+00  0.00000000E+00
  0.00000000E+00  0.00000000E+00  0.00000000E+00
  0.00000000E+00  0.00000000E+00  0.00000000E+00
  0.00000000E+00  0.00000000E+00  0.00000000E+00
  0.00000000E+00  0.00000000E+00  0.00000000E+00
  0.00000000E+00  0.00000000E+00  0.00000000E+00
  0.00000000E+00  0.00000000E+00  0.00000000E+00
  0.00000000E+00  0.00000000E+00  0.00000000E+00
  0.00000000E+00  0.00000000E+00  0.00000000E+00
  0.00000000E+00  0.00000000E+00  0.00000000E+00
  0.00000000E+00  0.00000000E+00  0.00000000E+00
  0.00000000E+00  0.00000000E+00  0.00000000E+00
  0.00000000E+00  0.00000000E+00  0.00000000E+00
  0.00000000E+00  0.00000000E+00  0.00000000E+00
  0.00000000E+00  0.00000000E+00  0.00000000E+00
  0.00000000E+00  0.00000000E+00  0.00000000E+00
  0.00000000E+00  0.00000000E+00  0.00000000E+00
  0.00000000E+00  0.00000000E+00  0.00000000E+00
  0.00000000E+00  0.00000000E+00  0.00000000E+00
  0.00000000E+00  0.00000000E+00  0.00000000E+00
  0.00000000E+00  0.00000000E+00  0.00000000E+00
  0.00000000E+00  0.00000000E+00  0.00000000E+00
  0.00000000E+00  0.00000000E+00  0.00000000E+00
  0.00000000E+00  0.00000000E+00  0.00000000E+00
  0.00000000E+00  0.00000000E+00  0.00000000E+00
  0.00000000E+00  0.00000000E+00  0.00000000E+00
  0.00000000E+00  0.00000000E+00  0.00000000E+00
