Be4 Ga8 Br32                            
   1.00000000000000     
    -6.0222273697651865    6.0222273697651865   11.0875168446610690
     6.0222273697651865   -6.0222273697651865   11.0875168446610690
     6.0222273697651865    6.0222273697651865  -11.0875168446610690
   Be   Ga   Br
     4     8    32
Direct
  0.0000000000000000  0.0000000000000000  0.0000000000000000
  0.7500000000000000  0.2500000000000000  0.5000000000000000
  0.2500000000000000  0.7500000000000000  0.5000000000000000
  0.5000000000000000  0.5000000000000000  0.0000000000000000
  0.5597714943700254  0.8750000000000000  0.1847714943700254
  0.1250000000000000  0.8097714943700254  0.1847714943700254
  0.1250000000000000  0.3097714943700254  0.6847714943700254
  0.6902285056299746  0.3750000000000000  0.8152285056299746
  0.6250000000000000  0.9402285056299746  0.8152285056299746
  0.0597714943700254  0.8750000000000000  0.6847714943700254
  0.1902285056299746  0.3750000000000000  0.3152285056299746
  0.6250000000000000  0.4402285056299746  0.3152285056299746
  0.6410272307547089  0.2402515812003898  0.2869493055116621
  0.1040779252430326  0.8910272307547089  0.9007756495543191
  0.7966977243112865  0.8959220747569674  0.7869493055116692
  0.3184567000339200  0.2680272209503087  0.2509286025206450
  0.8184567000339200  0.5675280975132679  0.0504304790836017
  0.8175280975132679  0.5684567000339200  0.5504304790836088
  0.1089727692452982  0.0097484187996102  0.2130506944883379
  0.9902515812003898  0.2033022756887135  0.0992243504456809
  0.4533022756887135  0.7402515812003898  0.5992243504456809
  0.2319727790496913  0.1815432999660800  0.7490713974793550
  0.0170976184296663  0.0675280975132679  0.7490713974793550
  0.9315432999660800  0.6824719024867321  0.4495695209163983
  0.9324719024867321  0.6815432999660800  0.9495695209163912
  0.1459220747569674  0.5466977243112865  0.2869493055116621
  0.2966977243112865  0.5097484187996102  0.9007756495543191
  0.6040779252430326  0.7033022756887135  0.2130506944883379
  0.7329023815703337  0.1824719024867321  0.7509286025206450
  0.2597484187996102  0.8589727692452911  0.7130506944883308
  0.4902515812003898  0.3910272307547018  0.7869493055116692
  0.9533022756887135  0.3540779252430326  0.7130506944883308
  0.3175280975132679  0.7670976184296663  0.2490713974793550
  0.4324719024867321  0.4829023815703337  0.2509286025206450
  0.6459220747569674  0.3589727692452982  0.5992243504456809
  0.6089727692452911  0.3959220747569674  0.0992243504456809
  0.2329023815703337  0.4819727790496913  0.5504304790836088
  0.4315432999660800  0.9819727790496913  0.2490713974793550
  0.1410272307547018  0.8540779252430326  0.4007756495543191
  0.5180272209503087  0.0684567000339200  0.7509286025206450
  0.5170976184296663  0.7680272209503087  0.9495695209163912
  0.0180272209503087  0.2670976184296663  0.4495695209163983
  0.7597484187996102  0.0466977243112865  0.4007756495543191
  0.7319727790496913  0.9829023815703337  0.0504304790836017
 
  0.00000000E+00  0.00000000E+00  0.00000000E+00
  0.00000000E+00  0.00000000E+00  0.00000000E+00
  0.00000000E+00  0.00000000E+00  0.00000000E+00
  0.00000000E+00  0.00000000E+00  0.00000000E+00
  0.00000000E+00  0.00000000E+00  0.00000000E+00
  0.00000000E+00  0.00000000E+00  0.00000000E+00
  0.00000000E+00  0.00000000E+00  0.00000000E+00
  0.00000000E+00  0.00000000E+00  0.00000000E+00
  0.00000000E+00  0.00000000E+00  0.00000000E+00
  0.00000000E+00  0.00000000E+00  0.00000000E+00
  0.00000000E+00  0.00000000E+00  0.00000000E+00
  0.00000000E+00  0.00000000E+00  0.00000000E+00
  0.00000000E+00  0.00000000E+00  0.00000000E+00
  0.00000000E+00  0.00000000E+00  0.00000000E+00
  0.00000000E+00  0.00000000E+00  0.00000000E+00
  0.00000000E+00  0.00000000E+00  0.00000000E+00
  0.00000000E+00  0.00000000E+00  0.00000000E+00
  0.00000000E+00  0.00000000E+00  0.00000000E+00
  0.00000000E+00  0.00000000E+00  0.00000000E+00
  0.00000000E+00  0.00000000E+00  0.00000000E+00
  0.00000000E+00  0.00000000E+00  0.00000000E+00
  0.00000000E+00  0.00000000E+00  0.00000000E+00
  0.00000000E+00  0.00000000E+00  0.00000000E+00
  0.00000000E+00  0.00000000E+00  0.00000000E+00
  0.00000000E+00  0.00000000E+00  0.00000000E+00
  0.00000000E+00  0.00000000E+00  0.00000000E+00
  0.00000000E+00  0.00000000E+00  0.00000000E+00
  0.00000000E+00  0.00000000E+00  0.00000000E+00
  0.00000000E+00  0.00000000E+00  0.00000000E+00
  0.00000000E+00  0.00000000E+00  0.00000000E+00
  0.00000000E+00  0.00000000E+00  0.00000000E+00
  0.00000000E+00  0.00000000E+00  0.00000000E+00
  0.00000000E+00  0.00000000E+00  0.00000000E+00
  0.00000000E+00  0.00000000E+00  0.00000000E+00
  0.00000000E+00  0.00000000E+00  0.00000000E+00
  0.00000000E+00  0.00000000E+00  0.00000000E+00
  0.00000000E+00  0.00000000E+00  0.00000000E+00
  0.00000000E+00  0.00000000E+00  0.00000000E+00
  0.00000000E+00  0.00000000E+00  0.00000000E+00
  0.00000000E+00  0.00000000E+00  0.00000000E+00
  0.00000000E+00  0.00000000E+00  0.00000000E+00
  0.00000000E+00  0.00000000E+00  0.00000000E+00
  0.00000000E+00  0.00000000E+00  0.00000000E+00
  0.00000000E+00  0.00000000E+00  0.00000000E+00
