Be8 In6                                 
   1.00000000000000     
     4.8764581091472863   -2.2765097163722050    1.9418916779453714
     5.0082971301096162    2.2569165113743330    1.4217817665429786
     0.4447593945851225   -1.2643364257204828   10.7606076587264567
   Be   In
     8     6
Direct
  0.7266099399965142  0.2515502083638239  0.9880494735021870
  0.2437632271167729  0.4218657230278993  0.1581241206049100
  0.7541525987417330  0.5566984570056732  0.3296394380472663
  0.7308949883993847  0.2562131644569234  0.4990317407026552
  0.2691490785903383  0.7438294453167771  0.5009502457122679
  0.2458851236916999  0.4433358889482903  0.6703409799531315
  0.7562711305404832  0.5781771260473931  0.8418605703976851
  0.2734188834226643  0.7485032004299228  0.0119348226875644
  0.7275561541894504  0.8090261684770184  0.0962902466357178
  0.0752332465544825  0.9214761516772754  0.2671091316273220
  0.3041083671429590  0.1982858373363356  0.3940749341544176
  0.6959384965177122  0.8017602133915602  0.6059103291193608
  0.9248288723616582  0.0785582000102494  0.7328739667476256
  0.2724898927341570  0.1910202155108962  0.9036900001079076
 
  0.00000000E+00  0.00000000E+00  0.00000000E+00
  0.00000000E+00  0.00000000E+00  0.00000000E+00
  0.00000000E+00  0.00000000E+00  0.00000000E+00
  0.00000000E+00  0.00000000E+00  0.00000000E+00
  0.00000000E+00  0.00000000E+00  0.00000000E+00
  0.00000000E+00  0.00000000E+00  0.00000000E+00
  0.00000000E+00  0.00000000E+00  0.00000000E+00
  0.00000000E+00  0.00000000E+00  0.00000000E+00
  0.00000000E+00  0.00000000E+00  0.00000000E+00
  0.00000000E+00  0.00000000E+00  0.00000000E+00
  0.00000000E+00  0.00000000E+00  0.00000000E+00
  0.00000000E+00  0.00000000E+00  0.00000000E+00
  0.00000000E+00  0.00000000E+00  0.00000000E+00
  0.00000000E+00  0.00000000E+00  0.00000000E+00
