Be6 In4 F24                             
   1.00000000000000     
     0.0000000000000000    0.0000000000000000    5.3796889368334089
     7.6964652357901189   -0.6481425055618276    0.0000000000000000
    -0.6062867178722046   10.1568281408953709    0.0000000000000000
   Be   F    In
     6    24     4
Direct
  0.0000000000000000  0.8593593324781708  0.9209684165809549
  0.5000000000000000  0.3309440331669293  0.9965993630713186
  0.5000000000000000  0.8165872124605897  0.5541867125521023
  0.0000000000000000  0.4949612543591897  0.2405944937389037
  0.5000000000000000  0.1869348944336693  0.3696026053871506
  0.5000000000000000  0.5064851934321268  0.8232804054259901
  0.3006731392507618  0.5080065496700783  0.9650035300833224
  0.6993268607492453  0.5080065496700783  0.9650035300833224
  0.2198523020277037  0.8647357240177627  0.0387244587930269
  0.7801476979722963  0.8647357240177627  0.0387244587930269
  0.0000000000000000  0.3078997990661989  0.2248043323410300
  0.2797709450082877  0.0523456962714448  0.2979543266586475
  0.7202290549917123  0.0523456962714448  0.2979543266586475
  0.2260682641213378  0.6077022354994739  0.2289565452536024
  0.7739317358786693  0.6077022354994739  0.2289565452536024
  0.0000000000000000  0.8467244676917645  0.4002218804866899
  0.2878351409704081  0.3070470337299156  0.4501270528956525
  0.7121648590295919  0.3070470337299156  0.4501270528956525
  0.2932852279630964  0.9781528199142571  0.5599804738651457
  0.7067147720369036  0.9781528199142571  0.5599804738651457
  0.2861570787060188  0.6770114940316105  0.5637058545256153
  0.7138429212939812  0.6770114940316105  0.5637058545256153
  0.0000000000000000  0.1737188328215780  0.6840266554482568
  0.2867315822168948  0.4352406031690421  0.7329031953997429
  0.7132684177831052  0.4352406031690421  0.7329031953997429
  0.2277297448441260  0.9285716928084611  0.8173860141585294
  0.7722702551558740  0.9285716928084611  0.8173860141585294
  0.0000000000000000  0.6674085946172923  0.8361595652413030
  0.2678619566808678  0.2165612652712383  0.9763165710234034
  0.7321380433191251  0.2165612652712383  0.9763165710234034
  0.0000000000000000  0.8427352448283614  0.1992612623356038
  0.0000000000000000  0.1340873419578799  0.4693353550537722
  0.0000000000000000  0.8273991396253209  0.6607573254549237
  0.0000000000000000  0.3542044302943239  0.8582855815685164
 
  0.00000000E+00  0.00000000E+00  0.00000000E+00
  0.00000000E+00  0.00000000E+00  0.00000000E+00
  0.00000000E+00  0.00000000E+00  0.00000000E+00
  0.00000000E+00  0.00000000E+00  0.00000000E+00
  0.00000000E+00  0.00000000E+00  0.00000000E+00
  0.00000000E+00  0.00000000E+00  0.00000000E+00
  0.00000000E+00  0.00000000E+00  0.00000000E+00
  0.00000000E+00  0.00000000E+00  0.00000000E+00
  0.00000000E+00  0.00000000E+00  0.00000000E+00
  0.00000000E+00  0.00000000E+00  0.00000000E+00
  0.00000000E+00  0.00000000E+00  0.00000000E+00
  0.00000000E+00  0.00000000E+00  0.00000000E+00
  0.00000000E+00  0.00000000E+00  0.00000000E+00
  0.00000000E+00  0.00000000E+00  0.00000000E+00
  0.00000000E+00  0.00000000E+00  0.00000000E+00
  0.00000000E+00  0.00000000E+00  0.00000000E+00
  0.00000000E+00  0.00000000E+00  0.00000000E+00
  0.00000000E+00  0.00000000E+00  0.00000000E+00
  0.00000000E+00  0.00000000E+00  0.00000000E+00
  0.00000000E+00  0.00000000E+00  0.00000000E+00
  0.00000000E+00  0.00000000E+00  0.00000000E+00
  0.00000000E+00  0.00000000E+00  0.00000000E+00
  0.00000000E+00  0.00000000E+00  0.00000000E+00
  0.00000000E+00  0.00000000E+00  0.00000000E+00
  0.00000000E+00  0.00000000E+00  0.00000000E+00
  0.00000000E+00  0.00000000E+00  0.00000000E+00
  0.00000000E+00  0.00000000E+00  0.00000000E+00
  0.00000000E+00  0.00000000E+00  0.00000000E+00
  0.00000000E+00  0.00000000E+00  0.00000000E+00
  0.00000000E+00  0.00000000E+00  0.00000000E+00
  0.00000000E+00  0.00000000E+00  0.00000000E+00
  0.00000000E+00  0.00000000E+00  0.00000000E+00
  0.00000000E+00  0.00000000E+00  0.00000000E+00
  0.00000000E+00  0.00000000E+00  0.00000000E+00
