Mg2 B2 Br10                             
   1.0000000000000000     
     4.4433416221810846   -0.0000000000000002    0.0000000000000003
    -0.0000000000000010   11.8973956775325203    0.0000000000000009
     0.0000000000000002    0.0000000000000003   10.6486215779041942
   Mg   B    Br
     2     2    10
Direct
  0.0000000000000000  0.0000000000000000  0.5000000000000000
  0.5000000000000000  0.5000000000000000  0.0000000000000000
  0.5000000000000000  0.0000000000000000  0.0000000000000000
  0.0000000000000000  0.5000000000000000  0.5000000000000000
  0.5000000000000000  0.8575755529001583  0.5000000000000000
  0.5000000000000000  0.1424244470998417  0.5000000000000000
  0.5000000000000000  0.0000000000000000  0.1873046187601517
  0.5000000000000000  0.0000000000000000  0.8126953812398483
  0.0000000000000000  0.0000000000000000  0.0000000000000000
  0.0000000000000000  0.3575755529001583  0.0000000000000000
  0.0000000000000000  0.6424244470998417  0.0000000000000000
  0.0000000000000000  0.5000000000000000  0.6873046187601517
  0.0000000000000000  0.5000000000000000  0.3126953812398483
  0.5000000000000000  0.5000000000000000  0.5000000000000000

  0.00000000E+00  0.00000000E+00  0.00000000E+00
  0.00000000E+00  0.00000000E+00  0.00000000E+00
  0.00000000E+00  0.00000000E+00  0.00000000E+00
  0.00000000E+00  0.00000000E+00  0.00000000E+00
  0.00000000E+00  0.00000000E+00  0.00000000E+00
  0.00000000E+00  0.00000000E+00  0.00000000E+00
  0.00000000E+00  0.00000000E+00  0.00000000E+00
  0.00000000E+00  0.00000000E+00  0.00000000E+00
  0.00000000E+00  0.00000000E+00  0.00000000E+00
  0.00000000E+00  0.00000000E+00  0.00000000E+00
  0.00000000E+00  0.00000000E+00  0.00000000E+00
  0.00000000E+00  0.00000000E+00  0.00000000E+00
  0.00000000E+00  0.00000000E+00  0.00000000E+00
  0.00000000E+00  0.00000000E+00  0.00000000E+00
