Be1 B6                                  
   1.00000000000000     
     4.0875028615826965    0.0000000000000000    0.0000000000000000
     0.0000000000000000    4.0875028615826965    0.0000000000000000
     0.0000000000000000    0.0000000000000000    4.0875028615826965
   B    Be
     6     1
Direct
  0.3013635949472260  0.0000000000000000  0.0000000000000000
  0.6986364050527740  0.0000000000000000  0.0000000000000000
  0.0000000000000000  0.3013635949472260  0.0000000000000000
  0.0000000000000000  0.6986364050527740  0.0000000000000000
  0.0000000000000000  0.0000000000000000  0.3013635949472260
  0.0000000000000000  0.0000000000000000  0.6986364050527740
  0.5000000000000000  0.5000000000000000  0.5000000000000000
 
  0.00000000E+00  0.00000000E+00  0.00000000E+00
  0.00000000E+00  0.00000000E+00  0.00000000E+00
  0.00000000E+00  0.00000000E+00  0.00000000E+00
  0.00000000E+00  0.00000000E+00  0.00000000E+00
  0.00000000E+00  0.00000000E+00  0.00000000E+00
  0.00000000E+00  0.00000000E+00  0.00000000E+00
  0.00000000E+00  0.00000000E+00  0.00000000E+00
