Ba1 B4                                  
   1.00000000000000     
    -3.2713320181200194    0.0203728729598452    0.0875604098351461
     0.0203728729598452   -3.2713320181200203    0.0875604098351462
     1.4708521005428141    1.4708521005428137    5.5626996177373185
   Ba   B 
     1     4
Direct
  0.0000000000000000  0.0000000000000000  0.0000000000000000
  0.6145896598914007  0.6145896598914007  0.3881987028432903
  0.8164473315672041  0.1835526684327959  0.5000000000000000
  0.1835526684327959  0.8164473315672041  0.5000000000000000
  0.3854103401085993  0.3854103401085993  0.6118012971567097
 
  0.00000000E+00  0.00000000E+00  0.00000000E+00
  0.00000000E+00  0.00000000E+00  0.00000000E+00
  0.00000000E+00  0.00000000E+00  0.00000000E+00
  0.00000000E+00  0.00000000E+00  0.00000000E+00
  0.00000000E+00  0.00000000E+00  0.00000000E+00
