Be4 Ga4 Br20                            
   1.0000000000000000     
     0.0000000000000000    7.4221692349775346   -0.9508661372674206
    16.2556842686430834    0.0000000000000000    0.0000000000000000
     0.0000000000000000    0.8613412497566324  -10.5327411757765486
   Be   Ga   Br
     4     4    20
Direct
  0.2656894897989091  0.3858537213166287  0.4890993670711623
  0.7343105102010981  0.8858537213166215  0.5109006329288377
  0.0337531245521348  0.1171067328296331  0.9579784287541671
  0.9662468754478724  0.6171067328296331  0.0420215712458329
  0.4500835303517050  0.5306974878513344  0.2632792117723639
  0.5499164696482808  0.0306974878513273  0.7367207882276432
  0.8423017719983648  0.7170199613104202  0.3770181819929022
  0.1576982280016352  0.2170199613104131  0.6229818180070978
  0.3276904780645751  0.1053338546571894  0.5328070704539840
  0.1748173207591961  0.5073489815992147  0.5194019524037188
  0.8251826792408110  0.0073489815992147  0.4805980475962812
  0.8053100005119873  0.7148012274543305  0.9722219658436728
  0.8355229131309940  0.5063228416724357  0.1038285277704247
  0.4959763296552282  0.1504306586693360  0.0651461699287381
  0.9108263300075095  0.1855848100598578  0.8021273322114126
  0.6619293886288844  0.8289028897282762  0.3238412522377487
  0.1644770868690060  0.0063228416724357  0.8961714722295824
  0.9746905165612816  0.7952565423193718  0.5262214066261919
  0.5040236703447789  0.6504306586693289  0.9348538300712619
  0.6723095219354249  0.6053338546572036  0.4671929295460231
  0.5132236635452756  0.8649174145358600  0.6707054770857965
  0.7897199868545357  0.0880218559960753  0.1120805058139567
  0.0253094834387184  0.2952565423193789  0.4737785933738081
  0.0891736699924905  0.6855848100598578  0.1978726677885874
  0.1946899994880056  0.2148012274543234  0.0277780341563201
  0.2102800131454572  0.5880218559960824  0.8879194941860362
  0.3380706113711085  0.3289028897282762  0.6761587477622442
  0.4867763364547244  0.3649174145358742  0.3292945229142035

  0.00000000E+00  0.00000000E+00  0.00000000E+00
  0.00000000E+00  0.00000000E+00  0.00000000E+00
  0.00000000E+00  0.00000000E+00  0.00000000E+00
  0.00000000E+00  0.00000000E+00  0.00000000E+00
  0.00000000E+00  0.00000000E+00  0.00000000E+00
  0.00000000E+00  0.00000000E+00  0.00000000E+00
  0.00000000E+00  0.00000000E+00  0.00000000E+00
  0.00000000E+00  0.00000000E+00  0.00000000E+00
  0.00000000E+00  0.00000000E+00  0.00000000E+00
  0.00000000E+00  0.00000000E+00  0.00000000E+00
  0.00000000E+00  0.00000000E+00  0.00000000E+00
  0.00000000E+00  0.00000000E+00  0.00000000E+00
  0.00000000E+00  0.00000000E+00  0.00000000E+00
  0.00000000E+00  0.00000000E+00  0.00000000E+00
  0.00000000E+00  0.00000000E+00  0.00000000E+00
  0.00000000E+00  0.00000000E+00  0.00000000E+00
  0.00000000E+00  0.00000000E+00  0.00000000E+00
  0.00000000E+00  0.00000000E+00  0.00000000E+00
  0.00000000E+00  0.00000000E+00  0.00000000E+00
  0.00000000E+00  0.00000000E+00  0.00000000E+00
  0.00000000E+00  0.00000000E+00  0.00000000E+00
  0.00000000E+00  0.00000000E+00  0.00000000E+00
  0.00000000E+00  0.00000000E+00  0.00000000E+00
  0.00000000E+00  0.00000000E+00  0.00000000E+00
  0.00000000E+00  0.00000000E+00  0.00000000E+00
  0.00000000E+00  0.00000000E+00  0.00000000E+00
  0.00000000E+00  0.00000000E+00  0.00000000E+00
  0.00000000E+00  0.00000000E+00  0.00000000E+00
