Mg4 Ga4 F20                             
   1.0000000000000000     
     4.6879189484328121   -0.0000000000000000    0.0000000000000003
    -0.0000000000000003    5.3376302748752238    0.0000000000000003
     0.0000000000000000   -0.0000000000000001   12.2712167814134077
   Mg   Ga   F 
     4     4    20
Direct
  0.7369501981975333  0.6564259398879457  0.6103361307467239
  0.2369501981975333  0.8435740601120543  0.3896638692532761
  0.2630498018024667  0.1564259398879457  0.8896638692532761
  0.7630498018024667  0.3435740601120543  0.1103361307467239
  0.2409440313438438  0.1532995711470519  0.6108935514448390
  0.7409440313438438  0.3467004288529481  0.3891064485551610
  0.7590559686561562  0.6532995711470519  0.8891064485551610
  0.2590559686561562  0.8467004288529481  0.1108935514448390
  0.9037924311310164  0.6477491610757653  0.4522838002050733
  0.4037924311310164  0.8522508389242347  0.5477161997949338
  0.0962075688689836  0.1477491610757653  0.0477161997949267
  0.5962075688689836  0.3522508389242347  0.9522838002050662
  0.4168774118317629  0.5301082749503578  0.3585785683056741
  0.9168774118317629  0.9698917250496422  0.6414214316943188
  0.5831225881682371  0.0301082749503578  0.1414214316943188
  0.0831225881682371  0.4698917250496422  0.8585785683056741
  0.0807826871224790  0.4604050802121478  0.6392106736976046
  0.5807826871224790  0.0395949197878522  0.3607893263023954
  0.9192173128775210  0.9604050802121407  0.8607893263023954
  0.4192173128775210  0.5395949197878593  0.1392106736976046
  0.4141194409729110  0.1085152137031500  0.7444481293187835
  0.9141194409729110  0.3914847862968500  0.2555518706812165
  0.5858805590270890  0.6085152137031500  0.7555518706812165
  0.0858805590270890  0.8914847862968500  0.2444481293187835
  0.5669673472160426  0.3361116056807347  0.5466928847671468
  0.0669673472160355  0.1638883943192653  0.4533071152328532
  0.4330326527839645  0.8361116056807347  0.9533071152328532
  0.9330326527839574  0.6638883943192653  0.0466928847671468

  0.00000000E+00  0.00000000E+00  0.00000000E+00
  0.00000000E+00  0.00000000E+00  0.00000000E+00
  0.00000000E+00  0.00000000E+00  0.00000000E+00
  0.00000000E+00  0.00000000E+00  0.00000000E+00
  0.00000000E+00  0.00000000E+00  0.00000000E+00
  0.00000000E+00  0.00000000E+00  0.00000000E+00
  0.00000000E+00  0.00000000E+00  0.00000000E+00
  0.00000000E+00  0.00000000E+00  0.00000000E+00
  0.00000000E+00  0.00000000E+00  0.00000000E+00
  0.00000000E+00  0.00000000E+00  0.00000000E+00
  0.00000000E+00  0.00000000E+00  0.00000000E+00
  0.00000000E+00  0.00000000E+00  0.00000000E+00
  0.00000000E+00  0.00000000E+00  0.00000000E+00
  0.00000000E+00  0.00000000E+00  0.00000000E+00
  0.00000000E+00  0.00000000E+00  0.00000000E+00
  0.00000000E+00  0.00000000E+00  0.00000000E+00
  0.00000000E+00  0.00000000E+00  0.00000000E+00
  0.00000000E+00  0.00000000E+00  0.00000000E+00
  0.00000000E+00  0.00000000E+00  0.00000000E+00
  0.00000000E+00  0.00000000E+00  0.00000000E+00
  0.00000000E+00  0.00000000E+00  0.00000000E+00
  0.00000000E+00  0.00000000E+00  0.00000000E+00
  0.00000000E+00  0.00000000E+00  0.00000000E+00
  0.00000000E+00  0.00000000E+00  0.00000000E+00
  0.00000000E+00  0.00000000E+00  0.00000000E+00
  0.00000000E+00  0.00000000E+00  0.00000000E+00
  0.00000000E+00  0.00000000E+00  0.00000000E+00
  0.00000000E+00  0.00000000E+00  0.00000000E+00
