Ba4 B2 Cl10                             
   1.00000000000000     
     9.0762448036148680   -0.9212002220452361    0.3804127492853260
    -0.9212002220452358    9.0762448036148662    0.3804127492853259
     4.3192565532595930    4.3192565532595939    7.6994464287191908
   Cl   Ba   B 
    10     4     2
Direct
  0.2058952852303975  0.7812277083308530  0.5107914372695603
  0.7812277083308530  0.2058952852303975  0.5107914372695603
  0.6074024776856888  0.0056069948321991  0.2554457835815711
  0.2742428506923744  0.2742428506923744  0.1922374081358740
  0.6954436507688584  0.6954436507688584  0.9545563718785885
  0.0056069948321991  0.6074024776856888  0.2554457835815711
  0.9648205554537768  0.2327022242597536  0.8183982171164388
  0.4103776008701203  0.4103776008701203  0.7662156239896021
  0.8280760862438186  0.8280760862438186  0.5215580570204992
  0.2327022242597536  0.9648205554537768  0.8183982171164388
  0.0566082652281850  0.0566082652281850  0.0966673787442218
  0.7109931151692876  0.4170719229513580  0.8386673967696154
  0.4170719229513580  0.7109931151692876  0.8386673967696154
  0.0442962362953452  0.0442962362953452  0.6159078623704488
  0.8471252822912305  0.4182097436967425  0.5031258141931971
  0.4182097436967425  0.8471252822912305  0.5031258141931971
 
  0.00000000E+00  0.00000000E+00  0.00000000E+00
  0.00000000E+00  0.00000000E+00  0.00000000E+00
  0.00000000E+00  0.00000000E+00  0.00000000E+00
  0.00000000E+00  0.00000000E+00  0.00000000E+00
  0.00000000E+00  0.00000000E+00  0.00000000E+00
  0.00000000E+00  0.00000000E+00  0.00000000E+00
  0.00000000E+00  0.00000000E+00  0.00000000E+00
  0.00000000E+00  0.00000000E+00  0.00000000E+00
  0.00000000E+00  0.00000000E+00  0.00000000E+00
  0.00000000E+00  0.00000000E+00  0.00000000E+00
  0.00000000E+00  0.00000000E+00  0.00000000E+00
  0.00000000E+00  0.00000000E+00  0.00000000E+00
  0.00000000E+00  0.00000000E+00  0.00000000E+00
  0.00000000E+00  0.00000000E+00  0.00000000E+00
  0.00000000E+00  0.00000000E+00  0.00000000E+00
  0.00000000E+00  0.00000000E+00  0.00000000E+00
