Ba2 B2 F10                              
   1.00000000000000     
     4.5437178439956991    0.2640553596536809    2.1170322498807606
     1.2533570015433331    4.3754075840438746    2.1170323810576948
     0.0117734059062683    0.0094238081439991    8.4616666902712279
   Ba   B    F 
     2     2    10
Direct
  0.4999931144598548  0.5000068857871156  0.2500000000513154
  0.5000068855401452  0.4999931142128844  0.7499999999486846
  0.0000000000000000  0.0000000000000000  0.5000000000000000
  0.0000000000000000  0.0000000000000000  0.0000000000000000
  0.0606508719107026  0.6521445538220192  0.5718833192347503
  0.3478554460033934  0.9393481294646904  0.9281166799201230
  0.9393481280892999  0.3478554461779808  0.4281176807652542
  0.6521445539966066  0.0606508705353193  0.0718833200798770
  0.0000058789877215  0.9999941209381689  0.7500000000014850
  0.9999941210122785  0.0000058790618382  0.2499999999985150
  0.9394039944914852  0.3478305466647527  0.9281074782786192
  0.6521694516960821  0.0605960075193082  0.5718925212796293
  0.0605960055085148  0.6521694533352473  0.0718925217213808
  0.3478305483039179  0.9394039924806918  0.4281074787203707
 
  0.00000000E+00  0.00000000E+00  0.00000000E+00
  0.00000000E+00  0.00000000E+00  0.00000000E+00
  0.00000000E+00  0.00000000E+00  0.00000000E+00
  0.00000000E+00  0.00000000E+00  0.00000000E+00
  0.00000000E+00  0.00000000E+00  0.00000000E+00
  0.00000000E+00  0.00000000E+00  0.00000000E+00
  0.00000000E+00  0.00000000E+00  0.00000000E+00
  0.00000000E+00  0.00000000E+00  0.00000000E+00
  0.00000000E+00  0.00000000E+00  0.00000000E+00
  0.00000000E+00  0.00000000E+00  0.00000000E+00
  0.00000000E+00  0.00000000E+00  0.00000000E+00
  0.00000000E+00  0.00000000E+00  0.00000000E+00
  0.00000000E+00  0.00000000E+00  0.00000000E+00
  0.00000000E+00  0.00000000E+00  0.00000000E+00
