Ca8 Cl2                                 
   1.00000000000000     
     5.5028095904566152    0.0000000000000000    0.0000000000000000
     0.0000000000000000    5.5028095904566152    0.0000000000000000
     0.0000000000000000    0.0000000000000000   13.7109050724846693
   Ca   Cl
     8     2
Direct
  0.0000000000000000  0.0000000000000000  0.0000000000000000
  0.5000000000000000  0.5000000000000000  0.0000000000000000
  0.0000000000000000  0.0000000000000000  0.2988348258021176
  0.5000000000000000  0.5000000000000000  0.2988348258021176
  0.5000000000000000  0.0000000000000000  0.4998008836686836
  0.0000000000000000  0.5000000000000000  0.5001991163313164
  0.0000000000000000  0.0000000000000000  0.7011651741978824
  0.5000000000000000  0.5000000000000000  0.7011651741978824
  0.0000000000000000  0.5000000000000000  0.0198276819096748
  0.5000000000000000  0.0000000000000000  0.9801723180903252
 
  0.00000000E+00  0.00000000E+00  0.00000000E+00
  0.00000000E+00  0.00000000E+00  0.00000000E+00
  0.00000000E+00  0.00000000E+00  0.00000000E+00
  0.00000000E+00  0.00000000E+00  0.00000000E+00
  0.00000000E+00  0.00000000E+00  0.00000000E+00
  0.00000000E+00  0.00000000E+00  0.00000000E+00
  0.00000000E+00  0.00000000E+00  0.00000000E+00
  0.00000000E+00  0.00000000E+00  0.00000000E+00
  0.00000000E+00  0.00000000E+00  0.00000000E+00
  0.00000000E+00  0.00000000E+00  0.00000000E+00
