Ca10 Al38                               
   1.00000000000000     
     5.6004402659913595   -0.0002347291637167    0.0000144393554445
    -2.7999900700713276    4.8502476898720746   -0.0000095924912524
     0.0000834978544568   -0.0000140159801581   35.9420493596113175
   Ca   Al
    10    38
Direct
  0.3333478888533037  0.6666705022697599  0.0181045284746162
  0.3332996632906173  0.6666327176723073  0.1280235164595496
  0.3333199879835078  0.6664804971430129  0.2499887163766914
  0.3333179426727497  0.6666530816823055  0.3719329303753298
  0.3333255342441745  0.6666944290336048  0.4818489711660803
  0.6666632766798486  0.3333553099482316  0.5181335263255704
  0.6666734914498207  0.3333388386232272  0.6280405259131712
  0.6666594650036330  0.3333551013666423  0.7499839065127958
  0.6666985677790151  0.3333287364442725  0.8719262562831105
  0.6667033421341912  0.3333258183369026  0.9818207771794860
  0.0000224575876473  0.9999975049879595  0.9999692961913951
  0.8307110211379296  0.1692944235206681  0.0636079058727645
  0.3385617013028934  0.1692920593252865  0.0636092438586289
  0.8307058985628544  0.6614313619218635  0.0636089080923981
  0.9999665983175916  0.9999703560705839  0.1247913497737230
  0.6666425476304809  0.3332881870499236  0.1263310065352314
  0.8333085385192973  0.1665325645685698  0.1880315054809358
  0.8333153531691337  0.6665567023434917  0.1880300730800855
  0.3333006177677404  0.1665414840366850  0.1880302056380856
  0.9999837727095553  0.9998367764785314  0.2499844156559021
  0.6666534492944720  0.3331799429048914  0.2499831211983050
  0.3333127142921910  0.1665648473189805  0.3119339049257377
  0.8333336482720384  0.1665643715473237  0.3119338773983813
  0.8333294933212372  0.6665838321029938  0.3119338881145666
  0.6666531571593097  0.3333089362990052  0.3736258964448922
  0.9999837102938898  0.9999934390672109  0.3751697018800471
  0.8307002627925328  0.6614499229029320  0.4363457439258553
  0.8307023263258273  0.1693165054936188  0.4363472172250837
  0.3385605277738009  0.1693149846484090  0.4363456407705399
  0.9999952487298529  0.0000219824204493  0.4999896257968430
  0.6614298713561553  0.8307302070850255  0.5636324162356132
  0.1692877000402078  0.3385880821499967  0.5636319002058130
  0.1692927347281810  0.8307261540065838  0.5636317469115326
  0.0000114693225797  0.0000040665652250  0.6248068242793963
  0.3333359115140411  0.6666743903887635  0.6263498432465084
  0.6666793048987927  0.8333498808457591  0.6880373316237396
  0.1666600812504839  0.8333550437568960  0.6880375933278629
  0.1666597585683505  0.3333324992741851  0.6880374165308254
  0.9999909860201086  0.0000124795823453  0.7499850509419730
  0.3333353716333605  0.6666922184946174  0.7499847699827811
  0.1666673310153755  0.8333585857802390  0.8119317741795271
  0.1666621190670554  0.3333291836511307  0.8119316757571013
  0.6666891261955783  0.8333534500869817  0.8119327897327082
  0.3333551303143594  0.6666632000155559  0.8736135533109248
  0.0000462506087544  0.9999965337670886  0.8751609708488530
  0.1693388196409771  0.3385659358032456  0.9363294952545616
  0.1693384255577541  0.8306971111450636  0.9363304161906640
  0.6614674032167827  0.8306957600716487  0.9363282485138029
 
  0.00000000E+00  0.00000000E+00  0.00000000E+00
  0.00000000E+00  0.00000000E+00  0.00000000E+00
  0.00000000E+00  0.00000000E+00  0.00000000E+00
  0.00000000E+00  0.00000000E+00  0.00000000E+00
  0.00000000E+00  0.00000000E+00  0.00000000E+00
  0.00000000E+00  0.00000000E+00  0.00000000E+00
  0.00000000E+00  0.00000000E+00  0.00000000E+00
  0.00000000E+00  0.00000000E+00  0.00000000E+00
  0.00000000E+00  0.00000000E+00  0.00000000E+00
  0.00000000E+00  0.00000000E+00  0.00000000E+00
  0.00000000E+00  0.00000000E+00  0.00000000E+00
  0.00000000E+00  0.00000000E+00  0.00000000E+00
  0.00000000E+00  0.00000000E+00  0.00000000E+00
  0.00000000E+00  0.00000000E+00  0.00000000E+00
  0.00000000E+00  0.00000000E+00  0.00000000E+00
  0.00000000E+00  0.00000000E+00  0.00000000E+00
  0.00000000E+00  0.00000000E+00  0.00000000E+00
  0.00000000E+00  0.00000000E+00  0.00000000E+00
  0.00000000E+00  0.00000000E+00  0.00000000E+00
  0.00000000E+00  0.00000000E+00  0.00000000E+00
  0.00000000E+00  0.00000000E+00  0.00000000E+00
  0.00000000E+00  0.00000000E+00  0.00000000E+00
  0.00000000E+00  0.00000000E+00  0.00000000E+00
  0.00000000E+00  0.00000000E+00  0.00000000E+00
  0.00000000E+00  0.00000000E+00  0.00000000E+00
  0.00000000E+00  0.00000000E+00  0.00000000E+00
  0.00000000E+00  0.00000000E+00  0.00000000E+00
  0.00000000E+00  0.00000000E+00  0.00000000E+00
  0.00000000E+00  0.00000000E+00  0.00000000E+00
  0.00000000E+00  0.00000000E+00  0.00000000E+00
  0.00000000E+00  0.00000000E+00  0.00000000E+00
  0.00000000E+00  0.00000000E+00  0.00000000E+00
  0.00000000E+00  0.00000000E+00  0.00000000E+00
  0.00000000E+00  0.00000000E+00  0.00000000E+00
  0.00000000E+00  0.00000000E+00  0.00000000E+00
  0.00000000E+00  0.00000000E+00  0.00000000E+00
  0.00000000E+00  0.00000000E+00  0.00000000E+00
  0.00000000E+00  0.00000000E+00  0.00000000E+00
  0.00000000E+00  0.00000000E+00  0.00000000E+00
  0.00000000E+00  0.00000000E+00  0.00000000E+00
  0.00000000E+00  0.00000000E+00  0.00000000E+00
  0.00000000E+00  0.00000000E+00  0.00000000E+00
  0.00000000E+00  0.00000000E+00  0.00000000E+00
  0.00000000E+00  0.00000000E+00  0.00000000E+00
  0.00000000E+00  0.00000000E+00  0.00000000E+00
  0.00000000E+00  0.00000000E+00  0.00000000E+00
  0.00000000E+00  0.00000000E+00  0.00000000E+00
  0.00000000E+00  0.00000000E+00  0.00000000E+00
