Be1 F6                                  
   1.00000000000000     
     3.7384423700165041   -3.2526070056232315    0.0000000000000000
     3.7384423700165019    3.2526070056232319    0.0000000000000000
     0.0000000000000000    0.0000000000000000    5.0599473991635211
   Be   F 
     1     6
Direct
  0.0000000000000000  0.0000000000000000  0.0000000000000000
  0.0000000000000000  0.0000000000000000  0.2713641429294569
  0.0000000000000000  0.0000000000000000  0.7286358570705431
  0.4392092647060934  0.2207060708685304  0.0000000000000000
  0.5607907352939066  0.7792939291314696  0.0000000000000000
  0.2207060708685304  0.4392092647060934  0.0000000000000000
  0.7792939291314696  0.5607907352939066  0.0000000000000000
 
  0.00000000E+00  0.00000000E+00  0.00000000E+00
  0.00000000E+00  0.00000000E+00  0.00000000E+00
  0.00000000E+00  0.00000000E+00  0.00000000E+00
  0.00000000E+00  0.00000000E+00  0.00000000E+00
  0.00000000E+00  0.00000000E+00  0.00000000E+00
  0.00000000E+00  0.00000000E+00  0.00000000E+00
  0.00000000E+00  0.00000000E+00  0.00000000E+00
