Be16 B12 I1                             
   1.00000000000000     
     6.8295917041396637   -3.9431309708762297    2.7842681256346418
    -0.5703975931663420    6.2428029065313790    1.8595254413088933
    -5.6916856891439505   -2.6272552126353306    1.8597596695769303
   B    I    Be
    12     1    16
Direct
  0.8099177501239367  0.6176379351917376  0.9999445507602758
  0.6207928748837972  0.6776320842917656  0.0000998563295127
  0.2908580041964015  0.3668713386038860  0.1849239895144947
  0.1058643653455604  0.8153116895193264  0.1819501752693071
  0.9430189220081928  0.3221327772986839  0.3221328807876276
  0.2908579398056048  0.1849237065229801  0.3668714574542165
  0.1921208582094565  0.3820837479500199  0.3820835650207712
  0.8099179581764133  0.9999447170226148  0.6176383187613581
  0.9241111708805079  0.8183099046117164  0.6336021696572089
  0.6207928154859772  0.0000997481431568  0.6776320092184349
  0.9241114813068450  0.6336026976220310  0.8183101779808268
  0.1058640899691312  0.1819500290059679  0.8153111216777020
  0.4078802433408271  0.0001610661205191  0.0001610968593013
  0.9364534131762809  0.2131950119950048  0.9996913442020201
  0.7121035664928570  0.2793670574494485  0.9998942607954859
  0.3603271985561705  0.5353070010035026  0.9998483358233230
  0.0714973628191586  0.0002564234455065  0.0002574404236952
  0.6385171863082277  0.6549680234004569  0.3219845207371179
  0.7121034832922390  0.9998951579604451  0.2793669077186607
  0.9832673946688217  0.6669378318735397  0.3448277708565541
  0.9364530385458778  0.9996909764142927  0.2131944016125473
  0.8251033867827005  0.4648945047531328  0.4648947471887155
  0.3168905187400171  0.6783111602182998  0.3330800226736770
  0.9832675635551382  0.3448279524917481  0.6669380956076978
  0.3603269240714226  0.9998480946842818  0.5353065200776541
  0.7231166154011746  0.7864184986148857  0.7864188060233630
  0.6385170562612217  0.3219842740917045  0.6549679142149216
  0.4322563684540341  0.7203575013898913  0.7203576181851545
  0.3168904491420079  0.3330800883094582  0.6783109245683576
 
  0.00000000E+00  0.00000000E+00  0.00000000E+00
  0.00000000E+00  0.00000000E+00  0.00000000E+00
  0.00000000E+00  0.00000000E+00  0.00000000E+00
  0.00000000E+00  0.00000000E+00  0.00000000E+00
  0.00000000E+00  0.00000000E+00  0.00000000E+00
  0.00000000E+00  0.00000000E+00  0.00000000E+00
  0.00000000E+00  0.00000000E+00  0.00000000E+00
  0.00000000E+00  0.00000000E+00  0.00000000E+00
  0.00000000E+00  0.00000000E+00  0.00000000E+00
  0.00000000E+00  0.00000000E+00  0.00000000E+00
  0.00000000E+00  0.00000000E+00  0.00000000E+00
  0.00000000E+00  0.00000000E+00  0.00000000E+00
  0.00000000E+00  0.00000000E+00  0.00000000E+00
  0.00000000E+00  0.00000000E+00  0.00000000E+00
  0.00000000E+00  0.00000000E+00  0.00000000E+00
  0.00000000E+00  0.00000000E+00  0.00000000E+00
  0.00000000E+00  0.00000000E+00  0.00000000E+00
  0.00000000E+00  0.00000000E+00  0.00000000E+00
  0.00000000E+00  0.00000000E+00  0.00000000E+00
  0.00000000E+00  0.00000000E+00  0.00000000E+00
  0.00000000E+00  0.00000000E+00  0.00000000E+00
  0.00000000E+00  0.00000000E+00  0.00000000E+00
  0.00000000E+00  0.00000000E+00  0.00000000E+00
  0.00000000E+00  0.00000000E+00  0.00000000E+00
  0.00000000E+00  0.00000000E+00  0.00000000E+00
  0.00000000E+00  0.00000000E+00  0.00000000E+00
  0.00000000E+00  0.00000000E+00  0.00000000E+00
  0.00000000E+00  0.00000000E+00  0.00000000E+00
  0.00000000E+00  0.00000000E+00  0.00000000E+00
