Mg6 B4 F24                              
   1.00000000000000     
     8.4183943121775737    0.0993178686929229    0.0000000000000000
    -0.0911641359015984    9.6359756110199797    0.0000000000000000
     0.0000000000000000    0.0000000000000000    5.1087315969702543
   F    B    Mg
    24     4     6
Direct
  0.6082518566878079  0.2288492691350186  0.0000000000000000
  0.1085695525560695  0.2730814268742634  0.0000000000000000
  0.9561538607211659  0.7925946873053462  0.0000000000000000
  0.4563010525964941  0.7072791694941074  0.0000000000000000
  0.4686436111250032  0.9611623623730807  0.2620494296518316
  0.9700294475329656  0.5383515278657356  0.2620158389713509
  0.1348510245066734  0.0270078637307520  0.2488882032631921
  0.8378024347789648  0.2772091462331048  0.2243689301215497
  0.3374481093209241  0.2219849520608435  0.2244770671959202
  0.6365561308053032  0.4735640883514378  0.2488369381030040
  0.3039306964323174  0.4955722193025451  0.2461075278012856
  0.7313133944240491  0.7340342201165839  0.2260891610362350
  0.2311459255545500  0.7659447921216227  0.2260596430529063
  0.8023186796051647  0.0041153987463147  0.2460207227195497
  0.1348510245066734  0.0270078637307520  0.7511117967368079
  0.8378024347789648  0.2772091462331048  0.7756310698784503
  0.3374481093209241  0.2219849520608435  0.7755229328040798
  0.6365561308053032  0.4735640883514378  0.7511630618969889
  0.3039306964323174  0.4955722193025451  0.7538924721987144
  0.7313133944240491  0.7340342201165839  0.7739108389637579
  0.2311459255545500  0.7659447921216227  0.7739403569470866
  0.8023186796051647  0.0041153987463147  0.7539792772804503
  0.4686436111250032  0.9611623623730807  0.7379505703481684
  0.9700294475329656  0.5383515278657356  0.7379841610286491
  0.2572614746335589  0.2314777326311912  0.0000000000000000
  0.7574061915265062  0.2688650055887081  0.0000000000000000
  0.3059242425372446  0.7500596355060622  0.0000000000000000
  0.8059186779015022  0.7499887978404658  0.0000000000000000
  0.9716862218054985  0.0128553139195731  0.0000000000000000
  0.4731699230712110  0.4869808902602273  0.0000000000000000
  0.6462376001685826  0.9670331793640088  0.5000000000000000
  0.7992962288942280  0.4917906441906794  0.5000000000000000
  0.1476110299945717  0.5325516075582186  0.5000000000000000
  0.2977331787337434  0.0082994985280607  0.5000000000000000
 
  0.00000000E+00  0.00000000E+00  0.00000000E+00
  0.00000000E+00  0.00000000E+00  0.00000000E+00
  0.00000000E+00  0.00000000E+00  0.00000000E+00
  0.00000000E+00  0.00000000E+00  0.00000000E+00
  0.00000000E+00  0.00000000E+00  0.00000000E+00
  0.00000000E+00  0.00000000E+00  0.00000000E+00
  0.00000000E+00  0.00000000E+00  0.00000000E+00
  0.00000000E+00  0.00000000E+00  0.00000000E+00
  0.00000000E+00  0.00000000E+00  0.00000000E+00
  0.00000000E+00  0.00000000E+00  0.00000000E+00
  0.00000000E+00  0.00000000E+00  0.00000000E+00
  0.00000000E+00  0.00000000E+00  0.00000000E+00
  0.00000000E+00  0.00000000E+00  0.00000000E+00
  0.00000000E+00  0.00000000E+00  0.00000000E+00
  0.00000000E+00  0.00000000E+00  0.00000000E+00
  0.00000000E+00  0.00000000E+00  0.00000000E+00
  0.00000000E+00  0.00000000E+00  0.00000000E+00
  0.00000000E+00  0.00000000E+00  0.00000000E+00
  0.00000000E+00  0.00000000E+00  0.00000000E+00
  0.00000000E+00  0.00000000E+00  0.00000000E+00
  0.00000000E+00  0.00000000E+00  0.00000000E+00
  0.00000000E+00  0.00000000E+00  0.00000000E+00
  0.00000000E+00  0.00000000E+00  0.00000000E+00
  0.00000000E+00  0.00000000E+00  0.00000000E+00
  0.00000000E+00  0.00000000E+00  0.00000000E+00
  0.00000000E+00  0.00000000E+00  0.00000000E+00
  0.00000000E+00  0.00000000E+00  0.00000000E+00
  0.00000000E+00  0.00000000E+00  0.00000000E+00
  0.00000000E+00  0.00000000E+00  0.00000000E+00
  0.00000000E+00  0.00000000E+00  0.00000000E+00
  0.00000000E+00  0.00000000E+00  0.00000000E+00
  0.00000000E+00  0.00000000E+00  0.00000000E+00
  0.00000000E+00  0.00000000E+00  0.00000000E+00
  0.00000000E+00  0.00000000E+00  0.00000000E+00
