BeTl2                                   
   1.0000000000000000     
    -3.7099904637585563    3.7771181189748746    2.5945623161110434
     3.7771181189748746   -3.7099904637585563    2.5945623161110434
     3.4578186462454834    3.4578186462454834   -2.5170714600569819
   Be   Tl
     2     4
Direct
  0.2485757790888385  0.2514242209111615  0.0000000000000000
  0.7514242209111615  0.7485757790888385  0.0000000000000000
  0.3369435992482792  0.8369435992482792  0.1795252212958403
  0.1609782985002752  0.3390217014997248  0.5000000000000000
  0.8390217014997248  0.6609782985002752  0.5000000000000000
  0.6630564007517208  0.1630564007517208  0.8204747787041597

  0.00000000E+00  0.00000000E+00  0.00000000E+00
  0.00000000E+00  0.00000000E+00  0.00000000E+00
  0.00000000E+00  0.00000000E+00  0.00000000E+00
  0.00000000E+00  0.00000000E+00  0.00000000E+00
  0.00000000E+00  0.00000000E+00  0.00000000E+00
  0.00000000E+00  0.00000000E+00  0.00000000E+00
