Ba2 B2 I6                               
   1.00000000000000     
     2.2477990281613627   -7.4669185369221447    0.0000000000000000
     2.2477990281613627    7.4669185369221447    0.0000000000000000
     0.0000000000000000    0.0000000000000000   12.7175517784237044
   Ba   B    I 
     2     2     6
Direct
  0.0000000000000000  0.0000000000000000  0.0000000000000000
  0.0000000000000000  0.0000000000000000  0.5000000000000000
  0.2582691155732135  0.7417308844267865  0.2500000000000000
  0.7417308844267865  0.2582691155732135  0.7500000000000000
  0.6495405512024135  0.3504594487975865  0.0908605981848751
  0.3504594487975865  0.6495405512024135  0.9091394018151249
  0.3504594487975865  0.6495405512024135  0.5908605981848751
  0.6495405512024135  0.3504594487975865  0.4091394018151249
  0.8755628420445802  0.1244371579554198  0.2500000000000000
  0.1244371579554198  0.8755628420445802  0.7500000000000000
 
  0.00000000E+00  0.00000000E+00  0.00000000E+00
  0.00000000E+00  0.00000000E+00  0.00000000E+00
  0.00000000E+00  0.00000000E+00  0.00000000E+00
  0.00000000E+00  0.00000000E+00  0.00000000E+00
  0.00000000E+00  0.00000000E+00  0.00000000E+00
  0.00000000E+00  0.00000000E+00  0.00000000E+00
  0.00000000E+00  0.00000000E+00  0.00000000E+00
  0.00000000E+00  0.00000000E+00  0.00000000E+00
  0.00000000E+00  0.00000000E+00  0.00000000E+00
  0.00000000E+00  0.00000000E+00  0.00000000E+00
