SrTl3F                                  
   1.0000000000000000     
     5.2806227475340757   -0.0000000000000000    0.0000000000000000
     0.0000000000000000    5.2806227475340757   -0.0000000000000000
     0.0000000000000000   -0.0000000000000000    5.2806227475340757
   F    Sr   Tl
     1     1     3
Direct
  0.0000000000000000  0.0000000000000000  0.0000000000000000
  0.5000000000000000  0.5000000000000000  0.5000000000000000
  0.5000000000000000  0.0000000000000000  0.0000000000000000
  0.0000000000000000  0.5000000000000000  0.0000000000000000
  0.0000000000000000  0.0000000000000000  0.5000000000000000

  0.00000000E+00  0.00000000E+00  0.00000000E+00
  0.00000000E+00  0.00000000E+00  0.00000000E+00
  0.00000000E+00  0.00000000E+00  0.00000000E+00
  0.00000000E+00  0.00000000E+00  0.00000000E+00
  0.00000000E+00  0.00000000E+00  0.00000000E+00
