Ca4 B2 Cl10                             
   1.00000000000000     
     8.0204211079809351    0.0783306616010652    0.4829632742957093
     0.0783306616010652    8.0204211079809369    0.4829632742957093
     4.4532961922015692    4.4532961922015692    8.3780974666289172
   Cl   Ca   B 
    10     4     2
Direct
  0.5118608688402517  0.0053983041850998  0.0092977945659385
  0.0053983041850998  0.5118608688402517  0.0092977945659385
  0.7785336604490993  0.0618398356561869  0.1608548530446257
  0.3088794014000413  0.3088794014000413  0.2067670313429275
  0.4726228625370155  0.4726228625370155  0.4183690041401391
  0.0618398356561869  0.7785336604490993  0.1608548530446257
  0.0161762482894545  0.3666447508268433  0.6603869596142715
  0.4709684424037093  0.4709684424037093  0.7894202431932484
  0.7358696463647263  0.7358696463647263  0.8531256926798747
  0.3666447508268433  0.0161762482894545  0.6603869596142715
  0.1593365371157560  0.1593365371157560  0.0857639085526358
  0.6836194484871854  0.3487899420666025  0.9525310499604416
  0.3487899420666025  0.6836194484871854  0.9525310499604416
  0.7651001911841675  0.7651001911841675  0.0985360984606345
  0.5995380834267365  0.2149217767671345  0.4909383536299927
  0.2149217767671345  0.5995380834267365  0.4909383536299927
 
  0.00000000E+00  0.00000000E+00  0.00000000E+00
  0.00000000E+00  0.00000000E+00  0.00000000E+00
  0.00000000E+00  0.00000000E+00  0.00000000E+00
  0.00000000E+00  0.00000000E+00  0.00000000E+00
  0.00000000E+00  0.00000000E+00  0.00000000E+00
  0.00000000E+00  0.00000000E+00  0.00000000E+00
  0.00000000E+00  0.00000000E+00  0.00000000E+00
  0.00000000E+00  0.00000000E+00  0.00000000E+00
  0.00000000E+00  0.00000000E+00  0.00000000E+00
  0.00000000E+00  0.00000000E+00  0.00000000E+00
  0.00000000E+00  0.00000000E+00  0.00000000E+00
  0.00000000E+00  0.00000000E+00  0.00000000E+00
  0.00000000E+00  0.00000000E+00  0.00000000E+00
  0.00000000E+00  0.00000000E+00  0.00000000E+00
  0.00000000E+00  0.00000000E+00  0.00000000E+00
  0.00000000E+00  0.00000000E+00  0.00000000E+00
