Mg4 In8 I32                             
   1.00000000000000     
    -6.9659825841624610    6.9659825841624610   11.6804336766004546
     6.9659825841624610   -6.9659825841624610   11.6804336766004546
     6.9659825841624610    6.9659825841624610  -11.6804336766004546
   Mg   In   I 
     4     8    32
Direct
  0.0000000000000000  0.0000000000000000  0.0000000000000000
  0.7500000000000000  0.2500000000000000  0.5000000000000000
  0.2500000000000000  0.7500000000000000  0.5000000000000000
  0.5000000000000000  0.5000000000000000  0.0000000000000000
  0.5749185326332125  0.8750000000000000  0.1999185326332125
  0.1250000000000000  0.8249185326332125  0.1999185326332125
  0.1250000000000000  0.3249185326332125  0.6999185326332125
  0.6750814673667875  0.3750000000000000  0.8000814673667875
  0.6250000000000000  0.9250814673667875  0.8000814673667875
  0.0749185326332125  0.8750000000000000  0.6999185326332125
  0.1750814673667875  0.3750000000000000  0.3000814673667875
  0.6250000000000000  0.4250814673667875  0.3000814673667875
  0.6078164808073652  0.2126263752072077  0.2455667496396856
  0.1122497311676796  0.8578164808073652  0.8951901056001645
  0.7829403744324850  0.8877502688323204  0.7455667496396856
  0.2989182784982489  0.2428188859507685  0.2319160969544640
  0.7989182784982489  0.5670021815437920  0.0561003925474921
  0.8170021815437920  0.5489182784982489  0.5561003925474921
  0.1421835191926348  0.0373736247927923  0.2544332503603144
  0.9626263752072077  0.2170596255675150  0.1048098943998355
  0.4670596255675150  0.7126263752072077  0.6048098943998355
  0.2571811140492315  0.2010817215017511  0.7680839030455360
  0.0109017889962928  0.0670021815437920  0.7680839030455360
  0.9510817215017511  0.6829978184562080  0.4438996074525079
  0.9329978184562080  0.7010817215017511  0.9438996074525079
  0.1377502688323204  0.5329403744324850  0.2455667496396856
  0.2829403744324850  0.5373736247927923  0.8951901056001645
  0.6122497311676796  0.7170596255675150  0.2544332503603144
  0.7390982110037072  0.1829978184562080  0.7319160969544640
  0.2873736247927923  0.8921835191926348  0.7544332503603144
  0.4626263752072077  0.3578164808073652  0.7455667496396856
  0.9670596255675150  0.3622497311676796  0.7544332503603144
  0.3170021815437920  0.7609017889962928  0.2680839030455360
  0.4329978184562080  0.4890982110037072  0.2319160969544640
  0.6377502688323204  0.3921835191926348  0.6048098943998355
  0.6421835191926348  0.3877502688323204  0.1048098943998355
  0.2390982110037072  0.5071811140492315  0.5561003925474921
  0.4510817215017511  0.0071811140492315  0.2680839030455360
  0.1078164808073652  0.8622497311676796  0.3951901056001645
  0.4928188859507685  0.0489182784982489  0.7319160969544640
  0.5109017889962928  0.7428188859507685  0.9438996074525079
  0.9928188859507685  0.2609017889962928  0.4438996074525079
  0.7873736247927923  0.0329403744324850  0.3951901056001645
  0.7571811140492315  0.9890982110037072  0.0561003925474921
 
  0.00000000E+00  0.00000000E+00  0.00000000E+00
  0.00000000E+00  0.00000000E+00  0.00000000E+00
  0.00000000E+00  0.00000000E+00  0.00000000E+00
  0.00000000E+00  0.00000000E+00  0.00000000E+00
  0.00000000E+00  0.00000000E+00  0.00000000E+00
  0.00000000E+00  0.00000000E+00  0.00000000E+00
  0.00000000E+00  0.00000000E+00  0.00000000E+00
  0.00000000E+00  0.00000000E+00  0.00000000E+00
  0.00000000E+00  0.00000000E+00  0.00000000E+00
  0.00000000E+00  0.00000000E+00  0.00000000E+00
  0.00000000E+00  0.00000000E+00  0.00000000E+00
  0.00000000E+00  0.00000000E+00  0.00000000E+00
  0.00000000E+00  0.00000000E+00  0.00000000E+00
  0.00000000E+00  0.00000000E+00  0.00000000E+00
  0.00000000E+00  0.00000000E+00  0.00000000E+00
  0.00000000E+00  0.00000000E+00  0.00000000E+00
  0.00000000E+00  0.00000000E+00  0.00000000E+00
  0.00000000E+00  0.00000000E+00  0.00000000E+00
  0.00000000E+00  0.00000000E+00  0.00000000E+00
  0.00000000E+00  0.00000000E+00  0.00000000E+00
  0.00000000E+00  0.00000000E+00  0.00000000E+00
  0.00000000E+00  0.00000000E+00  0.00000000E+00
  0.00000000E+00  0.00000000E+00  0.00000000E+00
  0.00000000E+00  0.00000000E+00  0.00000000E+00
  0.00000000E+00  0.00000000E+00  0.00000000E+00
  0.00000000E+00  0.00000000E+00  0.00000000E+00
  0.00000000E+00  0.00000000E+00  0.00000000E+00
  0.00000000E+00  0.00000000E+00  0.00000000E+00
  0.00000000E+00  0.00000000E+00  0.00000000E+00
  0.00000000E+00  0.00000000E+00  0.00000000E+00
  0.00000000E+00  0.00000000E+00  0.00000000E+00
  0.00000000E+00  0.00000000E+00  0.00000000E+00
  0.00000000E+00  0.00000000E+00  0.00000000E+00
  0.00000000E+00  0.00000000E+00  0.00000000E+00
  0.00000000E+00  0.00000000E+00  0.00000000E+00
  0.00000000E+00  0.00000000E+00  0.00000000E+00
  0.00000000E+00  0.00000000E+00  0.00000000E+00
  0.00000000E+00  0.00000000E+00  0.00000000E+00
  0.00000000E+00  0.00000000E+00  0.00000000E+00
  0.00000000E+00  0.00000000E+00  0.00000000E+00
  0.00000000E+00  0.00000000E+00  0.00000000E+00
  0.00000000E+00  0.00000000E+00  0.00000000E+00
  0.00000000E+00  0.00000000E+00  0.00000000E+00
  0.00000000E+00  0.00000000E+00  0.00000000E+00
