Sr17 B11 F1                             
   1.00000000000000     
     6.4017962128659764   -5.6567605743114573    2.3856735274210279
     0.5575459013997583   13.2892885305154849    4.2615877556670210
    -7.5423197632069767   -6.5116431761877136    3.3207857938027270
   B    F    Sr
    11     1    17
Direct
  0.5585576270059960  0.9993590085838591  0.9708074279024075
  0.4008254993308782  0.2629741392599882  0.2534472574534519
  0.3052674113195977  0.8583684078446012  0.2882496705077173
  0.7370031505190724  0.0416349293539540  0.0949984331772455
  0.4002698209169893  0.3909026231932131  0.4008833446939803
  0.2652400787734521  0.2292250577566008  0.3497852424567753
  0.8947776259002325  0.8007024944842982  0.6238336941636859
  0.8801053403889654  0.9060147217823697  0.6013141055523121
  0.7711839655566166  0.0877695833366516  0.9726117407924448
  0.1306987186584720  0.5526600266402042  0.6624476669172950
  0.0771892347105876  0.9668472380684747  0.7295960906608485
  0.8026882724523077  0.4892741885766227  0.2441777088394232
  0.0932197484589636  0.2156498613877602  0.8783672156725686
  0.4072493852980088  0.7641310838032993  0.0103781022716802
  0.9476825242353044  0.7206039184877469  0.0370976420249391
  0.5533070856796769  0.2183105050571399  0.0015450988189727
  0.0232114743353549  0.0115675443546479  0.0105008175865748
  0.6396404594582350  0.6101751407325935  0.2900274210485492
  0.1168135616251931  0.6029457253997066  0.2366276586386249
  0.4711149140374005  0.0897972241445046  0.2612833147424212
  0.8847175675240564  0.0418005739940881  0.3493022903991232
  0.5994896951466799  0.9615393378117787  0.5855214047551485
  0.7747059297934555  0.5047109045249272  0.4939321598628936
  0.2262411803270581  0.0259157394259333  0.5311605516266553
  0.0560253688323300  0.3402661071450837  0.3282700034887043
  0.5373443557154403  0.7020603468492510  0.6505776482347869
  0.2006278542526232  0.8106172010035593  0.7317484295265615
  0.8849333755338975  0.3716738106730872  0.7227707702540584
  0.3602827742131822  0.4206585563240353  0.6887370879301358
 
  0.00000000E+00  0.00000000E+00  0.00000000E+00
  0.00000000E+00  0.00000000E+00  0.00000000E+00
  0.00000000E+00  0.00000000E+00  0.00000000E+00
  0.00000000E+00  0.00000000E+00  0.00000000E+00
  0.00000000E+00  0.00000000E+00  0.00000000E+00
  0.00000000E+00  0.00000000E+00  0.00000000E+00
  0.00000000E+00  0.00000000E+00  0.00000000E+00
  0.00000000E+00  0.00000000E+00  0.00000000E+00
  0.00000000E+00  0.00000000E+00  0.00000000E+00
  0.00000000E+00  0.00000000E+00  0.00000000E+00
  0.00000000E+00  0.00000000E+00  0.00000000E+00
  0.00000000E+00  0.00000000E+00  0.00000000E+00
  0.00000000E+00  0.00000000E+00  0.00000000E+00
  0.00000000E+00  0.00000000E+00  0.00000000E+00
  0.00000000E+00  0.00000000E+00  0.00000000E+00
  0.00000000E+00  0.00000000E+00  0.00000000E+00
  0.00000000E+00  0.00000000E+00  0.00000000E+00
  0.00000000E+00  0.00000000E+00  0.00000000E+00
  0.00000000E+00  0.00000000E+00  0.00000000E+00
  0.00000000E+00  0.00000000E+00  0.00000000E+00
  0.00000000E+00  0.00000000E+00  0.00000000E+00
  0.00000000E+00  0.00000000E+00  0.00000000E+00
  0.00000000E+00  0.00000000E+00  0.00000000E+00
  0.00000000E+00  0.00000000E+00  0.00000000E+00
  0.00000000E+00  0.00000000E+00  0.00000000E+00
  0.00000000E+00  0.00000000E+00  0.00000000E+00
  0.00000000E+00  0.00000000E+00  0.00000000E+00
  0.00000000E+00  0.00000000E+00  0.00000000E+00
  0.00000000E+00  0.00000000E+00  0.00000000E+00
