BaIn                                    
   1.0000000000000000     
     0.0000000000000000    0.0000000000000000   -5.6797916891633848
    -4.1572929137987220   -6.3669284467927572    0.0000000000000000
    -4.1572929137987220    6.3669284467927572   -0.0000000000000000
   Ba   In
     4     4
Direct
  0.7500000000000000  0.8744509714663167  0.1255490285336833
  0.2500000000000000  0.6754188497359266  0.3245811502640734
  0.7500000000000000  0.3245811502640734  0.6754188497359266
  0.2500000000000000  0.1255490285336833  0.8744509714663167
  0.7500000000000000  0.3779318958399998  0.2201967138959162
  0.2500000000000000  0.2201967138959162  0.3779318958399998
  0.7500000000000000  0.7798032861040838  0.6220681041600145
  0.2500000000000000  0.6220681041600145  0.7798032861040838

  0.00000000E+00  0.00000000E+00  0.00000000E+00
  0.00000000E+00  0.00000000E+00  0.00000000E+00
  0.00000000E+00  0.00000000E+00  0.00000000E+00
  0.00000000E+00  0.00000000E+00  0.00000000E+00
  0.00000000E+00  0.00000000E+00  0.00000000E+00
  0.00000000E+00  0.00000000E+00  0.00000000E+00
  0.00000000E+00  0.00000000E+00  0.00000000E+00
  0.00000000E+00  0.00000000E+00  0.00000000E+00
