Be4 Al4 Br20                            
   1.0000000000000000     
     0.0000000000000000   13.8137189653946511   -4.1394347745668130
    11.1592029088742120    0.0000000000000000    0.0000000000000000
     0.0000000000000000    7.8870049572291201  -12.0083304426450823
   Be   Al   Br
     4     4    20
Direct
  0.1674460917806826  0.3548157990524317  0.3823985208672909
  0.8325539082193174  0.8548157990524317  0.6176014791327162
  0.7625323694057613  0.0363507622150863  0.0791788276100576
  0.2374676305942387  0.5363507622150934  0.9208211723899424
  0.6081428077316673  0.7990320751747788  0.2072441965514287
  0.3918571922683327  0.2990320751747717  0.7927558034485713
  0.0947978645962877  0.6891734428506595  0.4407967369580277
  0.9052021354037123  0.1891734428506595  0.5592032630419723
  0.0949439093785145  0.1932088520192821  0.5246960689314690
  0.0778156832515435  0.5102159663053456  0.5418083928052511
  0.9221843167484494  0.0102159663053456  0.4581916071947489
  0.7050074439887553  0.6390766339907827  0.0604853003236201
  0.1284463026001248  0.6896706476031582  0.0148042496707816
  0.5978025833202878  0.9729664769685016  0.1125095965221590
  0.6884129574061930  0.2318453730035372  0.7867033359298645
  0.4016152608902246  0.7807932198106613  0.4487323433700894
  0.8715536973998823  0.1896706476031582  0.9851957503292184
  0.9910843601405332  0.8376777894346930  0.6182689982611791
  0.4021974166797051  0.4729664769684945  0.8874904034778410
  0.9050560906214784  0.6932088520192963  0.4753039310685310
  0.6202409996799787  0.8632508007254458  0.8129364034834907
  0.7917569731682050  0.8995211408456214  0.1606543705025771
  0.0089156398594739  0.3376777894347001  0.3817310017388138
  0.3115870425938070  0.7318453730035515  0.2132966640701355
  0.2949925560112305  0.1390766339907898  0.9395146996763657
  0.2082430268318021  0.3995211408456214  0.8393456294974300
  0.5983847391097754  0.2807932198106613  0.5512676566299035
  0.3797590003200142  0.3632508007254458  0.1870635965165093

  0.00000000E+00  0.00000000E+00  0.00000000E+00
  0.00000000E+00  0.00000000E+00  0.00000000E+00
  0.00000000E+00  0.00000000E+00  0.00000000E+00
  0.00000000E+00  0.00000000E+00  0.00000000E+00
  0.00000000E+00  0.00000000E+00  0.00000000E+00
  0.00000000E+00  0.00000000E+00  0.00000000E+00
  0.00000000E+00  0.00000000E+00  0.00000000E+00
  0.00000000E+00  0.00000000E+00  0.00000000E+00
  0.00000000E+00  0.00000000E+00  0.00000000E+00
  0.00000000E+00  0.00000000E+00  0.00000000E+00
  0.00000000E+00  0.00000000E+00  0.00000000E+00
  0.00000000E+00  0.00000000E+00  0.00000000E+00
  0.00000000E+00  0.00000000E+00  0.00000000E+00
  0.00000000E+00  0.00000000E+00  0.00000000E+00
  0.00000000E+00  0.00000000E+00  0.00000000E+00
  0.00000000E+00  0.00000000E+00  0.00000000E+00
  0.00000000E+00  0.00000000E+00  0.00000000E+00
  0.00000000E+00  0.00000000E+00  0.00000000E+00
  0.00000000E+00  0.00000000E+00  0.00000000E+00
  0.00000000E+00  0.00000000E+00  0.00000000E+00
  0.00000000E+00  0.00000000E+00  0.00000000E+00
  0.00000000E+00  0.00000000E+00  0.00000000E+00
  0.00000000E+00  0.00000000E+00  0.00000000E+00
  0.00000000E+00  0.00000000E+00  0.00000000E+00
  0.00000000E+00  0.00000000E+00  0.00000000E+00
  0.00000000E+00  0.00000000E+00  0.00000000E+00
  0.00000000E+00  0.00000000E+00  0.00000000E+00
  0.00000000E+00  0.00000000E+00  0.00000000E+00
