Ba3 Al8                                 
   1.00000000000000     
    -4.8338239929363800   -0.0002929216558883   -0.0008218775110368
    -0.0003809148721429   -4.5933129589932378    0.0000218311592950
     2.4200236981960246    2.2962473824596636   13.6959378061550243
   Ba   Al
     3     8
Direct
  0.0000296453402413  0.9999832822552435  0.9999626592145745
  0.1504197283394930  0.6507316800258849  0.3015130000196891
  0.8495677417405290  0.3491842593063836  0.6984167787941118
  0.5491249271481351  0.5502554716519299  0.0993473473817517
  0.5960951217922741  0.0972365765829153  0.1938598399571774
  0.6948516536759826  0.1951675213193411  0.3915455687360279
  0.7515375351059106  0.7494925974201223  0.5009147702892207
  0.2483977974146043  0.2504147745396850  0.4990144230938753
  0.3050906426680555  0.8047410392888281  0.6083849258940930
  0.4039147818052768  0.9027030457958176  0.8060637304313332
  0.4509704249695119  0.4496897518138496  0.9005769561881394
 
  0.00000000E+00  0.00000000E+00  0.00000000E+00
  0.00000000E+00  0.00000000E+00  0.00000000E+00
  0.00000000E+00  0.00000000E+00  0.00000000E+00
  0.00000000E+00  0.00000000E+00  0.00000000E+00
  0.00000000E+00  0.00000000E+00  0.00000000E+00
  0.00000000E+00  0.00000000E+00  0.00000000E+00
  0.00000000E+00  0.00000000E+00  0.00000000E+00
  0.00000000E+00  0.00000000E+00  0.00000000E+00
  0.00000000E+00  0.00000000E+00  0.00000000E+00
  0.00000000E+00  0.00000000E+00  0.00000000E+00
  0.00000000E+00  0.00000000E+00  0.00000000E+00
