Al6 I4                                  
   1.00000000000000     
    -4.5748699246874489   -0.0398204211115647   -0.7045295929422898
     2.2588075082161292   -3.9772109530864337    0.7508754842652813
    -0.4618467277341307    0.0122592135192392   19.3054072820251683
   I    Al
     4     6
Direct
  0.3713910190183540  0.5385209222239951  0.1067150277693116
  0.1529620505240743  0.7987020273042518  0.3944761352672543
  0.8469547773030897  0.2013056890143545  0.6054690679184773
  0.6287330079508919  0.4616349712517689  0.8934423009568206
  0.2620748779399946  0.1672042173293207  0.2504359440032005
  0.9422033277063662  0.5009695453980427  0.2750658920777411
  0.5824247468476855  0.8331128766138249  0.2264814181668839
  0.4176606039222932  0.1668893996294187  0.7736994434780371
  0.0576787264428944  0.4988768249718731  0.7249113163141701
  0.7379168623443562  0.8327835262631424  0.7496034540480991
 
  0.00000000E+00  0.00000000E+00  0.00000000E+00
  0.00000000E+00  0.00000000E+00  0.00000000E+00
  0.00000000E+00  0.00000000E+00  0.00000000E+00
  0.00000000E+00  0.00000000E+00  0.00000000E+00
  0.00000000E+00  0.00000000E+00  0.00000000E+00
  0.00000000E+00  0.00000000E+00  0.00000000E+00
  0.00000000E+00  0.00000000E+00  0.00000000E+00
  0.00000000E+00  0.00000000E+00  0.00000000E+00
  0.00000000E+00  0.00000000E+00  0.00000000E+00
  0.00000000E+00  0.00000000E+00  0.00000000E+00
