Mg16 Tl13                               
   1.0000000000000000     
     8.0443759740803351   -5.2352236113143107    3.2015255645369631
    -0.6056267493316642    9.7109742480533470    3.7551792878115378
    -7.3671612398506756   -4.0671647520490577    3.1230874861211628
   Tl   Mg
    13    16
Direct
  0.4355441617772442  0.7835310382990528  0.0562766291051204
  0.7864013627096682  0.7691595274009302  0.0091213073739453
  0.6257784780374962  0.3677677481868784  0.0111683961619491
  0.3958455487413772  0.2989593890039615  0.2255925197561268
  0.2063692892550435  0.9225561276676544  0.1991092675711599
  0.8017111553793157  0.1768246063759307  0.1973827678341564
  0.5768402192815572  0.3645422462692309  0.6356712653496572
  0.2251214252169049  0.4452202406290482  0.4078757080359594
  0.7858434589546377  0.9675248826920892  0.5332689979884222
  0.9833105553483747  0.7926970852663686  0.4148694307970899
  0.5687501155382080  0.9017494075751316  0.7854165838904734
  0.9955601432370997  0.5736921417594942  0.8652893641191639
  0.1946631758120390  0.1676571708219825  0.7815677218662458
  0.3974646850920962  0.0351346402178478  0.9763915693258269
  0.0009330467025066  0.8365377963704432  0.7807554544711195
  0.9888209356424724  0.1058407936383361  0.0057919651130049
  0.2029012005017421  0.4427004125663743  0.0314601733905491
  0.6029083377417237  0.6315566790612692  0.2241203370108735
  0.5903035877942671  0.1123856868437301  0.3909172689209726
  0.9998961836290192  0.5281491480368388  0.2013548605353250
  0.0899546998655367  0.1104036621658793  0.3924354866468462
  0.7926886689475978  0.4766591296957827  0.4411440311836117
  0.3897696830989759  0.7620507355816528  0.3797747541376708
  0.0007888513036889  0.3236651490973799  0.6035356889213404
  0.3689398491135165  0.0355127127504318  0.6107550342448747
  0.6149486423589536  0.6505743891803917  0.5848938391592213
  0.7867065069671213  0.2326423230672745  0.8179464072657368
  0.1917007569543188  0.6867124868226142  0.6493953942483373
  0.3992052749974491  0.4977526429560371  0.7867207755751835

  0.00000000E+00  0.00000000E+00  0.00000000E+00
  0.00000000E+00  0.00000000E+00  0.00000000E+00
  0.00000000E+00  0.00000000E+00  0.00000000E+00
  0.00000000E+00  0.00000000E+00  0.00000000E+00
  0.00000000E+00  0.00000000E+00  0.00000000E+00
  0.00000000E+00  0.00000000E+00  0.00000000E+00
  0.00000000E+00  0.00000000E+00  0.00000000E+00
  0.00000000E+00  0.00000000E+00  0.00000000E+00
  0.00000000E+00  0.00000000E+00  0.00000000E+00
  0.00000000E+00  0.00000000E+00  0.00000000E+00
  0.00000000E+00  0.00000000E+00  0.00000000E+00
  0.00000000E+00  0.00000000E+00  0.00000000E+00
  0.00000000E+00  0.00000000E+00  0.00000000E+00
  0.00000000E+00  0.00000000E+00  0.00000000E+00
  0.00000000E+00  0.00000000E+00  0.00000000E+00
  0.00000000E+00  0.00000000E+00  0.00000000E+00
  0.00000000E+00  0.00000000E+00  0.00000000E+00
  0.00000000E+00  0.00000000E+00  0.00000000E+00
  0.00000000E+00  0.00000000E+00  0.00000000E+00
  0.00000000E+00  0.00000000E+00  0.00000000E+00
  0.00000000E+00  0.00000000E+00  0.00000000E+00
  0.00000000E+00  0.00000000E+00  0.00000000E+00
  0.00000000E+00  0.00000000E+00  0.00000000E+00
  0.00000000E+00  0.00000000E+00  0.00000000E+00
  0.00000000E+00  0.00000000E+00  0.00000000E+00
  0.00000000E+00  0.00000000E+00  0.00000000E+00
  0.00000000E+00  0.00000000E+00  0.00000000E+00
  0.00000000E+00  0.00000000E+00  0.00000000E+00
  0.00000000E+00  0.00000000E+00  0.00000000E+00
