Mg2 B2 F10                              
   1.0000000000000000     
     3.0705005425677787   -0.0000000000000000    0.0000000000000002
    -0.0000000000000005    7.4709649847995623    0.0000000000000005
     0.0000000000000000   -0.0000000000000000    7.3095763148334250
   Mg   B    F 
     2     2    10
Direct
  0.0000000000000000  0.0000000000000000  0.5000000000000000
  0.5000000000000000  0.5000000000000000  0.0000000000000000
  0.5000000000000000  0.0000000000000000  0.0000000000000000
  0.0000000000000000  0.5000000000000000  0.5000000000000000
  0.5000000000000000  0.8338886248450663  0.5000000000000000
  0.5000000000000000  0.1661113751549337  0.5000000000000000
  0.5000000000000000  0.0000000000000000  0.1894424277907021
  0.5000000000000000  0.0000000000000000  0.8105575722092979
  0.0000000000000000  0.0000000000000000  0.0000000000000000
  0.0000000000000000  0.3338886248450663  0.0000000000000000
  0.0000000000000000  0.6661113751549337  0.0000000000000000
  0.0000000000000000  0.5000000000000000  0.6894424277907021
  0.0000000000000000  0.5000000000000000  0.3105575722092979
  0.5000000000000000  0.5000000000000000  0.5000000000000000

  0.00000000E+00  0.00000000E+00  0.00000000E+00
  0.00000000E+00  0.00000000E+00  0.00000000E+00
  0.00000000E+00  0.00000000E+00  0.00000000E+00
  0.00000000E+00  0.00000000E+00  0.00000000E+00
  0.00000000E+00  0.00000000E+00  0.00000000E+00
  0.00000000E+00  0.00000000E+00  0.00000000E+00
  0.00000000E+00  0.00000000E+00  0.00000000E+00
  0.00000000E+00  0.00000000E+00  0.00000000E+00
  0.00000000E+00  0.00000000E+00  0.00000000E+00
  0.00000000E+00  0.00000000E+00  0.00000000E+00
  0.00000000E+00  0.00000000E+00  0.00000000E+00
  0.00000000E+00  0.00000000E+00  0.00000000E+00
  0.00000000E+00  0.00000000E+00  0.00000000E+00
  0.00000000E+00  0.00000000E+00  0.00000000E+00
