Ba1 B13                                 
   1.00000000000000     
     5.0033436456215643   -3.2536198455898724   -1.6641743743885293
     5.0033436456215643    3.2536198455898724   -1.6641743743885293
    -2.5876029227366755    0.0000000000000000    5.8019762291783845
   Ba   B 
     1    13
Direct
  0.9999640526915670  0.9999640526915670  0.9999174264425363
  0.6412533701889771  0.6412533701889771  0.9376605135999085
  0.5272555111875690  0.2445427553164805  0.3424751752583575
  0.2445427553164805  0.5272555111875690  0.3424751752583575
  0.9296973067862382  0.6869411553274318  0.2575908113402647
  0.6869411553274318  0.9296973067862382  0.2575908113402647
  0.5475275096700898  0.5475275096700898  0.3670136067132432
  0.0000029983028753  0.0000029983028753  0.4999880630646345
  0.4524534135045286  0.4524534135045286  0.6330144679635055
  0.3130776067460062  0.0702823917960487  0.7424228811079061
  0.0702823917960487  0.3130776067460062  0.7424228811079061
  0.7554393455947164  0.4727101162369181  0.6575322907223082
  0.4727101162369181  0.7554393455947164  0.6575322907223082
  0.3587414666505708  0.3587414666505708  0.0623636053584846
 
  0.00000000E+00  0.00000000E+00  0.00000000E+00
  0.00000000E+00  0.00000000E+00  0.00000000E+00
  0.00000000E+00  0.00000000E+00  0.00000000E+00
  0.00000000E+00  0.00000000E+00  0.00000000E+00
  0.00000000E+00  0.00000000E+00  0.00000000E+00
  0.00000000E+00  0.00000000E+00  0.00000000E+00
  0.00000000E+00  0.00000000E+00  0.00000000E+00
  0.00000000E+00  0.00000000E+00  0.00000000E+00
  0.00000000E+00  0.00000000E+00  0.00000000E+00
  0.00000000E+00  0.00000000E+00  0.00000000E+00
  0.00000000E+00  0.00000000E+00  0.00000000E+00
  0.00000000E+00  0.00000000E+00  0.00000000E+00
  0.00000000E+00  0.00000000E+00  0.00000000E+00
  0.00000000E+00  0.00000000E+00  0.00000000E+00
