Ca16 Ga16 F80                           
   1.0000000000000000     
    13.7586875135600071    0.0000002446489332    0.0000000000000009
    -0.0000002446489339   13.7586875135600071    0.0000000000000009
     0.0000000000000000    0.0000000000000000    7.4208031622094728
   Ca   Ga   F 
    16    16    80
Direct
  0.5384555607267103  0.7194846093369591  0.4811803616230392
  0.2194846093369520  0.9615444392732897  0.9811803616230250
  0.7805153906630409  0.0384555607267103  0.9811803616230250
  0.4615444392732968  0.2805153906630409  0.4811803616230392
  0.2586958813813283  0.0961006761795318  0.5031250214392813
  0.5961006761795247  0.2413041186186717  0.0031250214392884
  0.4038993238204682  0.7586958813813283  0.0031250214392884
  0.7413041186186717  0.9038993238204753  0.5031250214392813
  0.0384555607267103  0.2194846093369520  0.9811803616230250
  0.7194846093369591  0.4615444392732968  0.4811803616230392
  0.2805153906630409  0.5384555607267103  0.4811803616230392
  0.9615444392732897  0.7805153906630409  0.9811803616230250
  0.7586958813813283  0.5961006761795247  0.0031250214392884
  0.0961006761795318  0.7413041186186717  0.5031250214392813
  0.9038993238204753  0.2586958813813283  0.5031250214392813
  0.2413041186186717  0.4038993238204682  0.0031250214392884
  0.0000000000000000  0.0000000000000000  0.6306397381913058
  0.0000000000000000  0.0000000000000000  0.1355401450498448
  0.5000000000000000  0.0000000000000000  0.0082711858312052
  0.5000000000000000  0.0000000000000000  0.5082711858311981
  0.3216122429230097  0.1845296730692780  0.0384885537098185
  0.6845296730692709  0.1783877570769903  0.5384885537098114
  0.3154703269307220  0.8216122429230097  0.5384885537098114
  0.6783877570769903  0.8154703269307291  0.0384885537098185
  0.5000000000000000  0.5000000000000000  0.1306397381913129
  0.5000000000000000  0.5000000000000000  0.6355401450498377
  0.0000000000000000  0.5000000000000000  0.5082711858311981
  0.0000000000000000  0.5000000000000000  0.0082711858312052
  0.8216122429230097  0.6845296730692709  0.5384885537098114
  0.1845296730692780  0.6783877570769903  0.0384885537098185
  0.8154703269307291  0.3216122429230097  0.0384885537098185
  0.1783877570769903  0.3154703269307220  0.5384885537098114
  0.0000000000000000  0.0000000000000000  0.8800204190267422
  0.0000000000000000  0.0000000000000000  0.3807499780195158
  0.1357710897907154  0.0241884074909606  0.6447952807424571
  0.5241884074909748  0.3642289102092846  0.1447952807424571
  0.4758115925090181  0.6357710897907154  0.1447952807424571
  0.8642289102092846  0.9758115925090252  0.6447952807424571
  0.1099280901726090  0.0791184202638675  0.1054304866839502
  0.5791184202638675  0.3900719098273910  0.6054304866839288
  0.4208815797361254  0.6099280901726161  0.6054304866839288
  0.8900719098273839  0.9208815797361325  0.1054304866839502
  0.5000000000000000  0.0000000000000000  0.7582623750182833
  0.5000000000000000  0.0000000000000000  0.2582623750182833
  0.4537243528069226  0.1333972795477223  0.0042786087121272
  0.6333972795477223  0.0462756471930774  0.5042786087121272
  0.3666027204522777  0.9537243528069226  0.5042786087121272
  0.5462756471930774  0.8666027204522777  0.0042786087121272
  0.4333881110367983  0.1189597932344313  0.5106611405527914
  0.6189597932344313  0.0666118889631946  0.0106611405527772
  0.3810402067655758  0.9333881110367983  0.0106611405527772
  0.5666118889632017  0.8810402067655687  0.5106611405527914
  0.3596189943242365  0.2942841576171773  0.9034870551869787
  0.7942841576171702  0.1403810056757635  0.4034870551869787
  0.2057158423828227  0.8596189943242365  0.4034870551869787
  0.6403810056757635  0.7057158423828298  0.9034870551869787
  0.3710392847192807  0.2475609824721587  0.2432907567448979
  0.7475609824721587  0.1289607152807193  0.7432907567448979
  0.2524390175278484  0.8710392847192807  0.7432907567448979
  0.6289607152807193  0.7524390175278413  0.2432907567448979
  0.2829939268828028  0.1013210858858358  0.8434925581196353
  0.6013210858858429  0.2170060731172043  0.3434925581196495
  0.3986789141141642  0.7829939268828241  0.3434925581196495
  0.7170060731171759  0.8986789141141571  0.8434925581196353
  0.2899468243670285  0.0756556395097476  0.1961320404802436
  0.5756556395097547  0.2100531756329715  0.6961320404802436
  0.4243443604902453  0.7899468243670427  0.6961320404802436
  0.7100531756329573  0.9243443604902453  0.1961320404802436
  0.7002030970801272  0.7474476709536901  0.5684775355082579
  0.2474476709536759  0.7997969029198728  0.0684775355082508
  0.7525523290463099  0.2002030970801130  0.0684775355082508
  0.2997969029198799  0.2525523290463241  0.5684775355082579
  0.5000000000000000  0.5000000000000000  0.3800204190267351
  0.5000000000000000  0.5000000000000000  0.8807499780195158
  0.6357710897907154  0.5241884074909748  0.1447952807424571
  0.0241884074909606  0.8642289102092846  0.6447952807424571
  0.9758115925090252  0.1357710897907154  0.6447952807424571
  0.3642289102092846  0.4758115925090181  0.1447952807424571
  0.6099280901726161  0.5791184202638675  0.6054304866839288
  0.0791184202638675  0.8900719098273839  0.1054304866839502
  0.9208815797361325  0.1099280901726090  0.1054304866839502
  0.3900719098273910  0.4208815797361254  0.6054304866839288
  0.0000000000000000  0.5000000000000000  0.2582623750182833
  0.0000000000000000  0.5000000000000000  0.7582623750182833
  0.9537243528069226  0.6333972795477223  0.5042786087121272
  0.1333972795477223  0.5462756471930774  0.0042786087121272
  0.8666027204522777  0.4537243528069226  0.0042786087121272
  0.0462756471930774  0.3666027204522777  0.5042786087121272
  0.9333881110367983  0.6189597932344313  0.0106611405527772
  0.1189597932344313  0.5666118889632017  0.5106611405527914
  0.8810402067655687  0.4333881110367983  0.5106611405527914
  0.0666118889631946  0.3810402067655758  0.0106611405527772
  0.8596189943242365  0.7942841576171702  0.4034870551869787
  0.2942841576171773  0.6403810056757635  0.9034870551869787
  0.7057158423828298  0.3596189943242365  0.9034870551869787
  0.1403810056757635  0.2057158423828227  0.4034870551869787
  0.8710392847192807  0.7475609824721587  0.7432907567448979
  0.2475609824721587  0.6289607152807193  0.2432907567448979
  0.7524390175278413  0.3710392847192807  0.2432907567448979
  0.1289607152807193  0.2524390175278484  0.7432907567448979
  0.7829939268828241  0.6013210858858429  0.3434925581196495
  0.1013210858858358  0.7170060731171759  0.8434925581196353
  0.8986789141141571  0.2829939268828028  0.8434925581196353
  0.2170060731172043  0.3986789141141642  0.3434925581196495
  0.7899468243670427  0.5756556395097547  0.6961320404802436
  0.0756556395097476  0.7100531756329573  0.1961320404802436
  0.9243443604902453  0.2899468243670285  0.1961320404802436
  0.2100531756329715  0.4243443604902453  0.6961320404802436
  0.2002030970801130  0.2474476709536759  0.0684775355082508
  0.7474476709536901  0.2997969029198799  0.5684775355082579
  0.2525523290463241  0.7002030970801272  0.5684775355082579
  0.7997969029198728  0.7525523290463099  0.0684775355082508

  0.00000000E+00  0.00000000E+00  0.00000000E+00
  0.00000000E+00  0.00000000E+00  0.00000000E+00
  0.00000000E+00  0.00000000E+00  0.00000000E+00
  0.00000000E+00  0.00000000E+00  0.00000000E+00
  0.00000000E+00  0.00000000E+00  0.00000000E+00
  0.00000000E+00  0.00000000E+00  0.00000000E+00
  0.00000000E+00  0.00000000E+00  0.00000000E+00
  0.00000000E+00  0.00000000E+00  0.00000000E+00
  0.00000000E+00  0.00000000E+00  0.00000000E+00
  0.00000000E+00  0.00000000E+00  0.00000000E+00
  0.00000000E+00  0.00000000E+00  0.00000000E+00
  0.00000000E+00  0.00000000E+00  0.00000000E+00
  0.00000000E+00  0.00000000E+00  0.00000000E+00
  0.00000000E+00  0.00000000E+00  0.00000000E+00
  0.00000000E+00  0.00000000E+00  0.00000000E+00
  0.00000000E+00  0.00000000E+00  0.00000000E+00
  0.00000000E+00  0.00000000E+00  0.00000000E+00
  0.00000000E+00  0.00000000E+00  0.00000000E+00
  0.00000000E+00  0.00000000E+00  0.00000000E+00
  0.00000000E+00  0.00000000E+00  0.00000000E+00
  0.00000000E+00  0.00000000E+00  0.00000000E+00
  0.00000000E+00  0.00000000E+00  0.00000000E+00
  0.00000000E+00  0.00000000E+00  0.00000000E+00
  0.00000000E+00  0.00000000E+00  0.00000000E+00
  0.00000000E+00  0.00000000E+00  0.00000000E+00
  0.00000000E+00  0.00000000E+00  0.00000000E+00
  0.00000000E+00  0.00000000E+00  0.00000000E+00
  0.00000000E+00  0.00000000E+00  0.00000000E+00
  0.00000000E+00  0.00000000E+00  0.00000000E+00
  0.00000000E+00  0.00000000E+00  0.00000000E+00
  0.00000000E+00  0.00000000E+00  0.00000000E+00
  0.00000000E+00  0.00000000E+00  0.00000000E+00
  0.00000000E+00  0.00000000E+00  0.00000000E+00
  0.00000000E+00  0.00000000E+00  0.00000000E+00
  0.00000000E+00  0.00000000E+00  0.00000000E+00
  0.00000000E+00  0.00000000E+00  0.00000000E+00
  0.00000000E+00  0.00000000E+00  0.00000000E+00
  0.00000000E+00  0.00000000E+00  0.00000000E+00
  0.00000000E+00  0.00000000E+00  0.00000000E+00
  0.00000000E+00  0.00000000E+00  0.00000000E+00
  0.00000000E+00  0.00000000E+00  0.00000000E+00
  0.00000000E+00  0.00000000E+00  0.00000000E+00
  0.00000000E+00  0.00000000E+00  0.00000000E+00
  0.00000000E+00  0.00000000E+00  0.00000000E+00
  0.00000000E+00  0.00000000E+00  0.00000000E+00
  0.00000000E+00  0.00000000E+00  0.00000000E+00
  0.00000000E+00  0.00000000E+00  0.00000000E+00
  0.00000000E+00  0.00000000E+00  0.00000000E+00
  0.00000000E+00  0.00000000E+00  0.00000000E+00
  0.00000000E+00  0.00000000E+00  0.00000000E+00
  0.00000000E+00  0.00000000E+00  0.00000000E+00
  0.00000000E+00  0.00000000E+00  0.00000000E+00
  0.00000000E+00  0.00000000E+00  0.00000000E+00
  0.00000000E+00  0.00000000E+00  0.00000000E+00
  0.00000000E+00  0.00000000E+00  0.00000000E+00
  0.00000000E+00  0.00000000E+00  0.00000000E+00
  0.00000000E+00  0.00000000E+00  0.00000000E+00
  0.00000000E+00  0.00000000E+00  0.00000000E+00
  0.00000000E+00  0.00000000E+00  0.00000000E+00
  0.00000000E+00  0.00000000E+00  0.00000000E+00
  0.00000000E+00  0.00000000E+00  0.00000000E+00
  0.00000000E+00  0.00000000E+00  0.00000000E+00
  0.00000000E+00  0.00000000E+00  0.00000000E+00
  0.00000000E+00  0.00000000E+00  0.00000000E+00
  0.00000000E+00  0.00000000E+00  0.00000000E+00
  0.00000000E+00  0.00000000E+00  0.00000000E+00
  0.00000000E+00  0.00000000E+00  0.00000000E+00
  0.00000000E+00  0.00000000E+00  0.00000000E+00
  0.00000000E+00  0.00000000E+00  0.00000000E+00
  0.00000000E+00  0.00000000E+00  0.00000000E+00
  0.00000000E+00  0.00000000E+00  0.00000000E+00
  0.00000000E+00  0.00000000E+00  0.00000000E+00
  0.00000000E+00  0.00000000E+00  0.00000000E+00
  0.00000000E+00  0.00000000E+00  0.00000000E+00
  0.00000000E+00  0.00000000E+00  0.00000000E+00
  0.00000000E+00  0.00000000E+00  0.00000000E+00
  0.00000000E+00  0.00000000E+00  0.00000000E+00
  0.00000000E+00  0.00000000E+00  0.00000000E+00
  0.00000000E+00  0.00000000E+00  0.00000000E+00
  0.00000000E+00  0.00000000E+00  0.00000000E+00
  0.00000000E+00  0.00000000E+00  0.00000000E+00
  0.00000000E+00  0.00000000E+00  0.00000000E+00
  0.00000000E+00  0.00000000E+00  0.00000000E+00
  0.00000000E+00  0.00000000E+00  0.00000000E+00
  0.00000000E+00  0.00000000E+00  0.00000000E+00
  0.00000000E+00  0.00000000E+00  0.00000000E+00
  0.00000000E+00  0.00000000E+00  0.00000000E+00
  0.00000000E+00  0.00000000E+00  0.00000000E+00
  0.00000000E+00  0.00000000E+00  0.00000000E+00
  0.00000000E+00  0.00000000E+00  0.00000000E+00
  0.00000000E+00  0.00000000E+00  0.00000000E+00
  0.00000000E+00  0.00000000E+00  0.00000000E+00
  0.00000000E+00  0.00000000E+00  0.00000000E+00
  0.00000000E+00  0.00000000E+00  0.00000000E+00
  0.00000000E+00  0.00000000E+00  0.00000000E+00
  0.00000000E+00  0.00000000E+00  0.00000000E+00
  0.00000000E+00  0.00000000E+00  0.00000000E+00
  0.00000000E+00  0.00000000E+00  0.00000000E+00
  0.00000000E+00  0.00000000E+00  0.00000000E+00
  0.00000000E+00  0.00000000E+00  0.00000000E+00
  0.00000000E+00  0.00000000E+00  0.00000000E+00
  0.00000000E+00  0.00000000E+00  0.00000000E+00
  0.00000000E+00  0.00000000E+00  0.00000000E+00
  0.00000000E+00  0.00000000E+00  0.00000000E+00
  0.00000000E+00  0.00000000E+00  0.00000000E+00
  0.00000000E+00  0.00000000E+00  0.00000000E+00
  0.00000000E+00  0.00000000E+00  0.00000000E+00
  0.00000000E+00  0.00000000E+00  0.00000000E+00
  0.00000000E+00  0.00000000E+00  0.00000000E+00
  0.00000000E+00  0.00000000E+00  0.00000000E+00
  0.00000000E+00  0.00000000E+00  0.00000000E+00
  0.00000000E+00  0.00000000E+00  0.00000000E+00
