Ba8 B2                                  
   1.00000000000000     
     5.4706840567708719    0.0000000000000000    0.0000000000000000
     0.0000000000000000    5.4706840567708719    0.0000000000000000
     0.0000000000000000    0.0000000000000000   14.7036654500837454
   Ba   B 
     8     2
Direct
  0.0000000000000000  0.0000000000000000  0.0000000000000000
  0.5000000000000000  0.5000000000000000  0.0000000000000000
  0.5000000000000000  0.0000000000000000  0.4764185961023557
  0.0000000000000000  0.5000000000000000  0.5235814038976443
  0.5000000000000000  0.5000000000000000  0.2477796038405771
  0.0000000000000000  0.0000000000000000  0.2477796038405771
  0.0000000000000000  0.0000000000000000  0.7522203961594158
  0.5000000000000000  0.5000000000000000  0.7522203961594229
  0.0000000000000000  0.5000000000000000  0.8652476692647326
  0.5000000000000000  0.0000000000000000  0.1347523307352603
 
  0.00000000E+00  0.00000000E+00  0.00000000E+00
  0.00000000E+00  0.00000000E+00  0.00000000E+00
  0.00000000E+00  0.00000000E+00  0.00000000E+00
  0.00000000E+00  0.00000000E+00  0.00000000E+00
  0.00000000E+00  0.00000000E+00  0.00000000E+00
  0.00000000E+00  0.00000000E+00  0.00000000E+00
  0.00000000E+00  0.00000000E+00  0.00000000E+00
  0.00000000E+00  0.00000000E+00  0.00000000E+00
  0.00000000E+00  0.00000000E+00  0.00000000E+00
  0.00000000E+00  0.00000000E+00  0.00000000E+00
