Be1 Tl4                                 
   1.0000000000000000     
    -4.2922783913127525    0.0000000000000000   -0.0000000000000000
     0.0000000000000000   -4.2922783913127525    0.0000000000000000
     2.1461391956563762    2.1461391956563762    8.6135609065756462
   Be   Tl
     1     4
Direct
  0.0000000000000000  0.0000000000000000  0.0000000000000000
  0.5897593238205303  0.5897593238205303  0.1795186476410677
  0.7500000000000000  0.2500000000000000  0.5000000000000000
  0.2500000000000000  0.7500000000000000  0.5000000000000000
  0.4102406761794697  0.4102406761794697  0.8204813523589323

  0.00000000E+00  0.00000000E+00  0.00000000E+00
  0.00000000E+00  0.00000000E+00  0.00000000E+00
  0.00000000E+00  0.00000000E+00  0.00000000E+00
  0.00000000E+00  0.00000000E+00  0.00000000E+00
  0.00000000E+00  0.00000000E+00  0.00000000E+00
