Be21 Al40                               
   1.00000000000000     
     3.9942165456981700   -6.9181859856006414    0.0000000000000000
     3.9942165456981749    6.9181859856006396   -0.0000000000000001
     0.0000000000000000    0.0000000000000001   16.9786018329335917
   Be   Al
    21    40
Direct
  0.0000000000014992  0.1608891664754637  0.4875718870150862
  0.6666669999999968  0.3333330000000032  0.1581052778904919
  0.4865996872427303  0.9999999999959002  0.7032285114604022
  0.5134003127613695  0.5134003127613695  0.7032285114604022
  0.0000000000000000  0.0000000000000000  0.1536756815213849
  0.0000000000049241  0.4105555437928672  0.5774938071327753
  0.2579479619911709  0.9999999999991758  0.0983246783538334
  0.9999999999959002  0.4865996872427303  0.7032285114604022
  0.8391108335230300  0.8391108335230300  0.4875718870150862
  0.4105555437928672  0.0000000000049241  0.5774938071327753
  0.3333330000000032  0.6666669999999968  0.0350662901670589
  0.0000000000003482  0.8422658203163280  0.8783850081247309
  0.5894444562022016  0.5894444562022016  0.5774938071327753
  0.1577341796833238  0.1577341796833238  0.8783850081247309
  0.6666669999999968  0.3333330000000032  0.0350662901670589
  0.3333330000000032  0.6666669999999968  0.1581052778904919
  0.9999999999991758  0.2579479619911709  0.0983246783538334
  0.1608891664754637  0.0000000000014992  0.4875718870150862
  0.7420520380096534  0.7420520380096534  0.0983246783538334
  0.8422658203163280  0.0000000000003482  0.8783850081247309
  0.0000000000000000  0.0000000000000000  0.2756686863520343
  0.2791335030469710  0.4612310217391595  0.5009549504741457
  0.1889644083365454  0.3899897216665735  0.2392120682351191
  0.4090379483758895  0.2093825084765726  0.7750648011490071
  0.7989746866731693  0.6100102783386916  0.2392120682351191
  0.5568830470742796  0.9999999999996589  0.1239867225332034
  0.0000000000000000  0.0000000000000000  0.6088718130055781
  0.3333330000000032  0.6666669999999968  0.8987254561079183
  0.2010253133247630  0.8110355916602572  0.2392120682351191
  0.3148095034465328  0.9999999999977902  0.9484255603033276
  0.9999999999754650  0.4178119498316448  0.3734884364286799
  0.3899897216665735  0.1889644083365454  0.2392120682351191
  0.2221007573630942  0.2221007573630942  0.3742867100437834
  0.6851904965556841  0.6851904965556841  0.9484255603033276
  0.6666669999999968  0.3333330000000032  0.8987254561079183
  0.0000000000349516  0.7778992426019613  0.3742867100437834
  0.4431169529260615  0.4431169529260615  0.1239867225332034
  0.8179024813385141  0.5387689782914151  0.5009549504741457
  0.5909620516158611  0.8003445600975994  0.7750648011490071
  0.9999999999996589  0.5568830470742796  0.1239867225332034
  0.8110355916602572  0.2010253133247630  0.2392120682351191
  0.0000000000007319  0.6358785477605267  0.9765849576037198
  0.5821880501928902  0.5821880501928902  0.3734884364286799
  0.3333330000000032  0.6666669999999968  0.6462589290911822
  0.9999999999977902  0.3148095034465328  0.9484255603033276
  0.6666669999999968  0.3333330000000032  0.6462589290911822
  0.2093825084765726  0.4090379483758895  0.7750648011490071
  0.5387689782914151  0.8179024813385141  0.5009549504741457
  0.1820975186616067  0.7208664969223193  0.5009549504741457
  0.6358785477605267  0.0000000000007319  0.9765849576037198
  0.3641214522387415  0.3641214522387415  0.9765849576037198
  0.7906174915265112  0.1996554399075592  0.7750648011490071
  0.4178119498316448  0.9999999999754650  0.3734884364286799
  0.4612310217391595  0.2791335030469710  0.5009549504741457
  0.6100102783386916  0.7989746866731693  0.2392120682351191
  0.7778992426019613  0.0000000000349516  0.3742867100437834
  0.7208664969223193  0.1820975186616067  0.5009549504741457
  0.1996554399075592  0.7906174915265112  0.7750648011490071
  0.0000000000000000  0.0000000000000000  0.0130625166094447
  0.8003445600975994  0.5909620516158611  0.7750648011490071
  0.0000000000000000  0.0000000000000000  0.7594546398500484
 
  0.00000000E+00  0.00000000E+00  0.00000000E+00
  0.00000000E+00  0.00000000E+00  0.00000000E+00
  0.00000000E+00  0.00000000E+00  0.00000000E+00
  0.00000000E+00  0.00000000E+00  0.00000000E+00
  0.00000000E+00  0.00000000E+00  0.00000000E+00
  0.00000000E+00  0.00000000E+00  0.00000000E+00
  0.00000000E+00  0.00000000E+00  0.00000000E+00
  0.00000000E+00  0.00000000E+00  0.00000000E+00
  0.00000000E+00  0.00000000E+00  0.00000000E+00
  0.00000000E+00  0.00000000E+00  0.00000000E+00
  0.00000000E+00  0.00000000E+00  0.00000000E+00
  0.00000000E+00  0.00000000E+00  0.00000000E+00
  0.00000000E+00  0.00000000E+00  0.00000000E+00
  0.00000000E+00  0.00000000E+00  0.00000000E+00
  0.00000000E+00  0.00000000E+00  0.00000000E+00
  0.00000000E+00  0.00000000E+00  0.00000000E+00
  0.00000000E+00  0.00000000E+00  0.00000000E+00
  0.00000000E+00  0.00000000E+00  0.00000000E+00
  0.00000000E+00  0.00000000E+00  0.00000000E+00
  0.00000000E+00  0.00000000E+00  0.00000000E+00
  0.00000000E+00  0.00000000E+00  0.00000000E+00
  0.00000000E+00  0.00000000E+00  0.00000000E+00
  0.00000000E+00  0.00000000E+00  0.00000000E+00
  0.00000000E+00  0.00000000E+00  0.00000000E+00
  0.00000000E+00  0.00000000E+00  0.00000000E+00
  0.00000000E+00  0.00000000E+00  0.00000000E+00
  0.00000000E+00  0.00000000E+00  0.00000000E+00
  0.00000000E+00  0.00000000E+00  0.00000000E+00
  0.00000000E+00  0.00000000E+00  0.00000000E+00
  0.00000000E+00  0.00000000E+00  0.00000000E+00
  0.00000000E+00  0.00000000E+00  0.00000000E+00
  0.00000000E+00  0.00000000E+00  0.00000000E+00
  0.00000000E+00  0.00000000E+00  0.00000000E+00
  0.00000000E+00  0.00000000E+00  0.00000000E+00
  0.00000000E+00  0.00000000E+00  0.00000000E+00
  0.00000000E+00  0.00000000E+00  0.00000000E+00
  0.00000000E+00  0.00000000E+00  0.00000000E+00
  0.00000000E+00  0.00000000E+00  0.00000000E+00
  0.00000000E+00  0.00000000E+00  0.00000000E+00
  0.00000000E+00  0.00000000E+00  0.00000000E+00
  0.00000000E+00  0.00000000E+00  0.00000000E+00
  0.00000000E+00  0.00000000E+00  0.00000000E+00
  0.00000000E+00  0.00000000E+00  0.00000000E+00
  0.00000000E+00  0.00000000E+00  0.00000000E+00
  0.00000000E+00  0.00000000E+00  0.00000000E+00
  0.00000000E+00  0.00000000E+00  0.00000000E+00
  0.00000000E+00  0.00000000E+00  0.00000000E+00
  0.00000000E+00  0.00000000E+00  0.00000000E+00
  0.00000000E+00  0.00000000E+00  0.00000000E+00
  0.00000000E+00  0.00000000E+00  0.00000000E+00
  0.00000000E+00  0.00000000E+00  0.00000000E+00
  0.00000000E+00  0.00000000E+00  0.00000000E+00
  0.00000000E+00  0.00000000E+00  0.00000000E+00
  0.00000000E+00  0.00000000E+00  0.00000000E+00
  0.00000000E+00  0.00000000E+00  0.00000000E+00
  0.00000000E+00  0.00000000E+00  0.00000000E+00
  0.00000000E+00  0.00000000E+00  0.00000000E+00
  0.00000000E+00  0.00000000E+00  0.00000000E+00
  0.00000000E+00  0.00000000E+00  0.00000000E+00
  0.00000000E+00  0.00000000E+00  0.00000000E+00
  0.00000000E+00  0.00000000E+00  0.00000000E+00
