Be10 Tl6                                
   1.0000000000000000     
     4.2711997820363621    0.0000000000000000    0.0000000000000000
     0.0000000000000000    9.7296004776615206   -1.7976980763351282
     0.0000000000000000   -6.5187295597486816    8.4393322837815159
   Be   Tl
    10     6
Direct
  0.2500000000000000  0.5004293042135330  0.9994992774502478
  0.7500000000000000  0.4995706957864670  0.0005007225497522
  0.2500000000000000  0.0261579994493459  0.4898628624473318
  0.7500000000000000  0.4524439644664540  0.4793912306681278
  0.5000772023097966  0.7586255171243721  0.2451242768721329
  0.9999227976902034  0.7586255171243721  0.2451242768721329
  0.4999227976902034  0.2413744828756279  0.7548757231278671
  0.0000772023097966  0.2413744828756279  0.7548757231278671
  0.7500000000000000  0.9738420005506541  0.5101371375526682
  0.2500000000000000  0.5475560355335460  0.5206087693318722
  0.7500000000000000  0.4085230026001696  0.1815612387343961
  0.2500000000000000  0.5914769973998304  0.8184387612656039
  0.7500000000000000  0.1730681413496242  0.4491248311388176
  0.2500000000000000  0.1361747457074998  0.1940734655153165
  0.7500000000000000  0.8638252542925002  0.8059265344846835
  0.2500000000000000  0.8269318586503758  0.5508751688611824

  0.00000000E+00  0.00000000E+00  0.00000000E+00
  0.00000000E+00  0.00000000E+00  0.00000000E+00
  0.00000000E+00  0.00000000E+00  0.00000000E+00
  0.00000000E+00  0.00000000E+00  0.00000000E+00
  0.00000000E+00  0.00000000E+00  0.00000000E+00
  0.00000000E+00  0.00000000E+00  0.00000000E+00
  0.00000000E+00  0.00000000E+00  0.00000000E+00
  0.00000000E+00  0.00000000E+00  0.00000000E+00
  0.00000000E+00  0.00000000E+00  0.00000000E+00
  0.00000000E+00  0.00000000E+00  0.00000000E+00
  0.00000000E+00  0.00000000E+00  0.00000000E+00
  0.00000000E+00  0.00000000E+00  0.00000000E+00
  0.00000000E+00  0.00000000E+00  0.00000000E+00
  0.00000000E+00  0.00000000E+00  0.00000000E+00
  0.00000000E+00  0.00000000E+00  0.00000000E+00
  0.00000000E+00  0.00000000E+00  0.00000000E+00
