Ba3 Ga8                                 
   1.00000000000000     
    -4.9529610402455031    0.0011206715589137   -0.0001269092084231
     0.0008754481269858   -4.4930789635931561    0.0032351190063908
     2.4789084658191736    2.2360398993840649   13.1905755973869177
   Ba   Ga
     3     8
Direct
  0.9999979532814862  0.0000132606393421  0.9999699918652851
  0.1509766279291043  0.6507674322878430  0.3007004845135270
  0.8490287160516701  0.3491295786627902  0.6992205464098760
  0.5487028613432727  0.5507432327447646  0.1000336412215859
  0.5960164546587379  0.0963978112980683  0.1927780978897431
  0.6958383387871052  0.1960623289747687  0.3922230887022664
  0.7519375980037992  0.7488341253341346  0.4995899554793581
  0.2480520993846298  0.2510400691133228  0.5003295502596430
  0.3041991528865822  0.8038179291044756  0.6077009917662650
  0.4039972296881018  0.9035585878630954  0.8071549394308803
  0.4512529679855106  0.4492356439773602  0.8998987124615851
 
  0.00000000E+00  0.00000000E+00  0.00000000E+00
  0.00000000E+00  0.00000000E+00  0.00000000E+00
  0.00000000E+00  0.00000000E+00  0.00000000E+00
  0.00000000E+00  0.00000000E+00  0.00000000E+00
  0.00000000E+00  0.00000000E+00  0.00000000E+00
  0.00000000E+00  0.00000000E+00  0.00000000E+00
  0.00000000E+00  0.00000000E+00  0.00000000E+00
  0.00000000E+00  0.00000000E+00  0.00000000E+00
  0.00000000E+00  0.00000000E+00  0.00000000E+00
  0.00000000E+00  0.00000000E+00  0.00000000E+00
  0.00000000E+00  0.00000000E+00  0.00000000E+00
