Ba1 Tl13                                
   1.0000000000000000     
     7.2842972808039805   -4.6757010268762347    0.0913611997662631
     7.2842972808039805    4.6757010268762347    0.0913611997662631
    -1.3375899630624581    0.0000000000000000    6.7945489471802238
   Ba   Tl
     1    13
Direct
  0.9999867351868872  0.9999867351868872  0.9999649994383191
  0.7804048587192796  0.7804048587192796  0.1613905827610154
  0.5883133483959284  0.2289118828971084  0.1705653740222601
  0.2289118828971084  0.5883133483959284  0.1705653740222601
  0.0072185040816137  0.3681014612062228  0.3088353305151088
  0.3681014612062228  0.0072185040816137  0.3088353305151088
  0.5996489839509636  0.5996489839509636  0.3869012984129654
  0.9999544247111771  0.9999544247111771  0.4999307888787783
  0.4003482214883647  0.4003482214883647  0.6132281524589374
  0.6318841161374777  0.9928059568236876  0.6911635501137425
  0.9928059568236876  0.6318841161374777  0.6911635501137425
  0.7710602725161664  0.4116778678249773  0.8294693180959172
  0.4116778678249773  0.7710602725161664  0.8294693180959172
  0.2195723660601487  0.2195723660601487  0.8385170325559272

  0.00000000E+00  0.00000000E+00  0.00000000E+00
  0.00000000E+00  0.00000000E+00  0.00000000E+00
  0.00000000E+00  0.00000000E+00  0.00000000E+00
  0.00000000E+00  0.00000000E+00  0.00000000E+00
  0.00000000E+00  0.00000000E+00  0.00000000E+00
  0.00000000E+00  0.00000000E+00  0.00000000E+00
  0.00000000E+00  0.00000000E+00  0.00000000E+00
  0.00000000E+00  0.00000000E+00  0.00000000E+00
  0.00000000E+00  0.00000000E+00  0.00000000E+00
  0.00000000E+00  0.00000000E+00  0.00000000E+00
  0.00000000E+00  0.00000000E+00  0.00000000E+00
  0.00000000E+00  0.00000000E+00  0.00000000E+00
  0.00000000E+00  0.00000000E+00  0.00000000E+00
  0.00000000E+00  0.00000000E+00  0.00000000E+00
