Mg4 In10 Cl2                            
   1.00000000000000     
     8.3674554230096341   -0.0001655360285867    0.0002972792776203
    -0.0001654620696693    8.3661775667056482    0.0003820773330990
     4.1834104629877276    4.1828355387943796    6.0115480490307567
   Cl   Mg   In
     2     4    10
Direct
  0.7501267382941137  0.7500379428457933  0.4999994670589984
  0.2500030374116022  0.2500341407825672  0.5000202400346438
  0.3552026028579576  0.1445021046918029  0.9999607716745302
  0.8554256946884919  0.3554641822176379  0.9999754181052936
  0.1444291650867342  0.6444938892465757  0.0004707413656035
  0.6447744460164770  0.8554231382939435  0.9995814820176321
  0.9999034281178680  0.0000132375563240  0.0000108811301587
  0.4999788087775698  0.4998993987143834  0.0000123097236013
  0.4893773415482059  0.9892389060809279  0.3250440055051484
  0.9889605287435259  0.1850798665315523  0.3258212443441337
  0.6850167433046437  0.4891501871481623  0.3256955156630923
  0.1854268197731344  0.6850582356858794  0.3258635170506636
  0.8145631573753036  0.3148352736379394  0.6743869226847394
  0.3147522119421708  0.5110319946365252  0.6746617593224187
  0.0112514324076258  0.8148217781626172  0.6743271693484374
  0.5107078436545791  0.0108157237673936  0.6741685549709118
 
  0.00000000E+00  0.00000000E+00  0.00000000E+00
  0.00000000E+00  0.00000000E+00  0.00000000E+00
  0.00000000E+00  0.00000000E+00  0.00000000E+00
  0.00000000E+00  0.00000000E+00  0.00000000E+00
  0.00000000E+00  0.00000000E+00  0.00000000E+00
  0.00000000E+00  0.00000000E+00  0.00000000E+00
  0.00000000E+00  0.00000000E+00  0.00000000E+00
  0.00000000E+00  0.00000000E+00  0.00000000E+00
  0.00000000E+00  0.00000000E+00  0.00000000E+00
  0.00000000E+00  0.00000000E+00  0.00000000E+00
  0.00000000E+00  0.00000000E+00  0.00000000E+00
  0.00000000E+00  0.00000000E+00  0.00000000E+00
  0.00000000E+00  0.00000000E+00  0.00000000E+00
  0.00000000E+00  0.00000000E+00  0.00000000E+00
  0.00000000E+00  0.00000000E+00  0.00000000E+00
  0.00000000E+00  0.00000000E+00  0.00000000E+00
