Ba4 Al4 Br20                            
   1.0000000000000000     
     0.0000000000000000    7.4974358869334790    0.0708284151008512
    12.0652109996196923    0.0000000000000000    0.0000000000000000
     0.0000000000000000   -0.0973941687334835  -12.0972762694473399
   Ba   Al   Br
     4     4    20
Direct
  0.6608888922814344  0.3006304482367099  0.4532600578929475
  0.3391111077185656  0.8006304482367099  0.5467399421070525
  0.8132192900477264  0.9343293644101962  0.1995706962641322
  0.1867807099522736  0.4343293644101962  0.8004293037358678
  0.3686642768499482  0.7282242180173668  0.0023332971249062
  0.6313357231500518  0.2282242180173668  0.9976667028750938
  0.8057805010994699  0.6581852316065238  0.4548501151040085
  0.1942194989005301  0.1581852316065238  0.5451498848959915
  0.4295283268842880  0.0522757380567853  0.4398663390918998
  0.0626545054444989  0.5800894364787936  0.5782791558500406
  0.9373454945555011  0.0800894364787936  0.4217208441499594
  0.6787047178921028  0.7436722499474371  0.0025315605118621
  0.8292271495241295  0.5071889324873453  0.3206330906118851
  0.2500874792869965  0.8898739978820700  0.0783094290477848
  0.9528931478151819  0.2615100085089281  0.6559341895699049
  0.5670880383789410  0.7518202829723464  0.3225393925078635
  0.1707728504758705  0.0071889324873453  0.6793669093881149
  0.7742257176475746  0.8132437269397172  0.5846240364260069
  0.7499125207130035  0.3898739978820700  0.9216905709522152
  0.5704716731157120  0.5522757380567853  0.5601336609081002
  0.7316147030719051  0.0619065365622760  0.9274234455392403
  0.7350005991245823  0.2146488078935320  0.1829278189289312
  0.2257742823524254  0.3132437269397172  0.4153759635739931
  0.0471068521848181  0.7615100085089281  0.3440658104300951
  0.3212952821078900  0.2436722499474300  0.9974684394881308
  0.2649994008754177  0.7146488078935320  0.8170721810710688
  0.4329119616210590  0.2518202829723464  0.6774606074921365
  0.2683852969280949  0.5619065365622760  0.0725765544607597

  0.00000000E+00  0.00000000E+00  0.00000000E+00
  0.00000000E+00  0.00000000E+00  0.00000000E+00
  0.00000000E+00  0.00000000E+00  0.00000000E+00
  0.00000000E+00  0.00000000E+00  0.00000000E+00
  0.00000000E+00  0.00000000E+00  0.00000000E+00
  0.00000000E+00  0.00000000E+00  0.00000000E+00
  0.00000000E+00  0.00000000E+00  0.00000000E+00
  0.00000000E+00  0.00000000E+00  0.00000000E+00
  0.00000000E+00  0.00000000E+00  0.00000000E+00
  0.00000000E+00  0.00000000E+00  0.00000000E+00
  0.00000000E+00  0.00000000E+00  0.00000000E+00
  0.00000000E+00  0.00000000E+00  0.00000000E+00
  0.00000000E+00  0.00000000E+00  0.00000000E+00
  0.00000000E+00  0.00000000E+00  0.00000000E+00
  0.00000000E+00  0.00000000E+00  0.00000000E+00
  0.00000000E+00  0.00000000E+00  0.00000000E+00
  0.00000000E+00  0.00000000E+00  0.00000000E+00
  0.00000000E+00  0.00000000E+00  0.00000000E+00
  0.00000000E+00  0.00000000E+00  0.00000000E+00
  0.00000000E+00  0.00000000E+00  0.00000000E+00
  0.00000000E+00  0.00000000E+00  0.00000000E+00
  0.00000000E+00  0.00000000E+00  0.00000000E+00
  0.00000000E+00  0.00000000E+00  0.00000000E+00
  0.00000000E+00  0.00000000E+00  0.00000000E+00
  0.00000000E+00  0.00000000E+00  0.00000000E+00
  0.00000000E+00  0.00000000E+00  0.00000000E+00
  0.00000000E+00  0.00000000E+00  0.00000000E+00
  0.00000000E+00  0.00000000E+00  0.00000000E+00
