Be4 Ga4 Br20                            
   1.0000000000000000     
     5.9201038842169664   -0.0000000000000001    0.0000000000000004
    -0.0000000000000007   11.3462866658341586    0.0000000000000007
    -0.0000000000000001    0.0000000000000006   18.3654929895291552
   Be   Ga   Br
     4     4    20
Direct
  0.4324930246766669  0.3891466774506753  0.4123615340824145
  0.9324930246766598  0.1108533225493247  0.5876384659175855
  0.5675069753233259  0.8891466774506682  0.0876384659175855
  0.0675069753233259  0.6108533225493318  0.9123615340824145
  0.2120943061392921  0.7277103161775003  0.4219498661814569
  0.7120943061392921  0.7722896838224997  0.5780501338185289
  0.7879056938607079  0.2277103161774932  0.0780501338185360
  0.2879056938607079  0.2722896838225068  0.9219498661814640
  0.9841366723449383  0.6339564270999603  0.5184111112843794
  0.4841366723449312  0.8660435729000397  0.4815888887156206
  0.0158633276550617  0.1339564270999603  0.9815888887156206
  0.5158633276550617  0.3660435729000397  0.0184111112843794
  0.0064446419042881  0.8413977113654880  0.3444124986830133
  0.5064446419042881  0.6586022886345120  0.6555875013169867
  0.9935553580957119  0.3413977113654880  0.1555875013169867
  0.4935553580957119  0.1586022886345120  0.8444124986830133
  0.0875830427696300  0.6113095526208099  0.0212474425075797
  0.5875830427696229  0.8886904473791901  0.9787525574924203
  0.9124169572303771  0.1113095526208099  0.4787525574924203
  0.4124169572303771  0.3886904473791901  0.5212474425075797
  0.5158315507567366  0.7811590463541052  0.1729014304387562
  0.0158315507567366  0.7188409536458948  0.8270985695612438
  0.4841684492432634  0.2811590463541052  0.3270985695612438
  0.9841684492432634  0.2188409536458948  0.6729014304387562
  0.0915713412224548  0.4231296837870886  0.8586012239262502
  0.5915713412224619  0.0768703162129114  0.1413987760737498
  0.9084286587775381  0.9231296837870886  0.6413987760737498
  0.4084286587775452  0.5768703162129114  0.3586012239262502

  0.00000000E+00  0.00000000E+00  0.00000000E+00
  0.00000000E+00  0.00000000E+00  0.00000000E+00
  0.00000000E+00  0.00000000E+00  0.00000000E+00
  0.00000000E+00  0.00000000E+00  0.00000000E+00
  0.00000000E+00  0.00000000E+00  0.00000000E+00
  0.00000000E+00  0.00000000E+00  0.00000000E+00
  0.00000000E+00  0.00000000E+00  0.00000000E+00
  0.00000000E+00  0.00000000E+00  0.00000000E+00
  0.00000000E+00  0.00000000E+00  0.00000000E+00
  0.00000000E+00  0.00000000E+00  0.00000000E+00
  0.00000000E+00  0.00000000E+00  0.00000000E+00
  0.00000000E+00  0.00000000E+00  0.00000000E+00
  0.00000000E+00  0.00000000E+00  0.00000000E+00
  0.00000000E+00  0.00000000E+00  0.00000000E+00
  0.00000000E+00  0.00000000E+00  0.00000000E+00
  0.00000000E+00  0.00000000E+00  0.00000000E+00
  0.00000000E+00  0.00000000E+00  0.00000000E+00
  0.00000000E+00  0.00000000E+00  0.00000000E+00
  0.00000000E+00  0.00000000E+00  0.00000000E+00
  0.00000000E+00  0.00000000E+00  0.00000000E+00
  0.00000000E+00  0.00000000E+00  0.00000000E+00
  0.00000000E+00  0.00000000E+00  0.00000000E+00
  0.00000000E+00  0.00000000E+00  0.00000000E+00
  0.00000000E+00  0.00000000E+00  0.00000000E+00
  0.00000000E+00  0.00000000E+00  0.00000000E+00
  0.00000000E+00  0.00000000E+00  0.00000000E+00
  0.00000000E+00  0.00000000E+00  0.00000000E+00
  0.00000000E+00  0.00000000E+00  0.00000000E+00
