Be4 Tl4 F20                             
   1.0000000000000000     
     4.5108405659602120    0.0000000000000000    0.0000000000000003
    -0.0000000000000003    4.9171868545570714    0.0000000000000003
    -0.0000000000000000    0.0000000000000000   14.5389806298257582
   Be   Tl   F 
     4     4    20
Direct
  0.6160425846897581  0.4192483246318872  0.4094641083913260
  0.1160425846897581  0.0807516753681128  0.5905358916086740
  0.3839574153102348  0.9192483246318872  0.0905358916086740
  0.8839574153102348  0.5807516753681128  0.9094641083913260
  0.1183087090858237  0.8822853705133156  0.3584863294158538
  0.6183087090858308  0.6177146294866844  0.6415136705841391
  0.8816912909141692  0.3822853705133156  0.1415136705841391
  0.3816912909141763  0.1177146294866844  0.8584863294158538
  0.9481845635317683  0.5016199683420055  0.4190817615064830
  0.4481845635317612  0.9983800316579945  0.5809182384935170
  0.0518154364682317  0.0016199683420055  0.0809182384935170
  0.5518154364682317  0.4983800316579874  0.9190817615064830
  0.9549626168066183  0.7303911477680600  0.2253393104710995
  0.4549626168066183  0.7696088522319400  0.7746606895289005
  0.0450373831933817  0.2303911477680600  0.2746606895289005
  0.5450373831933817  0.2696088522319400  0.7253393104710995
  0.0251763259020592  0.4991354688187855  0.0034514593888630
  0.5251763259020663  0.0008645311812145  0.9965485406111370
  0.9748236740979337  0.9991354688187855  0.4965485406111370
  0.4748236740979337  0.5008645311812145  0.5034514593888630
  0.4494249896461397  0.6167599630491978  0.1155133507575741
  0.9494249896461397  0.8832400369508022  0.8844866492424259
  0.5505750103538603  0.1167599630491978  0.3844866492424330
  0.0505750103538603  0.3832400369508022  0.6155133507575741
  0.0146075673127442  0.3982057997027297  0.8315174611539575
  0.5146075673127442  0.1017942002972703  0.1684825388460496
  0.9853924326872558  0.8982057997027226  0.6684825388460425
  0.4853924326872558  0.6017942002972774  0.3315174611539575

  0.00000000E+00  0.00000000E+00  0.00000000E+00
  0.00000000E+00  0.00000000E+00  0.00000000E+00
  0.00000000E+00  0.00000000E+00  0.00000000E+00
  0.00000000E+00  0.00000000E+00  0.00000000E+00
  0.00000000E+00  0.00000000E+00  0.00000000E+00
  0.00000000E+00  0.00000000E+00  0.00000000E+00
  0.00000000E+00  0.00000000E+00  0.00000000E+00
  0.00000000E+00  0.00000000E+00  0.00000000E+00
  0.00000000E+00  0.00000000E+00  0.00000000E+00
  0.00000000E+00  0.00000000E+00  0.00000000E+00
  0.00000000E+00  0.00000000E+00  0.00000000E+00
  0.00000000E+00  0.00000000E+00  0.00000000E+00
  0.00000000E+00  0.00000000E+00  0.00000000E+00
  0.00000000E+00  0.00000000E+00  0.00000000E+00
  0.00000000E+00  0.00000000E+00  0.00000000E+00
  0.00000000E+00  0.00000000E+00  0.00000000E+00
  0.00000000E+00  0.00000000E+00  0.00000000E+00
  0.00000000E+00  0.00000000E+00  0.00000000E+00
  0.00000000E+00  0.00000000E+00  0.00000000E+00
  0.00000000E+00  0.00000000E+00  0.00000000E+00
  0.00000000E+00  0.00000000E+00  0.00000000E+00
  0.00000000E+00  0.00000000E+00  0.00000000E+00
  0.00000000E+00  0.00000000E+00  0.00000000E+00
  0.00000000E+00  0.00000000E+00  0.00000000E+00
  0.00000000E+00  0.00000000E+00  0.00000000E+00
  0.00000000E+00  0.00000000E+00  0.00000000E+00
  0.00000000E+00  0.00000000E+00  0.00000000E+00
  0.00000000E+00  0.00000000E+00  0.00000000E+00
