Ba1 B1                                  
   1.00000000000000     
     3.7073489384042166    0.0000000000000000    0.0000000000000000
     0.0000000000000000    3.7073489384042166    0.0000000000000000
     0.0000000000000000    0.0000000000000000    3.7073489384042166
   B    Ba
     1     1
Direct
  0.0000000000000000  0.0000000000000000  0.0000000000000000
  0.5000000000000000  0.5000000000000000  0.5000000000000000
 
  0.00000000E+00  0.00000000E+00  0.00000000E+00
  0.00000000E+00  0.00000000E+00  0.00000000E+00
