Be4 B4 Cl20                             
   1.0000000000000000     
    15.2902521655237589    0.0000000000000000    0.0000000000000000
     0.0000000000000000    6.8680911892802001    0.2028880782577824
     0.0000000000000000    3.6507872550517555    9.5084579045370035
   Be   B    Cl
     4     4    20
Direct
  0.0148864864895444  0.4202197690825926  0.4085594948595315
  0.5148864864895444  0.5797802309174145  0.0914405051404685
  0.9851135135104556  0.5797802309174145  0.5914405051404685
  0.4851135135104556  0.4202197690825926  0.9085594948595315
  0.6955103119666859  0.9153108443454059  0.5242862025304902
  0.1955103119666859  0.0846891556545941  0.9757137974695098
  0.3044896880333141  0.0846891556545941  0.4757137974695098
  0.8044896880333141  0.9153108443454059  0.0242862025304902
  0.6210050213422988  0.1038641732915480  0.5301266625050189
  0.1210050213422988  0.8961358267084520  0.9698733374949811
  0.3789949786577012  0.8961358267084520  0.4698733374949811
  0.8789949786577012  0.1038641732915480  0.0301266625050189
  0.7817284230530319  0.9910059550075019  0.4019730833311357
  0.2817284230530319  0.0089940449924981  0.0980269166688643
  0.2182715769469681  0.0089940449924981  0.5980269166688572
  0.7182715769469681  0.9910059550075019  0.9019730833311428
  0.4637760612055501  0.3041765109659664  0.7765853899037367
  0.9637760612055501  0.6958234890340336  0.7234146100962633
  0.5362239387944499  0.6958234890340336  0.2234146100962633
  0.0362239387944499  0.3041765109659664  0.2765853899037367
  0.6847607733479322  0.6516661137358781  0.6397384694453621
  0.1847607733479322  0.3483338862641219  0.8602615305546379
  0.3152392266520678  0.3483338862641219  0.3602615305546308
  0.8152392266520678  0.6516661137358781  0.1397384694453692
  0.4329323682782160  0.6757376993135580  0.9255899786178574
  0.9329323682782160  0.3242623006864420  0.5744100213821426
  0.5670676317217840  0.3242623006864420  0.0744100213821426
  0.0670676317217840  0.6757376993135580  0.4255899786178574

  0.00000000E+00  0.00000000E+00  0.00000000E+00
  0.00000000E+00  0.00000000E+00  0.00000000E+00
  0.00000000E+00  0.00000000E+00  0.00000000E+00
  0.00000000E+00  0.00000000E+00  0.00000000E+00
  0.00000000E+00  0.00000000E+00  0.00000000E+00
  0.00000000E+00  0.00000000E+00  0.00000000E+00
  0.00000000E+00  0.00000000E+00  0.00000000E+00
  0.00000000E+00  0.00000000E+00  0.00000000E+00
  0.00000000E+00  0.00000000E+00  0.00000000E+00
  0.00000000E+00  0.00000000E+00  0.00000000E+00
  0.00000000E+00  0.00000000E+00  0.00000000E+00
  0.00000000E+00  0.00000000E+00  0.00000000E+00
  0.00000000E+00  0.00000000E+00  0.00000000E+00
  0.00000000E+00  0.00000000E+00  0.00000000E+00
  0.00000000E+00  0.00000000E+00  0.00000000E+00
  0.00000000E+00  0.00000000E+00  0.00000000E+00
  0.00000000E+00  0.00000000E+00  0.00000000E+00
  0.00000000E+00  0.00000000E+00  0.00000000E+00
  0.00000000E+00  0.00000000E+00  0.00000000E+00
  0.00000000E+00  0.00000000E+00  0.00000000E+00
  0.00000000E+00  0.00000000E+00  0.00000000E+00
  0.00000000E+00  0.00000000E+00  0.00000000E+00
  0.00000000E+00  0.00000000E+00  0.00000000E+00
  0.00000000E+00  0.00000000E+00  0.00000000E+00
  0.00000000E+00  0.00000000E+00  0.00000000E+00
  0.00000000E+00  0.00000000E+00  0.00000000E+00
  0.00000000E+00  0.00000000E+00  0.00000000E+00
  0.00000000E+00  0.00000000E+00  0.00000000E+00
