Be4 In4 I2                              
   1.00000000000000     
     3.5385825060501790    0.2218446956604752   -0.3528538742017853
    -2.3503381848312488    6.6797562415645180   -0.7825161479466749
    -0.6785452085161077   -1.6667680320323195   10.5878534772063144
   Be   In   I 
     4     4     2
Direct
  0.7872931391671187  0.0056209397023110  0.0652976528967315
  0.0465214605709505  0.1289026487229066  0.4661136548161835
  0.9533392516231558  0.8710254021237489  0.5339085953810496
  0.2127910696133384  0.9944114136683453  0.9347182230514122
  0.1403588596467529  0.7145361040092908  0.0671542258958482
  0.3108387718055496  0.7817057640509120  0.3478103508770332
  0.6890306137277804  0.2182516835217925  0.6522174558146787
  0.8597897605212239  0.2855494892805552  0.9328892144433070
  0.0359677694244738  0.2579784589610270  0.2854909094030873
  0.9640693038996702  0.7420180959591391  0.7145597174206628
 
  0.00000000E+00  0.00000000E+00  0.00000000E+00
  0.00000000E+00  0.00000000E+00  0.00000000E+00
  0.00000000E+00  0.00000000E+00  0.00000000E+00
  0.00000000E+00  0.00000000E+00  0.00000000E+00
  0.00000000E+00  0.00000000E+00  0.00000000E+00
  0.00000000E+00  0.00000000E+00  0.00000000E+00
  0.00000000E+00  0.00000000E+00  0.00000000E+00
  0.00000000E+00  0.00000000E+00  0.00000000E+00
  0.00000000E+00  0.00000000E+00  0.00000000E+00
  0.00000000E+00  0.00000000E+00  0.00000000E+00
