Sr6 In4 Br24                            
   1.00000000000000     
     0.0000000000000000    0.0000000000000000    7.5274028296728597
    13.0212933388979213    0.0003700877447290    0.0000000000000000
    -0.0003111922454084   12.7194960379815729    0.0000000000000000
   Sr   Br   In
     6    24     4
Direct
  0.0000000000000000  0.0000672854164208  0.0000054071185289
  0.5000000000000000  0.4361545268041738  0.1737769943146148
  0.5000000000000000  0.9361543506651699  0.3259684840740320
  0.0000000000000000  0.4999523362659488  0.5000107791324666
  0.5000000000000000  0.0638480838616999  0.6737704452565438
  0.5000000000000000  0.5638655199144367  0.8259651352284791
  0.2641752344194970  0.4999767619508404  0.9998866190824103
  0.7358247655805030  0.4999767619508404  0.9998866190824103
  0.2502976039886917  0.8097372996618617  0.0928663902697338
  0.7497023960113083  0.8097372996618617  0.0928663902697338
  0.0000000000000000  0.3400315560906932  0.1411251175159052
  0.2426294689640613  0.0859854163480946  0.2018730942974969
  0.7573705310359387  0.0859854163480946  0.2018730942974969
  0.2426305706825360  0.5858563347739008  0.2980419234756013
  0.7573694293174640  0.5858563347739008  0.2980419234756013
  0.0000000000000000  0.8398141447049667  0.3591275424934679
  0.2502678033533599  0.3096681787546061  0.4073277136533875
  0.7497321966466401  0.3096681787546061  0.4073277136533875
  0.2641712832514287  0.0000410077422757  0.4998786578154650
  0.7358287167485713  0.0000410077422757  0.4998786578154650
  0.2502937987732921  0.6902751331343495  0.5928580629077800
  0.7497062012267079  0.6902751331343495  0.5928580629077800
  0.0000000000000000  0.1599826042353101  0.6411160552231792
  0.2426388644564170  0.4140153950553085  0.7018881633457497
  0.7573611355435830  0.4140153950553085  0.7018881633457497
  0.2426263014861476  0.9141546228592645  0.7980355120162699
  0.7573736985138524  0.9141546228592645  0.7980355120162699
  0.0000000000000000  0.6601952494763310  0.8591384731742977
  0.2502840865139291  0.1903546182767926  0.9073244932556932
  0.7497159134860709  0.1903546182767926  0.9073244932556932
  0.0000000000000000  0.7168943543472395  0.2066647038323666
  0.0000000000000000  0.2169176510751072  0.2934504722857838
  0.0000000000000000  0.7831061277277769  0.7066699231422859
  0.0000000000000000  0.2830866723001861  0.7934492069689085
 
  0.00000000E+00  0.00000000E+00  0.00000000E+00
  0.00000000E+00  0.00000000E+00  0.00000000E+00
  0.00000000E+00  0.00000000E+00  0.00000000E+00
  0.00000000E+00  0.00000000E+00  0.00000000E+00
  0.00000000E+00  0.00000000E+00  0.00000000E+00
  0.00000000E+00  0.00000000E+00  0.00000000E+00
  0.00000000E+00  0.00000000E+00  0.00000000E+00
  0.00000000E+00  0.00000000E+00  0.00000000E+00
  0.00000000E+00  0.00000000E+00  0.00000000E+00
  0.00000000E+00  0.00000000E+00  0.00000000E+00
  0.00000000E+00  0.00000000E+00  0.00000000E+00
  0.00000000E+00  0.00000000E+00  0.00000000E+00
  0.00000000E+00  0.00000000E+00  0.00000000E+00
  0.00000000E+00  0.00000000E+00  0.00000000E+00
  0.00000000E+00  0.00000000E+00  0.00000000E+00
  0.00000000E+00  0.00000000E+00  0.00000000E+00
  0.00000000E+00  0.00000000E+00  0.00000000E+00
  0.00000000E+00  0.00000000E+00  0.00000000E+00
  0.00000000E+00  0.00000000E+00  0.00000000E+00
  0.00000000E+00  0.00000000E+00  0.00000000E+00
  0.00000000E+00  0.00000000E+00  0.00000000E+00
  0.00000000E+00  0.00000000E+00  0.00000000E+00
  0.00000000E+00  0.00000000E+00  0.00000000E+00
  0.00000000E+00  0.00000000E+00  0.00000000E+00
  0.00000000E+00  0.00000000E+00  0.00000000E+00
  0.00000000E+00  0.00000000E+00  0.00000000E+00
  0.00000000E+00  0.00000000E+00  0.00000000E+00
  0.00000000E+00  0.00000000E+00  0.00000000E+00
  0.00000000E+00  0.00000000E+00  0.00000000E+00
  0.00000000E+00  0.00000000E+00  0.00000000E+00
  0.00000000E+00  0.00000000E+00  0.00000000E+00
  0.00000000E+00  0.00000000E+00  0.00000000E+00
  0.00000000E+00  0.00000000E+00  0.00000000E+00
  0.00000000E+00  0.00000000E+00  0.00000000E+00
