Be2Ga                                   
   1.00000000000000     
     3.6057995988590470    2.0815395098991067    5.8897181470002629
    -3.6057995988590470    2.0815395098991067    5.8897181470002629
     0.0000000000000000   -4.1634649760945956    5.8898545766686325
   Be   Ga
     4     2
Direct
  0.3750000000000000  0.3750000000000000  0.3750000000000000
  0.8750000000000000  0.3750000000000000  0.3750000000000000
  0.3750000000000000  0.8750000000000000  0.3750000000000000
  0.3750000000000000  0.3750000000000000  0.8750000000000000
  0.2500185711014140  0.2500185711014140  0.2500246953652123
  0.4999814288985860  0.4999814288985860  0.4999753046347877
 
  0.00000000E+00  0.00000000E+00  0.00000000E+00
  0.00000000E+00  0.00000000E+00  0.00000000E+00
  0.00000000E+00  0.00000000E+00  0.00000000E+00
  0.00000000E+00  0.00000000E+00  0.00000000E+00
  0.00000000E+00  0.00000000E+00  0.00000000E+00
  0.00000000E+00  0.00000000E+00  0.00000000E+00
