Sr13 B16                                
   1.00000000000000     
    -5.4546319939854691   -5.4546319939854691    5.4546319939854691
    -5.4546319939854691    5.4546319939854691   -5.4546319939854691
     5.4546319939854691   -5.4546319939854691   -5.4546319939854691
   B    Sr
    16    13
Direct
  0.7443571920757961  0.0000000000000000  0.0000000000000000
  0.3598662778016006  0.1101846554673429  0.0000000000000000
  0.1101846554673429  0.3598662778016006  0.0000000000000000
  0.0000000000000000  0.7443571920757961  0.0000000000000000
  0.8898153445326571  0.8898153445326571  0.2496816223342577
  0.3598662778016006  0.0000000000000000  0.1101846554673429
  0.0000000000000000  0.3598662778016006  0.1101846554673429
  0.2556428079242039  0.2556428079242039  0.2556428079242039
  0.1101846554673429  0.0000000000000000  0.3598662778016006
  0.0000000000000000  0.1101846554673429  0.3598662778016006
  0.7503183776657423  0.6401337221983994  0.6401337221983994
  0.6401337221983994  0.7503183776657423  0.6401337221983994
  0.0000000000000000  0.0000000000000000  0.7443571920757961
  0.8898153445326571  0.2496816223342577  0.8898153445326571
  0.2496816223342577  0.8898153445326571  0.8898153445326571
  0.6401337221983994  0.6401337221983994  0.7503183776657423
  0.0000000000000000  0.0000000000000000  0.0000000000000000
  0.7582625315229095  0.5127257304860180  0.0000000000000000
  0.5127257304860180  0.7582625315229095  0.0000000000000000
  0.4872742695139820  0.4872742695139820  0.2455368010368915
  0.7544631989631085  0.2417374684770905  0.2417374684770905
  0.2417374684770905  0.7544631989631085  0.2417374684770905
  0.7582625315229095  0.0000000000000000  0.5127257304860180
  0.0000000000000000  0.7582625315229095  0.5127257304860180
  0.4872742695139820  0.2455368010368915  0.4872742695139820
  0.2455368010368915  0.4872742695139820  0.4872742695139820
  0.5127257304860180  0.0000000000000000  0.7582625315229095
  0.0000000000000000  0.5127257304860180  0.7582625315229095
  0.2417374684770905  0.2417374684770905  0.7544631989631085
 
  0.00000000E+00  0.00000000E+00  0.00000000E+00
  0.00000000E+00  0.00000000E+00  0.00000000E+00
  0.00000000E+00  0.00000000E+00  0.00000000E+00
  0.00000000E+00  0.00000000E+00  0.00000000E+00
  0.00000000E+00  0.00000000E+00  0.00000000E+00
  0.00000000E+00  0.00000000E+00  0.00000000E+00
  0.00000000E+00  0.00000000E+00  0.00000000E+00
  0.00000000E+00  0.00000000E+00  0.00000000E+00
  0.00000000E+00  0.00000000E+00  0.00000000E+00
  0.00000000E+00  0.00000000E+00  0.00000000E+00
  0.00000000E+00  0.00000000E+00  0.00000000E+00
  0.00000000E+00  0.00000000E+00  0.00000000E+00
  0.00000000E+00  0.00000000E+00  0.00000000E+00
  0.00000000E+00  0.00000000E+00  0.00000000E+00
  0.00000000E+00  0.00000000E+00  0.00000000E+00
  0.00000000E+00  0.00000000E+00  0.00000000E+00
  0.00000000E+00  0.00000000E+00  0.00000000E+00
  0.00000000E+00  0.00000000E+00  0.00000000E+00
  0.00000000E+00  0.00000000E+00  0.00000000E+00
  0.00000000E+00  0.00000000E+00  0.00000000E+00
  0.00000000E+00  0.00000000E+00  0.00000000E+00
  0.00000000E+00  0.00000000E+00  0.00000000E+00
  0.00000000E+00  0.00000000E+00  0.00000000E+00
  0.00000000E+00  0.00000000E+00  0.00000000E+00
  0.00000000E+00  0.00000000E+00  0.00000000E+00
  0.00000000E+00  0.00000000E+00  0.00000000E+00
  0.00000000E+00  0.00000000E+00  0.00000000E+00
  0.00000000E+00  0.00000000E+00  0.00000000E+00
  0.00000000E+00  0.00000000E+00  0.00000000E+00
