Ca2 B2 F10                              
   1.0000000000000000     
     3.3022298457346277   -0.0000000000000000    0.0000000000000002
    -0.0000000000000005    7.9156401391789473    0.0000000000000005
    -0.0000000000000000   -0.0000000000000000    7.0993107336497259
   Ca   B    F 
     2     2    10
Direct
  0.0000000000000000  0.0000000000000000  0.5000000000000000
  0.5000000000000000  0.5000000000000000  0.0000000000000000
  0.5000000000000000  0.0000000000000000  0.0000000000000000
  0.0000000000000000  0.5000000000000000  0.5000000000000000
  0.5000000000000000  0.8175667139173726  0.5000000000000000
  0.5000000000000000  0.1824332860826274  0.5000000000000000
  0.5000000000000000  0.0000000000000000  0.1898750076941838
  0.5000000000000000  0.0000000000000000  0.8101249923058162
  0.0000000000000000  0.0000000000000000  0.0000000000000000
  0.0000000000000000  0.3175667139173655  0.0000000000000000
  0.0000000000000000  0.6824332860826274  0.0000000000000000
  0.0000000000000000  0.5000000000000000  0.6898750076941838
  0.0000000000000000  0.5000000000000000  0.3101249923058162
  0.5000000000000000  0.5000000000000000  0.5000000000000000

  0.00000000E+00  0.00000000E+00  0.00000000E+00
  0.00000000E+00  0.00000000E+00  0.00000000E+00
  0.00000000E+00  0.00000000E+00  0.00000000E+00
  0.00000000E+00  0.00000000E+00  0.00000000E+00
  0.00000000E+00  0.00000000E+00  0.00000000E+00
  0.00000000E+00  0.00000000E+00  0.00000000E+00
  0.00000000E+00  0.00000000E+00  0.00000000E+00
  0.00000000E+00  0.00000000E+00  0.00000000E+00
  0.00000000E+00  0.00000000E+00  0.00000000E+00
  0.00000000E+00  0.00000000E+00  0.00000000E+00
  0.00000000E+00  0.00000000E+00  0.00000000E+00
  0.00000000E+00  0.00000000E+00  0.00000000E+00
  0.00000000E+00  0.00000000E+00  0.00000000E+00
  0.00000000E+00  0.00000000E+00  0.00000000E+00
