Ca4 Tl8 I16                             
   1.0000000000000000     
    10.3239159316929427    0.5047951448612165    0.0844804531967300
     0.3864785802835144    8.4936661800364277   -0.4686188029818465
     0.1760023214566607   -0.9326042800541557   15.2541644098587739
   Ca   I    Tl
     4    16     8
Direct
  0.6944534415540815  0.2737584686699535  0.0674536958722740
  0.1894976194316556  0.3954184976239077  0.4425344770345987
  0.7927898770925665  0.6297605476639632  0.5663075436666034
  0.3180481385192948  0.7925749624730969  0.9259406831646686
  0.1574470423558338  0.8884104216527362  0.0959601081196837
  0.4735399512245522  0.0876724667592299  0.9837794160366968
  0.7171949585324597  0.0593427067016066  0.2138267657471502
  0.8745062397627592  0.5186458630598167  0.1439289300903965
  0.2889175772879398  0.0454359971732288  0.3787729423343364
  0.2581002854304799  0.5086644926854618  0.2670003879846519
  0.9182312059523170  0.2883082860702615  0.4878094368925616
  0.6551027159176215  0.6982609273003817  0.3961747958645674
  0.4127997657261986  0.4205007313266833  0.5727075709842495
  0.0595316348837898  0.7374655150181084  0.5188449818810241
  0.7551567034860867  0.5152746945643898  0.7471368640859737
  0.6760801223419719  0.9716267258108218  0.6476118642739763
  0.1676694978226863  0.5066261931041964  0.8649141724903728
  0.2583695201829528  0.9640912545720752  0.7626544001415141
  0.5439772355207779  0.5734774989651825  0.9941674789475314
  0.8959686874752748  0.1242655572284335  0.9286752012380788
  0.1503412967406987  0.2980104707494746  0.0557589940198966
  0.4601143824627627  0.8060813219580965  0.2085804703650638
  0.0027920038677820  0.8107103518425447  0.2899219896294625
  0.6159446479890747  0.1134579968268596  0.4356593966429045
  0.3868848174142911  0.8225567895000481  0.5554419138112792
  0.9444357165510269  0.1693572052565244  0.7091858335469539
  0.4604497002897219  0.2693546498544350  0.7874298657442367
  0.8716552141833418  0.7104894055884827  0.9514198193892653

  0.00000000E+00  0.00000000E+00  0.00000000E+00
  0.00000000E+00  0.00000000E+00  0.00000000E+00
  0.00000000E+00  0.00000000E+00  0.00000000E+00
  0.00000000E+00  0.00000000E+00  0.00000000E+00
  0.00000000E+00  0.00000000E+00  0.00000000E+00
  0.00000000E+00  0.00000000E+00  0.00000000E+00
  0.00000000E+00  0.00000000E+00  0.00000000E+00
  0.00000000E+00  0.00000000E+00  0.00000000E+00
  0.00000000E+00  0.00000000E+00  0.00000000E+00
  0.00000000E+00  0.00000000E+00  0.00000000E+00
  0.00000000E+00  0.00000000E+00  0.00000000E+00
  0.00000000E+00  0.00000000E+00  0.00000000E+00
  0.00000000E+00  0.00000000E+00  0.00000000E+00
  0.00000000E+00  0.00000000E+00  0.00000000E+00
  0.00000000E+00  0.00000000E+00  0.00000000E+00
  0.00000000E+00  0.00000000E+00  0.00000000E+00
  0.00000000E+00  0.00000000E+00  0.00000000E+00
  0.00000000E+00  0.00000000E+00  0.00000000E+00
  0.00000000E+00  0.00000000E+00  0.00000000E+00
  0.00000000E+00  0.00000000E+00  0.00000000E+00
  0.00000000E+00  0.00000000E+00  0.00000000E+00
  0.00000000E+00  0.00000000E+00  0.00000000E+00
  0.00000000E+00  0.00000000E+00  0.00000000E+00
  0.00000000E+00  0.00000000E+00  0.00000000E+00
  0.00000000E+00  0.00000000E+00  0.00000000E+00
  0.00000000E+00  0.00000000E+00  0.00000000E+00
  0.00000000E+00  0.00000000E+00  0.00000000E+00
  0.00000000E+00  0.00000000E+00  0.00000000E+00
