Al8 I14                                 
   1.00000000000000     
     4.0451056494866862   -7.1716754298902803   -0.4024930986545667
    -4.0451056494866862   -7.1716754298902803   -0.4024930986545667
     0.0000000000000000    3.8182568481811248  -15.9153089298672814
   I    Al
    14     8
Direct
  0.3471236020710222  0.3471236020710222  0.0528093583495135
  0.8741296229654125  0.3676516145768076  0.1651641387896774
  0.3676516145768076  0.8741296229654125  0.1651641387896774
  0.8723766502128640  0.8723766502128640  0.1575821847083603
  0.6526527811779701  0.1663332913710249  0.3925154438740535
  0.1663332913710249  0.6526527811779701  0.3925154438740535
  0.6495097230786300  0.6495097230786300  0.4094650944832239
  0.3485430412645911  0.3485430412645911  0.5901314507426960
  0.8319671630688035  0.3428179533739737  0.6057359956428954
  0.3428179533739737  0.8319671630688035  0.6057359956428954
  0.1282896357758005  0.1282896357758005  0.8434880453702647
  0.6329395817659460  0.1271970475062147  0.8338263970514461
  0.1271970475062147  0.6329395817659460  0.8338263970514461
  0.6554141003679348  0.6554141003679348  0.9459683405962949
  0.0030731024265478  0.0030731024265478  0.0050227481830660
  0.6940223866290438  0.6940223866290438  0.1024915150758190
  0.4927421028577044  0.4927421028577044  0.2555443007454059
  0.1355086350788639  0.1355086350788639  0.4807126306107179
  0.4989806964948755  0.4989806964948755  0.4995868355498700
  0.8678798910322740  0.8678798910322740  0.5191562903984703
  0.5049944694057729  0.5049944694057729  0.7471275308174512
  0.3066529074979201  0.3066529074979201  0.8961297236526917
 
  0.00000000E+00  0.00000000E+00  0.00000000E+00
  0.00000000E+00  0.00000000E+00  0.00000000E+00
  0.00000000E+00  0.00000000E+00  0.00000000E+00
  0.00000000E+00  0.00000000E+00  0.00000000E+00
  0.00000000E+00  0.00000000E+00  0.00000000E+00
  0.00000000E+00  0.00000000E+00  0.00000000E+00
  0.00000000E+00  0.00000000E+00  0.00000000E+00
  0.00000000E+00  0.00000000E+00  0.00000000E+00
  0.00000000E+00  0.00000000E+00  0.00000000E+00
  0.00000000E+00  0.00000000E+00  0.00000000E+00
  0.00000000E+00  0.00000000E+00  0.00000000E+00
  0.00000000E+00  0.00000000E+00  0.00000000E+00
  0.00000000E+00  0.00000000E+00  0.00000000E+00
  0.00000000E+00  0.00000000E+00  0.00000000E+00
  0.00000000E+00  0.00000000E+00  0.00000000E+00
  0.00000000E+00  0.00000000E+00  0.00000000E+00
  0.00000000E+00  0.00000000E+00  0.00000000E+00
  0.00000000E+00  0.00000000E+00  0.00000000E+00
  0.00000000E+00  0.00000000E+00  0.00000000E+00
  0.00000000E+00  0.00000000E+00  0.00000000E+00
  0.00000000E+00  0.00000000E+00  0.00000000E+00
  0.00000000E+00  0.00000000E+00  0.00000000E+00
