Be15 B1                                 
   1.00000000000000     
     2.2486782951624544   -3.8948250543293428    0.0000000000000000
     2.2486782951624544    3.8948250543293423    0.0000000000000000
     0.0000000000000000    0.0000000000000000    7.0937102787116064
   Be   B 
    15     1
Direct
  0.3333330000000032  0.6666669999999968  0.5000000000000000
  0.8302638773155380  0.6605277546773181  0.0000000000000000
  0.8348560476085680  0.6697110951237448  0.5000000000000000
  0.8302638773617801  0.1697361226382199  0.0000000000000000
  0.8348560475151743  0.1651439524848257  0.5000000000000000
  0.3394722453226819  0.1697361226844620  0.0000000000000000
  0.3302889048762552  0.1651439523914320  0.5000000000000000
  0.6648213087615034  0.8324111544136628  0.2431906481967872
  0.6648213087615034  0.8324111544136628  0.7568093518032128
  0.1675888456521619  0.8324111543478381  0.2431906481967872
  0.1675888456521619  0.8324111543478381  0.7568093518032128
  0.1675888455863372  0.3351786912384966  0.2431906481967872
  0.1675888455863372  0.3351786912384966  0.7568093518032128
  0.6666669999999968  0.3333330000000032  0.2525064512716000
  0.6666669999999968  0.3333330000000032  0.7474935487284000
  0.3333330000000032  0.6666669999999968  0.0000000000000000
 
  0.00000000E+00  0.00000000E+00  0.00000000E+00
  0.00000000E+00  0.00000000E+00  0.00000000E+00
  0.00000000E+00  0.00000000E+00  0.00000000E+00
  0.00000000E+00  0.00000000E+00  0.00000000E+00
  0.00000000E+00  0.00000000E+00  0.00000000E+00
  0.00000000E+00  0.00000000E+00  0.00000000E+00
  0.00000000E+00  0.00000000E+00  0.00000000E+00
  0.00000000E+00  0.00000000E+00  0.00000000E+00
  0.00000000E+00  0.00000000E+00  0.00000000E+00
  0.00000000E+00  0.00000000E+00  0.00000000E+00
  0.00000000E+00  0.00000000E+00  0.00000000E+00
  0.00000000E+00  0.00000000E+00  0.00000000E+00
  0.00000000E+00  0.00000000E+00  0.00000000E+00
  0.00000000E+00  0.00000000E+00  0.00000000E+00
  0.00000000E+00  0.00000000E+00  0.00000000E+00
  0.00000000E+00  0.00000000E+00  0.00000000E+00
