Ba4 In4 F20                             
   1.0000000000000000     
     0.0000000000000000    5.5795747258887829   -0.0500154752861351
     9.1526530577804728    0.0000000000000000    0.0000000000000000
     0.0000000000000000   -0.0718808512256507   -7.7131152498196531
   Ba   In   F 
     4     4    20
Direct
  0.4997807951027866  0.3124782908955837  0.3734708519273013
  0.5002192048972205  0.8124782908955837  0.6265291480726987
  0.9999754323354466  0.9763733994781703  0.1162574539334003
  0.0000245676645534  0.4763733994781703  0.8837425460665997
  0.5000286040038162  0.6954966664488040  0.1099593167306310
  0.4999713959961838  0.1954966664488040  0.8900406832693690
  0.0000142100451654  0.6165370512918642  0.4036108458703538
  0.9999857899548346  0.1165370512918713  0.5963891541296462
  0.2644588889088340  0.0500538647748883  0.4282713932180116
  0.2650982949211240  0.5498960045311208  0.5712171035364975
  0.7349017050788760  0.0498960045311208  0.4287828964634954
  0.7591875302122588  0.7234963203512734  0.9214091215600675
  0.7560385494880606  0.5243211164004578  0.2041945734078112
  0.4997414286499335  0.9417270898321703  0.0767003762755110
  0.7453047084682183  0.2773684371434797  0.6962889578403306
  0.7454389835642488  0.7774253350725289  0.3037599864096308
  0.2439614505119394  0.0243211164004578  0.7958054265921888
  0.0003023422123363  0.8048237294585903  0.5870296866523290
  0.5002585713500665  0.4417270898321703  0.9232996237244890
  0.7355411110911660  0.5500538647748883  0.5717286067819884
  0.7564302312229572  0.0243456220598475  0.7961734486800154
  0.7584514230589008  0.2232560522612133  0.0792054141180643
  0.9996976577876637  0.3048237294585903  0.4129703133476710
  0.2546952915317817  0.7773684371434797  0.3037110421596694
  0.2408124697877341  0.2234963203512734  0.0785908784399183
  0.2415485769410992  0.7232560522612133  0.9207945858819286
  0.2545610164357512  0.2774253350725289  0.6962400135903692
  0.2435697687770428  0.5243456220598475  0.2038265513199846

  0.00000000E+00  0.00000000E+00  0.00000000E+00
  0.00000000E+00  0.00000000E+00  0.00000000E+00
  0.00000000E+00  0.00000000E+00  0.00000000E+00
  0.00000000E+00  0.00000000E+00  0.00000000E+00
  0.00000000E+00  0.00000000E+00  0.00000000E+00
  0.00000000E+00  0.00000000E+00  0.00000000E+00
  0.00000000E+00  0.00000000E+00  0.00000000E+00
  0.00000000E+00  0.00000000E+00  0.00000000E+00
  0.00000000E+00  0.00000000E+00  0.00000000E+00
  0.00000000E+00  0.00000000E+00  0.00000000E+00
  0.00000000E+00  0.00000000E+00  0.00000000E+00
  0.00000000E+00  0.00000000E+00  0.00000000E+00
  0.00000000E+00  0.00000000E+00  0.00000000E+00
  0.00000000E+00  0.00000000E+00  0.00000000E+00
  0.00000000E+00  0.00000000E+00  0.00000000E+00
  0.00000000E+00  0.00000000E+00  0.00000000E+00
  0.00000000E+00  0.00000000E+00  0.00000000E+00
  0.00000000E+00  0.00000000E+00  0.00000000E+00
  0.00000000E+00  0.00000000E+00  0.00000000E+00
  0.00000000E+00  0.00000000E+00  0.00000000E+00
  0.00000000E+00  0.00000000E+00  0.00000000E+00
  0.00000000E+00  0.00000000E+00  0.00000000E+00
  0.00000000E+00  0.00000000E+00  0.00000000E+00
  0.00000000E+00  0.00000000E+00  0.00000000E+00
  0.00000000E+00  0.00000000E+00  0.00000000E+00
  0.00000000E+00  0.00000000E+00  0.00000000E+00
  0.00000000E+00  0.00000000E+00  0.00000000E+00
  0.00000000E+00  0.00000000E+00  0.00000000E+00
