Mg8 In10                                
   1.00000000000000     
     5.5842298078256896    0.0180191269766715    0.5864228254583823
    -2.8117523510707887    4.9384551410786335   -0.2806223916381298
     1.4951700765423441   -0.0245376242514703   16.1060192206483670
   In   Mg
    10     8
Direct
  0.7699153455419818  0.3273550063937591  0.0800844317593743
  0.9902296818247507  0.6466605914612984  0.2490275079482345
  0.3213492970831453  0.3124093114132407  0.2504370491496246
  0.6554175790900203  0.9743717860979970  0.2501684104843136
  0.5407897839630209  0.2939305693720371  0.4203727052959181
  0.4471434107036458  0.6709320544038917  0.5797460209602505
  0.6818795631273886  0.0246135520507238  0.7500934826131100
  0.3448163039260379  0.3527828967161426  0.7488111632386065
  0.0102855047072055  0.6871136974296235  0.7502452516066143
  0.2429265198798234  0.7084729458240133  0.9205838966854287
  0.4386574231181015  0.6613858711800944  0.0851468982360970
  0.1020931020388360  0.9992674821817928  0.0846054813251484
  0.8817336813001404  0.9716924382700896  0.4156184122246955
  0.2086227640369600  0.6368477725779655  0.4151760169663419
  0.7817323268362983  0.3369738166924847  0.5850886399455177
  0.1071430191515148  0.9991494274811359  0.5843656944953182
  0.9071484128735676  0.0310671761279551  0.9157349162021404
  0.5686162807975563  0.3654736043257145  0.9151940208633604
 
  0.00000000E+00  0.00000000E+00  0.00000000E+00
  0.00000000E+00  0.00000000E+00  0.00000000E+00
  0.00000000E+00  0.00000000E+00  0.00000000E+00
  0.00000000E+00  0.00000000E+00  0.00000000E+00
  0.00000000E+00  0.00000000E+00  0.00000000E+00
  0.00000000E+00  0.00000000E+00  0.00000000E+00
  0.00000000E+00  0.00000000E+00  0.00000000E+00
  0.00000000E+00  0.00000000E+00  0.00000000E+00
  0.00000000E+00  0.00000000E+00  0.00000000E+00
  0.00000000E+00  0.00000000E+00  0.00000000E+00
  0.00000000E+00  0.00000000E+00  0.00000000E+00
  0.00000000E+00  0.00000000E+00  0.00000000E+00
  0.00000000E+00  0.00000000E+00  0.00000000E+00
  0.00000000E+00  0.00000000E+00  0.00000000E+00
  0.00000000E+00  0.00000000E+00  0.00000000E+00
  0.00000000E+00  0.00000000E+00  0.00000000E+00
  0.00000000E+00  0.00000000E+00  0.00000000E+00
  0.00000000E+00  0.00000000E+00  0.00000000E+00
