Ca2 Tl2 I6                              
   1.0000000000000000     
     2.3005407382835150   -7.7026327166459270    0.0000000000000000
     2.3005407382835150    7.7026327166459270   -0.0000000000000000
     0.0000000000000000    0.0000000000000000   11.7542592115190256
   Ca   Tl   I 
     2     2     6
Direct
  0.0000000000000000  0.0000000000000000  0.0000000000000000
  0.0000000000000000  0.0000000000000000  0.5000000000000000
  0.2588847136482642  0.7411152863517358  0.2500000000000000
  0.7411152863517358  0.2588847136482642  0.7500000000000000
  0.6349770179671594  0.3650229820328406  0.0537778705745495
  0.3650229820328406  0.6349770179671594  0.9462221294254505
  0.3650229820328406  0.6349770179671594  0.5537778705745495
  0.6349770179671594  0.3650229820328406  0.4462221294254505
  0.9265699096910964  0.0734300903089036  0.2500000000000000
  0.0734300903089036  0.9265699096910964  0.7500000000000000

  0.00000000E+00  0.00000000E+00  0.00000000E+00
  0.00000000E+00  0.00000000E+00  0.00000000E+00
  0.00000000E+00  0.00000000E+00  0.00000000E+00
  0.00000000E+00  0.00000000E+00  0.00000000E+00
  0.00000000E+00  0.00000000E+00  0.00000000E+00
  0.00000000E+00  0.00000000E+00  0.00000000E+00
  0.00000000E+00  0.00000000E+00  0.00000000E+00
  0.00000000E+00  0.00000000E+00  0.00000000E+00
  0.00000000E+00  0.00000000E+00  0.00000000E+00
  0.00000000E+00  0.00000000E+00  0.00000000E+00
