Sr1 B2 F6                               
   1.00000000000000     
     2.4490670409834188    2.2466242666737086    4.4995755304256111
    -2.4490670409834183    2.2466242666737086    4.4995755304256111
     0.0000000000000000   -2.8476834136902549    3.7260384708748746
   Sr   F    B 
     1     6     2
Direct
  0.0000000000000000  0.0000000000000000  0.0000000000000000
  0.6205340795754068  0.6205340795754068  0.7137184980363500
  0.8698226527241886  0.3992449816234895  0.2788256611972884
  0.3992449816234895  0.8698226527241886  0.2788256611972884
  0.3794659204245932  0.3794659204245932  0.2862815019636571
  0.6007550183765105  0.1301773472758043  0.7211743388027116
  0.1301773472758043  0.6007550183765105  0.7211743388027116
  0.3214048372612126  0.3214048372612126  0.6197647415710605
  0.6785951627387874  0.6785951627387874  0.3802352584289395
 
  0.00000000E+00  0.00000000E+00  0.00000000E+00
  0.00000000E+00  0.00000000E+00  0.00000000E+00
  0.00000000E+00  0.00000000E+00  0.00000000E+00
  0.00000000E+00  0.00000000E+00  0.00000000E+00
  0.00000000E+00  0.00000000E+00  0.00000000E+00
  0.00000000E+00  0.00000000E+00  0.00000000E+00
  0.00000000E+00  0.00000000E+00  0.00000000E+00
  0.00000000E+00  0.00000000E+00  0.00000000E+00
  0.00000000E+00  0.00000000E+00  0.00000000E+00
