Sr2 Ga2 I10                             
   1.00000000000000     
    -6.7594579460848276   -4.7887734926314902    0.3239673879516708
     6.7692160430819959   -4.7985843407590441   -0.3187975092489135
    -5.3812165861922194    0.0117230468968312   10.3812489790188387
   Ga   Sr   I 
     2     2    10
Direct
  0.0705803772839957  0.9688222632756975  0.0696344825877091
  0.0310532612031409  0.9300006830597809  0.5709505485129114
  0.4642486777282571  0.7891994092734649  0.2149052380746568
  0.2106906245140436  0.5356140249281367  0.7148478632777540
  0.8792152974937721  0.6373399024120161  0.0458853580321659
  0.8128285918600611  0.1389178269315892  0.1417958459222959
  0.2460352125374712  0.1216385655918231  0.2368955737811831
  0.0210727915921041  0.6789872510826456  0.3494873855466949
  0.4605896654855854  0.6219441572613817  0.4381290844004084
  0.3631228942953015  0.1214848581946129  0.5458730689107583
  0.8572971925634647  0.1860045277823517  0.6465732502645807
  0.8802718612528366  0.7530100803694140  0.7372566343393459
  0.3248187894327117  0.9776689611321387  0.8493141762574439
  0.3780737627572606  0.5392674887049580  0.9381494900921012
 
  0.00000000E+00  0.00000000E+00  0.00000000E+00
  0.00000000E+00  0.00000000E+00  0.00000000E+00
  0.00000000E+00  0.00000000E+00  0.00000000E+00
  0.00000000E+00  0.00000000E+00  0.00000000E+00
  0.00000000E+00  0.00000000E+00  0.00000000E+00
  0.00000000E+00  0.00000000E+00  0.00000000E+00
  0.00000000E+00  0.00000000E+00  0.00000000E+00
  0.00000000E+00  0.00000000E+00  0.00000000E+00
  0.00000000E+00  0.00000000E+00  0.00000000E+00
  0.00000000E+00  0.00000000E+00  0.00000000E+00
  0.00000000E+00  0.00000000E+00  0.00000000E+00
  0.00000000E+00  0.00000000E+00  0.00000000E+00
  0.00000000E+00  0.00000000E+00  0.00000000E+00
  0.00000000E+00  0.00000000E+00  0.00000000E+00
