Be2 Al2 F10                             
   1.0000000000000000     
     3.1591832635351560   -0.0000000000000000    0.0000000000000002
    -0.0000000000000005    7.1189519179224723    0.0000000000000005
    -0.0000000000000000   -0.0000000000000000    8.0020681129069171
   Be   Al   F 
     2     2    10
Direct
  0.0000000000000000  0.0000000000000000  0.5000000000000000
  0.5000000000000000  0.5000000000000000  0.0000000000000000
  0.5000000000000000  0.0000000000000000  0.0000000000000000
  0.0000000000000000  0.5000000000000000  0.5000000000000000
  0.5000000000000000  0.8446900555140004  0.5000000000000000
  0.5000000000000000  0.1553099444859996  0.5000000000000000
  0.5000000000000000  0.0000000000000000  0.2131261572389604
  0.5000000000000000  0.0000000000000000  0.7868738427610396
  0.0000000000000000  0.0000000000000000  0.0000000000000000
  0.0000000000000000  0.3446900555140004  0.0000000000000000
  0.0000000000000000  0.6553099444859996  0.0000000000000000
  0.0000000000000000  0.5000000000000000  0.7131261572389604
  0.0000000000000000  0.5000000000000000  0.2868738427610396
  0.5000000000000000  0.5000000000000000  0.5000000000000000

  0.00000000E+00  0.00000000E+00  0.00000000E+00
  0.00000000E+00  0.00000000E+00  0.00000000E+00
  0.00000000E+00  0.00000000E+00  0.00000000E+00
  0.00000000E+00  0.00000000E+00  0.00000000E+00
  0.00000000E+00  0.00000000E+00  0.00000000E+00
  0.00000000E+00  0.00000000E+00  0.00000000E+00
  0.00000000E+00  0.00000000E+00  0.00000000E+00
  0.00000000E+00  0.00000000E+00  0.00000000E+00
  0.00000000E+00  0.00000000E+00  0.00000000E+00
  0.00000000E+00  0.00000000E+00  0.00000000E+00
  0.00000000E+00  0.00000000E+00  0.00000000E+00
  0.00000000E+00  0.00000000E+00  0.00000000E+00
  0.00000000E+00  0.00000000E+00  0.00000000E+00
  0.00000000E+00  0.00000000E+00  0.00000000E+00
