Be4 Ga4 Cl2                             
   1.00000000000000     
     4.0724180694597152    0.4374434130047306    0.0142271316199350
    -1.6241836551614528    2.8488397468201732   -0.0120001292968504
    -0.0536461241549521    0.0285742706818755   14.4443121175845501
   Be   Ga   Cl
     4     4     2
Direct
  0.8450695050297199  0.1700970803761450  0.1181518474513723
  0.8445814599668324  0.1707600022894482  0.3818629804930680
  0.1552507722467524  0.8303378318797314  0.6181947728669783
  0.1549898481318266  0.8295805020665341  0.8818611495649122
  0.2253502396416422  0.8620952787054179  0.0525624548346286
  0.2251156918200294  0.8627747731624353  0.4474999386387140
  0.7747089060643475  0.1384030281792334  0.5525805566901454
  0.7746159221639530  0.1374262129015804  0.9474238058278885
  0.6736590136396146  0.0910332248958454  0.2500039643487355
  0.3266586412952677  0.9074920655436429  0.7500185292835653
 
  0.00000000E+00  0.00000000E+00  0.00000000E+00
  0.00000000E+00  0.00000000E+00  0.00000000E+00
  0.00000000E+00  0.00000000E+00  0.00000000E+00
  0.00000000E+00  0.00000000E+00  0.00000000E+00
  0.00000000E+00  0.00000000E+00  0.00000000E+00
  0.00000000E+00  0.00000000E+00  0.00000000E+00
  0.00000000E+00  0.00000000E+00  0.00000000E+00
  0.00000000E+00  0.00000000E+00  0.00000000E+00
  0.00000000E+00  0.00000000E+00  0.00000000E+00
  0.00000000E+00  0.00000000E+00  0.00000000E+00
