Ca17 Al11 Br1                           
   1.00000000000000     
     8.4188392967471390   -4.8794118269728584    3.4304206379445956
     0.0136558790282235    9.8035508115032073    3.4734427330765576
    -8.3076817914304879   -4.8243720182241940    3.2293433363054649
   Al   Br   Ca
    11     1    17
Direct
  0.6308348342238688  0.8824942779608023  0.9999944971936330
  0.3705164079969592  0.3506691016166457  0.1897215159015531
  0.1840187819403596  0.8290998812201167  0.1824470394294977
  0.8580620250792848  0.2102541548019303  0.1985726923839906
  0.1957051028231831  0.3610858512285446  0.3623644500111638
  0.3651632114370997  0.1852475016046213  0.3692360931179195
  0.9959377913684833  0.8160262719077735  0.6307839320313562
  0.8333478535718370  0.9987448147663471  0.6376403247531996
  0.6594950900519336  0.0116959070898375  0.8014178466580262
  0.0015516459471101  0.6466524243313216  0.8175328998642826
  0.1808263341305221  0.1609921925256899  0.8103377646700594
  0.7223489576203974  0.5452265354617793  0.0000247119198846
  0.0296381165951800  0.3279430851950593  0.0000169030486674
  0.3161422071995688  0.6305700508574432  0.0000036171219548
  0.3062359971646345  0.9823571559145918  0.0000224186437237
  0.5773779130254653  0.2544458970965522  0.9999983070590019
  0.0010846601567138  0.0083645048270213  0.9999672620511078
  0.6814661612192410  0.6807915658389518  0.2864572370417520
  0.9936804782112247  0.5904567863219441  0.2915277665145410
  0.6074219556385074  0.0148217465784768  0.3191167134617174
  0.9937852752403558  0.0054730164371932  0.3307544093618731
  0.3991093968606876  0.7088661885472192  0.3897871195665843
  0.7328449170131037  0.4199617263204729  0.4268621979127332
  0.3059734920370971  0.9931363893061089  0.5731378581908331
  0.0093251572017081  0.3190257176486710  0.6101881697527745
  0.6629749818290804  0.6746711147360855  0.6691248278706610
  0.2882957039211931  0.6957294346160054  0.6808879563354608
  0.7021924492951541  0.2989604535268313  0.7084890497662002
  0.3950571012000808  0.3943922517159351  0.7135844183658335
 
  0.00000000E+00  0.00000000E+00  0.00000000E+00
  0.00000000E+00  0.00000000E+00  0.00000000E+00
  0.00000000E+00  0.00000000E+00  0.00000000E+00
  0.00000000E+00  0.00000000E+00  0.00000000E+00
  0.00000000E+00  0.00000000E+00  0.00000000E+00
  0.00000000E+00  0.00000000E+00  0.00000000E+00
  0.00000000E+00  0.00000000E+00  0.00000000E+00
  0.00000000E+00  0.00000000E+00  0.00000000E+00
  0.00000000E+00  0.00000000E+00  0.00000000E+00
  0.00000000E+00  0.00000000E+00  0.00000000E+00
  0.00000000E+00  0.00000000E+00  0.00000000E+00
  0.00000000E+00  0.00000000E+00  0.00000000E+00
  0.00000000E+00  0.00000000E+00  0.00000000E+00
  0.00000000E+00  0.00000000E+00  0.00000000E+00
  0.00000000E+00  0.00000000E+00  0.00000000E+00
  0.00000000E+00  0.00000000E+00  0.00000000E+00
  0.00000000E+00  0.00000000E+00  0.00000000E+00
  0.00000000E+00  0.00000000E+00  0.00000000E+00
  0.00000000E+00  0.00000000E+00  0.00000000E+00
  0.00000000E+00  0.00000000E+00  0.00000000E+00
  0.00000000E+00  0.00000000E+00  0.00000000E+00
  0.00000000E+00  0.00000000E+00  0.00000000E+00
  0.00000000E+00  0.00000000E+00  0.00000000E+00
  0.00000000E+00  0.00000000E+00  0.00000000E+00
  0.00000000E+00  0.00000000E+00  0.00000000E+00
  0.00000000E+00  0.00000000E+00  0.00000000E+00
  0.00000000E+00  0.00000000E+00  0.00000000E+00
  0.00000000E+00  0.00000000E+00  0.00000000E+00
  0.00000000E+00  0.00000000E+00  0.00000000E+00
