In1 Cl6                                 
   1.00000000000000     
     2.3118158412671512    3.1377030802339836    5.2346942300920682
    -2.9526289089178421    2.0888585566377404    6.4201331842004050
    -0.9444443610835113   -4.5242692081679792    5.4401873898381048
   Cl   In
     6     1
Direct
  0.7273295293104738  0.5348583933789968  0.7888956278089196
  0.4516832453953441  0.1459784747003070  0.0484532255627670
  0.0817376023873564  0.8473044000531473  0.3919850592481282
  0.9183570028001498  0.1530627353806508  0.6080935734451671
  0.5488490066524463  0.8537374048244146  0.9516261825325643
  0.2728612383963593  0.4653243412095804  0.2112389882346903
  0.9995823750578836  0.0001342504529092  0.0001073431677554
 
  0.00000000E+00  0.00000000E+00  0.00000000E+00
  0.00000000E+00  0.00000000E+00  0.00000000E+00
  0.00000000E+00  0.00000000E+00  0.00000000E+00
  0.00000000E+00  0.00000000E+00  0.00000000E+00
  0.00000000E+00  0.00000000E+00  0.00000000E+00
  0.00000000E+00  0.00000000E+00  0.00000000E+00
  0.00000000E+00  0.00000000E+00  0.00000000E+00
