Ba4 Ga10 F2                             
   1.00000000000000     
     6.7557519874494281   -0.2715327622918334    2.5207541053435345
    -4.1469865586958345    8.2285256557071165   -2.4807597182135854
    -1.3608113923692942   -3.8845169441012195    7.8941286028640949
   F    Ba   Ga
     2     4    10
Direct
  0.1538884066527331  0.0572390473579745  0.2477890075493576
  0.2034286871277615  0.6561829002070354  0.7819383297873657
  0.9975673580536082  0.6921869354211552  0.0606835040148681
  0.5697321256001615  0.2403162200835283  0.3132767876222005
  0.6207762535874011  0.8484671366768950  0.7832182932968337
  0.0543886104154296  0.2899324245929549  0.5245327406748714
  0.0762406105408502  0.3210455514151676  0.9363471573834161
  0.4815855898241779  0.6786032613641666  0.0904342970757881
  0.1345904894981373  0.4984857270033132  0.2849391535876151
  0.5651245083887062  0.6131613645362890  0.3348591076756051
  0.4380357454593664  0.8803752010409767  0.4320903418756714
  0.9551721439396204  0.7078577559877957  0.5077548049824685
  0.1854848909801916  0.0772524334125180  0.6828391889259251
  0.5232868722912016  0.4356799951469341  0.7532748310288895
  0.6271063244654016  0.2001727097978971  0.7498882685720503
  0.4135913831752447  0.3028413359553710  0.0159341859470743
 
  0.00000000E+00  0.00000000E+00  0.00000000E+00
  0.00000000E+00  0.00000000E+00  0.00000000E+00
  0.00000000E+00  0.00000000E+00  0.00000000E+00
  0.00000000E+00  0.00000000E+00  0.00000000E+00
  0.00000000E+00  0.00000000E+00  0.00000000E+00
  0.00000000E+00  0.00000000E+00  0.00000000E+00
  0.00000000E+00  0.00000000E+00  0.00000000E+00
  0.00000000E+00  0.00000000E+00  0.00000000E+00
  0.00000000E+00  0.00000000E+00  0.00000000E+00
  0.00000000E+00  0.00000000E+00  0.00000000E+00
  0.00000000E+00  0.00000000E+00  0.00000000E+00
  0.00000000E+00  0.00000000E+00  0.00000000E+00
  0.00000000E+00  0.00000000E+00  0.00000000E+00
  0.00000000E+00  0.00000000E+00  0.00000000E+00
  0.00000000E+00  0.00000000E+00  0.00000000E+00
  0.00000000E+00  0.00000000E+00  0.00000000E+00
