Be6 B2                                  
   1.00000000000000     
     4.5350085362293511    0.0006239322778696    0.0000000000000000
    -2.2674063035947856    3.9275421996218958    0.0000000000000000
     0.0000000000000000    0.0000000000000000    3.2834618118572330
   B    Be
     2     6
Direct
  0.6666905373706769  0.3333030638529095  0.2500000000000000
  0.3333094626293231  0.6666969361470905  0.7500000000000000
  0.1745034678251969  0.3490222587041600  0.2500000000000000
  0.6509835928110377  0.8255085391958232  0.2500000000000000
  0.1744437748657575  0.8255480787691241  0.2500000000000000
  0.8255562251342425  0.1744519212308759  0.7500000000000000
  0.3490164071889623  0.1744914608041839  0.7500000000000000
  0.8254965321748031  0.6509777412958400  0.7500000000000000
 
  0.00000000E+00  0.00000000E+00  0.00000000E+00
  0.00000000E+00  0.00000000E+00  0.00000000E+00
  0.00000000E+00  0.00000000E+00  0.00000000E+00
  0.00000000E+00  0.00000000E+00  0.00000000E+00
  0.00000000E+00  0.00000000E+00  0.00000000E+00
  0.00000000E+00  0.00000000E+00  0.00000000E+00
  0.00000000E+00  0.00000000E+00  0.00000000E+00
  0.00000000E+00  0.00000000E+00  0.00000000E+00
