Ca4 Al4 Br20                            
   1.0000000000000000     
     7.3516501333722690   -0.0000000000000007    0.0000000000000004
    -0.0000000000000011   12.6299004922485292    0.0000000000000005
     0.0000000000000004    0.0000000000000008   13.2088768856500014
   Ca   Al   Br
     4     4    20
Direct
  0.7394788382573481  0.7456354053835170  0.6123137047282512
  0.2394788382573481  0.7543645946164830  0.3876862952717488
  0.2605211617426519  0.2456354053835170  0.8876862952717488
  0.7605211617426519  0.2543645946164830  0.1123137047282512
  0.2989187875108854  0.9702436773230403  0.6456923080684973
  0.7989187875108854  0.5297563226769597  0.3543076919315027
  0.7010812124891146  0.4702436773230403  0.8543076919315027
  0.2010812124891146  0.0297563226769597  0.1456923080684973
  0.8840371500014399  0.8252594458661306  0.4322855873020330
  0.3840371500014399  0.6747405541338694  0.5677144126979670
  0.1159628499985601  0.3252594458661306  0.0677144126979670
  0.6159628499985601  0.1747405541338694  0.9322855873020330
  0.5724771261789812  0.6352115611830413  0.2839448243152347
  0.0724771261789812  0.8647884388169587  0.7160551756847582
  0.4275228738210188  0.1352115611830556  0.2160551756847582
  0.9275228738210188  0.3647884388169444  0.7839448243152347
  0.2255955250939508  0.1482680596796868  0.6799513413916074
  0.7255955250939508  0.3517319403203132  0.3200486586083926
  0.7744044749060492  0.6482680596796939  0.8200486586083926
  0.2744044749060492  0.8517319403203061  0.1799513413916074
  0.5759010592488067  0.9309595611405896  0.7238408372534195
  0.0759010592488067  0.5690404388594104  0.2761591627465734
  0.4240989407511933  0.4309595611405896  0.7761591627465805
  0.9240989407511933  0.0690404388594104  0.2238408372534266
  0.8442374494247247  0.5310836296931996  0.5297069758588648
  0.3442374494247318  0.9689163703068004  0.4702930241411423
  0.1557625505752753  0.0310836296931996  0.9702930241411352
  0.6557625505752753  0.4689163703068004  0.0297069758588577

  0.00000000E+00  0.00000000E+00  0.00000000E+00
  0.00000000E+00  0.00000000E+00  0.00000000E+00
  0.00000000E+00  0.00000000E+00  0.00000000E+00
  0.00000000E+00  0.00000000E+00  0.00000000E+00
  0.00000000E+00  0.00000000E+00  0.00000000E+00
  0.00000000E+00  0.00000000E+00  0.00000000E+00
  0.00000000E+00  0.00000000E+00  0.00000000E+00
  0.00000000E+00  0.00000000E+00  0.00000000E+00
  0.00000000E+00  0.00000000E+00  0.00000000E+00
  0.00000000E+00  0.00000000E+00  0.00000000E+00
  0.00000000E+00  0.00000000E+00  0.00000000E+00
  0.00000000E+00  0.00000000E+00  0.00000000E+00
  0.00000000E+00  0.00000000E+00  0.00000000E+00
  0.00000000E+00  0.00000000E+00  0.00000000E+00
  0.00000000E+00  0.00000000E+00  0.00000000E+00
  0.00000000E+00  0.00000000E+00  0.00000000E+00
  0.00000000E+00  0.00000000E+00  0.00000000E+00
  0.00000000E+00  0.00000000E+00  0.00000000E+00
  0.00000000E+00  0.00000000E+00  0.00000000E+00
  0.00000000E+00  0.00000000E+00  0.00000000E+00
  0.00000000E+00  0.00000000E+00  0.00000000E+00
  0.00000000E+00  0.00000000E+00  0.00000000E+00
  0.00000000E+00  0.00000000E+00  0.00000000E+00
  0.00000000E+00  0.00000000E+00  0.00000000E+00
  0.00000000E+00  0.00000000E+00  0.00000000E+00
  0.00000000E+00  0.00000000E+00  0.00000000E+00
  0.00000000E+00  0.00000000E+00  0.00000000E+00
  0.00000000E+00  0.00000000E+00  0.00000000E+00
