Sr4 Al2 Br10                            
   1.00000000000000     
     9.0984645721579458   -0.1744101194238794   -0.8803797246394713
    -0.1479616823291827    8.4932555169412840    0.1160956792395652
     3.7545573668360186    4.2820522278821986    7.4531523065851006
   Br   Sr   Al
    10     4     2
Direct
  0.9912837079070940  0.9804590606214134  0.0284977040595180
  0.5065301686058987  0.5084516030230617  0.9800998947566057
  0.5534533767804817  0.0026671005557191  0.2087314463829060
  0.0368148821674552  0.2685736087054451  0.2406734562190067
  0.7185668409886716  0.5183461960892970  0.2677074941976016
  0.1768066493470712  0.6837414537728250  0.3007421199002280
  0.8415184051701772  0.2952201432454302  0.7004837452813817
  0.2395697358863202  0.4581186659156700  0.7542443024227694
  0.9670389342333721  0.7506094663997516  0.7648535687514340
  0.4512555735916237  0.0154036102174686  0.7935544018818632
  0.2990723104808879  0.1403774465692678  0.0562717557428485
  0.8272070761763075  0.3357090289427518  0.0160226535742751
  0.1969526340477898  0.6755977038624437  0.9654166731676028
  0.6952229720307486  0.8583891912848998  0.9565593372485210
  0.1663964072165598  0.3148263301357375  0.5583839570850273
  0.8320103253695308  0.6932093906588364  0.4077574893284392
 
  0.00000000E+00  0.00000000E+00  0.00000000E+00
  0.00000000E+00  0.00000000E+00  0.00000000E+00
  0.00000000E+00  0.00000000E+00  0.00000000E+00
  0.00000000E+00  0.00000000E+00  0.00000000E+00
  0.00000000E+00  0.00000000E+00  0.00000000E+00
  0.00000000E+00  0.00000000E+00  0.00000000E+00
  0.00000000E+00  0.00000000E+00  0.00000000E+00
  0.00000000E+00  0.00000000E+00  0.00000000E+00
  0.00000000E+00  0.00000000E+00  0.00000000E+00
  0.00000000E+00  0.00000000E+00  0.00000000E+00
  0.00000000E+00  0.00000000E+00  0.00000000E+00
  0.00000000E+00  0.00000000E+00  0.00000000E+00
  0.00000000E+00  0.00000000E+00  0.00000000E+00
  0.00000000E+00  0.00000000E+00  0.00000000E+00
  0.00000000E+00  0.00000000E+00  0.00000000E+00
  0.00000000E+00  0.00000000E+00  0.00000000E+00
