Mg8 B2                                  
   1.00000000000000     
     4.2291513066034776    0.0000000000000000    0.0000000000000000
     0.0000000000000000    4.2291513066034776    0.0000000000000000
     0.0000000000000000    0.0000000000000000   10.2722205601954855
   B    Mg
     2     8
Direct
  0.0000000000000000  0.5000000000000000  0.1452518636489799
  0.5000000000000000  0.0000000000000000  0.8547481363510201
  0.0000000000000000  0.0000000000000000  0.0000000000000000
  0.5000000000000000  0.5000000000000000  0.0000000000000000
  0.0000000000000000  0.0000000000000000  0.2693265495260064
  0.5000000000000000  0.5000000000000000  0.2693265495260064
  0.0000000000000000  0.5000000000000000  0.4982289467048275
  0.5000000000000000  0.0000000000000000  0.5017710532951725
  0.0000000000000000  0.0000000000000000  0.7306734504739936
  0.5000000000000000  0.5000000000000000  0.7306734504739936
 
  0.00000000E+00  0.00000000E+00  0.00000000E+00
  0.00000000E+00  0.00000000E+00  0.00000000E+00
  0.00000000E+00  0.00000000E+00  0.00000000E+00
  0.00000000E+00  0.00000000E+00  0.00000000E+00
  0.00000000E+00  0.00000000E+00  0.00000000E+00
  0.00000000E+00  0.00000000E+00  0.00000000E+00
  0.00000000E+00  0.00000000E+00  0.00000000E+00
  0.00000000E+00  0.00000000E+00  0.00000000E+00
  0.00000000E+00  0.00000000E+00  0.00000000E+00
  0.00000000E+00  0.00000000E+00  0.00000000E+00
