Ca2 Ga2 Cl10                            
   1.00000000000000     
     6.3954332320510598    0.0751947206013411    2.4354518188595544
     1.4748758540769080    6.2235000671833669    2.4354520905667809
     0.0527904170053909    0.0422509597425871    9.5676229990200010
   Ca   Ga   Cl
     2     2    10
Direct
  0.4444704343847761  0.5555295648929430  0.2500000004609362
  0.5555295656152239  0.4444704351070570  0.7499999995390638
  0.0000000000000000  0.0000000000000000  0.5000000000000000
  0.0000000000000000  0.0000000000000000  0.0000000000000000
  0.7960573337576022  0.7442599512044197  0.6273907971152894
  0.2557400539444927  0.2039416617168115  0.8726092024624919
  0.2039416662424003  0.2557400487955803  0.3726102028847151
  0.7442599460555073  0.7960573382831910  0.1273907975375081
  0.9143761670467967  0.0856238319054725  0.7500000008025864
  0.0856238329532033  0.9143761680945275  0.2499999991974136
  0.7215090813699803  0.3204697235200555  0.0254398821041590
  0.6795302739736968  0.2784909152043298  0.4745601228243927
  0.2784909186300126  0.6795302764799445  0.9745601178958410
  0.3204697260263032  0.7215090847956702  0.5254398771756073
 
  0.00000000E+00  0.00000000E+00  0.00000000E+00
  0.00000000E+00  0.00000000E+00  0.00000000E+00
  0.00000000E+00  0.00000000E+00  0.00000000E+00
  0.00000000E+00  0.00000000E+00  0.00000000E+00
  0.00000000E+00  0.00000000E+00  0.00000000E+00
  0.00000000E+00  0.00000000E+00  0.00000000E+00
  0.00000000E+00  0.00000000E+00  0.00000000E+00
  0.00000000E+00  0.00000000E+00  0.00000000E+00
  0.00000000E+00  0.00000000E+00  0.00000000E+00
  0.00000000E+00  0.00000000E+00  0.00000000E+00
  0.00000000E+00  0.00000000E+00  0.00000000E+00
  0.00000000E+00  0.00000000E+00  0.00000000E+00
  0.00000000E+00  0.00000000E+00  0.00000000E+00
  0.00000000E+00  0.00000000E+00  0.00000000E+00
