Mg4 Al4 I20                             
   1.0000000000000000     
    18.9916075200344778    0.0000000000000000    0.0000000000000000
     0.0000000000000000    7.3568247785954064    0.3948548595124837
     0.0000000000000000    3.8382371124989163   11.3441621703748705
   Mg   Al   I 
     4     4    20
Direct
  0.9745309920363638  0.5023801787663800  0.3584229261904639
  0.4745309920363638  0.4976198212336200  0.1415770738095361
  0.0254690079636362  0.4976198212336200  0.6415770738095361
  0.5254690079636362  0.5023801787663800  0.8584229261904639
  0.6140043036520382  0.1054203619266971  0.7061964318555454
  0.1140043036520382  0.8945796380733029  0.7938035681444546
  0.3859956963479618  0.8945796380733029  0.2938035681444546
  0.8859956963479618  0.1054203619266971  0.2061964318555454
  0.6444810094664035  0.3637478112160579  0.5064585803916728
  0.1444810094664035  0.6362521887839350  0.9935414196083272
  0.3555189905335965  0.6362521887839350  0.4935414196083272
  0.8555189905335965  0.3637478112160579  0.0064585803916728
  0.7955936185624495  0.0272746931596544  0.3691327317004962
  0.2955936185624495  0.9727253068403456  0.1308672682995038
  0.2044063814375505  0.9727253068403456  0.6308672682995038
  0.7044063814375505  0.0272746931596544  0.8691327317004962
  0.4929869023241622  0.1924484079690956  0.7848806843006955
  0.9929869023241622  0.8075515920309044  0.7151193156993045
  0.5070130976758378  0.8075515920309044  0.2151193156993045
  0.0070130976758378  0.1924484079690956  0.2848806843006955
  0.5812380901900625  0.7940560717847234  0.6553900366712426
  0.0812380901900625  0.2059439282152766  0.8446099633287574
  0.4187619098099375  0.2059439282152766  0.3446099633287574
  0.9187619098099375  0.7940560717847234  0.1553900366712426
  0.3975899527598585  0.5949169458612431  0.9333212752559561
  0.8975899527598585  0.4050830541387569  0.5666787247440439
  0.6024100472401415  0.4050830541387569  0.0666787247440439
  0.1024100472401415  0.5949169458612431  0.4333212752559561

  0.00000000E+00  0.00000000E+00  0.00000000E+00
  0.00000000E+00  0.00000000E+00  0.00000000E+00
  0.00000000E+00  0.00000000E+00  0.00000000E+00
  0.00000000E+00  0.00000000E+00  0.00000000E+00
  0.00000000E+00  0.00000000E+00  0.00000000E+00
  0.00000000E+00  0.00000000E+00  0.00000000E+00
  0.00000000E+00  0.00000000E+00  0.00000000E+00
  0.00000000E+00  0.00000000E+00  0.00000000E+00
  0.00000000E+00  0.00000000E+00  0.00000000E+00
  0.00000000E+00  0.00000000E+00  0.00000000E+00
  0.00000000E+00  0.00000000E+00  0.00000000E+00
  0.00000000E+00  0.00000000E+00  0.00000000E+00
  0.00000000E+00  0.00000000E+00  0.00000000E+00
  0.00000000E+00  0.00000000E+00  0.00000000E+00
  0.00000000E+00  0.00000000E+00  0.00000000E+00
  0.00000000E+00  0.00000000E+00  0.00000000E+00
  0.00000000E+00  0.00000000E+00  0.00000000E+00
  0.00000000E+00  0.00000000E+00  0.00000000E+00
  0.00000000E+00  0.00000000E+00  0.00000000E+00
  0.00000000E+00  0.00000000E+00  0.00000000E+00
  0.00000000E+00  0.00000000E+00  0.00000000E+00
  0.00000000E+00  0.00000000E+00  0.00000000E+00
  0.00000000E+00  0.00000000E+00  0.00000000E+00
  0.00000000E+00  0.00000000E+00  0.00000000E+00
  0.00000000E+00  0.00000000E+00  0.00000000E+00
  0.00000000E+00  0.00000000E+00  0.00000000E+00
  0.00000000E+00  0.00000000E+00  0.00000000E+00
  0.00000000E+00  0.00000000E+00  0.00000000E+00
