GaI2                                    
   1.00000000000000     
     0.0033393852724900    0.0050042029888306   -7.8027486734398748
    -0.0184472361965206  -15.8484907468193192    2.6105064373524729
   -13.7472085643369315    7.9071945375000272    2.6010680426416712
   Ga   I 
    12    24
Direct
  0.8680749502894116  0.8115778918712664  0.1206260118902094
  0.0595623100666955  0.3080448847119754  0.1883787319282462
  0.3920310112620982  0.8095895787998799  0.1892541222844386
  0.5854679749335148  0.3787600043935555  0.1897146300625607
  0.5593767674515888  0.1880008150604411  0.3085858787021820
  0.0848843135024993  0.1893552768961300  0.3792651021226376
  0.2021805287877569  0.8112479115482429  0.6209239808637790
  0.7470003002457091  0.8801023404011588  0.6913977721247662
  0.8918529571060319  0.1893097493787366  0.8094582608074745
  0.7026586849415466  0.6215663974938792  0.8113565182367211
  0.3675881025543717  0.1205850624965734  0.8107401707347464
  0.2474979326615880  0.6922616091624292  0.8802518653625313
  0.1349538366638896  0.6566746229708258  0.0548849725745413
  0.3447095713365727  0.4124640932478485  0.0899302862281957
  0.5060773792743660  0.9046077342900460  0.1040378259781534
  0.6043129351531960  0.1987394071873609  0.0960084437857134
  0.1039285448526002  0.0954048753416217  0.1994419304719699
  0.9023198820884630  0.4942833940054214  0.2409173527096016
  0.6570170219175537  0.7578792281809399  0.2532824321286995
  0.2506798154505603  0.9081799303427616  0.3225865320540748
  0.4817725953657330  0.3977736111142818  0.3430200616178851
  0.8436781085836031  0.0896435521778685  0.4129971189673896
  0.9816953266274808  0.3427176019283351  0.3980605213778929
  0.4033198525537358  0.7470290802799653  0.5056095938351177
  0.4014291536743073  0.2406075457193992  0.4947235507886560
  0.0799321547596321  0.9455043025340544  0.6014492968200003
  0.9272330543277008  0.6778362546113641  0.5870325911024494
  0.6349499194417092  0.0552169993030702  0.6563041513960925
  0.4279429647556370  0.5874956410980232  0.6779854398128577
  0.9039518913975684  0.5062801474296492  0.7473176996198347
  0.1570549523756739  0.2539784730809345  0.7581200894066882
  0.4015681739108530  0.8969382839115241  0.8007620589837643
  0.0054583235671330  0.1034008681100289  0.9036703416096117
  0.9020523164014236  0.8015871267289754  0.8969526290383740
  0.7505337112249890  0.3224234302933908  0.9085966849818092
  0.5800826804927581  0.6021322738980572  0.9455553495903004
 
  0.00000000E+00  0.00000000E+00  0.00000000E+00
  0.00000000E+00  0.00000000E+00  0.00000000E+00
  0.00000000E+00  0.00000000E+00  0.00000000E+00
  0.00000000E+00  0.00000000E+00  0.00000000E+00
  0.00000000E+00  0.00000000E+00  0.00000000E+00
  0.00000000E+00  0.00000000E+00  0.00000000E+00
  0.00000000E+00  0.00000000E+00  0.00000000E+00
  0.00000000E+00  0.00000000E+00  0.00000000E+00
  0.00000000E+00  0.00000000E+00  0.00000000E+00
  0.00000000E+00  0.00000000E+00  0.00000000E+00
  0.00000000E+00  0.00000000E+00  0.00000000E+00
  0.00000000E+00  0.00000000E+00  0.00000000E+00
  0.00000000E+00  0.00000000E+00  0.00000000E+00
  0.00000000E+00  0.00000000E+00  0.00000000E+00
  0.00000000E+00  0.00000000E+00  0.00000000E+00
  0.00000000E+00  0.00000000E+00  0.00000000E+00
  0.00000000E+00  0.00000000E+00  0.00000000E+00
  0.00000000E+00  0.00000000E+00  0.00000000E+00
  0.00000000E+00  0.00000000E+00  0.00000000E+00
  0.00000000E+00  0.00000000E+00  0.00000000E+00
  0.00000000E+00  0.00000000E+00  0.00000000E+00
  0.00000000E+00  0.00000000E+00  0.00000000E+00
  0.00000000E+00  0.00000000E+00  0.00000000E+00
  0.00000000E+00  0.00000000E+00  0.00000000E+00
  0.00000000E+00  0.00000000E+00  0.00000000E+00
  0.00000000E+00  0.00000000E+00  0.00000000E+00
  0.00000000E+00  0.00000000E+00  0.00000000E+00
  0.00000000E+00  0.00000000E+00  0.00000000E+00
  0.00000000E+00  0.00000000E+00  0.00000000E+00
  0.00000000E+00  0.00000000E+00  0.00000000E+00
  0.00000000E+00  0.00000000E+00  0.00000000E+00
  0.00000000E+00  0.00000000E+00  0.00000000E+00
  0.00000000E+00  0.00000000E+00  0.00000000E+00
  0.00000000E+00  0.00000000E+00  0.00000000E+00
  0.00000000E+00  0.00000000E+00  0.00000000E+00
  0.00000000E+00  0.00000000E+00  0.00000000E+00
