Sr4 Ga10 I2                             
   1.00000000000000     
     8.5798058737689633    0.0234854308645933    0.0304963538055076
    -4.2633942242850908    7.4327305009410258   -0.0298311304559390
    -4.2656519944986941   -2.5116909311857682    7.0012383366452751
   I    Sr   Ga
     2     4    10
Direct
  0.0000590228546642  0.2498851182879989  0.2503537324370981
  0.9999448900986820  0.7501863851612569  0.7499952281030531
  0.8130434696002169  0.6565909481075138  0.1565219105892766
  0.4999778140314888  0.1566133480094010  0.3433442415490546
  0.5000450918685431  0.8433279522899042  0.6565402034698451
  0.1869363298106634  0.3434031135065467  0.8432932393131054
  0.0000351811990953  0.0001106556901860  0.0000522582615048
  0.4997268701940030  0.8420210574353675  0.0535117189496148
  0.2106595780296630  0.6575357549062772  0.1573948270034151
  0.4996327968964778  0.5536222518690437  0.3418855411749107
  0.7890296216245645  0.9466929806532747  0.4464772885649424
  0.0000184473438409  0.5001020054534564  0.5000553692565433
  0.2110432479519275  0.0530814106650226  0.5534739672533959
  0.5003131599525474  0.4462789774377001  0.6580340087603957
  0.7892901746571681  0.3423730511607204  0.8424855346287359
  0.5002443038864683  0.1579749893663234  0.9463809306851019
 
  0.00000000E+00  0.00000000E+00  0.00000000E+00
  0.00000000E+00  0.00000000E+00  0.00000000E+00
  0.00000000E+00  0.00000000E+00  0.00000000E+00
  0.00000000E+00  0.00000000E+00  0.00000000E+00
  0.00000000E+00  0.00000000E+00  0.00000000E+00
  0.00000000E+00  0.00000000E+00  0.00000000E+00
  0.00000000E+00  0.00000000E+00  0.00000000E+00
  0.00000000E+00  0.00000000E+00  0.00000000E+00
  0.00000000E+00  0.00000000E+00  0.00000000E+00
  0.00000000E+00  0.00000000E+00  0.00000000E+00
  0.00000000E+00  0.00000000E+00  0.00000000E+00
  0.00000000E+00  0.00000000E+00  0.00000000E+00
  0.00000000E+00  0.00000000E+00  0.00000000E+00
  0.00000000E+00  0.00000000E+00  0.00000000E+00
  0.00000000E+00  0.00000000E+00  0.00000000E+00
  0.00000000E+00  0.00000000E+00  0.00000000E+00
