Sr10 In6 F38                            
   1.0000000000000000     
    -7.2840836771239248    7.2840842387178970    3.8144498426762032
     7.2840836771239248   -7.2840842387178970    3.8144498426762032
     7.2840842387178970    7.2840836771239248   -3.8144498426762032
   Sr   In   F 
    10     6    38
Direct
  0.7775120551285752  0.0484581091655869  0.8259701642941693
  0.2224879448714248  0.9515418908344131  0.1740298357058307
  0.0484581091655869  0.2224879448714248  0.2709460540370188
  0.9515418908344131  0.7775120551285752  0.7290539459629812
  0.5685601220553949  0.2437668515432065  0.8123269735986014
  0.4314398779446051  0.7562331484567935  0.1876730264013986
  0.2437668515432065  0.4314398779446051  0.6752067294877975
  0.7562331484567935  0.5685601220553949  0.3247932705122096
  0.7500000000000000  0.2500000000000000  0.5000000000000000
  0.2500000000000000  0.7500000000000000  0.5000000000000000
  0.8198042012708555  0.3376655568262379  0.1574687580971030
  0.1801957987291445  0.6623344431737621  0.8425312419028970
  0.3376655568262379  0.1801957987291445  0.5178613555553895
  0.6623344431737621  0.8198042012708555  0.4821386444446105
  0.7493147099918218  0.7493147099918218  0.0000000000000000
  0.2506852900081782  0.2506852900081782  0.0000000000000000
  0.4408288791281834  0.7695440235564632  0.8528904698020625
  0.5591711208718166  0.2304559764435368  0.1471095301979375
  0.9166525537544103  0.5879384093261280  0.1471095301979375
  0.7695440235564632  0.9166525537544103  0.3287151444282799
  0.0833474462455897  0.4120615906738720  0.8528904698020625
  0.2304559764435368  0.0833474462455897  0.6712848555717201
  0.5879384093261280  0.4408288791281834  0.6712848555717201
  0.4120615906738720  0.5591711208718166  0.3287151444282799
  0.7167422752305299  0.9053538080244934  0.0729314473892444
  0.2832577247694701  0.0946461919755066  0.9270685526107556
  0.8324223606352490  0.6438108278412997  0.9270685526107556
  0.9053538080244934  0.8324223606352490  0.1886115327939635
  0.1675776393647510  0.3561891721587003  0.0729314473892444
  0.0946461919755066  0.1675776393647510  0.8113884672060365
  0.6438108278412997  0.7167422752305299  0.8113884672060365
  0.3561891721587003  0.2832577247694701  0.1886115327939635
  0.6201402309057897  0.0730152445796435  0.6931554754854332
  0.3798597690942103  0.9269847554203565  0.3068445245145739
  0.0730152445796435  0.3798597690942103  0.4528750136738537
  0.9269847554203565  0.6201402309057897  0.5471249863261463
  0.0000000000000000  0.0000000000000000  0.0000000000000000
  0.8936703102307462  0.4614653993296756  0.3551357095604217
  0.1063296897692538  0.5385346006703244  0.6448642904395783
  0.4614653993296756  0.1063296897692538  0.5677940890989390
  0.5385346006703244  0.8936703102307462  0.4322059109010610
  0.7280121052063748  0.1158048632811557  0.2242345748724830
  0.2719878947936252  0.8841951367188443  0.7757654251275170
  0.8915702884086727  0.5037775303338989  0.7757654251275170
  0.1158048632811557  0.8915702884086727  0.3877937580747783
  0.1084297115913202  0.4962224696661011  0.2242345748724830
  0.8841951367188443  0.1084297115913202  0.6122062419252217
  0.5037775303338989  0.7280121052063748  0.6122062419252217
  0.4962224696661011  0.2719878947936252  0.3877937580747783
  0.7408531114988719  0.2202496479260603  0.9611027594249322
  0.2591468885011281  0.7797503520739397  0.0388972405750678
  0.2202496479260603  0.2591468885011281  0.4793965364272026
  0.7797503520739397  0.7408531114988719  0.5206034635727974
  0.5000000000000000  0.5000000000000000  0.0000000000000000

  0.00000000E+00  0.00000000E+00  0.00000000E+00
  0.00000000E+00  0.00000000E+00  0.00000000E+00
  0.00000000E+00  0.00000000E+00  0.00000000E+00
  0.00000000E+00  0.00000000E+00  0.00000000E+00
  0.00000000E+00  0.00000000E+00  0.00000000E+00
  0.00000000E+00  0.00000000E+00  0.00000000E+00
  0.00000000E+00  0.00000000E+00  0.00000000E+00
  0.00000000E+00  0.00000000E+00  0.00000000E+00
  0.00000000E+00  0.00000000E+00  0.00000000E+00
  0.00000000E+00  0.00000000E+00  0.00000000E+00
  0.00000000E+00  0.00000000E+00  0.00000000E+00
  0.00000000E+00  0.00000000E+00  0.00000000E+00
  0.00000000E+00  0.00000000E+00  0.00000000E+00
  0.00000000E+00  0.00000000E+00  0.00000000E+00
  0.00000000E+00  0.00000000E+00  0.00000000E+00
  0.00000000E+00  0.00000000E+00  0.00000000E+00
  0.00000000E+00  0.00000000E+00  0.00000000E+00
  0.00000000E+00  0.00000000E+00  0.00000000E+00
  0.00000000E+00  0.00000000E+00  0.00000000E+00
  0.00000000E+00  0.00000000E+00  0.00000000E+00
  0.00000000E+00  0.00000000E+00  0.00000000E+00
  0.00000000E+00  0.00000000E+00  0.00000000E+00
  0.00000000E+00  0.00000000E+00  0.00000000E+00
  0.00000000E+00  0.00000000E+00  0.00000000E+00
  0.00000000E+00  0.00000000E+00  0.00000000E+00
  0.00000000E+00  0.00000000E+00  0.00000000E+00
  0.00000000E+00  0.00000000E+00  0.00000000E+00
  0.00000000E+00  0.00000000E+00  0.00000000E+00
  0.00000000E+00  0.00000000E+00  0.00000000E+00
  0.00000000E+00  0.00000000E+00  0.00000000E+00
  0.00000000E+00  0.00000000E+00  0.00000000E+00
  0.00000000E+00  0.00000000E+00  0.00000000E+00
  0.00000000E+00  0.00000000E+00  0.00000000E+00
  0.00000000E+00  0.00000000E+00  0.00000000E+00
  0.00000000E+00  0.00000000E+00  0.00000000E+00
  0.00000000E+00  0.00000000E+00  0.00000000E+00
  0.00000000E+00  0.00000000E+00  0.00000000E+00
  0.00000000E+00  0.00000000E+00  0.00000000E+00
  0.00000000E+00  0.00000000E+00  0.00000000E+00
  0.00000000E+00  0.00000000E+00  0.00000000E+00
  0.00000000E+00  0.00000000E+00  0.00000000E+00
  0.00000000E+00  0.00000000E+00  0.00000000E+00
  0.00000000E+00  0.00000000E+00  0.00000000E+00
  0.00000000E+00  0.00000000E+00  0.00000000E+00
  0.00000000E+00  0.00000000E+00  0.00000000E+00
  0.00000000E+00  0.00000000E+00  0.00000000E+00
  0.00000000E+00  0.00000000E+00  0.00000000E+00
  0.00000000E+00  0.00000000E+00  0.00000000E+00
  0.00000000E+00  0.00000000E+00  0.00000000E+00
  0.00000000E+00  0.00000000E+00  0.00000000E+00
  0.00000000E+00  0.00000000E+00  0.00000000E+00
  0.00000000E+00  0.00000000E+00  0.00000000E+00
  0.00000000E+00  0.00000000E+00  0.00000000E+00
  0.00000000E+00  0.00000000E+00  0.00000000E+00
