Ba6 Al4 Br24                            
   1.00000000000000     
     0.0000000000000000    0.0000000000000000    7.3560544416286051
    12.7528098339930214    0.0006044412819759    0.0000000000000000
     0.0008623933050444   12.7651481913321483    0.0000000000000000
   Ba   Br   Al
     6    24     4
Direct
  0.0000000000000000  0.9996641928629728  0.0001225673703971
  0.5000000000000000  0.3592019483222657  0.1416917204899519
  0.5000000000000000  0.8583064400378078  0.3594035608418693
  0.0000000000000000  0.5001068305210410  0.4996595881395720
  0.5000000000000000  0.1412230021993111  0.6407422297405887
  0.5000000000000000  0.6381660701688929  0.8558811734404657
  0.2585185618200256  0.5000109191861881  0.0000685606602389
  0.7414814381799744  0.5000109191861881  0.0000685606602389
  0.2395453173848381  0.7926615348729058  0.0995728788640022
  0.7604546826151619  0.7926615348729058  0.0995728788640022
  0.0000000000000000  0.3441444949900827  0.1566567888581858
  0.2396446463983679  0.0993819115424870  0.2074592029005515
  0.7603553536016321  0.0993819115424870  0.2074592029005515
  0.2396693664823033  0.5989532190400269  0.2926588213818775
  0.7603306335176967  0.5989532190400269  0.2926588213818775
  0.0000000000000000  0.8433632369905197  0.3442540301403838
  0.2396950849264528  0.2926323598920320  0.4010802218927054
  0.7603049150735472  0.2926323598920320  0.4010802218927054
  0.2583308218649520  0.0000361570480720  0.5000139330570050
  0.7416691781350480  0.0000361570480720  0.5000139330570050
  0.2396031060211854  0.7073153073264393  0.5992244632438357
  0.7603968939788146  0.7073153073264393  0.5992244632438357
  0.0000000000000000  0.1569610513185751  0.6559997733707519
  0.2397077027044574  0.4014252101256588  0.7075074450030741
  0.7602922972955426  0.4014252101256588  0.7075074450030741
  0.2396313048490626  0.9010228014561079  0.7923910413430590
  0.7603686951509374  0.9010228014561079  0.7923910413430590
  0.0000000000000000  0.6564146020104431  0.8437980504448035
  0.2395858063264313  0.2075139491250795  0.9007468252876123
  0.7604141936735687  0.2075139491250795  0.9007468252876123
  0.0000000000000000  0.7154379152766452  0.2153905511449921
  0.0000000000000000  0.2154678659950164  0.2847345538596997
  0.0000000000000000  0.7849344180615745  0.7155592283570300
  0.0000000000000000  0.2849011920148925  0.7848593965334132
 
  0.00000000E+00  0.00000000E+00  0.00000000E+00
  0.00000000E+00  0.00000000E+00  0.00000000E+00
  0.00000000E+00  0.00000000E+00  0.00000000E+00
  0.00000000E+00  0.00000000E+00  0.00000000E+00
  0.00000000E+00  0.00000000E+00  0.00000000E+00
  0.00000000E+00  0.00000000E+00  0.00000000E+00
  0.00000000E+00  0.00000000E+00  0.00000000E+00
  0.00000000E+00  0.00000000E+00  0.00000000E+00
  0.00000000E+00  0.00000000E+00  0.00000000E+00
  0.00000000E+00  0.00000000E+00  0.00000000E+00
  0.00000000E+00  0.00000000E+00  0.00000000E+00
  0.00000000E+00  0.00000000E+00  0.00000000E+00
  0.00000000E+00  0.00000000E+00  0.00000000E+00
  0.00000000E+00  0.00000000E+00  0.00000000E+00
  0.00000000E+00  0.00000000E+00  0.00000000E+00
  0.00000000E+00  0.00000000E+00  0.00000000E+00
  0.00000000E+00  0.00000000E+00  0.00000000E+00
  0.00000000E+00  0.00000000E+00  0.00000000E+00
  0.00000000E+00  0.00000000E+00  0.00000000E+00
  0.00000000E+00  0.00000000E+00  0.00000000E+00
  0.00000000E+00  0.00000000E+00  0.00000000E+00
  0.00000000E+00  0.00000000E+00  0.00000000E+00
  0.00000000E+00  0.00000000E+00  0.00000000E+00
  0.00000000E+00  0.00000000E+00  0.00000000E+00
  0.00000000E+00  0.00000000E+00  0.00000000E+00
  0.00000000E+00  0.00000000E+00  0.00000000E+00
  0.00000000E+00  0.00000000E+00  0.00000000E+00
  0.00000000E+00  0.00000000E+00  0.00000000E+00
  0.00000000E+00  0.00000000E+00  0.00000000E+00
  0.00000000E+00  0.00000000E+00  0.00000000E+00
  0.00000000E+00  0.00000000E+00  0.00000000E+00
  0.00000000E+00  0.00000000E+00  0.00000000E+00
  0.00000000E+00  0.00000000E+00  0.00000000E+00
  0.00000000E+00  0.00000000E+00  0.00000000E+00
