Ga4 Br2                                 
   1.00000000000000     
     7.7704487857535458    0.0000000000000000    0.0000000000000000
     0.0000000000000000    7.7704487857535458    0.0000000000000000
     0.0000000000000000    0.0000000000000000    3.4840947017252333
   Ga   Br
     4     2
Direct
  0.2779315264702689  0.2779315264702689  0.0000000000000000
  0.7220684735297311  0.7220684735297311  0.0000000000000000
  0.7779315264702689  0.2220684735297311  0.5000000000000000
  0.2220684735297311  0.7779315264702689  0.5000000000000000
  0.0000000000000000  0.0000000000000000  0.0000000000000000
  0.5000000000000000  0.5000000000000000  0.5000000000000000
 
  0.00000000E+00  0.00000000E+00  0.00000000E+00
  0.00000000E+00  0.00000000E+00  0.00000000E+00
  0.00000000E+00  0.00000000E+00  0.00000000E+00
  0.00000000E+00  0.00000000E+00  0.00000000E+00
  0.00000000E+00  0.00000000E+00  0.00000000E+00
  0.00000000E+00  0.00000000E+00  0.00000000E+00
