SrB                                     
   1.00000000000000     
     3.5032767013167283    0.0000000000000000    0.0000000000000000
     0.0000000000000000    3.5032767013167283    0.0000000000000000
     0.0000000000000000    0.0000000000000000    3.5032767013167283
   B    Sr
     1     1
Direct
  0.0000000000000000  0.0000000000000000  0.0000000000000000
  0.5000000000000000  0.5000000000000000  0.5000000000000000
 
  0.00000000E+00  0.00000000E+00  0.00000000E+00
  0.00000000E+00  0.00000000E+00  0.00000000E+00
