Ba10 Al6 I38                            
   1.00000000000000     
   -10.4660679695111547   10.4660657349206687    5.3707011666458895
    10.4660679695111547  -10.4660657349206687    5.3707011666458895
    10.4660657349206687   10.4660679695111547   -5.3707011666458895
   Ba   Al   I 
    10     6    38
Direct
  0.7808868931379820  0.0193232935141410  0.8002101866521087
  0.2191131068620180  0.9806767064858590  0.1997898133478913
  0.0193232935141410  0.2191131068620180  0.2384364003761590
  0.9806767064858590  0.7808868931379820  0.7615635996238410
  0.5631873924740560  0.2417742992066110  0.8049616916806670
  0.4368126075259440  0.7582257007933890  0.1950383083193330
  0.2417742992066110  0.4368126075259440  0.6785869067325478
  0.7582257007933890  0.5631873924740560  0.3214130932674522
  0.7500000000000000  0.2500000000000000  0.5000000000000000
  0.2500000000000000  0.7500000000000000  0.5000000000000000
  0.8131348510463710  0.3477618108713614  0.1608956619177349
  0.1868651489536290  0.6522381891286386  0.8391043380822651
  0.3477618108713614  0.1868651489536290  0.5346269598249975
  0.6522381891286386  0.8131348510463710  0.4653730401750025
  0.7483198692399640  0.7483198692399640  0.0000000000000000
  0.2516801307600360  0.2516801307600360  0.0000000000000000
  0.4331029731462337  0.7642608640763413  0.8420681966596320
  0.5668970268537663  0.2357391359236587  0.1579318033403680
  0.9221916674167048  0.5910347764866017  0.1579318033403680
  0.7642608640763413  0.9221916674167048  0.3311578909301005
  0.0778083325832952  0.4089652235133983  0.8420681966596320
  0.2357391359236587  0.0778083325832952  0.6688421090698995
  0.5910347764866017  0.4331029731462337  0.6688421090698995
  0.4089652235133983  0.5668970268537663  0.3311578909301005
  0.7040028311104862  0.8805302989254713  0.0661517652062642
  0.2959971688895138  0.1194697010745287  0.9338482347937358
  0.8143785337192071  0.6378510659042291  0.9338482347937358
  0.8805302989254713  0.8143785337192071  0.1765274678149851
  0.1856214662807929  0.3621489340957709  0.0661517652062642
  0.1194697010745287  0.1856214662807929  0.8234725321850149
  0.6378510659042291  0.7040028311104862  0.8234725321850149
  0.3621489340957709  0.2959971688895138  0.1765274678149851
  0.6274425973957491  0.0755850765949830  0.7030276739907393
  0.3725574026042509  0.9244149234050170  0.2969723260092536
  0.0755850765949830  0.3725574026042509  0.4481424791992339
  0.9244149234050170  0.6274425973957491  0.5518575208007661
  0.0000000000000000  0.0000000000000000  0.0000000000000000
  0.8958632717040729  0.4577382254464624  0.3536014971505423
  0.1041367282959271  0.5422617745535376  0.6463985028494577
  0.4577382254464624  0.1041367282959271  0.5618739537423920
  0.5422617745535376  0.8958632717040729  0.4381260462576080
  0.7205049281568137  0.1180965498001854  0.1994100484873087
  0.2794950718431863  0.8819034501998146  0.8005899515126913
  0.9186865013128767  0.5210948796695121  0.8005899515126913
  0.1180965498001854  0.9186865013128767  0.3975926216433692
  0.0813134986871233  0.4789051203304879  0.1994100484873087
  0.8819034501998146  0.0813134986871233  0.6024073783566308
  0.5210948796695121  0.7205049281568137  0.6024073783566308
  0.4789051203304879  0.2794950718431863  0.3975926216433692
  0.7406037993279853  0.2431756895722330  0.9837794889002183
  0.2593962006720147  0.7568243104277670  0.0162205110997817
  0.2431756895722330  0.2593962006720147  0.5025718902442478
  0.7568243104277670  0.7406037993279853  0.4974281097557522
  0.5000000000000000  0.5000000000000000  0.0000000000000000
 
  0.00000000E+00  0.00000000E+00  0.00000000E+00
  0.00000000E+00  0.00000000E+00  0.00000000E+00
  0.00000000E+00  0.00000000E+00  0.00000000E+00
  0.00000000E+00  0.00000000E+00  0.00000000E+00
  0.00000000E+00  0.00000000E+00  0.00000000E+00
  0.00000000E+00  0.00000000E+00  0.00000000E+00
  0.00000000E+00  0.00000000E+00  0.00000000E+00
  0.00000000E+00  0.00000000E+00  0.00000000E+00
  0.00000000E+00  0.00000000E+00  0.00000000E+00
  0.00000000E+00  0.00000000E+00  0.00000000E+00
  0.00000000E+00  0.00000000E+00  0.00000000E+00
  0.00000000E+00  0.00000000E+00  0.00000000E+00
  0.00000000E+00  0.00000000E+00  0.00000000E+00
  0.00000000E+00  0.00000000E+00  0.00000000E+00
  0.00000000E+00  0.00000000E+00  0.00000000E+00
  0.00000000E+00  0.00000000E+00  0.00000000E+00
  0.00000000E+00  0.00000000E+00  0.00000000E+00
  0.00000000E+00  0.00000000E+00  0.00000000E+00
  0.00000000E+00  0.00000000E+00  0.00000000E+00
  0.00000000E+00  0.00000000E+00  0.00000000E+00
  0.00000000E+00  0.00000000E+00  0.00000000E+00
  0.00000000E+00  0.00000000E+00  0.00000000E+00
  0.00000000E+00  0.00000000E+00  0.00000000E+00
  0.00000000E+00  0.00000000E+00  0.00000000E+00
  0.00000000E+00  0.00000000E+00  0.00000000E+00
  0.00000000E+00  0.00000000E+00  0.00000000E+00
  0.00000000E+00  0.00000000E+00  0.00000000E+00
  0.00000000E+00  0.00000000E+00  0.00000000E+00
  0.00000000E+00  0.00000000E+00  0.00000000E+00
  0.00000000E+00  0.00000000E+00  0.00000000E+00
  0.00000000E+00  0.00000000E+00  0.00000000E+00
  0.00000000E+00  0.00000000E+00  0.00000000E+00
  0.00000000E+00  0.00000000E+00  0.00000000E+00
  0.00000000E+00  0.00000000E+00  0.00000000E+00
  0.00000000E+00  0.00000000E+00  0.00000000E+00
  0.00000000E+00  0.00000000E+00  0.00000000E+00
  0.00000000E+00  0.00000000E+00  0.00000000E+00
  0.00000000E+00  0.00000000E+00  0.00000000E+00
  0.00000000E+00  0.00000000E+00  0.00000000E+00
  0.00000000E+00  0.00000000E+00  0.00000000E+00
  0.00000000E+00  0.00000000E+00  0.00000000E+00
  0.00000000E+00  0.00000000E+00  0.00000000E+00
  0.00000000E+00  0.00000000E+00  0.00000000E+00
  0.00000000E+00  0.00000000E+00  0.00000000E+00
  0.00000000E+00  0.00000000E+00  0.00000000E+00
  0.00000000E+00  0.00000000E+00  0.00000000E+00
  0.00000000E+00  0.00000000E+00  0.00000000E+00
  0.00000000E+00  0.00000000E+00  0.00000000E+00
  0.00000000E+00  0.00000000E+00  0.00000000E+00
  0.00000000E+00  0.00000000E+00  0.00000000E+00
  0.00000000E+00  0.00000000E+00  0.00000000E+00
  0.00000000E+00  0.00000000E+00  0.00000000E+00
  0.00000000E+00  0.00000000E+00  0.00000000E+00
  0.00000000E+00  0.00000000E+00  0.00000000E+00
