Ca8 Br2                                 
   1.00000000000000     
     5.4776175915439715    0.0000000000000000    0.0000000000000000
     0.0000000000000000    5.4776175915439724    0.0000000000000000
     0.0000000000000000    0.0000000000000000   13.7395454559240893
   Ca   Br
     8     2
Direct
  0.0000000000000000  0.0000000000000000  0.0000000000000000
  0.5000000000000000  0.5000000000000000  0.0000000000000000
  0.0000000000000000  0.0000000000000000  0.2974808767615755
  0.5000000000000000  0.5000000000000000  0.2974808767615755
  0.5000000000000000  0.0000000000000000  0.5001738191297136
  0.0000000000000000  0.5000000000000000  0.4998261808702864
  0.0000000000000000  0.0000000000000000  0.7025191232384245
  0.5000000000000000  0.5000000000000000  0.7025191232384245
  0.0000000000000000  0.5000000000000000  0.0732803784421918
  0.5000000000000000  0.0000000000000000  0.9267196215578082
 
  0.00000000E+00  0.00000000E+00  0.00000000E+00
  0.00000000E+00  0.00000000E+00  0.00000000E+00
  0.00000000E+00  0.00000000E+00  0.00000000E+00
  0.00000000E+00  0.00000000E+00  0.00000000E+00
  0.00000000E+00  0.00000000E+00  0.00000000E+00
  0.00000000E+00  0.00000000E+00  0.00000000E+00
  0.00000000E+00  0.00000000E+00  0.00000000E+00
  0.00000000E+00  0.00000000E+00  0.00000000E+00
  0.00000000E+00  0.00000000E+00  0.00000000E+00
  0.00000000E+00  0.00000000E+00  0.00000000E+00
