Be1 Tl2 I6                              
   1.0000000000000000     
     3.8649333293960155    2.2313580777030286    6.3112715079035269
    -3.8649333293960155    2.2313580777030286    6.3112715079035269
     0.0000000000000000   -4.4615410693765662    6.3108560909490565
   Be   I    Tl
     1     6     2
Direct
  0.0000000000000000  0.0000000000000000  0.0000000000000000
  0.7581325751521888  0.7581325751521888  0.2418657547174803
  0.7581173507378978  0.2418843212581621  0.2418641110342747
  0.2418843212581621  0.7581173507378978  0.2418641110342747
  0.2418674248478112  0.2418674248478112  0.7581342452825197
  0.7581156787418379  0.2418826492621022  0.7581358889657253
  0.2418826492621022  0.7581156787418379  0.7581358889657253
  0.2499983796448717  0.2499983796448717  0.2500033017408896
  0.7500016203551283  0.7500016203551283  0.7499966982591104

  0.00000000E+00  0.00000000E+00  0.00000000E+00
  0.00000000E+00  0.00000000E+00  0.00000000E+00
  0.00000000E+00  0.00000000E+00  0.00000000E+00
  0.00000000E+00  0.00000000E+00  0.00000000E+00
  0.00000000E+00  0.00000000E+00  0.00000000E+00
  0.00000000E+00  0.00000000E+00  0.00000000E+00
  0.00000000E+00  0.00000000E+00  0.00000000E+00
  0.00000000E+00  0.00000000E+00  0.00000000E+00
  0.00000000E+00  0.00000000E+00  0.00000000E+00
