Mg8 In8 Br40                            
   1.0000000000000000     
    10.5969449608228157    0.0000000000000000    0.0000000000000000
     0.0000000000000000   10.4626103164391893    0.1373645328061737
     0.0000000000000000    2.2928638911592651   23.0417489031387142
   Mg   In   Br
     8     8    40
Direct
  0.0803685115229840  0.2804117713733092  0.1656466470841451
  0.9196314884770231  0.7195882286266979  0.8343533529158549
  0.5803685115229769  0.7195882286266979  0.3343533529158549
  0.4196314884770160  0.2804117713733092  0.6656466470841451
  0.9531431543954909  0.3484984451115025  0.9985541278820804
  0.0468568456045020  0.6515015548884975  0.0014458721179125
  0.4531431543954980  0.6515015548884975  0.5014458721179196
  0.5468568456045091  0.3484984451115025  0.4985541278820875
  0.7416661467671091  0.4019081784839855  0.3349165256532771
  0.2583338532328909  0.5980918215160145  0.6650834743467300
  0.2416661467671091  0.5980918215160145  0.1650834743467229
  0.7583338532328909  0.4019081784839855  0.8349165256532700
  0.5941217049995160  0.8686252246383432  0.1493524836307145
  0.4058782950004769  0.1313747753616568  0.8506475163692926
  0.0941217049995302  0.1313747753616568  0.3506475163692926
  0.9058782950004840  0.8686252246383432  0.6493524836307074
  0.1858250639295065  0.7602605398794537  0.0722609098274845
  0.8141749360704864  0.2397394601205391  0.9277390901725084
  0.6858250639295136  0.2397394601205391  0.4277390901725084
  0.3141749360704935  0.7602605398794537  0.5722609098274916
  0.8334167660734195  0.5468418601551264  0.0202838286292817
  0.1665832339265805  0.4531581398448736  0.9797161713707183
  0.3334167660734195  0.4531581398448736  0.4797161713707183
  0.6665832339265805  0.5468418601551264  0.5202838286292817
  0.5163799683847046  0.1770876143633089  0.5826590922040182
  0.4836200316153025  0.8229123856366982  0.4173409077959747
  0.0163799683847046  0.8229123856366982  0.9173409077959818
  0.9836200316152954  0.1770876143633089  0.0826590922040253
  0.5683115142840904  0.9153541006513919  0.2588454880119642
  0.4316884857159096  0.0846458993486152  0.7411545119880358
  0.0683115142840904  0.0846458993486152  0.2411545119880358
  0.9316884857159096  0.9153541006513919  0.7588454880119642
  0.8244630251346621  0.8438633312463111  0.1321234898643269
  0.1755369748653308  0.1561366687536889  0.8678765101356802
  0.3244630251346692  0.1561366687536889  0.3678765101356802
  0.6755369748653379  0.8438633312463111  0.6321234898643198
  0.4674355061200188  0.0396550194733578  0.0931860904002022
  0.5325644938799812  0.9603449805266422  0.9068139095997978
  0.9674355061200188  0.9603449805266422  0.4068139095998049
  0.0325644938799812  0.0396550194733578  0.5931860904002022
  0.5011482855592604  0.4957528349768978  0.3251228437582014
  0.4988517144407183  0.5042471650231093  0.6748771562417915
  0.0011482855592746  0.5042471650231093  0.1748771562417915
  0.9988517144407396  0.4957528349768978  0.8251228437582085
  0.7386943335901748  0.2892568030441751  0.2451576097549335
  0.2613056664098323  0.7107431969558178  0.7548423902450665
  0.2386943335901677  0.7107431969558178  0.2548423902450665
  0.7613056664098252  0.2892568030441751  0.7451576097549335
  0.3116477520772705  0.3582488982297392  0.1552151294991262
  0.6883522479227224  0.6417511017702608  0.8447848705008809
  0.8116477520772776  0.6417511017702608  0.3447848705008738
  0.1883522479227295  0.3582488982297392  0.6552151294991191
  0.5037413958223809  0.6382468628035625  0.1411022597892853
  0.4962586041776191  0.3617531371964375  0.8588977402107147
  0.0037413958223880  0.3617531371964375  0.3588977402107147
  0.9962586041776191  0.6382468628035625  0.6411022597892853

  0.00000000E+00  0.00000000E+00  0.00000000E+00
  0.00000000E+00  0.00000000E+00  0.00000000E+00
  0.00000000E+00  0.00000000E+00  0.00000000E+00
  0.00000000E+00  0.00000000E+00  0.00000000E+00
  0.00000000E+00  0.00000000E+00  0.00000000E+00
  0.00000000E+00  0.00000000E+00  0.00000000E+00
  0.00000000E+00  0.00000000E+00  0.00000000E+00
  0.00000000E+00  0.00000000E+00  0.00000000E+00
  0.00000000E+00  0.00000000E+00  0.00000000E+00
  0.00000000E+00  0.00000000E+00  0.00000000E+00
  0.00000000E+00  0.00000000E+00  0.00000000E+00
  0.00000000E+00  0.00000000E+00  0.00000000E+00
  0.00000000E+00  0.00000000E+00  0.00000000E+00
  0.00000000E+00  0.00000000E+00  0.00000000E+00
  0.00000000E+00  0.00000000E+00  0.00000000E+00
  0.00000000E+00  0.00000000E+00  0.00000000E+00
  0.00000000E+00  0.00000000E+00  0.00000000E+00
  0.00000000E+00  0.00000000E+00  0.00000000E+00
  0.00000000E+00  0.00000000E+00  0.00000000E+00
  0.00000000E+00  0.00000000E+00  0.00000000E+00
  0.00000000E+00  0.00000000E+00  0.00000000E+00
  0.00000000E+00  0.00000000E+00  0.00000000E+00
  0.00000000E+00  0.00000000E+00  0.00000000E+00
  0.00000000E+00  0.00000000E+00  0.00000000E+00
  0.00000000E+00  0.00000000E+00  0.00000000E+00
  0.00000000E+00  0.00000000E+00  0.00000000E+00
  0.00000000E+00  0.00000000E+00  0.00000000E+00
  0.00000000E+00  0.00000000E+00  0.00000000E+00
  0.00000000E+00  0.00000000E+00  0.00000000E+00
  0.00000000E+00  0.00000000E+00  0.00000000E+00
  0.00000000E+00  0.00000000E+00  0.00000000E+00
  0.00000000E+00  0.00000000E+00  0.00000000E+00
  0.00000000E+00  0.00000000E+00  0.00000000E+00
  0.00000000E+00  0.00000000E+00  0.00000000E+00
  0.00000000E+00  0.00000000E+00  0.00000000E+00
  0.00000000E+00  0.00000000E+00  0.00000000E+00
  0.00000000E+00  0.00000000E+00  0.00000000E+00
  0.00000000E+00  0.00000000E+00  0.00000000E+00
  0.00000000E+00  0.00000000E+00  0.00000000E+00
  0.00000000E+00  0.00000000E+00  0.00000000E+00
  0.00000000E+00  0.00000000E+00  0.00000000E+00
  0.00000000E+00  0.00000000E+00  0.00000000E+00
  0.00000000E+00  0.00000000E+00  0.00000000E+00
  0.00000000E+00  0.00000000E+00  0.00000000E+00
  0.00000000E+00  0.00000000E+00  0.00000000E+00
  0.00000000E+00  0.00000000E+00  0.00000000E+00
  0.00000000E+00  0.00000000E+00  0.00000000E+00
  0.00000000E+00  0.00000000E+00  0.00000000E+00
  0.00000000E+00  0.00000000E+00  0.00000000E+00
  0.00000000E+00  0.00000000E+00  0.00000000E+00
  0.00000000E+00  0.00000000E+00  0.00000000E+00
  0.00000000E+00  0.00000000E+00  0.00000000E+00
  0.00000000E+00  0.00000000E+00  0.00000000E+00
  0.00000000E+00  0.00000000E+00  0.00000000E+00
  0.00000000E+00  0.00000000E+00  0.00000000E+00
  0.00000000E+00  0.00000000E+00  0.00000000E+00
