Sr22 Al14                               
   1.00000000000000     
     0.0000000000000000    8.7053365416660711    8.7053365416660693
     8.7053365416660693    0.0000000000000000    8.7053365416660693
     8.7053365416660693    8.7053365416660711    0.0000000000000000
   Sr   Al
    22    14
Direct
  0.0000000000000000  0.0000000000000000  0.0000000000000000
  0.5000000000000000  0.5000000000000000  0.5000000000000000
  0.1296688261441687  0.1296688261441687  0.1296688261441687
  0.3890054784325017  0.8703311738558313  0.8703311738558313
  0.8703311738558313  0.3890054784325017  0.8703311738558313
  0.8703311738558313  0.8703311738558313  0.3890054784325017
  0.1296688261441687  0.6109945215674983  0.1296688261441687
  0.1296688261441687  0.1296688261441687  0.6109945215674983
  0.6109945215674983  0.1296688261441687  0.1296688261441687
  0.8703311738558313  0.8703311738558313  0.8703311738558313
  0.5000000000000000  0.8360685242436503  0.5000000000000000
  0.8360685242436503  0.5000000000000000  0.5000000000000000
  0.5000000000000000  0.8360685242436503  0.1639314757563497
  0.1639314757563497  0.5000000000000000  0.8360685242436503
  0.8360685242436503  0.5000000000000000  0.1639314757563497
  0.5000000000000000  0.5000000000000000  0.8360685242436503
  0.1639314757563497  0.8360685242436503  0.5000000000000000
  0.5000000000000000  0.1639314757563497  0.8360685242436503
  0.5000000000000000  0.5000000000000000  0.1639314757563497
  0.8360685242436503  0.1639314757563497  0.5000000000000000
  0.1639314757563497  0.5000000000000000  0.5000000000000000
  0.5000000000000000  0.1639314757563497  0.5000000000000000
  0.2191954343577009  0.7808045656422991  0.2191954343577009
  0.2191954343577009  0.7808045656422991  0.7808045656422991
  0.7808045656422991  0.2191954343577009  0.2191954343577009
  0.7808045656422991  0.7808045656422991  0.2191954343577009
  0.2191954343577009  0.2191954343577009  0.7808045656422991
  0.7808045656422991  0.2191954343577009  0.7808045656422991
  0.3057066889113287  0.3057056889113312  0.3057056889113312
  0.9171180667339840  0.6942943110886688  0.6942943110886688
  0.6942943110886688  0.9171180667339840  0.6942943110886688
  0.6942943110886688  0.6942943110886688  0.9171180667339840
  0.3057056889113312  0.0828819332660160  0.3057056889113312
  0.3057056889113312  0.3057056889113312  0.0828819332660160
  0.0828819332660160  0.3057056889113312  0.3057056889113312
  0.6942943110886688  0.6942943110886688  0.6942933110886713
 
  0.00000000E+00  0.00000000E+00  0.00000000E+00
  0.00000000E+00  0.00000000E+00  0.00000000E+00
  0.00000000E+00  0.00000000E+00  0.00000000E+00
  0.00000000E+00  0.00000000E+00  0.00000000E+00
  0.00000000E+00  0.00000000E+00  0.00000000E+00
  0.00000000E+00  0.00000000E+00  0.00000000E+00
  0.00000000E+00  0.00000000E+00  0.00000000E+00
  0.00000000E+00  0.00000000E+00  0.00000000E+00
  0.00000000E+00  0.00000000E+00  0.00000000E+00
  0.00000000E+00  0.00000000E+00  0.00000000E+00
  0.00000000E+00  0.00000000E+00  0.00000000E+00
  0.00000000E+00  0.00000000E+00  0.00000000E+00
  0.00000000E+00  0.00000000E+00  0.00000000E+00
  0.00000000E+00  0.00000000E+00  0.00000000E+00
  0.00000000E+00  0.00000000E+00  0.00000000E+00
  0.00000000E+00  0.00000000E+00  0.00000000E+00
  0.00000000E+00  0.00000000E+00  0.00000000E+00
  0.00000000E+00  0.00000000E+00  0.00000000E+00
  0.00000000E+00  0.00000000E+00  0.00000000E+00
  0.00000000E+00  0.00000000E+00  0.00000000E+00
  0.00000000E+00  0.00000000E+00  0.00000000E+00
  0.00000000E+00  0.00000000E+00  0.00000000E+00
  0.00000000E+00  0.00000000E+00  0.00000000E+00
  0.00000000E+00  0.00000000E+00  0.00000000E+00
  0.00000000E+00  0.00000000E+00  0.00000000E+00
  0.00000000E+00  0.00000000E+00  0.00000000E+00
  0.00000000E+00  0.00000000E+00  0.00000000E+00
  0.00000000E+00  0.00000000E+00  0.00000000E+00
  0.00000000E+00  0.00000000E+00  0.00000000E+00
  0.00000000E+00  0.00000000E+00  0.00000000E+00
  0.00000000E+00  0.00000000E+00  0.00000000E+00
  0.00000000E+00  0.00000000E+00  0.00000000E+00
  0.00000000E+00  0.00000000E+00  0.00000000E+00
  0.00000000E+00  0.00000000E+00  0.00000000E+00
  0.00000000E+00  0.00000000E+00  0.00000000E+00
  0.00000000E+00  0.00000000E+00  0.00000000E+00
