Ca6 Tl4 Br24                            
   1.0000000000000000     
     0.0000000000000000    0.0000000000000000    7.5408506251776535
    14.1619880522874961    0.1106929878579216    0.0000000000000000
    -0.0284631028172651   14.3911868947443882    0.0000000000000000
   Ca   Br   Tl
     6    24     4
Direct
  0.0000000000000000  0.0755290310504222  0.7754256822690309
  0.5000000000000000  0.4272421200876977  0.2613438958657639
  0.5000000000000000  0.9346344466532912  0.2692148993737788
  0.0000000000000000  0.5827245491293525  0.5788839925472473
  0.5000000000000000  0.1519384035991109  0.4175706679986817
  0.5000000000000000  0.6507432723932780  0.1007381748776766
  0.2562312034500707  0.5106938041612210  0.1331172545789983
  0.7437687965499293  0.5106938041612210  0.1331172545789983
  0.2531086351758489  0.7732847224829982  0.2056582746776527
  0.7468913648241582  0.7732847224829982  0.2056582746776527
  0.0000000000000000  0.2899387961343578  0.0583131214459627
  0.2639894259056064  0.0435292596883770  0.1375176658685291
  0.7360105740943936  0.0435292596883770  0.1375176658685291
  0.2512812724413536  0.5500972598780862  0.3909698042049072
  0.7487187275586464  0.5500972598780862  0.3909698042049072
  0.0000000000000000  0.7688633779477954  0.4728926598499754
  0.2515669329381964  0.2711736873883623  0.3166704173122667
  0.7484330670618036  0.2711736873883623  0.3166704173122667
  0.2570374680537455  0.0065226424564173  0.3996081742868256
  0.7429625319462545  0.0065226424564173  0.3996081742868256
  0.2484993657019459  0.6830279274102580  0.6962523063067536
  0.7515006342980541  0.6830279274102580  0.6962523063067536
  0.0000000000000000  0.1492150889799433  0.5841558011462240
  0.2482797465727842  0.4251202086484653  0.6222506702063129
  0.7517202534272158  0.4251202086484653  0.6222506702063129
  0.2500086049687056  0.9281223063843100  0.8030763975023447
  0.7499913950312944  0.9281223063843100  0.8030763975023447
  0.0000000000000000  0.7068558301641303  0.9611334460198151
  0.2484073879386060  0.2271826096817051  0.8102299364695895
  0.7515926120613940  0.2271826096817051  0.8102299364695895
  0.0000000000000000  0.6709087353908743  0.3165158070238547
  0.0000000000000000  0.1630670105858556  0.1853315617735944
  0.0000000000000000  0.7837308498385340  0.7942251742940840
  0.0000000000000000  0.3072996316850478  0.6937533126859492

  0.00000000E+00  0.00000000E+00  0.00000000E+00
  0.00000000E+00  0.00000000E+00  0.00000000E+00
  0.00000000E+00  0.00000000E+00  0.00000000E+00
  0.00000000E+00  0.00000000E+00  0.00000000E+00
  0.00000000E+00  0.00000000E+00  0.00000000E+00
  0.00000000E+00  0.00000000E+00  0.00000000E+00
  0.00000000E+00  0.00000000E+00  0.00000000E+00
  0.00000000E+00  0.00000000E+00  0.00000000E+00
  0.00000000E+00  0.00000000E+00  0.00000000E+00
  0.00000000E+00  0.00000000E+00  0.00000000E+00
  0.00000000E+00  0.00000000E+00  0.00000000E+00
  0.00000000E+00  0.00000000E+00  0.00000000E+00
  0.00000000E+00  0.00000000E+00  0.00000000E+00
  0.00000000E+00  0.00000000E+00  0.00000000E+00
  0.00000000E+00  0.00000000E+00  0.00000000E+00
  0.00000000E+00  0.00000000E+00  0.00000000E+00
  0.00000000E+00  0.00000000E+00  0.00000000E+00
  0.00000000E+00  0.00000000E+00  0.00000000E+00
  0.00000000E+00  0.00000000E+00  0.00000000E+00
  0.00000000E+00  0.00000000E+00  0.00000000E+00
  0.00000000E+00  0.00000000E+00  0.00000000E+00
  0.00000000E+00  0.00000000E+00  0.00000000E+00
  0.00000000E+00  0.00000000E+00  0.00000000E+00
  0.00000000E+00  0.00000000E+00  0.00000000E+00
  0.00000000E+00  0.00000000E+00  0.00000000E+00
  0.00000000E+00  0.00000000E+00  0.00000000E+00
  0.00000000E+00  0.00000000E+00  0.00000000E+00
  0.00000000E+00  0.00000000E+00  0.00000000E+00
  0.00000000E+00  0.00000000E+00  0.00000000E+00
  0.00000000E+00  0.00000000E+00  0.00000000E+00
  0.00000000E+00  0.00000000E+00  0.00000000E+00
  0.00000000E+00  0.00000000E+00  0.00000000E+00
  0.00000000E+00  0.00000000E+00  0.00000000E+00
  0.00000000E+00  0.00000000E+00  0.00000000E+00
