Sr4 B4 Cl20                             
   1.0000000000000000     
     8.1245936471953772   -0.0000000000000003    0.0000000000000005
    -0.0000000000000008    9.4915202684109339    0.0000000000000004
     0.0000000000000006    0.0000000000000004   13.0024099869113154
   Sr   B    Cl
     4     4    20
Direct
  0.6220667961943818  0.6901531703581512  0.5807972255171094
  0.1220667961943818  0.8098468296418488  0.4192027744828764
  0.3779332038056182  0.1901531703581512  0.9192027744828906
  0.8779332038056182  0.3098468296418488  0.0807972255171236
  0.3244270337358373  0.0929120791659486  0.6582898825666561
  0.8244270337358373  0.4070879208340443  0.3417101174333368
  0.6755729662641627  0.5929120791659486  0.8417101174333439
  0.1755729662641627  0.9070879208340514  0.1582898825666561
  0.8812967277010415  0.5536858747567805  0.4386728694108015
  0.3812967277010415  0.9463141252432195  0.5613271305891985
  0.1187032722989585  0.0536858747567805  0.0613271305891985
  0.6187032722989585  0.4463141252432195  0.9386728694108015
  0.7077398875594980  0.4921790858255051  0.2337889282131584
  0.2077398875594980  0.0078209141744949  0.7662110717868345
  0.2922601124405020  0.9921790858255051  0.2662110717868345
  0.7922601124405020  0.5078209141744949  0.7337889282131584
  0.2064090418079019  0.2264900898002509  0.5936044811378594
  0.7064090418079019  0.2735099101997562  0.4063955188621406
  0.7935909581920981  0.7264900898002651  0.9063955188621406
  0.2935909581920981  0.7735099101997349  0.0936044811378594
  0.5242875971880707  0.1629894802782559  0.7100528633998948
  0.0242875971880707  0.3370105197217441  0.2899471366001052
  0.4757124028119293  0.6629894802782559  0.7899471366001052
  0.9757124028119293  0.8370105197217441  0.2100528633998948
  0.3694693776446130  0.6099592162746177  0.4484395051077783
  0.8694693776446130  0.8900407837253823  0.5515604948922217
  0.6305306223553870  0.1099592162746177  0.0515604948922217
  0.1305306223553870  0.3900407837253823  0.9484395051077783

  0.00000000E+00  0.00000000E+00  0.00000000E+00
  0.00000000E+00  0.00000000E+00  0.00000000E+00
  0.00000000E+00  0.00000000E+00  0.00000000E+00
  0.00000000E+00  0.00000000E+00  0.00000000E+00
  0.00000000E+00  0.00000000E+00  0.00000000E+00
  0.00000000E+00  0.00000000E+00  0.00000000E+00
  0.00000000E+00  0.00000000E+00  0.00000000E+00
  0.00000000E+00  0.00000000E+00  0.00000000E+00
  0.00000000E+00  0.00000000E+00  0.00000000E+00
  0.00000000E+00  0.00000000E+00  0.00000000E+00
  0.00000000E+00  0.00000000E+00  0.00000000E+00
  0.00000000E+00  0.00000000E+00  0.00000000E+00
  0.00000000E+00  0.00000000E+00  0.00000000E+00
  0.00000000E+00  0.00000000E+00  0.00000000E+00
  0.00000000E+00  0.00000000E+00  0.00000000E+00
  0.00000000E+00  0.00000000E+00  0.00000000E+00
  0.00000000E+00  0.00000000E+00  0.00000000E+00
  0.00000000E+00  0.00000000E+00  0.00000000E+00
  0.00000000E+00  0.00000000E+00  0.00000000E+00
  0.00000000E+00  0.00000000E+00  0.00000000E+00
  0.00000000E+00  0.00000000E+00  0.00000000E+00
  0.00000000E+00  0.00000000E+00  0.00000000E+00
  0.00000000E+00  0.00000000E+00  0.00000000E+00
  0.00000000E+00  0.00000000E+00  0.00000000E+00
  0.00000000E+00  0.00000000E+00  0.00000000E+00
  0.00000000E+00  0.00000000E+00  0.00000000E+00
  0.00000000E+00  0.00000000E+00  0.00000000E+00
  0.00000000E+00  0.00000000E+00  0.00000000E+00
