In2                                     
   1.00000000000000     
     3.3880855687933038   -0.0000000000910927    0.0000000000000000
    -1.6940427895543908    2.9341673281216760    0.0000000000000000
     0.0000000000000000    0.0000000000000000    5.5198591873369747
   In
     2
Direct
  0.3333330000000032  0.6666659999999993  0.2499990000000025
  0.6666659999999993  0.3333330000000032  0.7500000000000000
 
  0.00000000E+00  0.00000000E+00  0.00000000E+00
  0.00000000E+00  0.00000000E+00  0.00000000E+00
