Ba3Ga2                                  
   1.00000000000000     
     9.7463326797094521    0.0067106457791907    0.0000000000000000
    -4.8673229065248966    8.4180266235168251    0.0000000000000000
     0.0000000000000000    0.0000000000000000    4.9416423463471411
   Ba   Ga
     6     4
Direct
  0.3859429316608285  0.0925479218060588  0.2500000000000000
  0.9058963019234909  0.2930663277664820  0.2500000000000000
  0.7078418142864180  0.6120457661110095  0.2500000000000000
  0.2929175140694227  0.3877482271796353  0.7500000000000000
  0.0945646478723390  0.7078123108687109  0.7500000000000000
  0.6135603126931954  0.9069669316752424  0.7500000000000000
  0.9998358235555855  0.0002298212695138  0.0000084580408242
  0.3341595587345125  0.6679243006958870  0.2500000000000000
  0.9998358235555855  0.0002298212695138  0.4999915419591758
  0.6653452716485972  0.3313285713579290  0.7500000000000000
 
  0.00000000E+00  0.00000000E+00  0.00000000E+00
  0.00000000E+00  0.00000000E+00  0.00000000E+00
  0.00000000E+00  0.00000000E+00  0.00000000E+00
  0.00000000E+00  0.00000000E+00  0.00000000E+00
  0.00000000E+00  0.00000000E+00  0.00000000E+00
  0.00000000E+00  0.00000000E+00  0.00000000E+00
  0.00000000E+00  0.00000000E+00  0.00000000E+00
  0.00000000E+00  0.00000000E+00  0.00000000E+00
  0.00000000E+00  0.00000000E+00  0.00000000E+00
  0.00000000E+00  0.00000000E+00  0.00000000E+00
