Ba8 In8 F40                             
   1.0000000000000000     
     7.6204746789153468    0.0000000000000000    0.0000000000000000
     0.0000000000000000    7.5503975282202669    0.0267560513891956
     0.0000000000000000    1.5012675874442916   15.4026252666178820
   Ba   In   F 
     8     8    40
Direct
  0.3527669039396102  0.0081862959345358  0.1380174268351197
  0.6472330960603898  0.9918137040654642  0.8619825731648803
  0.8527669039396102  0.9918137040654642  0.3619825731648731
  0.1472330960603898  0.0081862959345358  0.6380174268351197
  0.8392019835754851  0.3011475862179296  0.0863105119430116
  0.1607980164245149  0.6988524137820704  0.9136894880569884
  0.3392019835754851  0.6988524137820704  0.4136894880569884
  0.6607980164245149  0.3011475862179296  0.5863105119430116
  0.8757821961848649  0.5036341211428024  0.3378847793353330
  0.1242178038151351  0.4963658788571905  0.6621152206646670
  0.3757821961848578  0.4963658788571905  0.1621152206646670
  0.6242178038151351  0.5036341211428024  0.8378847793353330
  0.8201039198028113  0.8071441317741943  0.1245216979470030
  0.1798960801971887  0.1928558682258057  0.8754783020529970
  0.3201039198028113  0.1928558682258057  0.3754783020529970
  0.6798960801971887  0.8071441317741943  0.6245216979470030
  0.2956145499939069  0.6979361122961762  0.0701515328186488
  0.7043854500060931  0.3020638877038238  0.9298484671813512
  0.7956145499939069  0.3020638877038238  0.4298484671813512
  0.2043854500060931  0.6979361122961691  0.5701515328186488
  0.9175149165752714  0.6415983038217234  0.0380948753590999
  0.0824850834247357  0.3584016961782766  0.9619051246409001
  0.4175149165752643  0.3584016961782766  0.4619051246409001
  0.5824850834247286  0.6415983038217234  0.5380948753590999
  0.4817709772874608  0.9955527260318675  0.6006792020289637
  0.5182290227125392  0.0044472739681325  0.3993207979710363
  0.9817709772874608  0.0044472739681325  0.8993207979710363
  0.0182290227125392  0.9955527260318675  0.1006792020289637
  0.6962645553152171  0.9790173598938594  0.2052315083684064
  0.3037354446847829  0.0209826401061406  0.7947684916315936
  0.1962645553152171  0.0209826401061406  0.2947684916315936
  0.8037354446847829  0.9790173598938594  0.7052315083684064
  0.9629149271891890  0.6949751338774419  0.2338133863516276
  0.0370850728108110  0.3050248661225581  0.7661866136483724
  0.4629149271891890  0.3050248661225581  0.2661866136483724
  0.5370850728108110  0.6949751338774419  0.7338133863516276
  0.6648264690036783  0.9617824344124202  0.0357499765625136
  0.3351735309963217  0.0382175655875798  0.9642500234374864
  0.1648264690036783  0.0382175655875798  0.4642500234374864
  0.8351735309963217  0.9617824344124202  0.5357499765625136
  0.6620944107382982  0.6691094224473559  0.3457352488524066
  0.3379055892617018  0.3308905775526441  0.6542647511475934
  0.1620944107382982  0.3308905775526441  0.1542647511475934
  0.8379055892617018  0.6691094224473559  0.8457352488524066
  0.8411775256484972  0.3066313597514281  0.2561350722758533
  0.1588224743515028  0.6933686402485719  0.7438649277241467
  0.3411775256484972  0.6933686402485719  0.2438649277241467
  0.6588224743515028  0.3066313597514281  0.7561350722758533
  0.4912724049624941  0.3199687086731018  0.0830748395017196
  0.5087275950374988  0.6800312913268982  0.9169251604982804
  0.9912724049625012  0.6800312913268982  0.4169251604982804
  0.0087275950374988  0.3199687086731018  0.5830748395017196
  0.6441997768447578  0.5930214383493251  0.1539769203102992
  0.3558002231552422  0.4069785616506749  0.8460230796897008
  0.1441997768447578  0.4069785616506749  0.3460230796897008
  0.8558002231552422  0.5930214383493251  0.6539769203102992

  0.00000000E+00  0.00000000E+00  0.00000000E+00
  0.00000000E+00  0.00000000E+00  0.00000000E+00
  0.00000000E+00  0.00000000E+00  0.00000000E+00
  0.00000000E+00  0.00000000E+00  0.00000000E+00
  0.00000000E+00  0.00000000E+00  0.00000000E+00
  0.00000000E+00  0.00000000E+00  0.00000000E+00
  0.00000000E+00  0.00000000E+00  0.00000000E+00
  0.00000000E+00  0.00000000E+00  0.00000000E+00
  0.00000000E+00  0.00000000E+00  0.00000000E+00
  0.00000000E+00  0.00000000E+00  0.00000000E+00
  0.00000000E+00  0.00000000E+00  0.00000000E+00
  0.00000000E+00  0.00000000E+00  0.00000000E+00
  0.00000000E+00  0.00000000E+00  0.00000000E+00
  0.00000000E+00  0.00000000E+00  0.00000000E+00
  0.00000000E+00  0.00000000E+00  0.00000000E+00
  0.00000000E+00  0.00000000E+00  0.00000000E+00
  0.00000000E+00  0.00000000E+00  0.00000000E+00
  0.00000000E+00  0.00000000E+00  0.00000000E+00
  0.00000000E+00  0.00000000E+00  0.00000000E+00
  0.00000000E+00  0.00000000E+00  0.00000000E+00
  0.00000000E+00  0.00000000E+00  0.00000000E+00
  0.00000000E+00  0.00000000E+00  0.00000000E+00
  0.00000000E+00  0.00000000E+00  0.00000000E+00
  0.00000000E+00  0.00000000E+00  0.00000000E+00
  0.00000000E+00  0.00000000E+00  0.00000000E+00
  0.00000000E+00  0.00000000E+00  0.00000000E+00
  0.00000000E+00  0.00000000E+00  0.00000000E+00
  0.00000000E+00  0.00000000E+00  0.00000000E+00
  0.00000000E+00  0.00000000E+00  0.00000000E+00
  0.00000000E+00  0.00000000E+00  0.00000000E+00
  0.00000000E+00  0.00000000E+00  0.00000000E+00
  0.00000000E+00  0.00000000E+00  0.00000000E+00
  0.00000000E+00  0.00000000E+00  0.00000000E+00
  0.00000000E+00  0.00000000E+00  0.00000000E+00
  0.00000000E+00  0.00000000E+00  0.00000000E+00
  0.00000000E+00  0.00000000E+00  0.00000000E+00
  0.00000000E+00  0.00000000E+00  0.00000000E+00
  0.00000000E+00  0.00000000E+00  0.00000000E+00
  0.00000000E+00  0.00000000E+00  0.00000000E+00
  0.00000000E+00  0.00000000E+00  0.00000000E+00
  0.00000000E+00  0.00000000E+00  0.00000000E+00
  0.00000000E+00  0.00000000E+00  0.00000000E+00
  0.00000000E+00  0.00000000E+00  0.00000000E+00
  0.00000000E+00  0.00000000E+00  0.00000000E+00
  0.00000000E+00  0.00000000E+00  0.00000000E+00
  0.00000000E+00  0.00000000E+00  0.00000000E+00
  0.00000000E+00  0.00000000E+00  0.00000000E+00
  0.00000000E+00  0.00000000E+00  0.00000000E+00
  0.00000000E+00  0.00000000E+00  0.00000000E+00
  0.00000000E+00  0.00000000E+00  0.00000000E+00
  0.00000000E+00  0.00000000E+00  0.00000000E+00
  0.00000000E+00  0.00000000E+00  0.00000000E+00
  0.00000000E+00  0.00000000E+00  0.00000000E+00
  0.00000000E+00  0.00000000E+00  0.00000000E+00
  0.00000000E+00  0.00000000E+00  0.00000000E+00
  0.00000000E+00  0.00000000E+00  0.00000000E+00
