CaIn3                                   
   1.00000000000000     
     4.7478975865056752    0.0000000000000000    0.0000000000000000
     0.0000000000000000    4.7478975865056752    0.0000000000000000
     0.0000000000000000    0.0000000000000000    4.7478975865056752
   Ca   In
     1     3
Direct
  0.0000000000000000  0.0000000000000000  0.0000000000000000
  0.5000000000000000  0.5000000000000000  0.0000000000000000
  0.5000000000000000  0.0000000000000000  0.5000000000000000
  0.0000000000000000  0.5000000000000000  0.5000000000000000
 
  0.00000000E+00  0.00000000E+00  0.00000000E+00
  0.00000000E+00  0.00000000E+00  0.00000000E+00
  0.00000000E+00  0.00000000E+00  0.00000000E+00
  0.00000000E+00  0.00000000E+00  0.00000000E+00
