Be4 Al4 F2                              
   1.00000000000000     
     4.5684693794794393    0.7435600535555672    0.0001144449003020
    -1.8285361756302925    3.6672640642185161   -0.0008009201286132
     0.0014922492910021    0.0032823999905649    8.0155991790510299
   Al   F    Be
     4     2     4
Direct
  0.3041435505730377  0.6714975788779824  0.9561515102190157
  0.3043062523779483  0.6715428997728807  0.5437630968791609
  0.6959541052977443  0.3285562390578107  0.4562399757590114
  0.6955973241109277  0.3284027460673187  0.0438514583812832
  0.7721062378055024  0.5151475447906364  0.2500057111707790
  0.2278901772272235  0.4848527444200741  0.7499635257790658
  0.1455005387455373  0.0971379199591240  0.1047035724111538
  0.1458028519303625  0.0972756283373855  0.3952599803981016
  0.8544011206982987  0.9027744153256876  0.6047174613807016
  0.8542978412333966  0.9028122833910999  0.8952737076217190
 
  0.00000000E+00  0.00000000E+00  0.00000000E+00
  0.00000000E+00  0.00000000E+00  0.00000000E+00
  0.00000000E+00  0.00000000E+00  0.00000000E+00
  0.00000000E+00  0.00000000E+00  0.00000000E+00
  0.00000000E+00  0.00000000E+00  0.00000000E+00
  0.00000000E+00  0.00000000E+00  0.00000000E+00
  0.00000000E+00  0.00000000E+00  0.00000000E+00
  0.00000000E+00  0.00000000E+00  0.00000000E+00
  0.00000000E+00  0.00000000E+00  0.00000000E+00
  0.00000000E+00  0.00000000E+00  0.00000000E+00
