Be17 Tl11 Br1                           
   1.0000000000000000     
     7.2016110168756011   -4.7455446146641913    2.9027286171603324
    -0.4374567477025078    9.2066143451376625    3.4240580507304736
    -6.5169230604001935   -3.9632880817286376    2.3722106636801041
   Tl   Br   Be
    11     1    17
Direct
  0.7751096877923302  0.8228027024756130  0.9727256758019820
  0.5504104240913534  0.4630074690724300  0.2398379507050166
  0.2060926277232440  0.9473286335693203  0.2725568193176429
  0.6204088695322909  0.1304405608570178  0.2259006722025418
  0.1057118143010811  0.2738418248993071  0.3028069446470809
  0.5619579661540755  0.3742518256689706  0.5985947874921322
  0.9535550084920743  0.7549110950162614  0.4393523145535525
  0.8058866202060884  0.0132327441754683  0.6041303346320106
  0.4061084442707923  0.8935963871258892  0.6716475405097597
  0.9809240544892646  0.5681061328856103  0.6848158076870092
  0.2847143617982795  0.1912882434248928  0.7332746189845167
  0.8901300025744590  0.4239030695825221  0.0079694676342683
  0.1694420267546803  0.2581599821644289  0.0161147436593438
  0.3303095306433477  0.5280237203840983  0.0252764852239622
  0.2729046977629608  0.8835180035632817  0.9770367052678779
  0.3177413732906373  0.1344829528518758  0.0532425428212235
  0.0246310688632505  0.9489255301711452  0.8634216466893321
  0.6154714887796757  0.7656328210292855  0.1943757558326809
  0.1772445897757891  0.4983045233976213  0.1791185562287154
  0.3534440755234556  0.7703431461253345  0.1710141357952963
  0.9246680741944502  0.2290322103858387  0.4939015883214211
  0.4703238383227628  0.7036477749556553  0.3875965344008847
  0.7060252729468957  0.7406244671134203  0.6207682315640710
  0.9532180015151752  0.0000587266333909  0.3452369961260828
  0.2067022974908141  0.4495876914250587  0.6930504019190380
  0.4246335565635633  0.6098859898718274  0.6144082212867161
  0.3971892027527915  0.7261748738309208  0.9148609589111132
  0.0322248351834844  0.3453753200828729  0.8309316649411471
  0.4832301882109462  0.5496675772606494  0.8660318968435874

  0.00000000E+00  0.00000000E+00  0.00000000E+00
  0.00000000E+00  0.00000000E+00  0.00000000E+00
  0.00000000E+00  0.00000000E+00  0.00000000E+00
  0.00000000E+00  0.00000000E+00  0.00000000E+00
  0.00000000E+00  0.00000000E+00  0.00000000E+00
  0.00000000E+00  0.00000000E+00  0.00000000E+00
  0.00000000E+00  0.00000000E+00  0.00000000E+00
  0.00000000E+00  0.00000000E+00  0.00000000E+00
  0.00000000E+00  0.00000000E+00  0.00000000E+00
  0.00000000E+00  0.00000000E+00  0.00000000E+00
  0.00000000E+00  0.00000000E+00  0.00000000E+00
  0.00000000E+00  0.00000000E+00  0.00000000E+00
  0.00000000E+00  0.00000000E+00  0.00000000E+00
  0.00000000E+00  0.00000000E+00  0.00000000E+00
  0.00000000E+00  0.00000000E+00  0.00000000E+00
  0.00000000E+00  0.00000000E+00  0.00000000E+00
  0.00000000E+00  0.00000000E+00  0.00000000E+00
  0.00000000E+00  0.00000000E+00  0.00000000E+00
  0.00000000E+00  0.00000000E+00  0.00000000E+00
  0.00000000E+00  0.00000000E+00  0.00000000E+00
  0.00000000E+00  0.00000000E+00  0.00000000E+00
  0.00000000E+00  0.00000000E+00  0.00000000E+00
  0.00000000E+00  0.00000000E+00  0.00000000E+00
  0.00000000E+00  0.00000000E+00  0.00000000E+00
  0.00000000E+00  0.00000000E+00  0.00000000E+00
  0.00000000E+00  0.00000000E+00  0.00000000E+00
  0.00000000E+00  0.00000000E+00  0.00000000E+00
  0.00000000E+00  0.00000000E+00  0.00000000E+00
  0.00000000E+00  0.00000000E+00  0.00000000E+00
