Be4 In4 Br20                            
   1.0000000000000000     
    15.0606542237226471    0.0000000000000000    0.0000000000000000
     0.0000000000000000   11.9268008045992850    1.6638398655954698
     0.0000000000000000    7.7307710596225689    7.7439361160873972
   Be   In   Br
     4     4    20
Direct
  0.0252349098631228  0.4775557961198302  0.3938716604965578
  0.5252349098631228  0.5224442038801769  0.1061283395034422
  0.9747650901368772  0.5224442038801769  0.6061283395034351
  0.4747650901368772  0.4775557961198302  0.8938716604965649
  0.8609006735114875  0.0812610513256828  0.6515257967417369
  0.3609006735114804  0.9187389486743101  0.8484742032582631
  0.1390993264885196  0.9187389486743101  0.3484742032582773
  0.6390993264885125  0.0812610513256828  0.1515257967417227
  0.3255694171771211  0.7165783365195750  0.4626720209228878
  0.8255694171771211  0.2834216634804250  0.0373279790771193
  0.6744305828228789  0.2834216634804250  0.5373279790771122
  0.1744305828228789  0.7165783365195750  0.9626720209228878
  0.8150003190055131  0.0404725481323851  0.4154490061527483
  0.3150003190055202  0.9595274518676149  0.0845509938472517
  0.1849996809944940  0.9595274518676149  0.5845509938472588
  0.6849996809944869  0.0404725481323851  0.9154490061527412
  0.5610150045287057  0.4474571568025212  0.7665844869417313
  0.0610150045287057  0.5525428431974788  0.7334155130582687
  0.4389849954712943  0.5525428431974788  0.2334155130582687
  0.9389849954712943  0.4474571568025212  0.2665844869417313
  0.3331875129972701  0.4664064096071030  0.8579084589623847
  0.8331875129972701  0.5335935903928899  0.6420915410376153
  0.6668124870027299  0.5335935903928899  0.1420915410376082
  0.1668124870027299  0.4664064096071030  0.3579084589623918
  0.4942001826928646  0.2654828172757959  0.2251341251415795
  0.9942001826928575  0.7345171827242041  0.2748658748584276
  0.5057998173071425  0.7345171827242041  0.7748658748584347
  0.0057998173071425  0.2654828172757959  0.7251341251415653

  0.00000000E+00  0.00000000E+00  0.00000000E+00
  0.00000000E+00  0.00000000E+00  0.00000000E+00
  0.00000000E+00  0.00000000E+00  0.00000000E+00
  0.00000000E+00  0.00000000E+00  0.00000000E+00
  0.00000000E+00  0.00000000E+00  0.00000000E+00
  0.00000000E+00  0.00000000E+00  0.00000000E+00
  0.00000000E+00  0.00000000E+00  0.00000000E+00
  0.00000000E+00  0.00000000E+00  0.00000000E+00
  0.00000000E+00  0.00000000E+00  0.00000000E+00
  0.00000000E+00  0.00000000E+00  0.00000000E+00
  0.00000000E+00  0.00000000E+00  0.00000000E+00
  0.00000000E+00  0.00000000E+00  0.00000000E+00
  0.00000000E+00  0.00000000E+00  0.00000000E+00
  0.00000000E+00  0.00000000E+00  0.00000000E+00
  0.00000000E+00  0.00000000E+00  0.00000000E+00
  0.00000000E+00  0.00000000E+00  0.00000000E+00
  0.00000000E+00  0.00000000E+00  0.00000000E+00
  0.00000000E+00  0.00000000E+00  0.00000000E+00
  0.00000000E+00  0.00000000E+00  0.00000000E+00
  0.00000000E+00  0.00000000E+00  0.00000000E+00
  0.00000000E+00  0.00000000E+00  0.00000000E+00
  0.00000000E+00  0.00000000E+00  0.00000000E+00
  0.00000000E+00  0.00000000E+00  0.00000000E+00
  0.00000000E+00  0.00000000E+00  0.00000000E+00
  0.00000000E+00  0.00000000E+00  0.00000000E+00
  0.00000000E+00  0.00000000E+00  0.00000000E+00
  0.00000000E+00  0.00000000E+00  0.00000000E+00
  0.00000000E+00  0.00000000E+00  0.00000000E+00
