Ca5Tl2                                  
   1.0000000000000000     
     2.7796709489340778    1.6052560154942732    8.9575137420383300
    -2.7796709489340778    1.6052560154942732    8.9575137420383300
     0.0000000000000000   -3.2095872039447944    8.9573594454135410
   Ca   Tl
     5     2
Direct
  0.2206486036073514  0.2206486036073514  0.2206392920652078
  0.3677710996728791  0.3677710996728791  0.3677430450121832
  0.4999820137258553  0.4999820137258553  0.4999687259749237
  0.6321900446613498  0.6321900446613498  0.6322136503384428
  0.7793153939209532  0.7793153939209532  0.7793353554619316
  0.0870492031179424  0.0870492031179424  0.0870486863609088
  0.9129436412936656  0.9129436412936656  0.9129512447864059

  0.00000000E+00  0.00000000E+00  0.00000000E+00
  0.00000000E+00  0.00000000E+00  0.00000000E+00
  0.00000000E+00  0.00000000E+00  0.00000000E+00
  0.00000000E+00  0.00000000E+00  0.00000000E+00
  0.00000000E+00  0.00000000E+00  0.00000000E+00
  0.00000000E+00  0.00000000E+00  0.00000000E+00
  0.00000000E+00  0.00000000E+00  0.00000000E+00
