Sr4 Ga4 Cl20                            
   1.0000000000000000     
     0.0000000000000000    7.7606633149173163   -0.4960210730156987
    12.0111943622444297    0.0000000000000000    0.0000000000000000
     0.0000000000000000    0.5828088455767797   -9.5101434727240921
   Sr   Ga   Cl
     4     4    20
Direct
  0.7739187853676270  0.3865689438154760  0.2761854490611739
  0.2260812146323801  0.8865689438154689  0.7238145509388190
  0.1084768175729920  0.9473411458167007  0.2430908207973843
  0.8915231824270080  0.4473411458167007  0.7569091792026157
  0.4813285259519589  0.6717226922053854  0.0461412436272113
  0.5186714740480554  0.1717226922053854  0.9538587563727887
  0.8169239338430501  0.7268528781692609  0.5124406896795008
  0.1830760661569499  0.2268528781692609  0.4875593103204992
  0.3110471986695558  0.0422579398887066  0.4666127936479043
  0.0412015333622406  0.6650560395260641  0.6330183959881097
  0.9587984666377594  0.1650560395260641  0.3669816040118832
  0.7307230270118197  0.6715265258586314  0.9104732541308493
  0.9858507583555465  0.4362349471894831  0.0292527006665608
  0.4493465795694433  0.8257726084501940  0.1786511055978224
  0.0858896112997911  0.2214573003312807  0.7186935974052275
  0.5438942984026482  0.7944082591888559  0.5562689015979885
  0.0141492416444535  0.9362349471894902  0.9707472993334392
  0.9296459239662482  0.9092297168919288  0.5447153740966257
  0.5506534204305567  0.3257726084502082  0.8213488944021776
  0.6889528013304513  0.5422579398887137  0.5333872063520957
  0.5362097856608798  0.0238750963284389  0.8149151149991738
  0.7254974075466549  0.1752948863396568  0.0926950053884426
  0.0703540760337518  0.4092297168919288  0.4552846259033743
  0.9141103887002089  0.7214573003312807  0.2813064025947725
  0.2692769729881732  0.1715265258586314  0.0895267458691436
  0.2745025924533451  0.6752948863396568  0.9073049946115646
  0.4561057015973518  0.2944082591888630  0.4437310984020115
  0.4637902143391130  0.5238750963284389  0.1850848850008262

  0.00000000E+00  0.00000000E+00  0.00000000E+00
  0.00000000E+00  0.00000000E+00  0.00000000E+00
  0.00000000E+00  0.00000000E+00  0.00000000E+00
  0.00000000E+00  0.00000000E+00  0.00000000E+00
  0.00000000E+00  0.00000000E+00  0.00000000E+00
  0.00000000E+00  0.00000000E+00  0.00000000E+00
  0.00000000E+00  0.00000000E+00  0.00000000E+00
  0.00000000E+00  0.00000000E+00  0.00000000E+00
  0.00000000E+00  0.00000000E+00  0.00000000E+00
  0.00000000E+00  0.00000000E+00  0.00000000E+00
  0.00000000E+00  0.00000000E+00  0.00000000E+00
  0.00000000E+00  0.00000000E+00  0.00000000E+00
  0.00000000E+00  0.00000000E+00  0.00000000E+00
  0.00000000E+00  0.00000000E+00  0.00000000E+00
  0.00000000E+00  0.00000000E+00  0.00000000E+00
  0.00000000E+00  0.00000000E+00  0.00000000E+00
  0.00000000E+00  0.00000000E+00  0.00000000E+00
  0.00000000E+00  0.00000000E+00  0.00000000E+00
  0.00000000E+00  0.00000000E+00  0.00000000E+00
  0.00000000E+00  0.00000000E+00  0.00000000E+00
  0.00000000E+00  0.00000000E+00  0.00000000E+00
  0.00000000E+00  0.00000000E+00  0.00000000E+00
  0.00000000E+00  0.00000000E+00  0.00000000E+00
  0.00000000E+00  0.00000000E+00  0.00000000E+00
  0.00000000E+00  0.00000000E+00  0.00000000E+00
  0.00000000E+00  0.00000000E+00  0.00000000E+00
  0.00000000E+00  0.00000000E+00  0.00000000E+00
  0.00000000E+00  0.00000000E+00  0.00000000E+00
