Sr16 Tl6                                
   1.0000000000000000     
    10.3886999831177622    0.0212293489362348   -0.0237835708503622
    -5.1639030782205237    8.9986975586094751    0.0116995183876518
    -2.0733693279522121   -3.0289227574631887    9.8116730562921113
   Tl   Sr
     6    16
Direct
  0.0000215608649441  0.5002375859428483  0.0001912620656199
  0.6757685829658868  0.8384178934178976  0.0246766643543879
  0.8293136605102163  0.6669578152913402  0.4979115973235508
  0.5002472649088503  0.9999674784646331  0.5000962544416723
  0.1711013642671801  0.3328190471645556  0.5017292071565365
  0.3238304275919006  0.1613718057154685  0.9754942235686457
  0.0885779762791188  0.2354364020442787  0.1051419819658648
  0.7018856876138813  0.4871013075912813  0.1126034814281240
  0.3266996666505122  0.8829608415766970  0.1143582879937100
  0.5497560710707461  0.7128422937022378  0.2921547509580265
  0.7767288709530078  0.1492282397362814  0.2969711107499862
  0.0373804902654555  0.9385273787217230  0.3304092463606523
  0.4717568713253115  0.3015454979721142  0.3554076906023695
  0.1271004941518257  0.5972934483464698  0.3529442453313862
  0.8727853513361268  0.4030249172612415  0.6471235591025888
  0.5283589372120616  0.6984395238082328  0.6448666083638486
  0.9625102039798605  0.0613673539831012  0.6688675462515050
  0.2233790993984286  0.8507334344446420  0.7032590001975194
  0.4500611006641364  0.2868183426260345  0.7080030774077670
  0.6736812033326345  0.1169711528564008  0.8855487028734714
  0.2978455125510635  0.5125607070527565  0.8874225665822522
  0.9116096021068643  0.7650775322797685  0.8952189349205426

  0.00000000E+00  0.00000000E+00  0.00000000E+00
  0.00000000E+00  0.00000000E+00  0.00000000E+00
  0.00000000E+00  0.00000000E+00  0.00000000E+00
  0.00000000E+00  0.00000000E+00  0.00000000E+00
  0.00000000E+00  0.00000000E+00  0.00000000E+00
  0.00000000E+00  0.00000000E+00  0.00000000E+00
  0.00000000E+00  0.00000000E+00  0.00000000E+00
  0.00000000E+00  0.00000000E+00  0.00000000E+00
  0.00000000E+00  0.00000000E+00  0.00000000E+00
  0.00000000E+00  0.00000000E+00  0.00000000E+00
  0.00000000E+00  0.00000000E+00  0.00000000E+00
  0.00000000E+00  0.00000000E+00  0.00000000E+00
  0.00000000E+00  0.00000000E+00  0.00000000E+00
  0.00000000E+00  0.00000000E+00  0.00000000E+00
  0.00000000E+00  0.00000000E+00  0.00000000E+00
  0.00000000E+00  0.00000000E+00  0.00000000E+00
  0.00000000E+00  0.00000000E+00  0.00000000E+00
  0.00000000E+00  0.00000000E+00  0.00000000E+00
  0.00000000E+00  0.00000000E+00  0.00000000E+00
  0.00000000E+00  0.00000000E+00  0.00000000E+00
  0.00000000E+00  0.00000000E+00  0.00000000E+00
  0.00000000E+00  0.00000000E+00  0.00000000E+00
