Sr2 Tl4 Cl16                            
   1.0000000000000000     
     8.0631926343763212    0.6383432381909304    0.0175060572373969
    -0.9811295027710595    8.0286942602207869    0.0154804932599590
    -3.4840361982656507   -4.2611714312083331   13.6175424269679137
   Tl   Cl   Sr
     4    16     2
Direct
  0.8760725847106201  0.1244436899668528  0.2502400426072100
  0.3757824185913492  0.6241389973817633  0.2497899951884648
  0.6242516940424920  0.3758883451093524  0.7501765398932676
  0.1239330129063134  0.8756745843488218  0.7497752700416527
  0.6127614151725851  0.9391422967327046  0.1353160109982454
  0.0270764367547898  0.1976003765164762  0.1353039075173257
  0.4596630116065157  0.3762043341981922  0.1382625273996965
  0.1829419649823336  0.7630575508914887  0.1382328545045155
  0.7371722488861963  0.3172291391810305  0.3617990727853595
  0.1240256612789850  0.0406584184753456  0.3617977926643761
  0.5610495106873756  0.8874757835740326  0.3647756550854169
  0.3025484140188155  0.4731130281385276  0.3647090383576526
  0.6974898587630420  0.5269608725369537  0.6352873679119782
  0.4389806230306803  0.1126131073305814  0.6352470662839522
  0.8759696254565554  0.9594360898685395  0.6381825591980856
  0.2628492119514263  0.6828643324591184  0.6381925541774365
  0.8171230598157635  0.2370027511722910  0.8617889404545735
  0.5403915839408313  0.6238154871638031  0.8617433572709032
  0.9729422164605808  0.8024831266286796  0.8647018892845963
  0.3872342525981125  0.0608948718043578  0.8646842629552083
  0.3758911397755753  0.1242140326217225  0.2500165180557374
  0.6241500545690570  0.8757887838993668  0.7499767773643526

  0.00000000E+00  0.00000000E+00  0.00000000E+00
  0.00000000E+00  0.00000000E+00  0.00000000E+00
  0.00000000E+00  0.00000000E+00  0.00000000E+00
  0.00000000E+00  0.00000000E+00  0.00000000E+00
  0.00000000E+00  0.00000000E+00  0.00000000E+00
  0.00000000E+00  0.00000000E+00  0.00000000E+00
  0.00000000E+00  0.00000000E+00  0.00000000E+00
  0.00000000E+00  0.00000000E+00  0.00000000E+00
  0.00000000E+00  0.00000000E+00  0.00000000E+00
  0.00000000E+00  0.00000000E+00  0.00000000E+00
  0.00000000E+00  0.00000000E+00  0.00000000E+00
  0.00000000E+00  0.00000000E+00  0.00000000E+00
  0.00000000E+00  0.00000000E+00  0.00000000E+00
  0.00000000E+00  0.00000000E+00  0.00000000E+00
  0.00000000E+00  0.00000000E+00  0.00000000E+00
  0.00000000E+00  0.00000000E+00  0.00000000E+00
  0.00000000E+00  0.00000000E+00  0.00000000E+00
  0.00000000E+00  0.00000000E+00  0.00000000E+00
  0.00000000E+00  0.00000000E+00  0.00000000E+00
  0.00000000E+00  0.00000000E+00  0.00000000E+00
  0.00000000E+00  0.00000000E+00  0.00000000E+00
  0.00000000E+00  0.00000000E+00  0.00000000E+00
