B1 Br6                                  
   1.00000000000000     
     4.9187023765597804    5.7187094414628774    5.8723060291940996
    -2.6419924977373057    3.0775965379953458    5.3698374483887452
    -1.3061600417946855   -6.7094708721538208    4.4367676889947285
   Br   B 
     6     1
Direct
  0.9053203209412004  0.2883161498741202  0.9995371537948259
  0.5627620510082281  0.0689575117426102  0.0274765832224020
  0.8875238312845681  0.9695446081007688  0.3254672351143242
  0.1195698113490451  0.0724874892916034  0.5748824833039379
  0.3871599091287692  0.9655180279215045  0.8226799276736472
  0.1541302178200965  0.6621408784538332  0.1102224948074095
  0.9839338584681059  0.9734353346155586  0.1401341220834524
 
  0.00000000E+00  0.00000000E+00  0.00000000E+00
  0.00000000E+00  0.00000000E+00  0.00000000E+00
  0.00000000E+00  0.00000000E+00  0.00000000E+00
  0.00000000E+00  0.00000000E+00  0.00000000E+00
  0.00000000E+00  0.00000000E+00  0.00000000E+00
  0.00000000E+00  0.00000000E+00  0.00000000E+00
  0.00000000E+00  0.00000000E+00  0.00000000E+00
