Sr8 Al2                                 
   1.00000000000000     
    -6.4810101134509397   -6.4810101134509397    0.0000000000000000
    -6.4810101134509397    0.0000000000000000   -6.4810101134509397
     0.0000000000000000   -6.4810101134509397   -6.4810101134509397
   Sr   Al
     8     2
Direct
  0.6125868877863425  0.6125868877863425  0.6125868877863425
  0.1622383366409608  0.6125868877863425  0.6125868877863425
  0.6125868877863425  0.1622383366409608  0.6125868877863425
  0.5877616633590392  0.1374131122136575  0.1374131122136575
  0.1374131122136575  0.1374131122136575  0.1374131122136575
  0.6125868877863425  0.6125868877863425  0.1622383366409608
  0.1374131122136575  0.5877616633590392  0.1374131122136575
  0.1374131122136575  0.1374131122136575  0.5877616633590392
  0.0000000000000000  0.0000000000000000  0.0000000000000000
  0.7500000000000000  0.7500000000000000  0.7500000000000000
 
  0.00000000E+00  0.00000000E+00  0.00000000E+00
  0.00000000E+00  0.00000000E+00  0.00000000E+00
  0.00000000E+00  0.00000000E+00  0.00000000E+00
  0.00000000E+00  0.00000000E+00  0.00000000E+00
  0.00000000E+00  0.00000000E+00  0.00000000E+00
  0.00000000E+00  0.00000000E+00  0.00000000E+00
  0.00000000E+00  0.00000000E+00  0.00000000E+00
  0.00000000E+00  0.00000000E+00  0.00000000E+00
  0.00000000E+00  0.00000000E+00  0.00000000E+00
  0.00000000E+00  0.00000000E+00  0.00000000E+00
