Mg4 Al2 Cl10                            
   1.00000000000000     
     8.2037741738479060    1.0666574678565179   -0.6332699971943073
     1.0666574678565179    8.2037741738479042   -0.6332699971943073
     4.0187535607934688    4.0187535607934688    7.5730874156455226
   Cl   Mg   Al
    10     4     2
Direct
  0.6207005827295831  0.0023541145579244  0.0129501266813818
  0.0023541145579244  0.6207005827295831  0.0129501266813818
  0.6335024782434928  0.1189012167417900  0.3152363100675970
  0.1098309259136983  0.1098309259136983  0.2486970455235635
  0.5673479312928364  0.5673479312928364  0.0710462716761526
  0.1189012167417900  0.6335024782434928  0.3152363100675970
  0.9642828879969159  0.3200195261190686  0.8509583901735596
  0.4133090956467740  0.4133090956467740  0.8920201971288009
  0.8453859917690991  0.8453859917690991  0.6199588900743151
  0.3200195261190686  0.9642828879969159  0.8509583901735596
  0.2041986303904366  0.2041986303904366  0.9584155972659474
  0.6615965964372919  0.2702378661190110  0.0293718655916493
  0.2702378661190110  0.6615965964372919  0.0293718655916493
  0.7828362581673005  0.7828362581673005  0.8992977339505828
  0.7734763649843899  0.2121195328903838  0.4467654396761276
  0.2121195328903838  0.7734763649843899  0.4467654396761276
 
  0.00000000E+00  0.00000000E+00  0.00000000E+00
  0.00000000E+00  0.00000000E+00  0.00000000E+00
  0.00000000E+00  0.00000000E+00  0.00000000E+00
  0.00000000E+00  0.00000000E+00  0.00000000E+00
  0.00000000E+00  0.00000000E+00  0.00000000E+00
  0.00000000E+00  0.00000000E+00  0.00000000E+00
  0.00000000E+00  0.00000000E+00  0.00000000E+00
  0.00000000E+00  0.00000000E+00  0.00000000E+00
  0.00000000E+00  0.00000000E+00  0.00000000E+00
  0.00000000E+00  0.00000000E+00  0.00000000E+00
  0.00000000E+00  0.00000000E+00  0.00000000E+00
  0.00000000E+00  0.00000000E+00  0.00000000E+00
  0.00000000E+00  0.00000000E+00  0.00000000E+00
  0.00000000E+00  0.00000000E+00  0.00000000E+00
  0.00000000E+00  0.00000000E+00  0.00000000E+00
  0.00000000E+00  0.00000000E+00  0.00000000E+00
