Ba10 Al4 Br32                           
   1.00000000000000     
     5.0709887652325882   -8.4992076638864766    0.0000000000000000
     5.0709887652325882    8.4992076638864766    0.0000000000000000
     0.0000000000000000    0.0000000000000000   18.8711163914272113
   Ba   Al   Br
    10     4    32
Direct
  0.0000000000000000  0.0000000000000000  0.7163451138638521
  0.0000000000000000  0.0000000000000000  0.2836548861361550
  0.5000000000000000  0.5000000000000000  0.7836548861361479
  0.5000000000000000  0.5000000000000000  0.2163451138638450
  0.5000000000000000  0.5000000000000000  0.5000000000000000
  0.0000000000000000  0.0000000000000000  0.0000000000000000
  0.0000000000000000  0.5000000000000000  0.6361605572396343
  0.5000000000000000  0.0000000000000000  0.3638394427603657
  0.5000000000000000  0.0000000000000000  0.8638394427603657
  0.0000000000000000  0.5000000000000000  0.1361605572396343
  0.5000000000000000  0.0000000000000000  0.6167649882270254
  0.0000000000000000  0.5000000000000000  0.3832350117729746
  0.0000000000000000  0.5000000000000000  0.8832350117729746
  0.5000000000000000  0.0000000000000000  0.1167649882270254
  0.5313768049627825  0.1904092976587961  0.7099717626325486
  0.4686231950372175  0.8095907023412039  0.7099717626325486
  0.1904092976587961  0.5313768049627825  0.2900282373674514
  0.8095907023412039  0.4686231950372175  0.2900282373674514
  0.9686231950372175  0.3095907023412039  0.7900282373674514
  0.0313768049627825  0.6904092976587961  0.7900282373674514
  0.3095907023412039  0.9686231950372175  0.2099717626325486
  0.6904092976587961  0.0313768049627825  0.2099717626325486
  0.1997307984805374  0.8791204187916932  0.6144002582151842
  0.8002692015194626  0.1208795812083068  0.6144002582151842
  0.8791204187916932  0.1997307984805374  0.3855997417848158
  0.1208795812083068  0.8002692015194626  0.3855997417848158
  0.3002692015194697  0.6208795812083068  0.8855997417848158
  0.6997307984805374  0.3791204187916932  0.8855997417848158
  0.6670629648378821  0.9921408382567023  0.0203152427872269
  0.3329370351621179  0.0078591617432977  0.0203152427872269
  0.9921408382567023  0.6670629648378821  0.9796847572127731
  0.0078591617432977  0.3329370351621179  0.9796847572127731
  0.8329370351621179  0.5078591617432977  0.4796847572127731
  0.1670629648378821  0.4921408382567023  0.4796847572127731
  0.5078591617432977  0.8329370351621179  0.5203152427872269
  0.4921408382567023  0.1670629648378821  0.5203152427872269
  0.8587233407079680  0.7599777840593021  0.1474168002611123
  0.1412766592920320  0.2400222159406979  0.1474168002611123
  0.7599777840593021  0.8587233407079680  0.8525831997388877
  0.2400222159406979  0.1412766592920320  0.8525831997388877
  0.6412766592920320  0.7400222159406979  0.3525831997388877
  0.3587233407079680  0.2599777840593021  0.3525831997388877
  0.7400222159406979  0.6412766592920320  0.6474168002611123
  0.2599777840593021  0.3587233407079680  0.6474168002611123
  0.3791204187916932  0.6997307984805374  0.1144002582151842
  0.6208795812083068  0.3002692015194697  0.1144002582151842
 
  0.00000000E+00  0.00000000E+00  0.00000000E+00
  0.00000000E+00  0.00000000E+00  0.00000000E+00
  0.00000000E+00  0.00000000E+00  0.00000000E+00
  0.00000000E+00  0.00000000E+00  0.00000000E+00
  0.00000000E+00  0.00000000E+00  0.00000000E+00
  0.00000000E+00  0.00000000E+00  0.00000000E+00
  0.00000000E+00  0.00000000E+00  0.00000000E+00
  0.00000000E+00  0.00000000E+00  0.00000000E+00
  0.00000000E+00  0.00000000E+00  0.00000000E+00
  0.00000000E+00  0.00000000E+00  0.00000000E+00
  0.00000000E+00  0.00000000E+00  0.00000000E+00
  0.00000000E+00  0.00000000E+00  0.00000000E+00
  0.00000000E+00  0.00000000E+00  0.00000000E+00
  0.00000000E+00  0.00000000E+00  0.00000000E+00
  0.00000000E+00  0.00000000E+00  0.00000000E+00
  0.00000000E+00  0.00000000E+00  0.00000000E+00
  0.00000000E+00  0.00000000E+00  0.00000000E+00
  0.00000000E+00  0.00000000E+00  0.00000000E+00
  0.00000000E+00  0.00000000E+00  0.00000000E+00
  0.00000000E+00  0.00000000E+00  0.00000000E+00
  0.00000000E+00  0.00000000E+00  0.00000000E+00
  0.00000000E+00  0.00000000E+00  0.00000000E+00
  0.00000000E+00  0.00000000E+00  0.00000000E+00
  0.00000000E+00  0.00000000E+00  0.00000000E+00
  0.00000000E+00  0.00000000E+00  0.00000000E+00
  0.00000000E+00  0.00000000E+00  0.00000000E+00
  0.00000000E+00  0.00000000E+00  0.00000000E+00
  0.00000000E+00  0.00000000E+00  0.00000000E+00
  0.00000000E+00  0.00000000E+00  0.00000000E+00
  0.00000000E+00  0.00000000E+00  0.00000000E+00
  0.00000000E+00  0.00000000E+00  0.00000000E+00
  0.00000000E+00  0.00000000E+00  0.00000000E+00
  0.00000000E+00  0.00000000E+00  0.00000000E+00
  0.00000000E+00  0.00000000E+00  0.00000000E+00
  0.00000000E+00  0.00000000E+00  0.00000000E+00
  0.00000000E+00  0.00000000E+00  0.00000000E+00
  0.00000000E+00  0.00000000E+00  0.00000000E+00
  0.00000000E+00  0.00000000E+00  0.00000000E+00
  0.00000000E+00  0.00000000E+00  0.00000000E+00
  0.00000000E+00  0.00000000E+00  0.00000000E+00
  0.00000000E+00  0.00000000E+00  0.00000000E+00
  0.00000000E+00  0.00000000E+00  0.00000000E+00
  0.00000000E+00  0.00000000E+00  0.00000000E+00
  0.00000000E+00  0.00000000E+00  0.00000000E+00
  0.00000000E+00  0.00000000E+00  0.00000000E+00
  0.00000000E+00  0.00000000E+00  0.00000000E+00
