Mg17 Tl11 I1                            
   1.0000000000000000     
     7.8703938938525129   -5.9485523180187263    2.7551435064506520
    -0.8562284938106801   10.8500046701277313    3.3259039750879271
    -7.3229492677055941   -4.6633359724723107    3.2550430867189855
   Tl   I    Mg
    11     1    17
Direct
  0.6978292757178650  0.8555454257806616  0.0011509354889867
  0.4355609341983424  0.4565381998843847  0.2219296864087283
  0.7314303871311836  0.2272084110672026  0.2312602339498824
  0.2099943766332757  0.7650762074651283  0.2144337729344343
  0.1351342861484994  0.3654833061357508  0.3297691682245869
  0.3347438349045220  0.1225656567008713  0.2764982785589041
  0.0557272301692535  0.8459361780250987  0.7222928273567462
  0.8049220652249289  0.0344002440441713  0.6684315292749687
  0.9992818032005104  0.5541439526613061  0.7913555421644176
  0.4948362243793056  0.9892110419339488  0.7611178361196735
  0.2130265004817389  0.2404682315319917  0.7797392604364859
  0.7242458270357588  0.5384347158623441  0.0008097676409591
  0.9555720367021081  0.3516410977918341  0.9992630660060868
  0.3538258661629499  0.8955098713453111  0.9985195680880636
  0.4646660506219220  0.2224100620164364  0.9947806160268229
  0.0544797779243993  0.0955636725409619  0.9996564636020935
  0.3318545371576604  0.5891287082229866  0.0022262897179601
  0.8071651185351101  0.7664073282312884  0.3662501157958289
  0.6389426065087918  0.9509035994332180  0.3020632306344524
  0.0494324628398246  0.6099885283886053  0.4134074909922347
  0.0282166222854414  0.0674803793872840  0.3407027695632436
  0.4180678129717563  0.7146332709447876  0.4118196059621440
  0.7109382516215206  0.4660154557499681  0.4691385146147127
  0.2389239692226681  0.9983031202983952  0.5314935858048884
  0.0006587678931709  0.3036089579651815  0.5848674606991011
  0.6891238288534396  0.7259759657070504  0.6608239334652026
  0.6376959581408101  0.2037331463175747  0.5954910766213288
  0.3410326874659617  0.6454695223077493  0.6986624239741204
  0.4436268998672546  0.3975557422585112  0.6320459498729605

  0.00000000E+00  0.00000000E+00  0.00000000E+00
  0.00000000E+00  0.00000000E+00  0.00000000E+00
  0.00000000E+00  0.00000000E+00  0.00000000E+00
  0.00000000E+00  0.00000000E+00  0.00000000E+00
  0.00000000E+00  0.00000000E+00  0.00000000E+00
  0.00000000E+00  0.00000000E+00  0.00000000E+00
  0.00000000E+00  0.00000000E+00  0.00000000E+00
  0.00000000E+00  0.00000000E+00  0.00000000E+00
  0.00000000E+00  0.00000000E+00  0.00000000E+00
  0.00000000E+00  0.00000000E+00  0.00000000E+00
  0.00000000E+00  0.00000000E+00  0.00000000E+00
  0.00000000E+00  0.00000000E+00  0.00000000E+00
  0.00000000E+00  0.00000000E+00  0.00000000E+00
  0.00000000E+00  0.00000000E+00  0.00000000E+00
  0.00000000E+00  0.00000000E+00  0.00000000E+00
  0.00000000E+00  0.00000000E+00  0.00000000E+00
  0.00000000E+00  0.00000000E+00  0.00000000E+00
  0.00000000E+00  0.00000000E+00  0.00000000E+00
  0.00000000E+00  0.00000000E+00  0.00000000E+00
  0.00000000E+00  0.00000000E+00  0.00000000E+00
  0.00000000E+00  0.00000000E+00  0.00000000E+00
  0.00000000E+00  0.00000000E+00  0.00000000E+00
  0.00000000E+00  0.00000000E+00  0.00000000E+00
  0.00000000E+00  0.00000000E+00  0.00000000E+00
  0.00000000E+00  0.00000000E+00  0.00000000E+00
  0.00000000E+00  0.00000000E+00  0.00000000E+00
  0.00000000E+00  0.00000000E+00  0.00000000E+00
  0.00000000E+00  0.00000000E+00  0.00000000E+00
  0.00000000E+00  0.00000000E+00  0.00000000E+00
