Ca4 Ga4 Cl20                            
   1.0000000000000000     
     7.8482402618014442    0.0000000000000000    0.0000000000000004
    -0.0000000000000004    6.9652338760487362    0.0000000000000004
     0.0000000000000004    0.0000000000000001   16.1077675003085439
   Ca   Ga   Cl
     4     4    20
Direct
  0.6217723878985097  0.4666196269415579  0.3952652220144230
  0.1217723878985097  0.0333803730584421  0.6047347779855770
  0.3782276121014903  0.9666196269415579  0.1047347779855770
  0.8782276121014831  0.5333803730584421  0.8952652220144230
  0.3100496050564203  0.9450608490444807  0.3862804950644048
  0.8100496050564203  0.5549391509555193  0.6137195049355881
  0.6899503949435797  0.4450608490444807  0.1137195049355881
  0.1899503949435797  0.0549391509555264  0.8862804950644048
  0.8848248937257992  0.6352143564594641  0.4714552975927830
  0.3848248937257921  0.8647856435405359  0.5285447024072170
  0.1151751062742008  0.1352143564594641  0.0285447024072170
  0.6151751062742008  0.3647856435405359  0.9714552975927830
  0.2126516739916227  0.0208497159127603  0.2492635076571545
  0.7126516739916156  0.4791502840872397  0.7507364923428455
  0.7873483260083844  0.5208497159127603  0.2507364923428455
  0.2873483260083773  0.9791502840872397  0.7492635076571545
  0.9050105926467538  0.6291859656624084  0.0632113048834100
  0.4050105926467538  0.8708140343375916  0.9367886951165900
  0.0949894073532462  0.1291859656624084  0.4367886951165900
  0.5949894073532462  0.3708140343375845  0.5632113048834100
  0.4294674156385128  0.5805948685884061  0.1346391277131005
  0.9294674156385057  0.9194051314115939  0.8653608722869066
  0.5705325843614943  0.0805948685884061  0.3653608722868995
  0.0705325843614872  0.4194051314115939  0.6346391277130934
  0.1864347251179552  0.3744157689809029  0.8555585254548319
  0.6864347251179552  0.1255842310191042  0.1444414745451610
  0.8135652748820448  0.8744157689808958  0.6444414745451681
  0.3135652748820448  0.6255842310191042  0.3555585254548390

  0.00000000E+00  0.00000000E+00  0.00000000E+00
  0.00000000E+00  0.00000000E+00  0.00000000E+00
  0.00000000E+00  0.00000000E+00  0.00000000E+00
  0.00000000E+00  0.00000000E+00  0.00000000E+00
  0.00000000E+00  0.00000000E+00  0.00000000E+00
  0.00000000E+00  0.00000000E+00  0.00000000E+00
  0.00000000E+00  0.00000000E+00  0.00000000E+00
  0.00000000E+00  0.00000000E+00  0.00000000E+00
  0.00000000E+00  0.00000000E+00  0.00000000E+00
  0.00000000E+00  0.00000000E+00  0.00000000E+00
  0.00000000E+00  0.00000000E+00  0.00000000E+00
  0.00000000E+00  0.00000000E+00  0.00000000E+00
  0.00000000E+00  0.00000000E+00  0.00000000E+00
  0.00000000E+00  0.00000000E+00  0.00000000E+00
  0.00000000E+00  0.00000000E+00  0.00000000E+00
  0.00000000E+00  0.00000000E+00  0.00000000E+00
  0.00000000E+00  0.00000000E+00  0.00000000E+00
  0.00000000E+00  0.00000000E+00  0.00000000E+00
  0.00000000E+00  0.00000000E+00  0.00000000E+00
  0.00000000E+00  0.00000000E+00  0.00000000E+00
  0.00000000E+00  0.00000000E+00  0.00000000E+00
  0.00000000E+00  0.00000000E+00  0.00000000E+00
  0.00000000E+00  0.00000000E+00  0.00000000E+00
  0.00000000E+00  0.00000000E+00  0.00000000E+00
  0.00000000E+00  0.00000000E+00  0.00000000E+00
  0.00000000E+00  0.00000000E+00  0.00000000E+00
  0.00000000E+00  0.00000000E+00  0.00000000E+00
  0.00000000E+00  0.00000000E+00  0.00000000E+00
