Be10 B38                                
   1.00000000000000     
     4.4131215425288168   -0.9297406718558908   -0.0545923047555728
    -2.8721763434521117    3.9263844800101926   -0.0493450492289091
    -0.4792065876650283   -0.7276308214869301   24.6401750318893527
   Be   B 
    10    38
Direct
  0.1920448203247531  0.4865904976265725  0.0504255475064284
  0.2709649674325334  0.4759709065309252  0.1969331755665209
  0.3262376013693284  0.5191868507439779  0.2927213743467263
  0.4188801902458721  0.8055953305214487  0.3788146582457017
  0.4267409951734393  0.5758240827125576  0.4564756485799677
  0.6647708141364106  0.2576315023748634  0.5556197900557578
  0.6824989024304955  0.3335562159546726  0.6766972344215390
  0.7574910439147686  0.3883599021694053  0.7651295337168520
  0.6217653936660312  0.5884592746866915  0.8246924142915475
  0.5888792135196539  0.3261707337860713  0.9383555256052603
  0.1518550538133852  0.1930127823661394  0.9846944166611209
  0.5465076890299159  0.0978886112890507  0.0729440037137650
  0.1185251652538994  0.0067983371958036  0.0473948886771467
  0.7397027431186203  0.4625871104806123  0.0224186945304439
  0.7817729649792042  0.9772854613091368  0.0913898736364871
  0.6947959267234367  0.1566390676576361  0.1453742245829730
  0.8201917737711568  0.9086036825806758  0.1582178470685207
  0.7930272134326088  0.5462396704769503  0.1796253551583575
  0.2773519969141134  0.0534296588379490  0.1854564390292808
  0.1642074035514867  0.7575953819944345  0.2457352564560864
  0.5465470312906717  0.3317565451362938  0.2445831621452115
  0.3578467868969000  0.1112970474883070  0.3093969046248048
  0.9189717542103821  0.9952051633781451  0.3371191374194353
  0.8391911246215784  0.6187290673097863  0.3044519708655784
  0.8396991492721142  0.3101668878433017  0.3444884866701940
  0.9711598486763151  0.0307981415084413  0.4082248942073647
  0.9288362541452457  0.7003412704933965  0.4493590872989586
  0.8822583481195920  0.3351583108126235  0.4158144467310620
  0.4309205115726229  0.1906717454468421  0.4474740643225559
  0.1279212103290135  0.0258732646099844  0.5093418765018782
  0.6723845570906875  0.8626179426979377  0.5369482581285325
  0.1381905016116889  0.3838555186383417  0.5262391954998336
  0.2668970880172665  0.7048683926460484  0.5774868607291523
  0.0464628271526806  0.8933681487375154  0.5766553272213244
  0.2679591501965390  0.7389556310540044  0.6467980779600282
  0.7375628573433701  0.9372335169456463  0.6834836836738489
  0.0551996438446025  0.9151226061347515  0.6480509951644535
  0.1587256950369635  0.4849681417595164  0.7085475736316909
  0.1917575303770533  0.1536486528425982  0.7198434791125550
  0.6248997377897680  0.7236928161652258  0.7500366601701174
  0.0794750686313890  0.1374054201463153  0.8551527700324115
  0.1802201927658800  0.5572024582687476  0.8496623650356341
  0.6276683711620947  0.9650854638829856  0.8082866303384648
  0.2365474459246286  0.9377205719035402  0.8182461094178137
  0.9845521479510566  0.9283986052281961  0.9182347588479658
  0.0352744866195138  0.4525862411403736  0.9761504665978649
  0.1705623556260463  0.7246377198693992  0.9134087154288224
  0.6440964509232145  0.9302096466161203  0.9464981403720003
 
  0.00000000E+00  0.00000000E+00  0.00000000E+00
  0.00000000E+00  0.00000000E+00  0.00000000E+00
  0.00000000E+00  0.00000000E+00  0.00000000E+00
  0.00000000E+00  0.00000000E+00  0.00000000E+00
  0.00000000E+00  0.00000000E+00  0.00000000E+00
  0.00000000E+00  0.00000000E+00  0.00000000E+00
  0.00000000E+00  0.00000000E+00  0.00000000E+00
  0.00000000E+00  0.00000000E+00  0.00000000E+00
  0.00000000E+00  0.00000000E+00  0.00000000E+00
  0.00000000E+00  0.00000000E+00  0.00000000E+00
  0.00000000E+00  0.00000000E+00  0.00000000E+00
  0.00000000E+00  0.00000000E+00  0.00000000E+00
  0.00000000E+00  0.00000000E+00  0.00000000E+00
  0.00000000E+00  0.00000000E+00  0.00000000E+00
  0.00000000E+00  0.00000000E+00  0.00000000E+00
  0.00000000E+00  0.00000000E+00  0.00000000E+00
  0.00000000E+00  0.00000000E+00  0.00000000E+00
  0.00000000E+00  0.00000000E+00  0.00000000E+00
  0.00000000E+00  0.00000000E+00  0.00000000E+00
  0.00000000E+00  0.00000000E+00  0.00000000E+00
  0.00000000E+00  0.00000000E+00  0.00000000E+00
  0.00000000E+00  0.00000000E+00  0.00000000E+00
  0.00000000E+00  0.00000000E+00  0.00000000E+00
  0.00000000E+00  0.00000000E+00  0.00000000E+00
  0.00000000E+00  0.00000000E+00  0.00000000E+00
  0.00000000E+00  0.00000000E+00  0.00000000E+00
  0.00000000E+00  0.00000000E+00  0.00000000E+00
  0.00000000E+00  0.00000000E+00  0.00000000E+00
  0.00000000E+00  0.00000000E+00  0.00000000E+00
  0.00000000E+00  0.00000000E+00  0.00000000E+00
  0.00000000E+00  0.00000000E+00  0.00000000E+00
  0.00000000E+00  0.00000000E+00  0.00000000E+00
  0.00000000E+00  0.00000000E+00  0.00000000E+00
  0.00000000E+00  0.00000000E+00  0.00000000E+00
  0.00000000E+00  0.00000000E+00  0.00000000E+00
  0.00000000E+00  0.00000000E+00  0.00000000E+00
  0.00000000E+00  0.00000000E+00  0.00000000E+00
  0.00000000E+00  0.00000000E+00  0.00000000E+00
  0.00000000E+00  0.00000000E+00  0.00000000E+00
  0.00000000E+00  0.00000000E+00  0.00000000E+00
  0.00000000E+00  0.00000000E+00  0.00000000E+00
  0.00000000E+00  0.00000000E+00  0.00000000E+00
  0.00000000E+00  0.00000000E+00  0.00000000E+00
  0.00000000E+00  0.00000000E+00  0.00000000E+00
  0.00000000E+00  0.00000000E+00  0.00000000E+00
  0.00000000E+00  0.00000000E+00  0.00000000E+00
  0.00000000E+00  0.00000000E+00  0.00000000E+00
  0.00000000E+00  0.00000000E+00  0.00000000E+00
