Sr6 Ga33                                
   1.00000000000000     
     9.4900194621835912    0.0000000000000000    0.0000000000000000
     0.0000000000000000    9.4900194621835894    0.0000000000000000
     0.0000000000000000    0.0000000000000000    9.4900194621835894
   Sr   Ga
     6    33
Direct
  0.2198591804785437  0.5000000000000000  0.0000000000000000
  0.7801408195214563  0.5000000000000000  0.0000000000000000
  0.5000000000000000  0.0000000000000000  0.2198591804785437
  0.0000000000000000  0.2198591804785437  0.5000000000000000
  0.0000000000000000  0.7801408195214563  0.5000000000000000
  0.5000000000000000  0.0000000000000000  0.7801408195214563
  0.0000000000000000  0.0000000000000000  0.0000000000000000
  0.2568172910877564  0.1459260081741220  0.0000000000000000
  0.7431827089122436  0.1459260081741220  0.0000000000000000
  0.5000000000000000  0.2919621661262113  0.0000000000000000
  0.5000000000000000  0.7080378338737887  0.0000000000000000
  0.2568172910877564  0.8540739918258780  0.0000000000000000
  0.7431827089122436  0.8540739918258780  0.0000000000000000
  0.0000000000000000  0.2568172910877564  0.1459260081741220
  0.0000000000000000  0.7431827089122436  0.1459260081741220
  0.5000000000000000  0.5000000000000000  0.2111746539199402
  0.1459260081741220  0.0000000000000000  0.2568172910877564
  0.8540739918258780  0.0000000000000000  0.2568172910877564
  0.3081639907859426  0.3081639907859426  0.3081639907859426
  0.6918360092140574  0.3081639907859426  0.3081639907859426
  0.3081639907859426  0.6918360092140574  0.3081639907859426
  0.6918360092140574  0.6918360092140574  0.3081639907859426
  0.0000000000000000  0.5000000000000000  0.2919621661262113
  0.2919621661262113  0.0000000000000000  0.5000000000000000
  0.7080378338737887  0.0000000000000000  0.5000000000000000
  0.5000000000000000  0.2111746539199402  0.5000000000000000
  0.2111746539199402  0.5000000000000000  0.5000000000000000
  0.7888253460800598  0.5000000000000000  0.5000000000000000
  0.5000000000000000  0.7888253460800598  0.5000000000000000
  0.0000000000000000  0.5000000000000000  0.7080378338737887
  0.3081639907859426  0.3081639907859426  0.6918360092140574
  0.6918360092140574  0.3081639907859426  0.6918360092140574
  0.3081639907859426  0.6918360092140574  0.6918360092140574
  0.6918360092140574  0.6918360092140574  0.6918360092140574
  0.1459260081741220  0.0000000000000000  0.7431827089122436
  0.8540739918258780  0.0000000000000000  0.7431827089122436
  0.5000000000000000  0.5000000000000000  0.7888253460800598
  0.0000000000000000  0.2568172910877564  0.8540739918258780
  0.0000000000000000  0.7431827089122436  0.8540739918258780
 
  0.00000000E+00  0.00000000E+00  0.00000000E+00
  0.00000000E+00  0.00000000E+00  0.00000000E+00
  0.00000000E+00  0.00000000E+00  0.00000000E+00
  0.00000000E+00  0.00000000E+00  0.00000000E+00
  0.00000000E+00  0.00000000E+00  0.00000000E+00
  0.00000000E+00  0.00000000E+00  0.00000000E+00
  0.00000000E+00  0.00000000E+00  0.00000000E+00
  0.00000000E+00  0.00000000E+00  0.00000000E+00
  0.00000000E+00  0.00000000E+00  0.00000000E+00
  0.00000000E+00  0.00000000E+00  0.00000000E+00
  0.00000000E+00  0.00000000E+00  0.00000000E+00
  0.00000000E+00  0.00000000E+00  0.00000000E+00
  0.00000000E+00  0.00000000E+00  0.00000000E+00
  0.00000000E+00  0.00000000E+00  0.00000000E+00
  0.00000000E+00  0.00000000E+00  0.00000000E+00
  0.00000000E+00  0.00000000E+00  0.00000000E+00
  0.00000000E+00  0.00000000E+00  0.00000000E+00
  0.00000000E+00  0.00000000E+00  0.00000000E+00
  0.00000000E+00  0.00000000E+00  0.00000000E+00
  0.00000000E+00  0.00000000E+00  0.00000000E+00
  0.00000000E+00  0.00000000E+00  0.00000000E+00
  0.00000000E+00  0.00000000E+00  0.00000000E+00
  0.00000000E+00  0.00000000E+00  0.00000000E+00
  0.00000000E+00  0.00000000E+00  0.00000000E+00
  0.00000000E+00  0.00000000E+00  0.00000000E+00
  0.00000000E+00  0.00000000E+00  0.00000000E+00
  0.00000000E+00  0.00000000E+00  0.00000000E+00
  0.00000000E+00  0.00000000E+00  0.00000000E+00
  0.00000000E+00  0.00000000E+00  0.00000000E+00
  0.00000000E+00  0.00000000E+00  0.00000000E+00
  0.00000000E+00  0.00000000E+00  0.00000000E+00
  0.00000000E+00  0.00000000E+00  0.00000000E+00
  0.00000000E+00  0.00000000E+00  0.00000000E+00
  0.00000000E+00  0.00000000E+00  0.00000000E+00
  0.00000000E+00  0.00000000E+00  0.00000000E+00
  0.00000000E+00  0.00000000E+00  0.00000000E+00
  0.00000000E+00  0.00000000E+00  0.00000000E+00
  0.00000000E+00  0.00000000E+00  0.00000000E+00
  0.00000000E+00  0.00000000E+00  0.00000000E+00
