Be4 In4 F20                             
   1.0000000000000000     
     0.0000000000000000    6.0581620112566705   -0.0877187120422428
     7.4198996496086709    0.0000000000000000    0.0000000000000000
     0.0000000000000000   -0.0349601081233940   -7.1836450953860975
   Be   In   F 
     4     4    20
Direct
  0.4363693657157981  0.4535062176101974  0.5314218972383884
  0.5636306342841948  0.9535062176102045  0.4685781027616116
  0.0068895570827365  0.1596744878566341  0.9426206203289169
  0.9931104429172635  0.6596744878566341  0.0573793796710831
  0.5167614531060494  0.6271461350351544  0.0922156255812538
  0.4832385468939506  0.1271461350351544  0.9077843744187533
  0.9449837393670961  0.6020185903411246  0.4564816678845744
  0.0550162606329039  0.1020185903411246  0.5435183321154256
  0.3277292614277130  0.0038396765642545  0.4005306934810307
  0.2629287540141192  0.5996860465552345  0.5827560952063635
  0.7370712459858879  0.0996860465552416  0.4172439047936294
  0.8023410414552714  0.7319654466527794  0.9403138502240935
  0.8485296462534251  0.5104529062753613  0.1736975181381055
  0.4306521002897199  0.8949973390384187  0.0654231700684349
  0.9262470193163210  0.2664965508269574  0.7662652080182966
  0.6278431771676409  0.7699078139769355  0.3621763982105577
  0.1514703537465678  0.0104529062753613  0.8263024818618945
  0.9459508000760621  0.8409006611857848  0.5969838581372784
  0.5693478997102730  0.3949973390384187  0.9345768299315651
  0.6722707385722870  0.5038396765642617  0.5994693065189693
  0.5560639902175311  0.9439851956211953  0.6879961149727691
  0.7973240450043590  0.0930219124599176  0.0387804580811988
  0.0540491999239379  0.3409006611857777  0.4030161418627216
  0.0737529806836790  0.7664965508269574  0.2337347919817034
  0.1976589585447215  0.2319654466527794  0.0596861497758994
  0.2026759549956410  0.5930219124599176  0.9612195419188083
  0.3721568228323591  0.2699078139769355  0.6378236017894423
  0.4439360097824689  0.4439851956211953  0.3120038850272309

  0.00000000E+00  0.00000000E+00  0.00000000E+00
  0.00000000E+00  0.00000000E+00  0.00000000E+00
  0.00000000E+00  0.00000000E+00  0.00000000E+00
  0.00000000E+00  0.00000000E+00  0.00000000E+00
  0.00000000E+00  0.00000000E+00  0.00000000E+00
  0.00000000E+00  0.00000000E+00  0.00000000E+00
  0.00000000E+00  0.00000000E+00  0.00000000E+00
  0.00000000E+00  0.00000000E+00  0.00000000E+00
  0.00000000E+00  0.00000000E+00  0.00000000E+00
  0.00000000E+00  0.00000000E+00  0.00000000E+00
  0.00000000E+00  0.00000000E+00  0.00000000E+00
  0.00000000E+00  0.00000000E+00  0.00000000E+00
  0.00000000E+00  0.00000000E+00  0.00000000E+00
  0.00000000E+00  0.00000000E+00  0.00000000E+00
  0.00000000E+00  0.00000000E+00  0.00000000E+00
  0.00000000E+00  0.00000000E+00  0.00000000E+00
  0.00000000E+00  0.00000000E+00  0.00000000E+00
  0.00000000E+00  0.00000000E+00  0.00000000E+00
  0.00000000E+00  0.00000000E+00  0.00000000E+00
  0.00000000E+00  0.00000000E+00  0.00000000E+00
  0.00000000E+00  0.00000000E+00  0.00000000E+00
  0.00000000E+00  0.00000000E+00  0.00000000E+00
  0.00000000E+00  0.00000000E+00  0.00000000E+00
  0.00000000E+00  0.00000000E+00  0.00000000E+00
  0.00000000E+00  0.00000000E+00  0.00000000E+00
  0.00000000E+00  0.00000000E+00  0.00000000E+00
  0.00000000E+00  0.00000000E+00  0.00000000E+00
  0.00000000E+00  0.00000000E+00  0.00000000E+00
