Be4 In4 I12                             
   1.00000000000000     
    11.5933322594160781    0.0000000000000000    0.0053974288562319
     0.0000000000000000    4.0115746932646168    0.0000000000000000
     0.0037864849786322    0.0000000000000000   18.6644912603188047
   I    In   Be
    12     4     4
Direct
  0.1716109301521769  0.2500000000000000  0.0162398511065618
  0.4986529443360084  0.7500000000000000  0.1153330088935789
  0.7382058144845445  0.2500000000000000  0.2358409363284864
  0.2328415234196726  0.2500000000000000  0.2623069341520221
  0.9983292718306913  0.7500000000000000  0.3866898956243503
  0.6746512491878107  0.2500000000000000  0.4834289484854821
  0.3281666858877870  0.7500000000000000  0.5154784416840243
  0.0014686664620456  0.2500000000000000  0.6150176988276499
  0.7628630395868186  0.7500000000000000  0.7363987374444179
  0.2672630814780632  0.7500000000000000  0.7618478356256730
  0.5010848489710966  0.2500000000000000  0.8866419035077442
  0.8247798573489149  0.7500000000000000  0.9839447915057491
  0.0235297510747472  0.7500000000000000  0.1115497055187049
  0.5266510777714970  0.7500000000000000  0.3884348090566903
  0.4763100272297152  0.2500000000000000  0.6108150838386948
  0.9730257863040634  0.2500000000000000  0.8891742470708692
  0.5923171191989809  0.2500000000000000  0.1587297665639085
  0.0905502588969469  0.2500000000000000  0.3419937761849425
  0.9080468033441207  0.7500000000000000  0.6586682935622008
  0.4091512630342748  0.7500000000000000  0.8417953350182472
 
  0.00000000E+00  0.00000000E+00  0.00000000E+00
  0.00000000E+00  0.00000000E+00  0.00000000E+00
  0.00000000E+00  0.00000000E+00  0.00000000E+00
  0.00000000E+00  0.00000000E+00  0.00000000E+00
  0.00000000E+00  0.00000000E+00  0.00000000E+00
  0.00000000E+00  0.00000000E+00  0.00000000E+00
  0.00000000E+00  0.00000000E+00  0.00000000E+00
  0.00000000E+00  0.00000000E+00  0.00000000E+00
  0.00000000E+00  0.00000000E+00  0.00000000E+00
  0.00000000E+00  0.00000000E+00  0.00000000E+00
  0.00000000E+00  0.00000000E+00  0.00000000E+00
  0.00000000E+00  0.00000000E+00  0.00000000E+00
  0.00000000E+00  0.00000000E+00  0.00000000E+00
  0.00000000E+00  0.00000000E+00  0.00000000E+00
  0.00000000E+00  0.00000000E+00  0.00000000E+00
  0.00000000E+00  0.00000000E+00  0.00000000E+00
  0.00000000E+00  0.00000000E+00  0.00000000E+00
  0.00000000E+00  0.00000000E+00  0.00000000E+00
  0.00000000E+00  0.00000000E+00  0.00000000E+00
  0.00000000E+00  0.00000000E+00  0.00000000E+00
