Be4 Ga4 Cl20                            
   1.0000000000000000     
     6.9244089319852549   -0.0000000000000002    0.0000000000000006
    -0.0000000000000007    9.2291070542328359    0.0000000000000006
     0.0000000000000004    0.0000000000000005   16.9657117676892035
   Be   Ga   Cl
     4     4    20
Direct
  0.4468581803495084  0.3765664439477234  0.4061830588342872
  0.9468581803495084  0.1234335560522837  0.5938169411657128
  0.5531418196504845  0.8765664439477234  0.0938169411657128
  0.0531418196504845  0.6234335560522766  0.9061830588342872
  0.2194815313587810  0.0173646784867003  0.4186384063618078
  0.7194815313587810  0.4826353215132997  0.5813615936381851
  0.7805184686412190  0.5173646784867074  0.0813615936381851
  0.2805184686412190  0.9826353215132926  0.9186384063618078
  0.9252586172937853  0.5603951110850716  0.4984439621662347
  0.4252586172937782  0.9396048889149284  0.5015560378337653
  0.0747413827062147  0.0603951110850716  0.0015560378337653
  0.5747413827062147  0.4396048889149284  0.9984439621662347
  0.0688210810438221  0.8846546201051169  0.3367009208487062
  0.5688210810438221  0.6153453798948831  0.6632990791512938
  0.9311789189561779  0.3846546201051098  0.1632990791512938
  0.4311789189561779  0.1153453798948902  0.8367009208487062
  0.0159334583885382  0.6655126039705266  0.0202563582858204
  0.5159334583885382  0.8344873960294734  0.9797436417141867
  0.9840665416114618  0.1655126039705266  0.4797436417141796
  0.4840665416114618  0.3344873960294734  0.5202563582858133
  0.6470165457232611  0.7065264319662532  0.1559137296442046
  0.1470165457232611  0.7934735680337468  0.8440862703557954
  0.3529834542767389  0.2065264319662532  0.3440862703557954
  0.8529834542767389  0.2934735680337468  0.6559137296442046
  0.0084491053697349  0.4493508264814992  0.8569949418619913
  0.5084491053697349  0.0506491735185008  0.1430050581380087
  0.9915508946302651  0.9493508264814992  0.6430050581380087
  0.4915508946302651  0.5506491735185008  0.3569949418619913

  0.00000000E+00  0.00000000E+00  0.00000000E+00
  0.00000000E+00  0.00000000E+00  0.00000000E+00
  0.00000000E+00  0.00000000E+00  0.00000000E+00
  0.00000000E+00  0.00000000E+00  0.00000000E+00
  0.00000000E+00  0.00000000E+00  0.00000000E+00
  0.00000000E+00  0.00000000E+00  0.00000000E+00
  0.00000000E+00  0.00000000E+00  0.00000000E+00
  0.00000000E+00  0.00000000E+00  0.00000000E+00
  0.00000000E+00  0.00000000E+00  0.00000000E+00
  0.00000000E+00  0.00000000E+00  0.00000000E+00
  0.00000000E+00  0.00000000E+00  0.00000000E+00
  0.00000000E+00  0.00000000E+00  0.00000000E+00
  0.00000000E+00  0.00000000E+00  0.00000000E+00
  0.00000000E+00  0.00000000E+00  0.00000000E+00
  0.00000000E+00  0.00000000E+00  0.00000000E+00
  0.00000000E+00  0.00000000E+00  0.00000000E+00
  0.00000000E+00  0.00000000E+00  0.00000000E+00
  0.00000000E+00  0.00000000E+00  0.00000000E+00
  0.00000000E+00  0.00000000E+00  0.00000000E+00
  0.00000000E+00  0.00000000E+00  0.00000000E+00
  0.00000000E+00  0.00000000E+00  0.00000000E+00
  0.00000000E+00  0.00000000E+00  0.00000000E+00
  0.00000000E+00  0.00000000E+00  0.00000000E+00
  0.00000000E+00  0.00000000E+00  0.00000000E+00
  0.00000000E+00  0.00000000E+00  0.00000000E+00
  0.00000000E+00  0.00000000E+00  0.00000000E+00
  0.00000000E+00  0.00000000E+00  0.00000000E+00
  0.00000000E+00  0.00000000E+00  0.00000000E+00
