Ba1 In2 F4                              
   1.0000000000000000     
    -2.5329395760420943    2.5329395760420943    6.7111836649197540
     2.5329395760420943   -2.5329395760420943    6.7111836649197540
     2.5329395760420943    2.5329395760420943   -6.7111836649197540
   Ba   F    In
     1     4     2
Direct
  0.0000000000000000  0.0000000000000000  0.0000000000000000
  0.1931429065170533  0.1931429065170533  0.0000000000000000
  0.8068570934829467  0.8068570934829467  0.0000000000000000
  0.5000000000000000  0.0000000000000000  0.5000000000000000
  0.0000000000000000  0.5000000000000000  0.5000000000000000
  0.3577344523175512  0.3577344523175512  0.0000000000000000
  0.6422655476824488  0.6422655476824488  0.0000000000000000

  0.00000000E+00  0.00000000E+00  0.00000000E+00
  0.00000000E+00  0.00000000E+00  0.00000000E+00
  0.00000000E+00  0.00000000E+00  0.00000000E+00
  0.00000000E+00  0.00000000E+00  0.00000000E+00
  0.00000000E+00  0.00000000E+00  0.00000000E+00
  0.00000000E+00  0.00000000E+00  0.00000000E+00
  0.00000000E+00  0.00000000E+00  0.00000000E+00
