Ca40 B4                                 
   1.00000000000000     
     0.0000000000000000    9.4829257897014969    9.4829257897014969
     9.4829257897014969    0.0000000000000000    9.4829257897014969
     9.4829257897014969    9.4829257897014969    0.0000000000000000
   Ca   B 
    40     4
Direct
  0.6192793066089806  0.6192793066089806  0.8807206933910194
  0.3692793066089806  0.6307206933910194  0.6307206933910194
  0.6307206933910194  0.3692793066089806  0.3692793066089806
  0.3692793066089806  0.3692793066089806  0.6307206933910194
  0.3692793066089806  0.6307206933910194  0.3692793066089806
  0.6307206933910194  0.3692793066089806  0.6307206933910194
  0.8807206933910194  0.6192793066089806  0.8807206933910194
  0.8807206933910194  0.6192793066089806  0.6192793066089806
  0.6192793066089806  0.8807206933910194  0.8807206933910194
  0.6192793066089806  0.8807206933910194  0.6192793066089806
  0.6307206933910194  0.6307206933910194  0.3692793066089806
  0.8807206933910194  0.8807206933910194  0.6192793066089806
  0.7901070397708594  0.0705721269441923  0.3492127935140843
  0.4598929602291406  0.4598929602291406  0.1794278730558077
  0.1794278730558077  0.9007872064859157  0.4598929602291406
  0.4598929602291406  0.9007872064859157  0.4598929602291406
  0.9007872064859157  0.4598929602291406  0.1794278730558077
  0.9007872064859157  0.4598929602291406  0.4598929602291406
  0.1794278730558077  0.4598929602291406  0.4598929602291406
  0.3492127935140843  0.0705721269441923  0.7901070397708594
  0.7901070397708594  0.0705721269441923  0.7901070397708594
  0.0705721269441923  0.7901070397708594  0.3492127935140843
  0.7901070397708594  0.7901070397708594  0.3492127935140843
  0.0705721269441923  0.3492127935140843  0.7901070397708594
  0.3492127935140843  0.7901070397708594  0.0705721269441923
  0.7901070397708594  0.7901070397708594  0.0705721269441923
  0.7901070397708594  0.3492127935140843  0.7901070397708594
  0.1794278730558077  0.4598929602291406  0.9007872064859157
  0.4598929602291406  0.4598929602291406  0.9007872064859157
  0.4598929602291406  0.9007872064859157  0.1794278730558077
  0.4598929602291406  0.1794278730558077  0.9007872064859157
  0.9007872064859157  0.1794278730558077  0.4598929602291406
  0.4598929602291406  0.1794278730558077  0.4598929602291406
  0.3492127935140843  0.7901070397708594  0.7901070397708594
  0.0705721269441923  0.7901070397708594  0.7901070397708594
  0.7901070397708594  0.3492127935140843  0.0705721269441923
  0.1250000000000000  0.1250000000000000  0.1250000000000000
  0.6250000000000000  0.1250000000000000  0.1250000000000000
  0.1250000000000000  0.1250000000000000  0.6250000000000000
  0.1250000000000000  0.6250000000000000  0.1250000000000000
  0.6250000000000000  0.6250000000000000  0.6250000000000000
  0.1250000000000000  0.6250000000000000  0.6250000000000000
  0.6250000000000000  0.6250000000000000  0.1250000000000000
  0.6250000000000000  0.1250000000000000  0.6250000000000000
 
  0.00000000E+00  0.00000000E+00  0.00000000E+00
  0.00000000E+00  0.00000000E+00  0.00000000E+00
  0.00000000E+00  0.00000000E+00  0.00000000E+00
  0.00000000E+00  0.00000000E+00  0.00000000E+00
  0.00000000E+00  0.00000000E+00  0.00000000E+00
  0.00000000E+00  0.00000000E+00  0.00000000E+00
  0.00000000E+00  0.00000000E+00  0.00000000E+00
  0.00000000E+00  0.00000000E+00  0.00000000E+00
  0.00000000E+00  0.00000000E+00  0.00000000E+00
  0.00000000E+00  0.00000000E+00  0.00000000E+00
  0.00000000E+00  0.00000000E+00  0.00000000E+00
  0.00000000E+00  0.00000000E+00  0.00000000E+00
  0.00000000E+00  0.00000000E+00  0.00000000E+00
  0.00000000E+00  0.00000000E+00  0.00000000E+00
  0.00000000E+00  0.00000000E+00  0.00000000E+00
  0.00000000E+00  0.00000000E+00  0.00000000E+00
  0.00000000E+00  0.00000000E+00  0.00000000E+00
  0.00000000E+00  0.00000000E+00  0.00000000E+00
  0.00000000E+00  0.00000000E+00  0.00000000E+00
  0.00000000E+00  0.00000000E+00  0.00000000E+00
  0.00000000E+00  0.00000000E+00  0.00000000E+00
  0.00000000E+00  0.00000000E+00  0.00000000E+00
  0.00000000E+00  0.00000000E+00  0.00000000E+00
  0.00000000E+00  0.00000000E+00  0.00000000E+00
  0.00000000E+00  0.00000000E+00  0.00000000E+00
  0.00000000E+00  0.00000000E+00  0.00000000E+00
  0.00000000E+00  0.00000000E+00  0.00000000E+00
  0.00000000E+00  0.00000000E+00  0.00000000E+00
  0.00000000E+00  0.00000000E+00  0.00000000E+00
  0.00000000E+00  0.00000000E+00  0.00000000E+00
  0.00000000E+00  0.00000000E+00  0.00000000E+00
  0.00000000E+00  0.00000000E+00  0.00000000E+00
  0.00000000E+00  0.00000000E+00  0.00000000E+00
  0.00000000E+00  0.00000000E+00  0.00000000E+00
  0.00000000E+00  0.00000000E+00  0.00000000E+00
  0.00000000E+00  0.00000000E+00  0.00000000E+00
  0.00000000E+00  0.00000000E+00  0.00000000E+00
  0.00000000E+00  0.00000000E+00  0.00000000E+00
  0.00000000E+00  0.00000000E+00  0.00000000E+00
  0.00000000E+00  0.00000000E+00  0.00000000E+00
  0.00000000E+00  0.00000000E+00  0.00000000E+00
  0.00000000E+00  0.00000000E+00  0.00000000E+00
  0.00000000E+00  0.00000000E+00  0.00000000E+00
  0.00000000E+00  0.00000000E+00  0.00000000E+00
