Sr12 Tl4 Cl36                           
   1.0000000000000000     
    12.0763543522321619   -0.0031546933548190    0.0000700350423793
    -0.0018849804739054    7.2206785815981354   -0.0080577684068904
     0.0000751604166734   -0.0194068278043977   17.4063257812049308
   Tl   Sr   Cl
     4    12    36
Direct
  0.5152806258669997  0.2497633369620260  0.1848691745766473
  0.0152227692389175  0.2499101461414810  0.3150654964656638
  0.9847336305471188  0.7498961750377333  0.6848967035557649
  0.4847734565774928  0.7500262744326918  0.8150319217141586
  0.6638326409221094  0.7511378554674479  0.0336237293145487
  0.9589985635958556  0.2501303563847301  0.0916326488731656
  0.2446800981534167  0.7500827095331246  0.1602967335733965
  0.7446796019251991  0.7510859989772953  0.3396766889852358
  0.4588975629041059  0.2499696613997884  0.4082974137003248
  0.1637996702754592  0.7493582886458654  0.4663654346224959
  0.8362009619004525  0.2532073156004344  0.5336678576648950
  0.5409681472449961  0.7510970870576656  0.5916067456065761
  0.2552782713824939  0.2504132978095654  0.6602933310506742
  0.7553231283678770  0.2497942438005580  0.8396885765020059
  0.0410517498810492  0.7495306238579431  0.9083187890973647
  0.3362091586879785  0.2496018995071623  0.9663362777788436
  0.1471415041165969  0.4959098756282145  0.0223797475965313
  0.1469778252377196  0.0048654020485372  0.0222083567783500
  0.4299187752452553  0.9830884408838614  0.0882726903442617
  0.4303573869206261  0.5158153246128236  0.0884211129054364
  0.6743987447921995  0.2475909273076198  0.0938028335152268
  0.7740291644489261  0.7492269161183032  0.1751961717252257
  0.3296441089554563  0.2498159978506322  0.2497445389576853
  0.5631675052309220  0.9987686227355965  0.2911373474360275
  0.5634733133949297  0.5007540453119717  0.2912299949690507
  0.0630950538096755  0.9985663951152617  0.2086609134878685
  0.0634796288135249  0.5006153460663683  0.2088518483653559
  0.8296473371791393  0.2496272012495453  0.2501354068553354
  0.2740155745579003  0.7501733391498178  0.3247957299540190
  0.1743610595743945  0.2503791101896482  0.4061172298302296
  0.9297535602265654  0.9850531726749168  0.4118613840289100
  0.9304048107831306  0.5176686751385304  0.4113445155330382
  0.6469265945720437  0.4963324663787958  0.4775067309034924
  0.6470656600147819  0.0054517039659672  0.4778575499735069
  0.3528046903392976  0.9961470461093000  0.5223612861433224
  0.3530262077249304  0.5051018462572117  0.5221977370841344
  0.0700239182427325  0.4828778827503726  0.5882199098761234
  0.0697040968080529  0.0155931593842098  0.5884980805091828
  0.8256286490396931  0.7461136100031425  0.5938097098071538
  0.7259803199535071  0.2487960343836306  0.6752044866484042
  0.1703403530840149  0.7494602742047505  0.7497912428427611
  0.9364010362947184  0.4990134313926831  0.7911279547478927
  0.9369601286973861  0.0010368963403380  0.7912361715852541
  0.4369197066587844  0.4989927677833634  0.7085194444011336
  0.4363811506240651  0.0010920668872743  0.7089989494565643
  0.6703297985084902  0.7507163905059215  0.7500901510323743
  0.2259636103967821  0.2504380570324258  0.8247937549040358
  0.3256797885265996  0.7499102693732027  0.9061089612094904
  0.5700501518003875  0.4841694853424983  0.9114848591402023
  0.5698012425204411  0.0168016486502012  0.9116605136122402
  0.8530403800443906  0.9953212533293723  0.9775338246297665
  0.8529771253904173  0.5042896472281626  0.9777713361286544

  0.00000000E+00  0.00000000E+00  0.00000000E+00
  0.00000000E+00  0.00000000E+00  0.00000000E+00
  0.00000000E+00  0.00000000E+00  0.00000000E+00
  0.00000000E+00  0.00000000E+00  0.00000000E+00
  0.00000000E+00  0.00000000E+00  0.00000000E+00
  0.00000000E+00  0.00000000E+00  0.00000000E+00
  0.00000000E+00  0.00000000E+00  0.00000000E+00
  0.00000000E+00  0.00000000E+00  0.00000000E+00
  0.00000000E+00  0.00000000E+00  0.00000000E+00
  0.00000000E+00  0.00000000E+00  0.00000000E+00
  0.00000000E+00  0.00000000E+00  0.00000000E+00
  0.00000000E+00  0.00000000E+00  0.00000000E+00
  0.00000000E+00  0.00000000E+00  0.00000000E+00
  0.00000000E+00  0.00000000E+00  0.00000000E+00
  0.00000000E+00  0.00000000E+00  0.00000000E+00
  0.00000000E+00  0.00000000E+00  0.00000000E+00
  0.00000000E+00  0.00000000E+00  0.00000000E+00
  0.00000000E+00  0.00000000E+00  0.00000000E+00
  0.00000000E+00  0.00000000E+00  0.00000000E+00
  0.00000000E+00  0.00000000E+00  0.00000000E+00
  0.00000000E+00  0.00000000E+00  0.00000000E+00
  0.00000000E+00  0.00000000E+00  0.00000000E+00
  0.00000000E+00  0.00000000E+00  0.00000000E+00
  0.00000000E+00  0.00000000E+00  0.00000000E+00
  0.00000000E+00  0.00000000E+00  0.00000000E+00
  0.00000000E+00  0.00000000E+00  0.00000000E+00
  0.00000000E+00  0.00000000E+00  0.00000000E+00
  0.00000000E+00  0.00000000E+00  0.00000000E+00
  0.00000000E+00  0.00000000E+00  0.00000000E+00
  0.00000000E+00  0.00000000E+00  0.00000000E+00
  0.00000000E+00  0.00000000E+00  0.00000000E+00
  0.00000000E+00  0.00000000E+00  0.00000000E+00
  0.00000000E+00  0.00000000E+00  0.00000000E+00
  0.00000000E+00  0.00000000E+00  0.00000000E+00
  0.00000000E+00  0.00000000E+00  0.00000000E+00
  0.00000000E+00  0.00000000E+00  0.00000000E+00
  0.00000000E+00  0.00000000E+00  0.00000000E+00
  0.00000000E+00  0.00000000E+00  0.00000000E+00
  0.00000000E+00  0.00000000E+00  0.00000000E+00
  0.00000000E+00  0.00000000E+00  0.00000000E+00
  0.00000000E+00  0.00000000E+00  0.00000000E+00
  0.00000000E+00  0.00000000E+00  0.00000000E+00
  0.00000000E+00  0.00000000E+00  0.00000000E+00
  0.00000000E+00  0.00000000E+00  0.00000000E+00
  0.00000000E+00  0.00000000E+00  0.00000000E+00
  0.00000000E+00  0.00000000E+00  0.00000000E+00
  0.00000000E+00  0.00000000E+00  0.00000000E+00
  0.00000000E+00  0.00000000E+00  0.00000000E+00
  0.00000000E+00  0.00000000E+00  0.00000000E+00
  0.00000000E+00  0.00000000E+00  0.00000000E+00
  0.00000000E+00  0.00000000E+00  0.00000000E+00
  0.00000000E+00  0.00000000E+00  0.00000000E+00
