Ba4 Al4 Br20                            
   1.0000000000000000     
     9.1828240658382949   -0.0000000000000001    0.0000000000000005
    -0.0000000000000008    8.4130637900021572    0.0000000000000004
     0.0000000000000007    0.0000000000000003   14.2495887438428763
   Ba   Al   Br
     4     4    20
Direct
  0.5088687263214666  0.6216316990466382  0.6490570011491741
  0.0088687263214666  0.8783683009533618  0.3509429988508259
  0.4911312736785334  0.1216316990466382  0.8509429988508259
  0.9911312736785334  0.3783683009533618  0.1490570011491670
  0.2764560851564184  0.0261839307279459  0.6093765693312321
  0.7764560851564184  0.4738160692720541  0.3906234306687679
  0.7235439148435816  0.5261839307279459  0.8906234306687679
  0.2235439148435816  0.9738160692720541  0.1093765693312321
  0.7990086764609998  0.6937538217787704  0.5096757762745270
  0.2990086764609998  0.8062461782212296  0.4903242237254730
  0.2009913235390002  0.1937538217787704  0.9903242237254730
  0.7009913235390002  0.3062461782212296  0.0096757762745270
  0.7342698184784382  0.6327645430168900  0.2539530201349862
  0.2342698184784382  0.8672354569831100  0.7460469798650067
  0.2657301815215618  0.1327645430168900  0.2460469798650067
  0.7657301815215618  0.3672354569831100  0.7539530201349862
  0.2825879690723170  0.2967631555956842  0.6899129344205477
  0.7825879690723170  0.2032368444043158  0.3100870655794523
  0.7174120309276830  0.7967631555956842  0.8100870655794523
  0.2174120309276830  0.7032368444043158  0.1899129344205477
  0.5431063871415986  0.0275192191372327  0.6161925907768406
  0.0431063871415986  0.4724807808627673  0.3838074092231594
  0.4568936128584014  0.5275192191372327  0.8838074092231594
  0.9568936128584014  0.9724807808627673  0.1161925907768406
  0.5496627282558251  0.3963691715084181  0.4589568708342355
  0.0496627282558251  0.1036308284915819  0.5410431291657645
  0.4503372717441749  0.8963691715084181  0.0410431291657645
  0.9503372717441749  0.6036308284915819  0.9589568708342355

  0.00000000E+00  0.00000000E+00  0.00000000E+00
  0.00000000E+00  0.00000000E+00  0.00000000E+00
  0.00000000E+00  0.00000000E+00  0.00000000E+00
  0.00000000E+00  0.00000000E+00  0.00000000E+00
  0.00000000E+00  0.00000000E+00  0.00000000E+00
  0.00000000E+00  0.00000000E+00  0.00000000E+00
  0.00000000E+00  0.00000000E+00  0.00000000E+00
  0.00000000E+00  0.00000000E+00  0.00000000E+00
  0.00000000E+00  0.00000000E+00  0.00000000E+00
  0.00000000E+00  0.00000000E+00  0.00000000E+00
  0.00000000E+00  0.00000000E+00  0.00000000E+00
  0.00000000E+00  0.00000000E+00  0.00000000E+00
  0.00000000E+00  0.00000000E+00  0.00000000E+00
  0.00000000E+00  0.00000000E+00  0.00000000E+00
  0.00000000E+00  0.00000000E+00  0.00000000E+00
  0.00000000E+00  0.00000000E+00  0.00000000E+00
  0.00000000E+00  0.00000000E+00  0.00000000E+00
  0.00000000E+00  0.00000000E+00  0.00000000E+00
  0.00000000E+00  0.00000000E+00  0.00000000E+00
  0.00000000E+00  0.00000000E+00  0.00000000E+00
  0.00000000E+00  0.00000000E+00  0.00000000E+00
  0.00000000E+00  0.00000000E+00  0.00000000E+00
  0.00000000E+00  0.00000000E+00  0.00000000E+00
  0.00000000E+00  0.00000000E+00  0.00000000E+00
  0.00000000E+00  0.00000000E+00  0.00000000E+00
  0.00000000E+00  0.00000000E+00  0.00000000E+00
  0.00000000E+00  0.00000000E+00  0.00000000E+00
  0.00000000E+00  0.00000000E+00  0.00000000E+00
