Ca2 B2 Cl6                              
   1.00000000000000     
     5.2670188881841931   -2.0308673055332331    0.4910864173254088
    -3.7809865539581180   10.3840146340082651   -0.1628051161349676
    -1.8427627565188405   -1.7869163031157040    4.9057521114650591
   Ca   Cl   B 
     2     6     2
Direct
  0.6968758836038376  0.2764257804997001  0.1404915519417500
  0.3031216309983549  0.7234872640554784  0.8593910440096977
  0.7715009417488972  0.0478772874819384  0.2963896496169127
  0.1778241087449359  0.2633760592629457  0.9912917976697599
  0.2195800204807412  0.6281721711992247  0.3294234379588730
  0.7803820621292203  0.3717425775080159  0.6704482269002270
  0.8221934350439497  0.7365572327670620  0.0086409905585612
  0.2285123446880419  0.9520355018065487  0.7035192364325979
  0.9898971697837595  0.0659259453585221  0.0618175379368893
  0.0101124027782546  0.9340001800605719  0.9380865269747289
 
  0.00000000E+00  0.00000000E+00  0.00000000E+00
  0.00000000E+00  0.00000000E+00  0.00000000E+00
  0.00000000E+00  0.00000000E+00  0.00000000E+00
  0.00000000E+00  0.00000000E+00  0.00000000E+00
  0.00000000E+00  0.00000000E+00  0.00000000E+00
  0.00000000E+00  0.00000000E+00  0.00000000E+00
  0.00000000E+00  0.00000000E+00  0.00000000E+00
  0.00000000E+00  0.00000000E+00  0.00000000E+00
  0.00000000E+00  0.00000000E+00  0.00000000E+00
  0.00000000E+00  0.00000000E+00  0.00000000E+00
