Ca16 B6                                 
   1.00000000000000     
     9.4920096132086851   -0.0677075632981683    0.2483418514374931
     4.7026229007676337    7.2689145742049242    1.2289487508546948
     2.1276487267319975    3.6804906606783376    9.3710225743191700
   Ca   B 
    16     6
Direct
  0.6124401249525491  0.2174252995053436  0.1024959055712813
  0.0998500442951453  0.5888902377794594  0.0473893465109967
  0.3319539188003660  0.0265058724424634  0.1077053233713983
  0.7676128757148604  0.6460681873761516  0.3443524908790678
  0.9063624521134201  0.2191944453630157  0.3000327797630149
  0.5070866889457690  0.4893808638428467  0.3375947175710579
  0.2896707142149992  0.0937973516450512  0.4298072575637306
  0.0683247133166915  0.7652023533683874  0.3027909325849976
  0.9596754631806661  0.1922664774105556  0.7069578218748589
  0.6896163281738055  0.9182909827181618  0.5756514827262222
  0.5242033848524983  0.5176659416577394  0.6572587162797205
  0.0799370160985049  0.7758905966987015  0.6516878317822403
  0.2699485048076156  0.3319117039144857  0.6772262054331577
  0.6932514604554711  0.9768076206074241  0.8950056693820798
  0.8856987914718744  0.4153296713498378  0.9067610704342925
  0.4079018567833899  0.7510514876841299  0.9065278053195485
  0.9118595685961068  0.0050921568454783  0.0155369398213878
  0.6723742432573800  0.6152528230651058  0.0745919342902894
  0.2789896175819493  0.8079414194695858  0.4093041865799663
  0.9380384800593689  0.5727922547782498  0.5809572613279954
  0.7595008377976527  0.1850917491535427  0.5673695705174424
  0.3460029145299472  0.3885095033242720  0.9028947504152711
 
  0.00000000E+00  0.00000000E+00  0.00000000E+00
  0.00000000E+00  0.00000000E+00  0.00000000E+00
  0.00000000E+00  0.00000000E+00  0.00000000E+00
  0.00000000E+00  0.00000000E+00  0.00000000E+00
  0.00000000E+00  0.00000000E+00  0.00000000E+00
  0.00000000E+00  0.00000000E+00  0.00000000E+00
  0.00000000E+00  0.00000000E+00  0.00000000E+00
  0.00000000E+00  0.00000000E+00  0.00000000E+00
  0.00000000E+00  0.00000000E+00  0.00000000E+00
  0.00000000E+00  0.00000000E+00  0.00000000E+00
  0.00000000E+00  0.00000000E+00  0.00000000E+00
  0.00000000E+00  0.00000000E+00  0.00000000E+00
  0.00000000E+00  0.00000000E+00  0.00000000E+00
  0.00000000E+00  0.00000000E+00  0.00000000E+00
  0.00000000E+00  0.00000000E+00  0.00000000E+00
  0.00000000E+00  0.00000000E+00  0.00000000E+00
  0.00000000E+00  0.00000000E+00  0.00000000E+00
  0.00000000E+00  0.00000000E+00  0.00000000E+00
  0.00000000E+00  0.00000000E+00  0.00000000E+00
  0.00000000E+00  0.00000000E+00  0.00000000E+00
  0.00000000E+00  0.00000000E+00  0.00000000E+00
  0.00000000E+00  0.00000000E+00  0.00000000E+00
