Mg16 In6                                
   1.00000000000000     
     8.4331526009543634   -0.1266401066478302   -0.1752659416750388
    -4.3207247090401477    7.4883200287952647    0.1778905349499738
    -1.7926530964871150   -2.3725676276034697    8.1380988189297305
   In   Mg
     6    16
Direct
  0.0000195758244388  0.4999870471383545  0.0000192212859034
  0.6795841663699704  0.8430589437111067  0.0484133027599540
  0.8135851581270543  0.6595088073793036  0.5069802261032947
  0.5000188151335436  0.9999868017915219  0.5000187634379358
  0.1864518196328575  0.3404647585568270  0.4930551609424327
  0.3204512394435142  0.1569133210700784  0.9516225532425153
  0.0716549912074811  0.2188620755829973  0.1065403037527446
  0.7057147919120013  0.5172729937395459  0.1226078816642229
  0.3422474661108126  0.8813583727027421  0.1165439101560395
  0.4785526167528786  0.6547779475047335  0.2874955389110596
  0.7717372598056045  0.1761625521992514  0.2855697426977315
  0.0548342896841163  0.9424610230642472  0.3373029273267605
  0.4608523685112971  0.2762660601740805  0.3311329023465888
  0.1074796918093099  0.6059230778898268  0.3613304974498135
  0.8925558436859831  0.3940504432379512  0.6387070792162604
  0.5391846779935250  0.7237071819448317  0.6689030371864035
  0.9452033048634263  0.0575121560515939  0.6627324050462633
  0.2283003819229208  0.8238092065004210  0.7144683168907733
  0.5214808421701775  0.3451924949534373  0.7125396810343645
  0.6577893988093138  0.1186164767609696  0.8834944634211510
  0.2943212440517726  0.4826994962143587  0.8774272969216170
  0.9283800561779856  0.7811087618317742  0.8934947882061124
 
  0.00000000E+00  0.00000000E+00  0.00000000E+00
  0.00000000E+00  0.00000000E+00  0.00000000E+00
  0.00000000E+00  0.00000000E+00  0.00000000E+00
  0.00000000E+00  0.00000000E+00  0.00000000E+00
  0.00000000E+00  0.00000000E+00  0.00000000E+00
  0.00000000E+00  0.00000000E+00  0.00000000E+00
  0.00000000E+00  0.00000000E+00  0.00000000E+00
  0.00000000E+00  0.00000000E+00  0.00000000E+00
  0.00000000E+00  0.00000000E+00  0.00000000E+00
  0.00000000E+00  0.00000000E+00  0.00000000E+00
  0.00000000E+00  0.00000000E+00  0.00000000E+00
  0.00000000E+00  0.00000000E+00  0.00000000E+00
  0.00000000E+00  0.00000000E+00  0.00000000E+00
  0.00000000E+00  0.00000000E+00  0.00000000E+00
  0.00000000E+00  0.00000000E+00  0.00000000E+00
  0.00000000E+00  0.00000000E+00  0.00000000E+00
  0.00000000E+00  0.00000000E+00  0.00000000E+00
  0.00000000E+00  0.00000000E+00  0.00000000E+00
  0.00000000E+00  0.00000000E+00  0.00000000E+00
  0.00000000E+00  0.00000000E+00  0.00000000E+00
  0.00000000E+00  0.00000000E+00  0.00000000E+00
  0.00000000E+00  0.00000000E+00  0.00000000E+00
