Al8 Br14                                
   1.00000000000000     
     3.7310737303321924   -6.4686141338781953    0.0056845924996298
    -3.7310737303321924   -6.4686141338781953    0.0056845924996298
     0.0000000000000000    4.3251792966183364  -15.3297899894612009
   Br   Al
    14     8
Direct
  0.3434783360745683  0.3434783360745683  0.0347433222159026
  0.8918470411399468  0.3862384070959379  0.1699836996979514
  0.3862384070959379  0.8918470411399468  0.1699836996979514
  0.8918558043769451  0.8918558043769451  0.1690262614455946
  0.6258287750609242  0.1516015715330710  0.4018725175900570
  0.1516015715330710  0.6258287750609242  0.4018725175900570
  0.6258504741014619  0.6258504741014619  0.4024711025768539
  0.3746581120554282  0.3746581120554282  0.5975954627498012
  0.8488556047799563  0.3746783427974165  0.5980881694560480
  0.3746783427974165  0.8488556047799563  0.5980881694560480
  0.1071399673979556  0.1071399673979556  0.8296472485971904
  0.6135891663143269  0.1068070582401646  0.8305959863962968
  0.1068070582401646  0.6135891663143269  0.8305959863962968
  0.6531981577420396  0.6531981577420396  0.9653100900419034
  0.0021211722611056  0.0021211722611056  0.9998779817676677
  0.7052798280700614  0.7052798280700614  0.1160278948737385
  0.4198252496063688  0.4198252496063688  0.2529965755715722
  0.1589032197950075  0.1589032197950075  0.4775765245095300
  0.5001534408111752  0.5001534408111752  0.4999788144238622
  0.8421740755528617  0.8421740755528617  0.5223678541214696
  0.5829070603984192  0.5829070603984192  0.7470196617222697
  0.2938091347948486  0.2938091347948486  0.8839804591019487
 
  0.00000000E+00  0.00000000E+00  0.00000000E+00
  0.00000000E+00  0.00000000E+00  0.00000000E+00
  0.00000000E+00  0.00000000E+00  0.00000000E+00
  0.00000000E+00  0.00000000E+00  0.00000000E+00
  0.00000000E+00  0.00000000E+00  0.00000000E+00
  0.00000000E+00  0.00000000E+00  0.00000000E+00
  0.00000000E+00  0.00000000E+00  0.00000000E+00
  0.00000000E+00  0.00000000E+00  0.00000000E+00
  0.00000000E+00  0.00000000E+00  0.00000000E+00
  0.00000000E+00  0.00000000E+00  0.00000000E+00
  0.00000000E+00  0.00000000E+00  0.00000000E+00
  0.00000000E+00  0.00000000E+00  0.00000000E+00
  0.00000000E+00  0.00000000E+00  0.00000000E+00
  0.00000000E+00  0.00000000E+00  0.00000000E+00
  0.00000000E+00  0.00000000E+00  0.00000000E+00
  0.00000000E+00  0.00000000E+00  0.00000000E+00
  0.00000000E+00  0.00000000E+00  0.00000000E+00
  0.00000000E+00  0.00000000E+00  0.00000000E+00
  0.00000000E+00  0.00000000E+00  0.00000000E+00
  0.00000000E+00  0.00000000E+00  0.00000000E+00
  0.00000000E+00  0.00000000E+00  0.00000000E+00
  0.00000000E+00  0.00000000E+00  0.00000000E+00
