Mg2Tl3                                  
   1.0000000000000000     
    -6.5346601051761066   -0.4104247197754957    0.3139808065853831
     2.8845908396701083   -5.0191766705556864    0.0874826975214588
    -3.5557462521970082    1.1876766025242471    7.9456395891277198
   Mg   Tl
     4     6
Direct
  0.2480052456029753  0.7237797231808116  0.0459196268948858
  0.2558835460065154  0.9326724834955655  0.4498045352289566
  0.7445823461352532  0.0667003771914523  0.5494314335526198
  0.7513000616138683  0.2758149423675462  0.9545076516396591
  0.2478511133085419  0.2930880955213411  0.2489679370617282
  0.7733459131813092  0.4689259637355505  0.3479278197154088
  0.7287485425906866  0.8520705967017719  0.1548888847683045
  0.2730144623227133  0.1481992574122515  0.8442876021031154
  0.2250806229517295  0.5305922337035369  0.6527461636764329
  0.7521881462864073  0.7081563266901725  0.7511183453588970

  0.00000000E+00  0.00000000E+00  0.00000000E+00
  0.00000000E+00  0.00000000E+00  0.00000000E+00
  0.00000000E+00  0.00000000E+00  0.00000000E+00
  0.00000000E+00  0.00000000E+00  0.00000000E+00
  0.00000000E+00  0.00000000E+00  0.00000000E+00
  0.00000000E+00  0.00000000E+00  0.00000000E+00
  0.00000000E+00  0.00000000E+00  0.00000000E+00
  0.00000000E+00  0.00000000E+00  0.00000000E+00
  0.00000000E+00  0.00000000E+00  0.00000000E+00
  0.00000000E+00  0.00000000E+00  0.00000000E+00
