Mg4 In4 Cl2                             
   1.00000000000000     
     3.3633651021779154    0.8071538037776866    0.3218021654540766
    -0.9465031864649373    3.9425522259475771    0.0029189918292488
     1.5942143114588734    0.3956811355273149   18.8140014877973449
   Cl   In   Mg
     2     4     4
Direct
  0.4783804285270534  0.2510555220748643  0.2632411858235741
  0.5177546144796992  0.7448655912262367  0.7367565966401557
  0.2072368649604996  0.7501991994135295  0.0513454451970219
  0.2891932185667088  0.7511437552097320  0.4505659941130702
  0.6932018718478474  0.2502704225099777  0.5494537118707967
  0.8087184947825250  0.2500136440328191  0.9486651129280688
  0.6316233559249298  0.2501215091090643  0.1286213015749524
  0.8755342327322282  0.2520766265102736  0.3647609511690604
  0.1137568023179085  0.7500598753039398  0.6352853448899651
  0.3846001158605930  0.7501938546095630  0.8714043557933664
 
  0.00000000E+00  0.00000000E+00  0.00000000E+00
  0.00000000E+00  0.00000000E+00  0.00000000E+00
  0.00000000E+00  0.00000000E+00  0.00000000E+00
  0.00000000E+00  0.00000000E+00  0.00000000E+00
  0.00000000E+00  0.00000000E+00  0.00000000E+00
  0.00000000E+00  0.00000000E+00  0.00000000E+00
  0.00000000E+00  0.00000000E+00  0.00000000E+00
  0.00000000E+00  0.00000000E+00  0.00000000E+00
  0.00000000E+00  0.00000000E+00  0.00000000E+00
  0.00000000E+00  0.00000000E+00  0.00000000E+00
