Ca2 B2 F10                              
   1.00000000000000     
    -3.9691455197096568   -3.4266619903087077    0.4306426638818976
     3.9682124039744782   -3.4201027069890442   -0.4377207601273322
    -3.4981322617740647   -0.0025723866473156    7.2755289328916195
   B    Ca   F 
     2     2    10
Direct
  0.0708961520035345  0.0698981501806486  0.0353669261983143
  0.9298129350324444  0.9293602562368406  0.5357707340944202
  0.4999908081353226  0.5002406064907134  0.2856373277728395
  0.4997870905639132  0.4999891172651516  0.7856258979636976
  0.5886442786019330  0.5937503379169158  0.0369278363705874
  0.7894191672865674  0.1216884933627824  0.0918670151977210
  0.1529544006361476  0.2242187068953569  0.1948291878494857
  0.2117761379115990  0.8802031260947558  0.4795136474834933
  0.8485483287506383  0.7735151535877094  0.3761110542800736
  0.4080192830093026  0.4095649168655484  0.5359053648126064
  0.8791465046269167  0.2114837950694621  0.5924597038701833
  0.7748580801993441  0.8474987221042554  0.6950953912421269
  0.1189733923363008  0.7872225995079702  0.9786396558322323
  0.2270724409060634  0.1512650184219240  0.8759502570322155
 
  0.00000000E+00  0.00000000E+00  0.00000000E+00
  0.00000000E+00  0.00000000E+00  0.00000000E+00
  0.00000000E+00  0.00000000E+00  0.00000000E+00
  0.00000000E+00  0.00000000E+00  0.00000000E+00
  0.00000000E+00  0.00000000E+00  0.00000000E+00
  0.00000000E+00  0.00000000E+00  0.00000000E+00
  0.00000000E+00  0.00000000E+00  0.00000000E+00
  0.00000000E+00  0.00000000E+00  0.00000000E+00
  0.00000000E+00  0.00000000E+00  0.00000000E+00
  0.00000000E+00  0.00000000E+00  0.00000000E+00
  0.00000000E+00  0.00000000E+00  0.00000000E+00
  0.00000000E+00  0.00000000E+00  0.00000000E+00
  0.00000000E+00  0.00000000E+00  0.00000000E+00
  0.00000000E+00  0.00000000E+00  0.00000000E+00
