Mg4 B4 Br20                             
   1.0000000000000000     
     7.1005635687939410   -0.0000000000000001    0.0000000000000004
    -0.0000000000000007   10.0948065088689294    0.0000000000000007
    -0.0000000000000001    0.0000000000000004   17.3246790215666060
   Mg   B    Br
     4     4    20
Direct
  0.5578015391119919  0.2502593524129395  0.4343614118793582
  0.0578015391119919  0.2497406475870605  0.5656385881206489
  0.4421984608880010  0.7502593524129395  0.0656385881206418
  0.9421984608880010  0.7497406475870605  0.9343614118793511
  0.2146439785844123  0.7946400014965249  0.3845387484394820
  0.7146439785844123  0.7053599985034751  0.6154612515605251
  0.7853560214155877  0.2946400014965320  0.1154612515605180
  0.2853560214155877  0.2053599985034751  0.8845387484394678
  0.8349256527877174  0.6186098379567468  0.5296407889166659
  0.3349256527877102  0.8813901620432532  0.4703592110833341
  0.1650743472122826  0.1186098379567468  0.9703592110833341
  0.6650743472122826  0.3813901620432532  0.0296407889166659
  0.0460944284589928  0.8899492181248192  0.3202444276683707
  0.5460944284589928  0.6100507818751808  0.6797555723316293
  0.9539055715410072  0.3899492181248192  0.1797555723316293
  0.4539055715410001  0.1100507818751808  0.8202444276683707
  0.0882944694629373  0.7419847166221913  0.0655939790848876
  0.5882944694629373  0.7580152833778087  0.9344060209151053
  0.9117055305370627  0.2419847166221842  0.4344060209151053
  0.4117055305370627  0.2580152833778158  0.5655939790848947
  0.5988045280529732  0.7605827558632114  0.1855349851055195
  0.0988045280529732  0.7394172441367886  0.8144650148944805
  0.4011954719470268  0.2605827558632114  0.3144650148944805
  0.9011954719470268  0.2394172441367886  0.6855349851055195
  0.2343570542422739  0.3879121726462742  0.8655833449896093
  0.7343570542422668  0.1120878273537258  0.1344166550103907
  0.7656429457577332  0.8879121726462742  0.6344166550103907
  0.2656429457577261  0.6120878273537258  0.3655833449896093

  0.00000000E+00  0.00000000E+00  0.00000000E+00
  0.00000000E+00  0.00000000E+00  0.00000000E+00
  0.00000000E+00  0.00000000E+00  0.00000000E+00
  0.00000000E+00  0.00000000E+00  0.00000000E+00
  0.00000000E+00  0.00000000E+00  0.00000000E+00
  0.00000000E+00  0.00000000E+00  0.00000000E+00
  0.00000000E+00  0.00000000E+00  0.00000000E+00
  0.00000000E+00  0.00000000E+00  0.00000000E+00
  0.00000000E+00  0.00000000E+00  0.00000000E+00
  0.00000000E+00  0.00000000E+00  0.00000000E+00
  0.00000000E+00  0.00000000E+00  0.00000000E+00
  0.00000000E+00  0.00000000E+00  0.00000000E+00
  0.00000000E+00  0.00000000E+00  0.00000000E+00
  0.00000000E+00  0.00000000E+00  0.00000000E+00
  0.00000000E+00  0.00000000E+00  0.00000000E+00
  0.00000000E+00  0.00000000E+00  0.00000000E+00
  0.00000000E+00  0.00000000E+00  0.00000000E+00
  0.00000000E+00  0.00000000E+00  0.00000000E+00
  0.00000000E+00  0.00000000E+00  0.00000000E+00
  0.00000000E+00  0.00000000E+00  0.00000000E+00
  0.00000000E+00  0.00000000E+00  0.00000000E+00
  0.00000000E+00  0.00000000E+00  0.00000000E+00
  0.00000000E+00  0.00000000E+00  0.00000000E+00
  0.00000000E+00  0.00000000E+00  0.00000000E+00
  0.00000000E+00  0.00000000E+00  0.00000000E+00
  0.00000000E+00  0.00000000E+00  0.00000000E+00
  0.00000000E+00  0.00000000E+00  0.00000000E+00
  0.00000000E+00  0.00000000E+00  0.00000000E+00
