KPOINTS from AFLOWORCI (body-centered orthorhombc a < b < c) G-X-L-T-W-R-X1-Z-G-Y-S-W L1-Y Y1-Z
20   ! 20 grids 
Line-mode
reciprocal
   0.0000   0.0000   0.0000   ! \Gamma
   -0.3190   0.3190   0.3190   ! X
 
   -0.3190   0.3190   0.3190   ! X
   -0.1964   0.1964   0.4416   ! L
 
   -0.1964   0.1964   0.4416   ! L
   0.0000   0.0000   0.5000   ! T
 
   0.0000   0.0000   0.5000   ! T
   0.2500   0.2500   0.2500   ! W
 
   0.2500   0.2500   0.2500   ! W
   0.0000   0.5000   0.0000   ! R
 
   0.0000   0.5000   0.0000   ! R
   0.3190   0.6810   -0.3190   ! X_1
 
   0.3190   0.6810   -0.3190   ! X_1
   0.5000   0.5000   -0.5000   ! Z
 
   0.5000   0.5000   -0.5000   ! Z
   0.0000   0.0000   0.0000   ! \Gamma
 
   0.0000   0.0000   0.0000   ! \Gamma
   0.3774   -0.3774   0.3774   ! Y
 
   0.3774   -0.3774   0.3774   ! Y
   0.5000   0.0000   0.0000   ! S
 
   0.5000   0.0000   0.0000   ! S
   0.2500   0.2500   0.2500   ! W
 
   0.1964   -0.1964   0.5584   ! L_1
   0.3774   -0.3774   0.3774   ! Y
 
   0.6226   0.3774   -0.3774   ! Y_1
   0.5000   0.5000   -0.5000   ! Z
