Ba2 Ga2 F10                             
   1.00000000000000     
     4.8741775894529233    0.2673370974877924    2.0915088067418339
     1.3289766269477248    4.6971155433624174    2.0915089449946418
    -0.0038151128736011   -0.0030517623892652    8.3490835558721965
   Ba   Ga   F 
     2     2    10
Direct
  0.4999339124481565  0.5000660874777623  0.2500000004697540
  0.5000660875518435  0.4999339125222377  0.7499999995302460
  0.0000000000000000  0.0000000000000000  0.5000000000000000
  0.0000000000000000  0.0000000000000000  0.0000000000000000
  0.0841587033467803  0.6010566492006362  0.5789248389832906
  0.3989433503412982  0.9158402999634561  0.9210751595425322
  0.9158402966532222  0.3989433507993638  0.4210761610167140
  0.6010566496587018  0.0841587000365465  0.0789248404574607
  0.9997051736377998  0.0002948259427455  0.7500000004315766
  0.0002948263622002  0.9997051740572545  0.2499999995684234
  0.9130391278422962  0.3994951213439606  0.9221084756405062
  0.6005048769563217  0.0869608750355368  0.5778915232433164
  0.0869608721577038  0.6005048786560394  0.0778915243594938
  0.3994951230436783  0.9130391249644632  0.4221084767566836
 
  0.00000000E+00  0.00000000E+00  0.00000000E+00
  0.00000000E+00  0.00000000E+00  0.00000000E+00
  0.00000000E+00  0.00000000E+00  0.00000000E+00
  0.00000000E+00  0.00000000E+00  0.00000000E+00
  0.00000000E+00  0.00000000E+00  0.00000000E+00
  0.00000000E+00  0.00000000E+00  0.00000000E+00
  0.00000000E+00  0.00000000E+00  0.00000000E+00
  0.00000000E+00  0.00000000E+00  0.00000000E+00
  0.00000000E+00  0.00000000E+00  0.00000000E+00
  0.00000000E+00  0.00000000E+00  0.00000000E+00
  0.00000000E+00  0.00000000E+00  0.00000000E+00
  0.00000000E+00  0.00000000E+00  0.00000000E+00
  0.00000000E+00  0.00000000E+00  0.00000000E+00
  0.00000000E+00  0.00000000E+00  0.00000000E+00
