Sr4 Al2 I10                             
   1.00000000000000     
     6.4798290682586561   -6.4802734679618279    0.0117596182519349
     6.4798290682586561    6.4802734679618279    0.0117596182519349
    -6.4658199425151155    0.0000000000000000    7.5015290840766307
   I    Sr   Al
    10     4     2
Direct
  0.4999635594690091  0.9999443969697950  0.9997783721857303
  0.9999443969697950  0.4999635594690091  0.9997783721857303
  0.9884849125067348  0.9884849125067348  0.2813973536526930
  0.7917780184969772  0.4881349793844691  0.2818178940783014
  0.4881349793844691  0.7917780184969772  0.2818178940783014
  0.2923257322018742  0.2923257322018742  0.2816865729974580
  0.7076865306148292  0.7076865306148292  0.7183016709680459
  0.5117115486423316  0.2080315137279243  0.7180862515039621
  0.2080315137279243  0.5117115486423316  0.7180862515039621
  0.0114874554095081  0.0114874554095081  0.7184712543894847
  0.8450104654669914  0.1549365662640838  0.0000249885624157
  0.3451826531031017  0.3451826531031017  0.0002540941963574
  0.6548099352833319  0.6548099352833319  0.9997348622899196
  0.1549365662640838  0.8450104654669914  0.0000249885624157
  0.7496120056096842  0.2507997268493511  0.5003695894226041
  0.2507997268493511  0.7496120056096842  0.5003695894226041
 
  0.00000000E+00  0.00000000E+00  0.00000000E+00
  0.00000000E+00  0.00000000E+00  0.00000000E+00
  0.00000000E+00  0.00000000E+00  0.00000000E+00
  0.00000000E+00  0.00000000E+00  0.00000000E+00
  0.00000000E+00  0.00000000E+00  0.00000000E+00
  0.00000000E+00  0.00000000E+00  0.00000000E+00
  0.00000000E+00  0.00000000E+00  0.00000000E+00
  0.00000000E+00  0.00000000E+00  0.00000000E+00
  0.00000000E+00  0.00000000E+00  0.00000000E+00
  0.00000000E+00  0.00000000E+00  0.00000000E+00
  0.00000000E+00  0.00000000E+00  0.00000000E+00
  0.00000000E+00  0.00000000E+00  0.00000000E+00
  0.00000000E+00  0.00000000E+00  0.00000000E+00
  0.00000000E+00  0.00000000E+00  0.00000000E+00
  0.00000000E+00  0.00000000E+00  0.00000000E+00
  0.00000000E+00  0.00000000E+00  0.00000000E+00
