Ba1 Tl2 Br8                             
   1.0000000000000000     
     4.2026315795011131    9.8731267596343493    1.9405304215182224
    -4.2026315795011131    9.8731267596343493    1.9405304215182224
     0.0000000000000000    4.1845001597545748    6.6722118247614004
   Ba   Tl   Br
     1     2     8
Direct
  0.0000000000000000  0.0000000000000000  0.0000000000000000
  0.3385098082933169  0.3385098082933169  0.6691881016385253
  0.6614901917066831  0.6614901917066831  0.3308118983614747
  0.6213105655758255  0.1024289662080591  0.4429285543021138
  0.8437977482907755  0.8437977482907755  0.9740160864276746
  0.1024289662080591  0.6213105655758255  0.4429285543021138
  0.4046857159304125  0.4046857159304125  0.8547520051592556
  0.8975710337919409  0.3786894344241745  0.5570714456978862
  0.3786894344241745  0.8975710337919409  0.5570714456978862
  0.1562022517092245  0.1562022517092245  0.0259839135723254
  0.5953142840695875  0.5953142840695875  0.1452479948407444

  0.00000000E+00  0.00000000E+00  0.00000000E+00
  0.00000000E+00  0.00000000E+00  0.00000000E+00
  0.00000000E+00  0.00000000E+00  0.00000000E+00
  0.00000000E+00  0.00000000E+00  0.00000000E+00
  0.00000000E+00  0.00000000E+00  0.00000000E+00
  0.00000000E+00  0.00000000E+00  0.00000000E+00
  0.00000000E+00  0.00000000E+00  0.00000000E+00
  0.00000000E+00  0.00000000E+00  0.00000000E+00
  0.00000000E+00  0.00000000E+00  0.00000000E+00
  0.00000000E+00  0.00000000E+00  0.00000000E+00
  0.00000000E+00  0.00000000E+00  0.00000000E+00
