Be4 Al4 Br20                            
   1.0000000000000000     
    22.5102713821104032    0.0000000000000000    0.0000000000000000
     0.0000000000000000    7.0585136006731819   -1.5386302534149181
     0.0000000000000000    1.9041730097360889    7.0661008544947705
   Be   Al   Br
     4     4    20
Direct
  0.9754180101854288  0.6214056682943507  0.1084968572609739
  0.4754180101854288  0.3785943317056493  0.3915031427390261
  0.0245819898145712  0.3785943317056493  0.8915031427390261
  0.5245819898145712  0.6214056682943507  0.6084968572609739
  0.7748706705996753  0.2007428557706632  0.6162373917256332
  0.2748706705996753  0.7992571442293368  0.8837626082743668
  0.2251293294003247  0.7992571442293368  0.3837626082743668
  0.7251293294003247  0.2007428557706632  0.1162373917256332
  0.7087766054078557  0.4367162044059327  0.6083125364870554
  0.2087766054078557  0.5632837955940673  0.8916874635129446
  0.2912233945921443  0.5632837955940673  0.3916874635129446
  0.7912233945921443  0.4367162044059327  0.1083125364870554
  0.7491585738519149  0.9861295448726821  0.3774086490560649
  0.2491585738519149  0.0138704551273250  0.1225913509439351
  0.2508414261480851  0.0138704551273250  0.6225913509439351
  0.7508414261480851  0.9861295448726821  0.8774086490560649
  0.4948197724062879  0.3440681082564936  0.6787653731551373
  0.9948197724062950  0.6559318917435064  0.8212346268448627
  0.5051802275937050  0.6559318917435064  0.3212346268448627
  0.0051802275937121  0.3440681082564936  0.1787653731551373
  0.5627709284789120  0.8022800162391519  0.7697397793537704
  0.0627709284789120  0.1977199837608410  0.7302602206462296
  0.4372290715210880  0.1977199837608410  0.2302602206462296
  0.9372290715210880  0.8022800162391519  0.2697397793537704
  0.3738836117101343  0.7542901200336303  0.8883709360007970
  0.8738836117101343  0.2457098799663626  0.6116290639992030
  0.6261163882898657  0.2457098799663626  0.1116290639991959
  0.1261163882898657  0.7542901200336303  0.3883709360007970

  0.00000000E+00  0.00000000E+00  0.00000000E+00
  0.00000000E+00  0.00000000E+00  0.00000000E+00
  0.00000000E+00  0.00000000E+00  0.00000000E+00
  0.00000000E+00  0.00000000E+00  0.00000000E+00
  0.00000000E+00  0.00000000E+00  0.00000000E+00
  0.00000000E+00  0.00000000E+00  0.00000000E+00
  0.00000000E+00  0.00000000E+00  0.00000000E+00
  0.00000000E+00  0.00000000E+00  0.00000000E+00
  0.00000000E+00  0.00000000E+00  0.00000000E+00
  0.00000000E+00  0.00000000E+00  0.00000000E+00
  0.00000000E+00  0.00000000E+00  0.00000000E+00
  0.00000000E+00  0.00000000E+00  0.00000000E+00
  0.00000000E+00  0.00000000E+00  0.00000000E+00
  0.00000000E+00  0.00000000E+00  0.00000000E+00
  0.00000000E+00  0.00000000E+00  0.00000000E+00
  0.00000000E+00  0.00000000E+00  0.00000000E+00
  0.00000000E+00  0.00000000E+00  0.00000000E+00
  0.00000000E+00  0.00000000E+00  0.00000000E+00
  0.00000000E+00  0.00000000E+00  0.00000000E+00
  0.00000000E+00  0.00000000E+00  0.00000000E+00
  0.00000000E+00  0.00000000E+00  0.00000000E+00
  0.00000000E+00  0.00000000E+00  0.00000000E+00
  0.00000000E+00  0.00000000E+00  0.00000000E+00
  0.00000000E+00  0.00000000E+00  0.00000000E+00
  0.00000000E+00  0.00000000E+00  0.00000000E+00
  0.00000000E+00  0.00000000E+00  0.00000000E+00
  0.00000000E+00  0.00000000E+00  0.00000000E+00
  0.00000000E+00  0.00000000E+00  0.00000000E+00
