Ba4 Ga4 Br20                            
   1.0000000000000000     
     0.0000000000000000   10.1165122218291579   -2.5219415601088668
    10.0132551214866314    0.0000000000000000    0.0000000000000000
     0.0000000000000000    3.6330732521777458  -13.2515385479337962
   Ba   Ga   Br
     4     4    20
Direct
  0.5938951173372828  0.3458612467734170  0.3475016023704427
  0.4061048826627172  0.8458612467734099  0.6524983976295573
  0.9063175993762513  0.9396442369106310  0.1526431824153534
  0.0936824006237416  0.4396442369106310  0.8473568175846538
  0.6775236472914870  0.6299494663710092  0.0679722276662105
  0.3224763527085202  0.1299494663710092  0.9320277723337966
  0.8221484355483213  0.6553957499438070  0.4323421127056264
  0.1778515644516858  0.1553957499438070  0.5676578872943736
  0.1530622621906588  0.9208067857824247  0.5766112894481381
  0.2843022235163630  0.5679271122514820  0.6068694897769191
  0.7156977764836370  0.0679271122514749  0.3931305102230667
  0.6528132673560307  0.8645778562292747  0.0771348847629412
  0.8699165250220062  0.5797255217198014  0.1123624400819594
  0.2354085512137303  0.0540140716341853  0.1162493066033861
  0.9600031009725356  0.2601063893037008  0.6997713442636382
  0.6300346026451749  0.7056002430181181  0.3877199892472234
  0.1300834749780009  0.0797255217198014  0.8876375599180477
  0.7348691525502815  0.7313194745461331  0.6165600896311645
  0.7645914487862697  0.5540140716341853  0.8837506933966139
  0.8469377378093412  0.4208067857824318  0.4233887105518619
  0.5402804620619008  0.0251204986074640  0.7999340446404943
  0.7846285706376079  0.2175503269085794  0.1070534020723812
  0.2651308474497185  0.2313194745461402  0.3834399103688355
  0.0399968990274644  0.7601063893037008  0.3002286557363618
  0.3471867326439622  0.3645778562292747  0.9228651152370517
  0.2153714293623921  0.7175503269085794  0.8929465979276259
  0.3699653973548322  0.2056002430181181  0.6122800107527837
  0.4597195379380992  0.5251204986074640  0.2000659553595057

  0.00000000E+00  0.00000000E+00  0.00000000E+00
  0.00000000E+00  0.00000000E+00  0.00000000E+00
  0.00000000E+00  0.00000000E+00  0.00000000E+00
  0.00000000E+00  0.00000000E+00  0.00000000E+00
  0.00000000E+00  0.00000000E+00  0.00000000E+00
  0.00000000E+00  0.00000000E+00  0.00000000E+00
  0.00000000E+00  0.00000000E+00  0.00000000E+00
  0.00000000E+00  0.00000000E+00  0.00000000E+00
  0.00000000E+00  0.00000000E+00  0.00000000E+00
  0.00000000E+00  0.00000000E+00  0.00000000E+00
  0.00000000E+00  0.00000000E+00  0.00000000E+00
  0.00000000E+00  0.00000000E+00  0.00000000E+00
  0.00000000E+00  0.00000000E+00  0.00000000E+00
  0.00000000E+00  0.00000000E+00  0.00000000E+00
  0.00000000E+00  0.00000000E+00  0.00000000E+00
  0.00000000E+00  0.00000000E+00  0.00000000E+00
  0.00000000E+00  0.00000000E+00  0.00000000E+00
  0.00000000E+00  0.00000000E+00  0.00000000E+00
  0.00000000E+00  0.00000000E+00  0.00000000E+00
  0.00000000E+00  0.00000000E+00  0.00000000E+00
  0.00000000E+00  0.00000000E+00  0.00000000E+00
  0.00000000E+00  0.00000000E+00  0.00000000E+00
  0.00000000E+00  0.00000000E+00  0.00000000E+00
  0.00000000E+00  0.00000000E+00  0.00000000E+00
  0.00000000E+00  0.00000000E+00  0.00000000E+00
  0.00000000E+00  0.00000000E+00  0.00000000E+00
  0.00000000E+00  0.00000000E+00  0.00000000E+00
  0.00000000E+00  0.00000000E+00  0.00000000E+00
