GaCl                                    
   1.00000000000000     
     0.0000000000000000    3.0517765137109802    3.0517765137109802
     3.0517765137109802    0.0000000000000000    3.0517765137109802
     3.0517765137109802    3.0517765137109802    0.0000000000000000
   Cl   Ga
     1     1
Direct
  0.0000000000000000  0.0000000000000000  0.0000000000000000
  0.5000000000000000  0.5000000000000000  0.5000000000000000
 
  0.00000000E+00  0.00000000E+00  0.00000000E+00
  0.00000000E+00  0.00000000E+00  0.00000000E+00
