Be4 Ga4 F20                             
   1.0000000000000000     
     0.0000000000000000    5.2769451200939859    0.2011758981480958
     8.2488083008424837    0.0000000000000000    0.0000000000000000
     0.0000000000000000   -0.4141238715051304   -7.4358188645968806
   Be   Ga   F 
     4     4    20
Direct
  0.3047199102414382  0.4228163005963310  0.3837658445709238
  0.6952800897585618  0.9228163005963310  0.6162341554290691
  0.2464928736067478  0.1018913311023724  0.0079816794787249
  0.7535071263932522  0.6018913311023724  0.9920183205212822
  0.2745193124196206  0.7344959564636397  0.1420486891071420
  0.7254806875803794  0.2344959564636397  0.8579513108928580
  0.8174633959668824  0.6161493421389821  0.4159380868030951
  0.1825366040331176  0.1161493421389821  0.5840619131969049
  0.4199474717486353  0.9583694653553110  0.5285142675402099
  0.1118457687920227  0.5035167602530350  0.5072595064501542
  0.8881542312079702  0.0035167602530350  0.4927404935498387
  0.5033523839137075  0.7057750588980127  0.9625181180636986
  0.7913975178431158  0.5155858871043364  0.1801846938485028
  0.2661886773709838  0.9635108095439122  0.1446139610729986
  0.9399732211163112  0.2611911740180446  0.6686373822330225
  0.5672903271665888  0.7607667362286037  0.3068711417890100
  0.2086024821568842  0.0155858871043364  0.8198153061514972
  0.7700757311191495  0.7390289790076423  0.6280378471987191
  0.7338113226290091  0.4635108095439122  0.8553860389270014
  0.5800525282513647  0.4583694653553181  0.4714857324597901
  0.7176628569216419  0.0031201682563875  0.8075506955768077
  0.0088066589803333  0.2113810110334242  0.0296842405269047
  0.2299242688808505  0.2390289790076352  0.3719621528012809
  0.0600267788836888  0.7611911740180446  0.3313626177669775
  0.4966476160862854  0.2057750588980127  0.0374818819363014
  0.9911933410196738  0.7113810110334242  0.9703157594730953
  0.4327096728334112  0.2607667362286037  0.6931288582109900
  0.2823371430783510  0.5031201682563875  0.1924493044231923

  0.00000000E+00  0.00000000E+00  0.00000000E+00
  0.00000000E+00  0.00000000E+00  0.00000000E+00
  0.00000000E+00  0.00000000E+00  0.00000000E+00
  0.00000000E+00  0.00000000E+00  0.00000000E+00
  0.00000000E+00  0.00000000E+00  0.00000000E+00
  0.00000000E+00  0.00000000E+00  0.00000000E+00
  0.00000000E+00  0.00000000E+00  0.00000000E+00
  0.00000000E+00  0.00000000E+00  0.00000000E+00
  0.00000000E+00  0.00000000E+00  0.00000000E+00
  0.00000000E+00  0.00000000E+00  0.00000000E+00
  0.00000000E+00  0.00000000E+00  0.00000000E+00
  0.00000000E+00  0.00000000E+00  0.00000000E+00
  0.00000000E+00  0.00000000E+00  0.00000000E+00
  0.00000000E+00  0.00000000E+00  0.00000000E+00
  0.00000000E+00  0.00000000E+00  0.00000000E+00
  0.00000000E+00  0.00000000E+00  0.00000000E+00
  0.00000000E+00  0.00000000E+00  0.00000000E+00
  0.00000000E+00  0.00000000E+00  0.00000000E+00
  0.00000000E+00  0.00000000E+00  0.00000000E+00
  0.00000000E+00  0.00000000E+00  0.00000000E+00
  0.00000000E+00  0.00000000E+00  0.00000000E+00
  0.00000000E+00  0.00000000E+00  0.00000000E+00
  0.00000000E+00  0.00000000E+00  0.00000000E+00
  0.00000000E+00  0.00000000E+00  0.00000000E+00
  0.00000000E+00  0.00000000E+00  0.00000000E+00
  0.00000000E+00  0.00000000E+00  0.00000000E+00
  0.00000000E+00  0.00000000E+00  0.00000000E+00
  0.00000000E+00  0.00000000E+00  0.00000000E+00
