Mg4 B4 I20                              
   1.0000000000000000     
     7.5071655940425490   -0.0000000000000002    0.0000000000000006
    -0.0000000000000007    9.6752364651289060    0.0000000000000007
     0.0000000000000005    0.0000000000000006   21.2128621951285794
   Mg   B    I 
     4     4    20
Direct
  0.8954250379999991  0.8509357005425784  0.5396488072471399
  0.3954250380000062  0.6490642994574216  0.4603511927528601
  0.1045749619999938  0.3509357005425855  0.9603511927528601
  0.6045749620000009  0.1490642994574216  0.0396488072471399
  0.4491997024088761  0.3868287164018227  0.6208387515292415
  0.9491997024088761  0.1131712835981773  0.3791612484707585
  0.5508002975911239  0.8868287164018227  0.8791612484707585
  0.0508002975911239  0.6131712835981773  0.1208387515292415
  0.0262514830496485  0.6444745915078158  0.4631200288071895
  0.5262514830496556  0.8555254084921842  0.5368799711928105
  0.9737485169503444  0.1444745915078158  0.0368799711928105
  0.4737485169503515  0.3555254084921842  0.9631200288071895
  0.5265166827910122  0.5866837661105180  0.3488817142279004
  0.0265166827910122  0.9133162338894820  0.6511182857720925
  0.4734833172089878  0.0866837661105251  0.1511182857720925
  0.9734833172089878  0.4133162338894749  0.8488817142279004
  0.2556771463743885  0.5274716737287832  0.6535885248165556
  0.7556771463743956  0.9725283262712168  0.3464114751834373
  0.7443228536256044  0.0274716737287832  0.8464114751834444
  0.2443228536256044  0.4725283262712097  0.1535885248165556
  0.5843919716607999  0.2444741906076828  0.6788082321688051
  0.0843919716607999  0.2555258093923172  0.3211917678311949
  0.4156080283392001  0.7444741906076828  0.8211917678311949
  0.9156080283392001  0.7555258093923172  0.1788082321688051
  0.5185669387572887  0.3879793889666630  0.5210228521006215
  0.0185669387572887  0.1120206110333370  0.4789771478993714
  0.4814330612427113  0.8879793889666630  0.9789771478993785
  0.9814330612427113  0.6120206110333370  0.0210228521006286

  0.00000000E+00  0.00000000E+00  0.00000000E+00
  0.00000000E+00  0.00000000E+00  0.00000000E+00
  0.00000000E+00  0.00000000E+00  0.00000000E+00
  0.00000000E+00  0.00000000E+00  0.00000000E+00
  0.00000000E+00  0.00000000E+00  0.00000000E+00
  0.00000000E+00  0.00000000E+00  0.00000000E+00
  0.00000000E+00  0.00000000E+00  0.00000000E+00
  0.00000000E+00  0.00000000E+00  0.00000000E+00
  0.00000000E+00  0.00000000E+00  0.00000000E+00
  0.00000000E+00  0.00000000E+00  0.00000000E+00
  0.00000000E+00  0.00000000E+00  0.00000000E+00
  0.00000000E+00  0.00000000E+00  0.00000000E+00
  0.00000000E+00  0.00000000E+00  0.00000000E+00
  0.00000000E+00  0.00000000E+00  0.00000000E+00
  0.00000000E+00  0.00000000E+00  0.00000000E+00
  0.00000000E+00  0.00000000E+00  0.00000000E+00
  0.00000000E+00  0.00000000E+00  0.00000000E+00
  0.00000000E+00  0.00000000E+00  0.00000000E+00
  0.00000000E+00  0.00000000E+00  0.00000000E+00
  0.00000000E+00  0.00000000E+00  0.00000000E+00
  0.00000000E+00  0.00000000E+00  0.00000000E+00
  0.00000000E+00  0.00000000E+00  0.00000000E+00
  0.00000000E+00  0.00000000E+00  0.00000000E+00
  0.00000000E+00  0.00000000E+00  0.00000000E+00
  0.00000000E+00  0.00000000E+00  0.00000000E+00
  0.00000000E+00  0.00000000E+00  0.00000000E+00
  0.00000000E+00  0.00000000E+00  0.00000000E+00
  0.00000000E+00  0.00000000E+00  0.00000000E+00
