Be10 Tl4 I32                            
   1.0000000000000000     
     3.2533052142159224   -7.5499904691876019    0.0000000000000000
     3.2533052142159224    7.5499904691876019    0.0000000000000000
     0.0000000000000000    0.0000000000000000   48.6394711661322035
   Be   Tl   I 
    10     4    32
Direct
  0.0000000000000000  0.0000000000000000  0.7500404854193121
  0.0000000000000000  0.0000000000000000  0.2499595145806879
  0.5000000000000000  0.5000000000000000  0.7499595145806879
  0.5000000000000000  0.5000000000000000  0.2500404854193050
  0.5000000000000000  0.5000000000000000  0.5000000000000000
  0.0000000000000000  0.0000000000000000  0.0000000000000000
  0.0000000000000000  0.5000000000000000  0.6286721357826579
  0.5000000000000000  0.0000000000000000  0.3713278642173350
  0.5000000000000000  0.0000000000000000  0.8713278642173421
  0.0000000000000000  0.5000000000000000  0.1286721357826579
  0.5000000000000000  0.0000000000000000  0.5659774963570214
  0.0000000000000000  0.5000000000000000  0.4340225036429786
  0.0000000000000000  0.5000000000000000  0.9340225036429786
  0.5000000000000000  0.0000000000000000  0.0659774963570214
  0.3361844196750425  0.1635022334308616  0.7235738999689332
  0.6638155803249575  0.8364977665691384  0.7235738999689332
  0.1635022334308616  0.3361844196750425  0.2764261000310668
  0.8364977665691384  0.6638155803249575  0.2764261000310668
  0.1638155803249575  0.3364977665691384  0.7764261000310668
  0.8361844196750425  0.6635022334308616  0.7764261000310668
  0.3364977665691384  0.1638155803249575  0.2235738999689332
  0.6635022334308616  0.8361844196750425  0.2235738999689332
  0.0963485306898164  0.7971464478633905  0.5986994816240454
  0.9036514693101836  0.2028535521366095  0.5986994816240454
  0.7971464478633905  0.0963485306898164  0.4013005183759546
  0.2028535521366095  0.9036514693101836  0.4013005183759546
  0.4036514693101836  0.7028535521366095  0.9013005183759546
  0.5963485306898164  0.2971464478633905  0.9013005183759546
  0.6747977469018238  0.8477837991706139  0.0271243682870264
  0.3252022530981833  0.1522162008293861  0.0271243682870264
  0.8477837991706139  0.6747977469018238  0.9728756317129736
  0.1522162008293861  0.3252022530981833  0.9728756317129736
  0.8252022530981762  0.6522162008293861  0.4728756317129736
  0.1747977469018167  0.3477837991705997  0.4728756317129736
  0.6522162008293861  0.8252022530981762  0.5271243682870264
  0.3477837991705997  0.1747977469018167  0.5271243682870264
  0.0513158835061773  0.7854144368232525  0.1499616238517092
  0.9486841164938227  0.2145855631767475  0.1499616238517092
  0.7854144368232525  0.0513158835061773  0.8500383761482979
  0.2145855631767475  0.9486841164938227  0.8500383761482979
  0.4486841164938227  0.7145855631767475  0.3500383761482908
  0.5513158835061773  0.2854144368232525  0.3500383761482908
  0.7145855631767475  0.4486841164938227  0.6499616238517021
  0.2854144368232525  0.5513158835061773  0.6499616238517021
  0.2971464478633834  0.5963485306898164  0.0986994816240454
  0.7028535521366095  0.4036514693101836  0.0986994816240454

  0.00000000E+00  0.00000000E+00  0.00000000E+00
  0.00000000E+00  0.00000000E+00  0.00000000E+00
  0.00000000E+00  0.00000000E+00  0.00000000E+00
  0.00000000E+00  0.00000000E+00  0.00000000E+00
  0.00000000E+00  0.00000000E+00  0.00000000E+00
  0.00000000E+00  0.00000000E+00  0.00000000E+00
  0.00000000E+00  0.00000000E+00  0.00000000E+00
  0.00000000E+00  0.00000000E+00  0.00000000E+00
  0.00000000E+00  0.00000000E+00  0.00000000E+00
  0.00000000E+00  0.00000000E+00  0.00000000E+00
  0.00000000E+00  0.00000000E+00  0.00000000E+00
  0.00000000E+00  0.00000000E+00  0.00000000E+00
  0.00000000E+00  0.00000000E+00  0.00000000E+00
  0.00000000E+00  0.00000000E+00  0.00000000E+00
  0.00000000E+00  0.00000000E+00  0.00000000E+00
  0.00000000E+00  0.00000000E+00  0.00000000E+00
  0.00000000E+00  0.00000000E+00  0.00000000E+00
  0.00000000E+00  0.00000000E+00  0.00000000E+00
  0.00000000E+00  0.00000000E+00  0.00000000E+00
  0.00000000E+00  0.00000000E+00  0.00000000E+00
  0.00000000E+00  0.00000000E+00  0.00000000E+00
  0.00000000E+00  0.00000000E+00  0.00000000E+00
  0.00000000E+00  0.00000000E+00  0.00000000E+00
  0.00000000E+00  0.00000000E+00  0.00000000E+00
  0.00000000E+00  0.00000000E+00  0.00000000E+00
  0.00000000E+00  0.00000000E+00  0.00000000E+00
  0.00000000E+00  0.00000000E+00  0.00000000E+00
  0.00000000E+00  0.00000000E+00  0.00000000E+00
  0.00000000E+00  0.00000000E+00  0.00000000E+00
  0.00000000E+00  0.00000000E+00  0.00000000E+00
  0.00000000E+00  0.00000000E+00  0.00000000E+00
  0.00000000E+00  0.00000000E+00  0.00000000E+00
  0.00000000E+00  0.00000000E+00  0.00000000E+00
  0.00000000E+00  0.00000000E+00  0.00000000E+00
  0.00000000E+00  0.00000000E+00  0.00000000E+00
  0.00000000E+00  0.00000000E+00  0.00000000E+00
  0.00000000E+00  0.00000000E+00  0.00000000E+00
  0.00000000E+00  0.00000000E+00  0.00000000E+00
  0.00000000E+00  0.00000000E+00  0.00000000E+00
  0.00000000E+00  0.00000000E+00  0.00000000E+00
  0.00000000E+00  0.00000000E+00  0.00000000E+00
  0.00000000E+00  0.00000000E+00  0.00000000E+00
  0.00000000E+00  0.00000000E+00  0.00000000E+00
  0.00000000E+00  0.00000000E+00  0.00000000E+00
  0.00000000E+00  0.00000000E+00  0.00000000E+00
  0.00000000E+00  0.00000000E+00  0.00000000E+00
