Be3Al                                   
   1.00000000000000     
     5.5154565839586400   -0.5334818925928911    0.0000000000000000
    -3.2256947572372536    4.5055005781162789    0.0000000000000000
     0.0000000000000000    0.0000000000000000    3.5912687033362407
   Al   Be
     2     6
Direct
  0.6970460442854503  0.3029355568427476  0.2500000000000000
  0.3029539557145497  0.6970644431572524  0.7500000000000000
  0.1824672816924604  0.3288805186795543  0.2500000000000000
  0.6711175726194369  0.8175929166133571  0.2500000000000000
  0.1079262493912836  0.8919842409683767  0.2500000000000000
  0.8920737506087164  0.1080157590316233  0.7500000000000000
  0.3288824273805631  0.1824070833866429  0.7500000000000000
  0.8175327183075396  0.6711194813204457  0.7500000000000000
 
  0.00000000E+00  0.00000000E+00  0.00000000E+00
  0.00000000E+00  0.00000000E+00  0.00000000E+00
  0.00000000E+00  0.00000000E+00  0.00000000E+00
  0.00000000E+00  0.00000000E+00  0.00000000E+00
  0.00000000E+00  0.00000000E+00  0.00000000E+00
  0.00000000E+00  0.00000000E+00  0.00000000E+00
  0.00000000E+00  0.00000000E+00  0.00000000E+00
  0.00000000E+00  0.00000000E+00  0.00000000E+00
