Ba2Tl                                   
   1.0000000000000000     
    -2.1879669824209600    2.1879669824209600    7.5584132183663346
     2.1879669824209600   -2.1879669824209600    7.5584132183663346
     2.1879669824209600    2.1879669824209600   -7.5584132183663346
   Ba   Tl
     2     1
Direct
  0.1314817930385956  0.1314817930385956  0.0000000000000000
  0.8685182069614044  0.8685182069614044  0.0000000000000000
  0.5000000000000000  0.5000000000000000  0.0000000000000000

  0.00000000E+00  0.00000000E+00  0.00000000E+00
  0.00000000E+00  0.00000000E+00  0.00000000E+00
  0.00000000E+00  0.00000000E+00  0.00000000E+00
