Mg1 Al2 Br10                            
   1.00000000000000     
     5.5128180416867512    5.3095212009644994   -1.2015293013498514
    -5.5128180416867485    5.3095212009644994   -1.2015293013498511
     0.0000000000000001    2.4574788851680682    9.3153273684547457
   Mg   Al   Br
     1     2    10
Direct
  0.3252351837608956  0.6747648162391044  0.0000000000000000
  0.2170168428231065  0.8999242548657875  0.6982645876737621
  0.1000757451342125  0.7829831571768864  0.3017354123262379
  0.1015080610743766  0.1557971317357243  0.6422934259369200
  0.8442028682642757  0.8984919389256234  0.3577065740630800
  0.0471832055389712  0.7125590098391186  0.8427846507541688
  0.2874409901608814  0.9528167944610288  0.1572153492458312
  0.5457521270959518  0.4542478729040482  0.0000000000000000
  0.2798589003711527  0.7201410996288473  0.5000000000000000
  0.6106385475036618  0.3979235011787807  0.6215487369757327
  0.6020764988212193  0.3893614524963382  0.3784512630242673
  0.4832105128038719  0.9002004833525845  0.8052591237802815
  0.0997995166474155  0.5167894871961281  0.1947408762197185
 
  0.00000000E+00  0.00000000E+00  0.00000000E+00
  0.00000000E+00  0.00000000E+00  0.00000000E+00
  0.00000000E+00  0.00000000E+00  0.00000000E+00
  0.00000000E+00  0.00000000E+00  0.00000000E+00
  0.00000000E+00  0.00000000E+00  0.00000000E+00
  0.00000000E+00  0.00000000E+00  0.00000000E+00
  0.00000000E+00  0.00000000E+00  0.00000000E+00
  0.00000000E+00  0.00000000E+00  0.00000000E+00
  0.00000000E+00  0.00000000E+00  0.00000000E+00
  0.00000000E+00  0.00000000E+00  0.00000000E+00
  0.00000000E+00  0.00000000E+00  0.00000000E+00
  0.00000000E+00  0.00000000E+00  0.00000000E+00
  0.00000000E+00  0.00000000E+00  0.00000000E+00
