In29                                    
   1.00000000000000     
     5.8805615222683771    5.8805615222683771    5.8805615222683771
     5.8805615222683771   -5.8805615222683771   -5.8805615222683771
    -5.8805615222683771    5.8805615222683771   -5.8805615222683771
   In
    29
Direct
  0.0000000000000000  0.0000000000000000  0.0000000000000000
  0.6676070371651264  0.0000000000000000  0.0000000000000000
  0.3831864165971979  0.1926097503762847  0.0000000000000000
  0.1926097503762847  0.3831864165971979  0.0000000000000000
  0.6891875581072853  0.4124728796458612  0.0000000000000000
  0.0000000000000000  0.6676070371651264  0.0000000000000000
  0.4124728796458612  0.6891875581072853  0.0000000000000000
  0.8073902496237153  0.8073902496237153  0.1905766662209203
  0.3831864165971979  0.0000000000000000  0.1926097503762847
  0.0000000000000000  0.3831864165971979  0.1926097503762847
  0.5875271203541388  0.5875271203541388  0.2767136784614266
  0.7232853215385759  0.3108124418927147  0.3108124418927147
  0.3108124418927147  0.7232853215385759  0.3108124418927147
  0.3323929628348736  0.3323929628348736  0.3323929628348736
  0.1926097503762847  0.0000000000000000  0.3831864165971979
  0.0000000000000000  0.1926097503762847  0.3831864165971979
  0.6891875581072853  0.0000000000000000  0.4124728796458612
  0.0000000000000000  0.6891875581072853  0.4124728796458612
  0.5875271203541388  0.2767136784614266  0.5875271203541388
  0.2767136784614266  0.5875271203541388  0.5875271203541388
  0.8094233337790797  0.6168135834028021  0.6168135834028021
  0.6168135834028021  0.8094233337790797  0.6168135834028021
  0.0000000000000000  0.0000000000000000  0.6676070371651264
  0.4124728796458612  0.0000000000000000  0.6891875581072853
  0.0000000000000000  0.4124728796458612  0.6891875581072853
  0.3108124418927147  0.3108124418927147  0.7232853215385759
  0.8073902496237153  0.1905766662209203  0.8073902496237153
  0.1905766662209203  0.8073902496237153  0.8073902496237153
  0.6168135834028021  0.6168135834028021  0.8094233337790797
 
  0.00000000E+00  0.00000000E+00  0.00000000E+00
  0.00000000E+00  0.00000000E+00  0.00000000E+00
  0.00000000E+00  0.00000000E+00  0.00000000E+00
  0.00000000E+00  0.00000000E+00  0.00000000E+00
  0.00000000E+00  0.00000000E+00  0.00000000E+00
  0.00000000E+00  0.00000000E+00  0.00000000E+00
  0.00000000E+00  0.00000000E+00  0.00000000E+00
  0.00000000E+00  0.00000000E+00  0.00000000E+00
  0.00000000E+00  0.00000000E+00  0.00000000E+00
  0.00000000E+00  0.00000000E+00  0.00000000E+00
  0.00000000E+00  0.00000000E+00  0.00000000E+00
  0.00000000E+00  0.00000000E+00  0.00000000E+00
  0.00000000E+00  0.00000000E+00  0.00000000E+00
  0.00000000E+00  0.00000000E+00  0.00000000E+00
  0.00000000E+00  0.00000000E+00  0.00000000E+00
  0.00000000E+00  0.00000000E+00  0.00000000E+00
  0.00000000E+00  0.00000000E+00  0.00000000E+00
  0.00000000E+00  0.00000000E+00  0.00000000E+00
  0.00000000E+00  0.00000000E+00  0.00000000E+00
  0.00000000E+00  0.00000000E+00  0.00000000E+00
  0.00000000E+00  0.00000000E+00  0.00000000E+00
  0.00000000E+00  0.00000000E+00  0.00000000E+00
  0.00000000E+00  0.00000000E+00  0.00000000E+00
  0.00000000E+00  0.00000000E+00  0.00000000E+00
  0.00000000E+00  0.00000000E+00  0.00000000E+00
  0.00000000E+00  0.00000000E+00  0.00000000E+00
  0.00000000E+00  0.00000000E+00  0.00000000E+00
  0.00000000E+00  0.00000000E+00  0.00000000E+00
  0.00000000E+00  0.00000000E+00  0.00000000E+00
