Ca4 Al8 Cl16                            
   1.00000000000000     
     6.8073484376955289    0.1725254782646591   -0.1674465204981977
     0.1804962749970909    6.7137064411231400    0.0454534689687356
    -0.2446291759876043    0.0521362320725394   21.1748945128748858
   Ca   Cl   Al
     4    16     8
Direct
  0.6193091711085543  0.0907585857695778  0.0932441994211786
  0.0997008606588849  0.0982899258780137  0.4074086147123595
  0.9012255143533139  0.9002600513218582  0.5924920164113558
  0.3791705026356240  0.9105629415710084  0.9069117296568905
  0.3680092179906183  0.7965821206960086  0.0393149827713657
  0.2450317598065794  0.2604370104678395  0.0885493256778744
  0.6746440738952657  0.9082075579833244  0.2038785924518507
  0.7461023366088710  0.4491509894815664  0.1271145833163274
  0.1642282627373888  0.9262807373343946  0.2977303899261230
  0.2151829497130393  0.4577796580388238  0.3713040917193098
  0.7262230789310422  0.2686091744424317  0.4126901275710608
  0.8594036043302324  0.7991699635711669  0.4595166467417329
  0.1414555887672151  0.1993927585908679  0.5402905634528139
  0.2743559372159794  0.7292963161666677  0.5863811641691399
  0.7852903699563285  0.5409993945674643  0.6286444362760619
  0.8370651092759402  0.0726941790788871  0.7021726958301144
  0.2527298248258560  0.5523144210011992  0.8728374558479501
  0.3262602471119536  0.0929970400109355  0.7962090311076864
  0.7534348689138213  0.7406660555315696  0.9121595328019083
  0.6302340505815565  0.2050154074721107  0.9609658503086465
  0.0853964120568875  0.9914945478783181  0.0578232131838021
  0.1629326344360180  0.5835886018647827  0.2667029463173023
  0.7536794494105976  0.5663947542140804  0.2324444634004124
  0.5724550996868345  0.9969688616262573  0.4422570015888923
  0.4285329104764202  0.0013943130099108  0.5573936277225897
  0.2468385357808316  0.4346592126328304  0.7675037832348295
  0.8382148178510818  0.4153556669200356  0.7332037716753845
  0.9128928108832710  0.0102797528780840  0.9424551627050519
 
  0.00000000E+00  0.00000000E+00  0.00000000E+00
  0.00000000E+00  0.00000000E+00  0.00000000E+00
  0.00000000E+00  0.00000000E+00  0.00000000E+00
  0.00000000E+00  0.00000000E+00  0.00000000E+00
  0.00000000E+00  0.00000000E+00  0.00000000E+00
  0.00000000E+00  0.00000000E+00  0.00000000E+00
  0.00000000E+00  0.00000000E+00  0.00000000E+00
  0.00000000E+00  0.00000000E+00  0.00000000E+00
  0.00000000E+00  0.00000000E+00  0.00000000E+00
  0.00000000E+00  0.00000000E+00  0.00000000E+00
  0.00000000E+00  0.00000000E+00  0.00000000E+00
  0.00000000E+00  0.00000000E+00  0.00000000E+00
  0.00000000E+00  0.00000000E+00  0.00000000E+00
  0.00000000E+00  0.00000000E+00  0.00000000E+00
  0.00000000E+00  0.00000000E+00  0.00000000E+00
  0.00000000E+00  0.00000000E+00  0.00000000E+00
  0.00000000E+00  0.00000000E+00  0.00000000E+00
  0.00000000E+00  0.00000000E+00  0.00000000E+00
  0.00000000E+00  0.00000000E+00  0.00000000E+00
  0.00000000E+00  0.00000000E+00  0.00000000E+00
  0.00000000E+00  0.00000000E+00  0.00000000E+00
  0.00000000E+00  0.00000000E+00  0.00000000E+00
  0.00000000E+00  0.00000000E+00  0.00000000E+00
  0.00000000E+00  0.00000000E+00  0.00000000E+00
  0.00000000E+00  0.00000000E+00  0.00000000E+00
  0.00000000E+00  0.00000000E+00  0.00000000E+00
  0.00000000E+00  0.00000000E+00  0.00000000E+00
  0.00000000E+00  0.00000000E+00  0.00000000E+00
