Mg10 B18                                
   1.00000000000000     
     1.5448453318805349   -4.3979091313000449   -0.0001585669512485
     1.5448447882874943    4.3979111783608689    0.0001588908563011
    -0.0000021539901498   -0.0007723517144553   20.4536645092445966
   Mg   B 
    10    18
Direct
  0.8412098390748213  0.1588266597397450  0.0513091902758447
  0.5168857015633179  0.4831528608899944  0.1564007232705649
  0.1967895700053717  0.8032497424769218  0.2499873391886283
  0.5169073343311581  0.4831314100107065  0.3435767320980148
  0.8412165895976571  0.1588202067491906  0.4486605199051112
  0.1588159366064161  0.8412188000786855  0.5513076658659983
  0.4831325625338820  0.5169004005157589  0.6563960722590139
  0.8032415054692663  0.1967911596851977  0.7499847079723736
  0.4831521707077826  0.5168798987716912  0.8435710728006498
  0.1588265193524592  0.8412078005789070  0.9486634309778097
  0.5600227833968319  0.4400140481302373  0.0346257979612901
  0.1201821169888362  0.8798544908189427  0.0697143370264897
  0.2422738957048267  0.7577647080795273  0.1380407245715958
  0.8024103315568709  0.1976291802766639  0.1735543407159454
  0.9066519639414352  0.0933877772544207  0.2499864180423046
  0.8024238585503767  0.1976149827815874  0.3264176811313106
  0.2422916596389371  0.7577467496577128  0.3619312669253318
  0.1201946071153941  0.8798431703465752  0.4302597298239874
  0.5600297766015814  0.4400068207452108  0.4653446390891531
  0.4400063757257868  0.5600293577816799  0.5346221150168944
  0.8798360576340158  0.1201982945708409  0.5697133606346299
  0.7577485696051056  0.2422849432489400  0.6380381299681872
  0.1976107222755132  0.8024222923440334  0.6735544320896665
  0.0933884187003713  0.9066432152780450  0.7499861350775205
  0.1976221534898599  0.8024093526255527  0.8264179857567697
  0.7577637489202473  0.2422683532350192  0.8619327499248328
  0.8798497156988603  0.1201846183447728  0.9302542487294048
  0.4400155152130338  0.5600187049834346  0.9653484529006562
 
  0.00000000E+00  0.00000000E+00  0.00000000E+00
  0.00000000E+00  0.00000000E+00  0.00000000E+00
  0.00000000E+00  0.00000000E+00  0.00000000E+00
  0.00000000E+00  0.00000000E+00  0.00000000E+00
  0.00000000E+00  0.00000000E+00  0.00000000E+00
  0.00000000E+00  0.00000000E+00  0.00000000E+00
  0.00000000E+00  0.00000000E+00  0.00000000E+00
  0.00000000E+00  0.00000000E+00  0.00000000E+00
  0.00000000E+00  0.00000000E+00  0.00000000E+00
  0.00000000E+00  0.00000000E+00  0.00000000E+00
  0.00000000E+00  0.00000000E+00  0.00000000E+00
  0.00000000E+00  0.00000000E+00  0.00000000E+00
  0.00000000E+00  0.00000000E+00  0.00000000E+00
  0.00000000E+00  0.00000000E+00  0.00000000E+00
  0.00000000E+00  0.00000000E+00  0.00000000E+00
  0.00000000E+00  0.00000000E+00  0.00000000E+00
  0.00000000E+00  0.00000000E+00  0.00000000E+00
  0.00000000E+00  0.00000000E+00  0.00000000E+00
  0.00000000E+00  0.00000000E+00  0.00000000E+00
  0.00000000E+00  0.00000000E+00  0.00000000E+00
  0.00000000E+00  0.00000000E+00  0.00000000E+00
  0.00000000E+00  0.00000000E+00  0.00000000E+00
  0.00000000E+00  0.00000000E+00  0.00000000E+00
  0.00000000E+00  0.00000000E+00  0.00000000E+00
  0.00000000E+00  0.00000000E+00  0.00000000E+00
  0.00000000E+00  0.00000000E+00  0.00000000E+00
  0.00000000E+00  0.00000000E+00  0.00000000E+00
  0.00000000E+00  0.00000000E+00  0.00000000E+00
