Ga2                                     
   1.00000000000000     
     2.6967209590733452    0.0000000000000000   -0.9281923168235725
     0.0000000000000000    3.3518919624468442    0.0000000000000000
     0.0499414770873819    0.0000000000000000    4.2523610328825967
   Ga
     2
Direct
  0.8665572579514276  0.2500000000000000  0.7314278450588034
  0.1334427420485724  0.7500000000000000  0.2685711549411991
 
  0.00000000E+00  0.00000000E+00  0.00000000E+00
  0.00000000E+00  0.00000000E+00  0.00000000E+00
