Ca1                                     
   1.00000000000000     
    -2.3104770548004074    2.2150826001996378   -2.0539706835207792
     2.3104770548004074   -2.2150826001996378   -2.0539706835207792
    -2.2148124440241559   -2.3101952179305547    2.0539706835207792
   Ca
     1
Direct
  0.0000000000000000  0.5000000000000000  0.0000000000000000
 
  0.00000000E+00  0.00000000E+00  0.00000000E+00
