Ca10 Tl4 Br32                           
   1.0000000000000000     
     5.4321828276150157   -7.4173241155713434    0.0000000000000000
     5.4321828276150157    7.4173241155713434    0.0000000000000000
     0.0000000000000000    0.0000000000000000   19.0791275502321582
   Ca   Tl   Br
    10     4    32
Direct
  0.0000000000000000  0.0000000000000000  0.7309538397534467
  0.0000000000000000  0.0000000000000000  0.2690461602465533
  0.5000000000000000  0.5000000000000000  0.7690461602465533
  0.5000000000000000  0.5000000000000000  0.2309538397534467
  0.5000000000000000  0.5000000000000000  0.5000000000000000
  0.0000000000000000  0.0000000000000000  0.0000000000000000
  0.0000000000000000  0.5000000000000000  0.6324973517923311
  0.5000000000000000  0.0000000000000000  0.3675026482076689
  0.5000000000000000  0.0000000000000000  0.8675026482076689
  0.0000000000000000  0.5000000000000000  0.1324973517923311
  0.5000000000000000  0.0000000000000000  0.6220587588211117
  0.0000000000000000  0.5000000000000000  0.3779412411788883
  0.0000000000000000  0.5000000000000000  0.8779412411788883
  0.5000000000000000  0.0000000000000000  0.1220587588211117
  0.5354444852460460  0.1965378274799221  0.7334684759603931
  0.4645555147539540  0.8034621725200779  0.7334684759603931
  0.1965378274799221  0.5354444852460460  0.2665315240396069
  0.8034621725200779  0.4645555147539540  0.2665315240396069
  0.9645555147539540  0.3034621725200779  0.7665315240396069
  0.0354444852460460  0.6965378274799221  0.7665315240396069
  0.3034621725200779  0.9645555147539540  0.2334684759603931
  0.6965378274799221  0.0354444852460460  0.2334684759603931
  0.1519958123055432  0.8750150603321387  0.6155577066560483
  0.8480041876944568  0.1249849396678684  0.6155577066560483
  0.8750150603321387  0.1519958123055432  0.3844422933439517
  0.1249849396678684  0.8480041876944568  0.3844422933439517
  0.3480041876944568  0.6249849396678613  0.8844422933439517
  0.6519958123055432  0.3750150603321316  0.8844422933439517
  0.6745221569331292  0.9596314368754619  0.0110368124546696
  0.3254778430668708  0.0403685631245381  0.0110368124546696
  0.9596314368754619  0.6745221569331292  0.9889631875453304
  0.0403685631245381  0.3254778430668708  0.9889631875453304
  0.8254778430668708  0.5403685631245381  0.4889631875453304
  0.1745221569331292  0.4596314368754619  0.4889631875453304
  0.5403685631245381  0.8254778430668708  0.5110368124546696
  0.4596314368754619  0.1745221569331292  0.5110368124546696
  0.9191950171893595  0.7896059559253032  0.1493378033958592
  0.0808049828106405  0.2103940440746968  0.1493378033958592
  0.7896059559253032  0.9191950171893595  0.8506621966041408
  0.2103940440746968  0.0808049828106405  0.8506621966041408
  0.5808049828106405  0.7103940440746968  0.3506621966041408
  0.4191950171893595  0.2896059559253032  0.3506621966041408
  0.7103940440746968  0.5808049828106405  0.6493378033958592
  0.2896059559253032  0.4191950171893595  0.6493378033958592
  0.3750150603321316  0.6519958123055432  0.1155577066560483
  0.6249849396678613  0.3480041876944568  0.1155577066560483

  0.00000000E+00  0.00000000E+00  0.00000000E+00
  0.00000000E+00  0.00000000E+00  0.00000000E+00
  0.00000000E+00  0.00000000E+00  0.00000000E+00
  0.00000000E+00  0.00000000E+00  0.00000000E+00
  0.00000000E+00  0.00000000E+00  0.00000000E+00
  0.00000000E+00  0.00000000E+00  0.00000000E+00
  0.00000000E+00  0.00000000E+00  0.00000000E+00
  0.00000000E+00  0.00000000E+00  0.00000000E+00
  0.00000000E+00  0.00000000E+00  0.00000000E+00
  0.00000000E+00  0.00000000E+00  0.00000000E+00
  0.00000000E+00  0.00000000E+00  0.00000000E+00
  0.00000000E+00  0.00000000E+00  0.00000000E+00
  0.00000000E+00  0.00000000E+00  0.00000000E+00
  0.00000000E+00  0.00000000E+00  0.00000000E+00
  0.00000000E+00  0.00000000E+00  0.00000000E+00
  0.00000000E+00  0.00000000E+00  0.00000000E+00
  0.00000000E+00  0.00000000E+00  0.00000000E+00
  0.00000000E+00  0.00000000E+00  0.00000000E+00
  0.00000000E+00  0.00000000E+00  0.00000000E+00
  0.00000000E+00  0.00000000E+00  0.00000000E+00
  0.00000000E+00  0.00000000E+00  0.00000000E+00
  0.00000000E+00  0.00000000E+00  0.00000000E+00
  0.00000000E+00  0.00000000E+00  0.00000000E+00
  0.00000000E+00  0.00000000E+00  0.00000000E+00
  0.00000000E+00  0.00000000E+00  0.00000000E+00
  0.00000000E+00  0.00000000E+00  0.00000000E+00
  0.00000000E+00  0.00000000E+00  0.00000000E+00
  0.00000000E+00  0.00000000E+00  0.00000000E+00
  0.00000000E+00  0.00000000E+00  0.00000000E+00
  0.00000000E+00  0.00000000E+00  0.00000000E+00
  0.00000000E+00  0.00000000E+00  0.00000000E+00
  0.00000000E+00  0.00000000E+00  0.00000000E+00
  0.00000000E+00  0.00000000E+00  0.00000000E+00
  0.00000000E+00  0.00000000E+00  0.00000000E+00
  0.00000000E+00  0.00000000E+00  0.00000000E+00
  0.00000000E+00  0.00000000E+00  0.00000000E+00
  0.00000000E+00  0.00000000E+00  0.00000000E+00
  0.00000000E+00  0.00000000E+00  0.00000000E+00
  0.00000000E+00  0.00000000E+00  0.00000000E+00
  0.00000000E+00  0.00000000E+00  0.00000000E+00
  0.00000000E+00  0.00000000E+00  0.00000000E+00
  0.00000000E+00  0.00000000E+00  0.00000000E+00
  0.00000000E+00  0.00000000E+00  0.00000000E+00
  0.00000000E+00  0.00000000E+00  0.00000000E+00
  0.00000000E+00  0.00000000E+00  0.00000000E+00
  0.00000000E+00  0.00000000E+00  0.00000000E+00
