Mg1 Tl2 F6                              
   1.0000000000000000     
     2.7420187495574528    1.1564261466435708    4.3758533085652074
    -2.7420187495574528    1.1564261466435708    4.3758533085652074
     0.0000000000000000   -4.1485407992747554    4.9794653527208865
   Mg   F    Tl
     1     6     2
Direct
  0.0000000000000000  0.0000000000000000  0.0000000000000000
  0.7627692468602234  0.7627692468602234  0.0471998033676115
  0.6508625695735120  0.1558221027883562  0.2647748369222001
  0.1558221027883562  0.6508625695735120  0.2647748369222001
  0.2372307531397766  0.2372307531397766  0.9528001966323885
  0.8441778972116438  0.3491374304264880  0.7352251630777928
  0.3491374304264880  0.8441778972116438  0.7352251630777928
  0.1855819969811350  0.1855819969811350  0.3362251222097257
  0.8144180030188650  0.8144180030188650  0.6637748777902672

  0.00000000E+00  0.00000000E+00  0.00000000E+00
  0.00000000E+00  0.00000000E+00  0.00000000E+00
  0.00000000E+00  0.00000000E+00  0.00000000E+00
  0.00000000E+00  0.00000000E+00  0.00000000E+00
  0.00000000E+00  0.00000000E+00  0.00000000E+00
  0.00000000E+00  0.00000000E+00  0.00000000E+00
  0.00000000E+00  0.00000000E+00  0.00000000E+00
  0.00000000E+00  0.00000000E+00  0.00000000E+00
  0.00000000E+00  0.00000000E+00  0.00000000E+00
