Mg40 B4                                 
   1.00000000000000     
     0.0000000000000000    7.8139789723163187    7.8139789723163178
     7.8139789723163187    0.0000000000000000    7.8139789723163178
     7.8139789723163187    7.8139789723163187    0.0000000000000000
   Mg   B 
    40     4
Direct
  0.6149047462443278  0.6149047462443278  0.8850952537556722
  0.3649047462443278  0.6350952537556722  0.6350952537556722
  0.6350952537556722  0.3649047462443278  0.3649047462443278
  0.3649047462443278  0.3649047462443278  0.6350952537556722
  0.3649047462443278  0.6350952537556722  0.3649047462443278
  0.6350952537556722  0.3649047462443278  0.6350952537556722
  0.8850952537556722  0.6149047462443278  0.8850952537556722
  0.8850952537556722  0.6149047462443278  0.6149047462443278
  0.6149047462443278  0.8850952537556722  0.8850952537556722
  0.6149047462443278  0.8850952537556722  0.6149047462443278
  0.6350952537556722  0.6350952537556722  0.3649047462443278
  0.8850952537556722  0.8850952537556722  0.6149047462443278
  0.7982039268077230  0.0688500636881741  0.3347410826963753
  0.4517960731922770  0.4517960731922770  0.1811499363118259
  0.1811499363118259  0.9152589173036247  0.4517960731922770
  0.4517960731922770  0.9152589173036247  0.4517960731922770
  0.9152589173036247  0.4517960731922770  0.1811499363118259
  0.9152589173036247  0.4517960731922770  0.4517960731922770
  0.1811499363118259  0.4517960731922770  0.4517960731922770
  0.3347410826963753  0.0688500636881741  0.7982039268077230
  0.7982039268077230  0.0688500636881741  0.7982039268077230
  0.0688500636881741  0.7982039268077230  0.3347410826963753
  0.7982039268077230  0.7982039268077230  0.3347410826963753
  0.0688500636881741  0.3347410826963753  0.7982039268077230
  0.3347410826963753  0.7982039268077230  0.0688500636881741
  0.7982039268077230  0.7982039268077230  0.0688500636881741
  0.7982039268077230  0.3347410826963753  0.7982039268077230
  0.1811499363118259  0.4517960731922770  0.9152589173036247
  0.4517960731922770  0.4517960731922770  0.9152589173036247
  0.4517960731922770  0.9152589173036247  0.1811499363118259
  0.4517960731922770  0.1811499363118259  0.9152589173036247
  0.9152589173036247  0.1811499363118259  0.4517960731922770
  0.4517960731922770  0.1811499363118259  0.4517960731922770
  0.3347410826963753  0.7982039268077230  0.7982039268077230
  0.0688500636881741  0.7982039268077230  0.7982039268077230
  0.7982039268077230  0.3347410826963753  0.0688500636881741
  0.1250000000000000  0.1250000000000000  0.1250000000000000
  0.6250000000000000  0.1250000000000000  0.1250000000000000
  0.1250000000000000  0.1250000000000000  0.6250000000000000
  0.1250000000000000  0.6250000000000000  0.1250000000000000
  0.6250000000000000  0.6250000000000000  0.6250000000000000
  0.1250000000000000  0.6250000000000000  0.6250000000000000
  0.6250000000000000  0.6250000000000000  0.1250000000000000
  0.6250000000000000  0.1250000000000000  0.6250000000000000
 
  0.00000000E+00  0.00000000E+00  0.00000000E+00
  0.00000000E+00  0.00000000E+00  0.00000000E+00
  0.00000000E+00  0.00000000E+00  0.00000000E+00
  0.00000000E+00  0.00000000E+00  0.00000000E+00
  0.00000000E+00  0.00000000E+00  0.00000000E+00
  0.00000000E+00  0.00000000E+00  0.00000000E+00
  0.00000000E+00  0.00000000E+00  0.00000000E+00
  0.00000000E+00  0.00000000E+00  0.00000000E+00
  0.00000000E+00  0.00000000E+00  0.00000000E+00
  0.00000000E+00  0.00000000E+00  0.00000000E+00
  0.00000000E+00  0.00000000E+00  0.00000000E+00
  0.00000000E+00  0.00000000E+00  0.00000000E+00
  0.00000000E+00  0.00000000E+00  0.00000000E+00
  0.00000000E+00  0.00000000E+00  0.00000000E+00
  0.00000000E+00  0.00000000E+00  0.00000000E+00
  0.00000000E+00  0.00000000E+00  0.00000000E+00
  0.00000000E+00  0.00000000E+00  0.00000000E+00
  0.00000000E+00  0.00000000E+00  0.00000000E+00
  0.00000000E+00  0.00000000E+00  0.00000000E+00
  0.00000000E+00  0.00000000E+00  0.00000000E+00
  0.00000000E+00  0.00000000E+00  0.00000000E+00
  0.00000000E+00  0.00000000E+00  0.00000000E+00
  0.00000000E+00  0.00000000E+00  0.00000000E+00
  0.00000000E+00  0.00000000E+00  0.00000000E+00
  0.00000000E+00  0.00000000E+00  0.00000000E+00
  0.00000000E+00  0.00000000E+00  0.00000000E+00
  0.00000000E+00  0.00000000E+00  0.00000000E+00
  0.00000000E+00  0.00000000E+00  0.00000000E+00
  0.00000000E+00  0.00000000E+00  0.00000000E+00
  0.00000000E+00  0.00000000E+00  0.00000000E+00
  0.00000000E+00  0.00000000E+00  0.00000000E+00
  0.00000000E+00  0.00000000E+00  0.00000000E+00
  0.00000000E+00  0.00000000E+00  0.00000000E+00
  0.00000000E+00  0.00000000E+00  0.00000000E+00
  0.00000000E+00  0.00000000E+00  0.00000000E+00
  0.00000000E+00  0.00000000E+00  0.00000000E+00
  0.00000000E+00  0.00000000E+00  0.00000000E+00
  0.00000000E+00  0.00000000E+00  0.00000000E+00
  0.00000000E+00  0.00000000E+00  0.00000000E+00
  0.00000000E+00  0.00000000E+00  0.00000000E+00
  0.00000000E+00  0.00000000E+00  0.00000000E+00
  0.00000000E+00  0.00000000E+00  0.00000000E+00
  0.00000000E+00  0.00000000E+00  0.00000000E+00
  0.00000000E+00  0.00000000E+00  0.00000000E+00
