Mg4 Al4 Br20                            
   1.0000000000000000     
     7.2705603866175901    0.0000000000000000    0.0000000000000006
    -0.0000000000000006    6.5754133378917468    0.0000000000000005
     0.0000000000000005   -0.0000000000000000   21.4217774244522907
   Mg   Al   Br
     4     4    20
Direct
  0.9210788816882456  0.5901001001047916  0.5391189602815842
  0.4210788816882456  0.9098998998952084  0.4608810397184158
  0.0789211183117544  0.0901001001047916  0.9608810397184158
  0.5789211183117544  0.4098998998952084  0.0391189602815842
  0.1593080403924390  0.1315281195803095  0.6331584909087908
  0.6593080403924461  0.3684718804196905  0.3668415090912021
  0.8406919596075539  0.6315281195803095  0.8668415090912092
  0.3406919596075539  0.8684718804196905  0.1331584909087979
  0.1127862934363009  0.7313247172230604  0.4491571269835219
  0.6127862934363009  0.7686752827769396  0.5508428730164781
  0.8872137065636991  0.2313247172230604  0.0508428730164781
  0.3872137065636991  0.2686752827769396  0.9491571269835219
  0.6042694399903183  0.7208848826040892  0.3652648071589439
  0.1042694399903183  0.7791151173959108  0.6347351928410490
  0.3957305600096817  0.2208848826040892  0.1347351928410490
  0.8957305600096817  0.2791151173959108  0.8652648071589439
  0.8712908953800422  0.3003467113959033  0.6272831481799273
  0.3712908953800422  0.1996532886040967  0.3727168518200727
  0.1287091046199578  0.8003467113959033  0.8727168518200727
  0.6287091046199578  0.6996532886040967  0.1272831481799273
  0.3226846871500371  0.2230449346879979  0.7184047032868506
  0.8226846871500371  0.2769550653120021  0.2815952967131494
  0.6773153128499629  0.7230449346879979  0.7815952967131494
  0.1773153128499629  0.7769550653120021  0.2184047032868506
  0.8064754937145580  0.2710440145821593  0.4602705899895625
  0.3064754937145580  0.2289559854178407  0.5397294100104375
  0.1935245062854420  0.7710440145821593  0.0397294100104375
  0.6935245062854420  0.7289559854178407  0.9602705899895625

  0.00000000E+00  0.00000000E+00  0.00000000E+00
  0.00000000E+00  0.00000000E+00  0.00000000E+00
  0.00000000E+00  0.00000000E+00  0.00000000E+00
  0.00000000E+00  0.00000000E+00  0.00000000E+00
  0.00000000E+00  0.00000000E+00  0.00000000E+00
  0.00000000E+00  0.00000000E+00  0.00000000E+00
  0.00000000E+00  0.00000000E+00  0.00000000E+00
  0.00000000E+00  0.00000000E+00  0.00000000E+00
  0.00000000E+00  0.00000000E+00  0.00000000E+00
  0.00000000E+00  0.00000000E+00  0.00000000E+00
  0.00000000E+00  0.00000000E+00  0.00000000E+00
  0.00000000E+00  0.00000000E+00  0.00000000E+00
  0.00000000E+00  0.00000000E+00  0.00000000E+00
  0.00000000E+00  0.00000000E+00  0.00000000E+00
  0.00000000E+00  0.00000000E+00  0.00000000E+00
  0.00000000E+00  0.00000000E+00  0.00000000E+00
  0.00000000E+00  0.00000000E+00  0.00000000E+00
  0.00000000E+00  0.00000000E+00  0.00000000E+00
  0.00000000E+00  0.00000000E+00  0.00000000E+00
  0.00000000E+00  0.00000000E+00  0.00000000E+00
  0.00000000E+00  0.00000000E+00  0.00000000E+00
  0.00000000E+00  0.00000000E+00  0.00000000E+00
  0.00000000E+00  0.00000000E+00  0.00000000E+00
  0.00000000E+00  0.00000000E+00  0.00000000E+00
  0.00000000E+00  0.00000000E+00  0.00000000E+00
  0.00000000E+00  0.00000000E+00  0.00000000E+00
  0.00000000E+00  0.00000000E+00  0.00000000E+00
  0.00000000E+00  0.00000000E+00  0.00000000E+00
