Mg6 In10                                
   1.00000000000000     
    -4.7117958501973174   -4.1749218841182767    0.0034473375953332
    -4.7124588836735457    4.1756598716358697   -0.0045757186799541
    -0.0011871307342949    0.0096698219908092  -10.0552498435075179
   Mg   In
     6    10
Direct
  0.2608021431737910  0.2606823448127216  0.0000254664016666
  0.7392139217434277  0.7393072357336123  0.9999912795541093
  0.0279774676992943  0.9719870511548763  0.2498733216747269
  0.2607719987666997  0.2609452953855396  0.4999739208122520
  0.7391979764422629  0.7390541504167274  0.5000084197520138
  0.9720513609865478  0.0279062813447482  0.7501705558567338
  0.7649522160626248  0.2350765202129281  0.0163758774726332
  0.5129504537886831  0.0351328695580762  0.2499647355574979
  0.9648706788185777  0.4869943577422831  0.2498915386522214
  0.4526183031527111  0.5473832585564153  0.2501872947748183
  0.7651344328276934  0.2347467241265875  0.4835851528892974
  0.2348536941447392  0.7652527643333897  0.5165098508046171
  0.5474075371087181  0.4527526421395507  0.7498469278523388
  0.0351740363062945  0.5128906688108046  0.7501219662511360
  0.4870122182100758  0.9650898960788652  0.7500349980582115
  0.2351115607678835  0.7648979395928635  0.9836386936357258
 
  0.00000000E+00  0.00000000E+00  0.00000000E+00
  0.00000000E+00  0.00000000E+00  0.00000000E+00
  0.00000000E+00  0.00000000E+00  0.00000000E+00
  0.00000000E+00  0.00000000E+00  0.00000000E+00
  0.00000000E+00  0.00000000E+00  0.00000000E+00
  0.00000000E+00  0.00000000E+00  0.00000000E+00
  0.00000000E+00  0.00000000E+00  0.00000000E+00
  0.00000000E+00  0.00000000E+00  0.00000000E+00
  0.00000000E+00  0.00000000E+00  0.00000000E+00
  0.00000000E+00  0.00000000E+00  0.00000000E+00
  0.00000000E+00  0.00000000E+00  0.00000000E+00
  0.00000000E+00  0.00000000E+00  0.00000000E+00
  0.00000000E+00  0.00000000E+00  0.00000000E+00
  0.00000000E+00  0.00000000E+00  0.00000000E+00
  0.00000000E+00  0.00000000E+00  0.00000000E+00
  0.00000000E+00  0.00000000E+00  0.00000000E+00
