Ca40 Al4                                
   1.00000000000000     
     0.0000000000000000    9.7050172330015911    9.7050172330015911
     9.7050172330015911    0.0000000000000000    9.7050172330015911
     9.7050172330015911    9.7050172330015911    0.0000000000000000
   Ca   Al
    40     4
Direct
  0.6182813653953190  0.6182813653953190  0.8817186346046810
  0.3682813653953190  0.6317186346046810  0.6317186346046810
  0.6317186346046810  0.3682813653953190  0.3682813653953190
  0.3682813653953190  0.3682813653953190  0.6317186346046810
  0.3682813653953190  0.6317186346046810  0.3682813653953190
  0.6317186346046810  0.3682813653953190  0.6317186346046810
  0.8817186346046810  0.6182813653953190  0.8817186346046810
  0.8817186346046810  0.6182813653953190  0.6182813653953190
  0.6182813653953190  0.8817186346046810  0.8817186346046810
  0.6182813653953190  0.8817186346046810  0.6182813653953190
  0.6317186346046810  0.6317186346046810  0.3682813653953190
  0.8817186346046810  0.8817186346046810  0.6182813653953190
  0.7920920185080220  0.0699151102675444  0.3458998527164212
  0.4579079814919780  0.4579079814919780  0.1800848897324556
  0.1800848897324556  0.9041001472835788  0.4579079814919780
  0.4579079814919780  0.9041001472835788  0.4579079814919780
  0.9041001472835788  0.4579079814919780  0.1800848897324556
  0.9041001472835788  0.4579079814919780  0.4579079814919780
  0.1800848897324556  0.4579079814919780  0.4579079814919780
  0.3458998527164212  0.0699151102675444  0.7920920185080220
  0.7920920185080220  0.0699151102675444  0.7920920185080220
  0.0699151102675444  0.7920920185080220  0.3458998527164212
  0.7920920185080220  0.7920920185080220  0.3458998527164212
  0.0699151102675444  0.3458998527164212  0.7920920185080220
  0.3458998527164212  0.7920920185080220  0.0699151102675444
  0.7920920185080220  0.7920920185080220  0.0699151102675444
  0.7920920185080220  0.3458998527164212  0.7920920185080220
  0.1800848897324556  0.4579079814919780  0.9041001472835788
  0.4579079814919780  0.4579079814919780  0.9041001472835788
  0.4579079814919780  0.9041001472835788  0.1800848897324556
  0.4579079814919780  0.1800848897324556  0.9041001472835788
  0.9041001472835788  0.1800848897324556  0.4579079814919780
  0.4579079814919780  0.1800848897324556  0.4579079814919780
  0.3458998527164212  0.7920920185080220  0.7920920185080220
  0.0699151102675444  0.7920920185080220  0.7920920185080220
  0.7920920185080220  0.3458998527164212  0.0699151102675444
  0.1250000000000000  0.1250000000000000  0.1250000000000000
  0.6250000000000000  0.1250000000000000  0.1250000000000000
  0.1250000000000000  0.1250000000000000  0.6250000000000000
  0.1250000000000000  0.6250000000000000  0.1250000000000000
  0.6250000000000000  0.6250000000000000  0.6250000000000000
  0.1250000000000000  0.6250000000000000  0.6250000000000000
  0.6250000000000000  0.6250000000000000  0.1250000000000000
  0.6250000000000000  0.1250000000000000  0.6250000000000000
 
  0.00000000E+00  0.00000000E+00  0.00000000E+00
  0.00000000E+00  0.00000000E+00  0.00000000E+00
  0.00000000E+00  0.00000000E+00  0.00000000E+00
  0.00000000E+00  0.00000000E+00  0.00000000E+00
  0.00000000E+00  0.00000000E+00  0.00000000E+00
  0.00000000E+00  0.00000000E+00  0.00000000E+00
  0.00000000E+00  0.00000000E+00  0.00000000E+00
  0.00000000E+00  0.00000000E+00  0.00000000E+00
  0.00000000E+00  0.00000000E+00  0.00000000E+00
  0.00000000E+00  0.00000000E+00  0.00000000E+00
  0.00000000E+00  0.00000000E+00  0.00000000E+00
  0.00000000E+00  0.00000000E+00  0.00000000E+00
  0.00000000E+00  0.00000000E+00  0.00000000E+00
  0.00000000E+00  0.00000000E+00  0.00000000E+00
  0.00000000E+00  0.00000000E+00  0.00000000E+00
  0.00000000E+00  0.00000000E+00  0.00000000E+00
  0.00000000E+00  0.00000000E+00  0.00000000E+00
  0.00000000E+00  0.00000000E+00  0.00000000E+00
  0.00000000E+00  0.00000000E+00  0.00000000E+00
  0.00000000E+00  0.00000000E+00  0.00000000E+00
  0.00000000E+00  0.00000000E+00  0.00000000E+00
  0.00000000E+00  0.00000000E+00  0.00000000E+00
  0.00000000E+00  0.00000000E+00  0.00000000E+00
  0.00000000E+00  0.00000000E+00  0.00000000E+00
  0.00000000E+00  0.00000000E+00  0.00000000E+00
  0.00000000E+00  0.00000000E+00  0.00000000E+00
  0.00000000E+00  0.00000000E+00  0.00000000E+00
  0.00000000E+00  0.00000000E+00  0.00000000E+00
  0.00000000E+00  0.00000000E+00  0.00000000E+00
  0.00000000E+00  0.00000000E+00  0.00000000E+00
  0.00000000E+00  0.00000000E+00  0.00000000E+00
  0.00000000E+00  0.00000000E+00  0.00000000E+00
  0.00000000E+00  0.00000000E+00  0.00000000E+00
  0.00000000E+00  0.00000000E+00  0.00000000E+00
  0.00000000E+00  0.00000000E+00  0.00000000E+00
  0.00000000E+00  0.00000000E+00  0.00000000E+00
  0.00000000E+00  0.00000000E+00  0.00000000E+00
  0.00000000E+00  0.00000000E+00  0.00000000E+00
  0.00000000E+00  0.00000000E+00  0.00000000E+00
  0.00000000E+00  0.00000000E+00  0.00000000E+00
  0.00000000E+00  0.00000000E+00  0.00000000E+00
  0.00000000E+00  0.00000000E+00  0.00000000E+00
  0.00000000E+00  0.00000000E+00  0.00000000E+00
  0.00000000E+00  0.00000000E+00  0.00000000E+00
