Mg4 Al4 Cl12                            
   1.00000000000000     
     9.7137636782310643    0.0000000000000000   -0.0019758250982987
     0.0000000000000000    3.6409479488579710    0.0000000000000000
    -0.0033321032663893    0.0000000000000000   16.0115334807642924
   Cl   Al   Mg
    12     4     4
Direct
  0.1925291975317123  0.2500000000000000  0.9874567393315559
  0.4722425711293354  0.7500000000000000  0.0903695516414942
  0.7496051573911373  0.2500000000000000  0.1948978322553430
  0.2493089624843350  0.2500000000000000  0.3052085749014068
  0.9721068109513098  0.7500000000000000  0.4096731123068622
  0.6924964501720936  0.2500000000000000  0.5125231453432590
  0.3074154798011932  0.7500000000000000  0.4875097027722362
  0.0278240969952748  0.2500000000000000  0.5903716656251277
  0.7505629985291122  0.7500000000000000  0.6948231389648498
  0.2503993750637150  0.7500000000000000  0.8051467165744128
  0.5277659415814000  0.2500000000000000  0.9096710560026580
  0.8074719530512482  0.7500000000000000  0.0125682367553779
  0.9410742239623247  0.7500000000000000  0.1599451389104942
  0.4407933625653158  0.7500000000000000  0.3401750471835356
  0.5590481657317667  0.2500000000000000  0.6598285237348946
  0.0589296167167817  0.2500000000000000  0.8400596037103654
  0.6419077400604039  0.2500000000000000  0.0529279027078005
  0.1417881374102237  0.2500000000000000  0.4471466820932406
  0.8581255349942936  0.7500000000000000  0.5529055576193045
  0.3581042238770138  0.7500000000000000  0.9471220715657722
 
  0.00000000E+00  0.00000000E+00  0.00000000E+00
  0.00000000E+00  0.00000000E+00  0.00000000E+00
  0.00000000E+00  0.00000000E+00  0.00000000E+00
  0.00000000E+00  0.00000000E+00  0.00000000E+00
  0.00000000E+00  0.00000000E+00  0.00000000E+00
  0.00000000E+00  0.00000000E+00  0.00000000E+00
  0.00000000E+00  0.00000000E+00  0.00000000E+00
  0.00000000E+00  0.00000000E+00  0.00000000E+00
  0.00000000E+00  0.00000000E+00  0.00000000E+00
  0.00000000E+00  0.00000000E+00  0.00000000E+00
  0.00000000E+00  0.00000000E+00  0.00000000E+00
  0.00000000E+00  0.00000000E+00  0.00000000E+00
  0.00000000E+00  0.00000000E+00  0.00000000E+00
  0.00000000E+00  0.00000000E+00  0.00000000E+00
  0.00000000E+00  0.00000000E+00  0.00000000E+00
  0.00000000E+00  0.00000000E+00  0.00000000E+00
  0.00000000E+00  0.00000000E+00  0.00000000E+00
  0.00000000E+00  0.00000000E+00  0.00000000E+00
  0.00000000E+00  0.00000000E+00  0.00000000E+00
  0.00000000E+00  0.00000000E+00  0.00000000E+00
