Mg4 In6                                 
   1.00000000000000     
    -6.4993037323097598    0.4502343709261888   -0.3630317834204299
     3.6449430937339002   -5.3072378931733892    0.3912724974088620
    -2.8423853303206590    1.5688788069832742    7.2749490195830946
   Mg   In
     4     6
Direct
  0.2646259475718438  0.5599105855970663  0.0496692228905644
  0.0605953258376957  0.7660699703922873  0.4522939844958387
  0.9394056975246698  0.2339311732848373  0.5476252282682168
  0.7353743903804357  0.4400889474794596  0.9502500773744416
  0.1488213089914723  0.0359121010762067  0.1515442718252444
  0.6786566169993620  0.1789873378086781  0.2493362693922592
  0.5361587854082757  0.6478018210452916  0.3475912155891763
  0.4638414132974091  0.3521966804695467  0.6523307856540868
  0.3213424111779304  0.8210118156653792  0.7505842096716719
  0.8511781028109056  0.9640895671812473  0.8483747348385222
 
  0.00000000E+00  0.00000000E+00  0.00000000E+00
  0.00000000E+00  0.00000000E+00  0.00000000E+00
  0.00000000E+00  0.00000000E+00  0.00000000E+00
  0.00000000E+00  0.00000000E+00  0.00000000E+00
  0.00000000E+00  0.00000000E+00  0.00000000E+00
  0.00000000E+00  0.00000000E+00  0.00000000E+00
  0.00000000E+00  0.00000000E+00  0.00000000E+00
  0.00000000E+00  0.00000000E+00  0.00000000E+00
  0.00000000E+00  0.00000000E+00  0.00000000E+00
  0.00000000E+00  0.00000000E+00  0.00000000E+00
