Mg4 B4 I20                              
   1.0000000000000000     
     0.0000000000000000   10.5036875578143114   -3.7753618631522756
    13.0851476931755997    0.0000000000000000    0.0000000000000000
     0.0000000000000000    4.1216191427449305  -13.6253079754504380
   Mg   B    I 
     4     4    20
Direct
  0.4262299481968057  0.2518352581247569  0.4747012931145491
  0.5737700518031943  0.7518352581247569  0.5252987068854509
  0.7799720269489825  0.0090302917619383  0.2328130564632502
  0.2200279730510175  0.5090302917619383  0.7671869435367427
  0.5684892899338152  0.9359374940627205  0.0719214023248824
  0.4315107100661848  0.4359374940627205  0.9280785976751176
  0.9348678698605255  0.5331173278575747  0.3855900995206269
  0.0651321301394745  0.0331173278575747  0.6144099004793731
  0.1527226787399414  0.9846117272825410  0.7033336186853276
  0.1314532071801082  0.4727205333019668  0.3549445618123244
  0.8685467928198918  0.9727205333019739  0.6450554381876614
  0.7227442562511897  0.8144469226987781  0.0013949640475133
  0.9435023442386310  0.5518673997387893  0.9443198575622134
  0.5952934800519856  0.0672830622751519  0.1527736709398013
  0.6167271656074504  0.4438414432523530  0.9332258171867807
  0.7248313308335668  0.8034133942529991  0.2929868739271626
  0.0564976557613690  0.0518673997387822  0.0556801424377866
  0.8196818835489097  0.6514107733705785  0.5188683218268366
  0.4047065199480144  0.5672830622751661  0.8472263290601987
  0.8472773212600515  0.4846117272825410  0.2966663813146795
  0.4938354614806499  0.8626616228230333  0.7090337645180540
  0.6367848613630187  0.1154217291968180  0.4416915069770724
  0.1803181164510903  0.1514107733705785  0.4811316781731563
  0.3832728343925567  0.9438414432523601  0.0667741828132122
  0.2772557437488032  0.3144469226987709  0.9986050359524796
  0.3632151386369884  0.6154217291968180  0.5583084930229276
  0.2751686691664332  0.3034133942529920  0.7070131260728374
  0.5061645385193501  0.3626616228230333  0.2909662354819460

  0.00000000E+00  0.00000000E+00  0.00000000E+00
  0.00000000E+00  0.00000000E+00  0.00000000E+00
  0.00000000E+00  0.00000000E+00  0.00000000E+00
  0.00000000E+00  0.00000000E+00  0.00000000E+00
  0.00000000E+00  0.00000000E+00  0.00000000E+00
  0.00000000E+00  0.00000000E+00  0.00000000E+00
  0.00000000E+00  0.00000000E+00  0.00000000E+00
  0.00000000E+00  0.00000000E+00  0.00000000E+00
  0.00000000E+00  0.00000000E+00  0.00000000E+00
  0.00000000E+00  0.00000000E+00  0.00000000E+00
  0.00000000E+00  0.00000000E+00  0.00000000E+00
  0.00000000E+00  0.00000000E+00  0.00000000E+00
  0.00000000E+00  0.00000000E+00  0.00000000E+00
  0.00000000E+00  0.00000000E+00  0.00000000E+00
  0.00000000E+00  0.00000000E+00  0.00000000E+00
  0.00000000E+00  0.00000000E+00  0.00000000E+00
  0.00000000E+00  0.00000000E+00  0.00000000E+00
  0.00000000E+00  0.00000000E+00  0.00000000E+00
  0.00000000E+00  0.00000000E+00  0.00000000E+00
  0.00000000E+00  0.00000000E+00  0.00000000E+00
  0.00000000E+00  0.00000000E+00  0.00000000E+00
  0.00000000E+00  0.00000000E+00  0.00000000E+00
  0.00000000E+00  0.00000000E+00  0.00000000E+00
  0.00000000E+00  0.00000000E+00  0.00000000E+00
  0.00000000E+00  0.00000000E+00  0.00000000E+00
  0.00000000E+00  0.00000000E+00  0.00000000E+00
  0.00000000E+00  0.00000000E+00  0.00000000E+00
  0.00000000E+00  0.00000000E+00  0.00000000E+00
