Mg16 Tl12 Br1                           
   1.0000000000000000     
     7.9006047179516115   -4.5418826165413346    3.2260703160134536
     0.0974714523565118    9.3658703823523997    3.3854860981349728
    -8.0581022617193359   -4.7460603286706471    3.3244535169359106
   Tl   Br   Mg
    12     1    16
Direct
  0.7833654259737699  0.5296308502810803  0.9995661999526249
  0.6447409696997468  0.7876230253488430  0.9996191281940980
  0.3706169002413588  0.3983264611184225  0.1979238879057448
  0.1712613680752710  0.8042466224375460  0.1993428373233499
  0.8570047078680432  0.2118392684126604  0.2114487632847286
  0.3671931150662218  0.1947977125360651  0.3942112394437274
  0.2518051916220543  0.4673341541399267  0.4679370428878684
  0.7844373276596954  0.0001451820107263  0.5315323275066390
  0.9725019893005040  0.8002767183836212  0.6044548213442553
  0.6474650535530273  0.0010933694133826  0.7886053644056616
  0.9717951662109314  0.6046687870940133  0.8002960475977616
  0.1729537901579263  0.2005170913607373  0.8037014734066616
  0.3512012534133646  0.9995830988246084  0.9994328262079719
  0.5586344799574547  0.2546882190761721  0.0001316383064847
  0.3065998712613904  0.5948937684647859  0.0001016139433361
  0.0082003075111530  0.9990328655395047  0.0001891209190887
  0.9963834549595703  0.3360429864446246  0.0010895105662598
  0.6801093926125930  0.6590169487092084  0.2575777806680364
  0.5582914574788091  0.9998436054726056  0.2553880182872206
  0.0222021900824103  0.5997790428538110  0.3419236350812724
  0.9947010604589650  0.0000083034561627  0.3354707782098245
  0.4223872110452049  0.7426540722411161  0.4014911803590806
  0.7117567524770081  0.4053533312441644  0.4049677785779977
  0.3067582909091158  0.0001763506113690  0.5952316210801172
  0.0212437422276111  0.3416778743816806  0.5996094364547631
  0.6589740015634575  0.6637841089337542  0.6649807009315580
  0.6804301687144303  0.2579737047849591  0.6578728714349751
  0.3044838876082991  0.7450585520645987  0.7440061465196308
  0.4217014722906285  0.3999349243598402  0.7418982091992348

  0.00000000E+00  0.00000000E+00  0.00000000E+00
  0.00000000E+00  0.00000000E+00  0.00000000E+00
  0.00000000E+00  0.00000000E+00  0.00000000E+00
  0.00000000E+00  0.00000000E+00  0.00000000E+00
  0.00000000E+00  0.00000000E+00  0.00000000E+00
  0.00000000E+00  0.00000000E+00  0.00000000E+00
  0.00000000E+00  0.00000000E+00  0.00000000E+00
  0.00000000E+00  0.00000000E+00  0.00000000E+00
  0.00000000E+00  0.00000000E+00  0.00000000E+00
  0.00000000E+00  0.00000000E+00  0.00000000E+00
  0.00000000E+00  0.00000000E+00  0.00000000E+00
  0.00000000E+00  0.00000000E+00  0.00000000E+00
  0.00000000E+00  0.00000000E+00  0.00000000E+00
  0.00000000E+00  0.00000000E+00  0.00000000E+00
  0.00000000E+00  0.00000000E+00  0.00000000E+00
  0.00000000E+00  0.00000000E+00  0.00000000E+00
  0.00000000E+00  0.00000000E+00  0.00000000E+00
  0.00000000E+00  0.00000000E+00  0.00000000E+00
  0.00000000E+00  0.00000000E+00  0.00000000E+00
  0.00000000E+00  0.00000000E+00  0.00000000E+00
  0.00000000E+00  0.00000000E+00  0.00000000E+00
  0.00000000E+00  0.00000000E+00  0.00000000E+00
  0.00000000E+00  0.00000000E+00  0.00000000E+00
  0.00000000E+00  0.00000000E+00  0.00000000E+00
  0.00000000E+00  0.00000000E+00  0.00000000E+00
  0.00000000E+00  0.00000000E+00  0.00000000E+00
  0.00000000E+00  0.00000000E+00  0.00000000E+00
  0.00000000E+00  0.00000000E+00  0.00000000E+00
  0.00000000E+00  0.00000000E+00  0.00000000E+00
