B6 Br4                                  
   1.00000000000000     
    -4.0199133354145005    0.1847677826904749   -0.0197719017748666
     2.2043039531068467   -2.9949236519239038    0.1506899769135129
    -3.4496129511642342    0.9699834309005161   16.5887333940535555
   Br   B 
     4     6
Direct
  0.1597146804370695  0.4434130459924788  0.1077019625967921
  0.9251034483813996  0.9460252439194718  0.3869474460283584
  0.0744937968247825  0.0537839335074963  0.6129765161575378
  0.8408648856633150  0.5570763896652551  0.8922137894167435
  0.2482608839864326  0.2402208274305622  0.2705503779577469
  0.0650168060737357  0.4442314963638054  0.2228223797343176
  0.8016663433261755  0.6492317077470133  0.2706241937434797
  0.1982190648388169  0.3506441815483328  0.7292918779046147
  0.9350343477225493  0.5557686507009834  0.7770982716579127
  0.7516257427457376  0.7596045231246080  0.7293731848025047
 
  0.00000000E+00  0.00000000E+00  0.00000000E+00
  0.00000000E+00  0.00000000E+00  0.00000000E+00
  0.00000000E+00  0.00000000E+00  0.00000000E+00
  0.00000000E+00  0.00000000E+00  0.00000000E+00
  0.00000000E+00  0.00000000E+00  0.00000000E+00
  0.00000000E+00  0.00000000E+00  0.00000000E+00
  0.00000000E+00  0.00000000E+00  0.00000000E+00
  0.00000000E+00  0.00000000E+00  0.00000000E+00
  0.00000000E+00  0.00000000E+00  0.00000000E+00
  0.00000000E+00  0.00000000E+00  0.00000000E+00
