Ba1 B2 Cl8                              
   1.00000000000000     
     3.1890444074560778    7.6958400044512825    0.0610637283345058
    -3.1890444074560778    7.6958400044512825    0.0610637283345058
     0.0000000000000000    2.2399985979082238    5.7348555404812149
   Ba   B    Cl
     1     2     8
Direct
  0.0000000000000000  0.0000000000000000  0.0000000000000000
  0.3464944618562456  0.3464944618562456  0.7003181948423247
  0.6535055381437544  0.6535055381437544  0.2996818051576753
  0.6144283848588827  0.1311821661859014  0.5222778755941135
  0.7805465379900909  0.7805465379900909  0.1041413525451134
  0.1311821661859014  0.6144283848588827  0.5222778755941135
  0.4146504859127447  0.4146504859127447  0.9001329384312839
  0.8688178338140986  0.3855716151411173  0.4777221244058865
  0.3855716151411173  0.8688178338140986  0.4777221244058865
  0.2194534620099091  0.2194534620099091  0.8958586474548866
  0.5853495140872553  0.5853495140872553  0.0998670615687161
 
  0.00000000E+00  0.00000000E+00  0.00000000E+00
  0.00000000E+00  0.00000000E+00  0.00000000E+00
  0.00000000E+00  0.00000000E+00  0.00000000E+00
  0.00000000E+00  0.00000000E+00  0.00000000E+00
  0.00000000E+00  0.00000000E+00  0.00000000E+00
  0.00000000E+00  0.00000000E+00  0.00000000E+00
  0.00000000E+00  0.00000000E+00  0.00000000E+00
  0.00000000E+00  0.00000000E+00  0.00000000E+00
  0.00000000E+00  0.00000000E+00  0.00000000E+00
  0.00000000E+00  0.00000000E+00  0.00000000E+00
  0.00000000E+00  0.00000000E+00  0.00000000E+00
