Al6 F4                                  
   1.00000000000000     
    -6.2835543865983468   -0.0914527151459368   -0.5443028201723009
     3.2354883841624718   -3.4484640354064946    0.5543474287567960
    -2.4949200627868753    0.6557057514497273    7.4385777213361859
   F    Al
     4     6
Direct
  0.4823905210689219  0.0615370894549585  0.0016115805193095
  0.3788751256511489  0.1655714062980564  0.3767619042829082
  0.8816425834892598  0.6051726427854263  0.5435819120423133
  0.8419687743403372  0.1347636322760692  0.7323604969045050
  0.0218108699661883  0.7308655512098667  0.3099585964516862
  0.4248012714818401  0.5979321017154149  0.3640131658994719
  0.9430639927887228  0.1286187386649544  0.1859625262538032
  0.1256937806021625  0.6224263929469700  0.6505435626246268
  0.2606170092872375  0.1125717235023913  0.9047745425930813
  0.6391360713242022  0.8405407211458780  0.9308317124283221
 
  0.00000000E+00  0.00000000E+00  0.00000000E+00
  0.00000000E+00  0.00000000E+00  0.00000000E+00
  0.00000000E+00  0.00000000E+00  0.00000000E+00
  0.00000000E+00  0.00000000E+00  0.00000000E+00
  0.00000000E+00  0.00000000E+00  0.00000000E+00
  0.00000000E+00  0.00000000E+00  0.00000000E+00
  0.00000000E+00  0.00000000E+00  0.00000000E+00
  0.00000000E+00  0.00000000E+00  0.00000000E+00
  0.00000000E+00  0.00000000E+00  0.00000000E+00
  0.00000000E+00  0.00000000E+00  0.00000000E+00
