GaBr3                                   
   1.00000000000000     
     7.7507689451910666   -0.1016001734122629    0.2717711203646305
    -3.9109028377373662    6.9398075520110556   -0.1677519336806644
    -3.4744399837167372   -2.3738046642709105    6.5325170210490260
   Br   Ga
     6     2
Direct
  0.6396569382241708  0.8273815606948176  0.1980634349964419
  0.2167520243787706  0.0003503771155380  0.2126838164260931
  0.1118287963008768  0.4214054594555066  0.3115860406040269
  0.8883452287858020  0.5786146724427539  0.6884260466582148
  0.7833373327676014  0.9996353337000059  0.7872959249961298
  0.3604672933044313  0.1726084807865647  0.8019450892985915
  0.9265940617953135  0.0772387447152099  0.1550993979882591
  0.0735183244430289  0.9227653710895893  0.8449002490322286
 
  0.00000000E+00  0.00000000E+00  0.00000000E+00
  0.00000000E+00  0.00000000E+00  0.00000000E+00
  0.00000000E+00  0.00000000E+00  0.00000000E+00
  0.00000000E+00  0.00000000E+00  0.00000000E+00
  0.00000000E+00  0.00000000E+00  0.00000000E+00
  0.00000000E+00  0.00000000E+00  0.00000000E+00
  0.00000000E+00  0.00000000E+00  0.00000000E+00
  0.00000000E+00  0.00000000E+00  0.00000000E+00
