Sr1                                     
   1.00000000000000     
     0.0000000000000000    0.0000000000000000    4.6080149909056196
     9.2662320537372285    5.3498609972568714    0.0000000000000000
    -9.2662320537372285    5.3498609972568714    0.0000000000000000
   Sr
     1
Direct
  0.8380000000000010  0.3333330000000032  0.6666669999999968
 
  0.00000000E+00  0.00000000E+00  0.00000000E+00
