Ca10 Tl4 F32                            
   1.0000000000000000     
     3.8346801620142998   -5.4492843288256907    0.0000000000000000
     3.8346801620142998    5.4492843288256907    0.0000000000000000
     0.0000000000000000    0.0000000000000000   15.2416799862311798
   Ca   Tl   F 
    10     4    32
Direct
  0.0000000000000000  0.0000000000000000  0.7436491867440580
  0.0000000000000000  0.0000000000000000  0.2563508132559420
  0.5000000000000000  0.5000000000000000  0.7563508132559420
  0.5000000000000000  0.5000000000000000  0.2436491867440580
  0.5000000000000000  0.5000000000000000  0.5000000000000000
  0.0000000000000000  0.0000000000000000  0.0000000000000000
  0.0000000000000000  0.5000000000000000  0.6207751782388513
  0.5000000000000000  0.0000000000000000  0.3792248217611416
  0.5000000000000000  0.0000000000000000  0.8792248217611487
  0.0000000000000000  0.5000000000000000  0.1207751782388513
  0.5000000000000000  0.0000000000000000  0.6220646804360399
  0.0000000000000000  0.5000000000000000  0.3779353195639601
  0.0000000000000000  0.5000000000000000  0.8779353195639601
  0.5000000000000000  0.0000000000000000  0.1220646804360399
  0.3788981634035338  0.1267580145211582  0.7490518173850660
  0.6211018365964662  0.8732419854788418  0.7490518173850660
  0.1267580145211582  0.3788981634035338  0.2509481826149340
  0.8732419854788418  0.6211018365964662  0.2509481826149340
  0.1211018365964662  0.3732419854788418  0.7509481826149340
  0.8788981634035338  0.6267580145211582  0.7509481826149340
  0.3732419854788418  0.1211018365964662  0.2490518173850660
  0.6267580145211582  0.8788981634035338  0.2490518173850660
  0.1459324891612823  0.8704969058767773  0.6294710818195881
  0.8540675108387177  0.1295030941232227  0.6294710818195881
  0.8704969058767773  0.1459324891612823  0.3705289181804119
  0.1295030941232227  0.8540675108387177  0.3705289181804119
  0.3540675108387177  0.6295030941232227  0.8705289181804119
  0.6459324891612823  0.3704969058767773  0.8705289181804119
  0.6368774405792479  0.8992269209207322  0.0032225549685378
  0.3631225594207450  0.1007730790792607  0.0032225549685378
  0.8992269209207322  0.6368774405792479  0.9967774450314622
  0.1007730790792607  0.3631225594207450  0.9967774450314622
  0.8631225594207521  0.6007730790792678  0.4967774450314622
  0.1368774405792550  0.3992269209207393  0.4967774450314622
  0.6007730790792678  0.8631225594207521  0.5032225549685378
  0.3992269209207393  0.1368774405792550  0.5032225549685378
  0.1206905608711182  0.8770832207812020  0.1298798663409926
  0.8793094391288818  0.1229167792187980  0.1298798663409926
  0.8770832207812020  0.1206905608711182  0.8701201336590074
  0.1229167792187980  0.8793094391288818  0.8701201336590074
  0.3793094391288818  0.6229167792187980  0.3701201336590074
  0.6206905608711182  0.3770832207812020  0.3701201336590074
  0.6229167792187980  0.3793094391288818  0.6298798663409926
  0.3770832207812020  0.6206905608711182  0.6298798663409926
  0.3704969058767773  0.6459324891612823  0.1294710818195881
  0.6295030941232227  0.3540675108387177  0.1294710818195881

  0.00000000E+00  0.00000000E+00  0.00000000E+00
  0.00000000E+00  0.00000000E+00  0.00000000E+00
  0.00000000E+00  0.00000000E+00  0.00000000E+00
  0.00000000E+00  0.00000000E+00  0.00000000E+00
  0.00000000E+00  0.00000000E+00  0.00000000E+00
  0.00000000E+00  0.00000000E+00  0.00000000E+00
  0.00000000E+00  0.00000000E+00  0.00000000E+00
  0.00000000E+00  0.00000000E+00  0.00000000E+00
  0.00000000E+00  0.00000000E+00  0.00000000E+00
  0.00000000E+00  0.00000000E+00  0.00000000E+00
  0.00000000E+00  0.00000000E+00  0.00000000E+00
  0.00000000E+00  0.00000000E+00  0.00000000E+00
  0.00000000E+00  0.00000000E+00  0.00000000E+00
  0.00000000E+00  0.00000000E+00  0.00000000E+00
  0.00000000E+00  0.00000000E+00  0.00000000E+00
  0.00000000E+00  0.00000000E+00  0.00000000E+00
  0.00000000E+00  0.00000000E+00  0.00000000E+00
  0.00000000E+00  0.00000000E+00  0.00000000E+00
  0.00000000E+00  0.00000000E+00  0.00000000E+00
  0.00000000E+00  0.00000000E+00  0.00000000E+00
  0.00000000E+00  0.00000000E+00  0.00000000E+00
  0.00000000E+00  0.00000000E+00  0.00000000E+00
  0.00000000E+00  0.00000000E+00  0.00000000E+00
  0.00000000E+00  0.00000000E+00  0.00000000E+00
  0.00000000E+00  0.00000000E+00  0.00000000E+00
  0.00000000E+00  0.00000000E+00  0.00000000E+00
  0.00000000E+00  0.00000000E+00  0.00000000E+00
  0.00000000E+00  0.00000000E+00  0.00000000E+00
  0.00000000E+00  0.00000000E+00  0.00000000E+00
  0.00000000E+00  0.00000000E+00  0.00000000E+00
  0.00000000E+00  0.00000000E+00  0.00000000E+00
  0.00000000E+00  0.00000000E+00  0.00000000E+00
  0.00000000E+00  0.00000000E+00  0.00000000E+00
  0.00000000E+00  0.00000000E+00  0.00000000E+00
  0.00000000E+00  0.00000000E+00  0.00000000E+00
  0.00000000E+00  0.00000000E+00  0.00000000E+00
  0.00000000E+00  0.00000000E+00  0.00000000E+00
  0.00000000E+00  0.00000000E+00  0.00000000E+00
  0.00000000E+00  0.00000000E+00  0.00000000E+00
  0.00000000E+00  0.00000000E+00  0.00000000E+00
  0.00000000E+00  0.00000000E+00  0.00000000E+00
  0.00000000E+00  0.00000000E+00  0.00000000E+00
  0.00000000E+00  0.00000000E+00  0.00000000E+00
  0.00000000E+00  0.00000000E+00  0.00000000E+00
  0.00000000E+00  0.00000000E+00  0.00000000E+00
  0.00000000E+00  0.00000000E+00  0.00000000E+00
