Ca2 Tl2 Br10                            
   1.00000000000000     
     6.5519823814893989   -1.3533569600449606    3.1471989730492012
     0.1153547009040475    6.6893005997630928    3.1471991392782166
     0.2876355880162500    0.2302006540655046   12.1618087084927318
   Ca   Tl   Br
     2     2    10
Direct
  0.2992770000236078  0.7007229980595895  0.2500000000122355
  0.7007229999763922  0.2992770019404105  0.7499999999877645
  0.0000000000000000  0.0000000000000000  0.5000000000000000
  0.0000000000000000  0.0000000000000000  0.0000000000000000
  0.6395278620794471  0.7347974878914414  0.6604819321358306
  0.2652025103958096  0.3604711368656197  0.8395180665479316
  0.3604711379205554  0.2652025121085586  0.3395190678641740
  0.7347974896041904  0.6395278631343828  0.1604819334520684
  0.9825708765412742  0.0174291248924447  0.7500000001939071
  0.0174291234587187  0.9825708751075553  0.2499999998060929
  0.6559422745725811  0.1891871093576256  0.0235474614977136
  0.8108128906130929  0.3440577261798552  0.4764525385459635
  0.3440577254274189  0.8108128906423744  0.9764525385022935
  0.1891871093869071  0.6559422738201448  0.5235474614540365
 
  0.00000000E+00  0.00000000E+00  0.00000000E+00
  0.00000000E+00  0.00000000E+00  0.00000000E+00
  0.00000000E+00  0.00000000E+00  0.00000000E+00
  0.00000000E+00  0.00000000E+00  0.00000000E+00
  0.00000000E+00  0.00000000E+00  0.00000000E+00
  0.00000000E+00  0.00000000E+00  0.00000000E+00
  0.00000000E+00  0.00000000E+00  0.00000000E+00
  0.00000000E+00  0.00000000E+00  0.00000000E+00
  0.00000000E+00  0.00000000E+00  0.00000000E+00
  0.00000000E+00  0.00000000E+00  0.00000000E+00
  0.00000000E+00  0.00000000E+00  0.00000000E+00
  0.00000000E+00  0.00000000E+00  0.00000000E+00
  0.00000000E+00  0.00000000E+00  0.00000000E+00
  0.00000000E+00  0.00000000E+00  0.00000000E+00
