Sr4 Al4 Br20                            
   1.0000000000000000     
     0.0000000000000000    8.8378102618337824   -0.0964831417739110
    10.6476459973620852    0.0000000000000000    0.0000000000000000
     0.0000000000000000   -0.1238369080648279  -12.4465772524161657
   Sr   Al   Br
     4     4    20
Direct
  0.5281971853752410  0.3473609180469737  0.2021057339254426
  0.4718028146247661  0.8473609180469666  0.7978942660745574
  0.0281942029576996  0.0094176471623300  0.2981975652422406
  0.9718057970423004  0.5094176471623442  0.7018024347577594
  0.2774611935418250  0.7554695123277781  0.1437043928701343
  0.7225388064581750  0.2554695123277781  0.8562956071298657
  0.7773262278494713  0.6013004114393894  0.3563731322718908
  0.2226737721505287  0.1013004114393894  0.6436268677281092
  0.4407665299213335  0.0008741612170695  0.5804044328927702
  0.9905351910286697  0.5253917459745168  0.4462403900832328
  0.0094648089713303  0.0253917459745168  0.5537596099167601
  0.4906103313192745  0.8313020141824907  0.0534654475358565
  0.7928092045560149  0.5470480923224130  0.1750229531468221
  0.0593852354382491  0.8557922550191321  0.0807236306293149
  0.2427949198479809  0.3178780972428044  0.6268552360358015
  0.2930005490608210  0.8098642745447791  0.3249482950039777
  0.2071907954439851  0.0470480923224130  0.8249770468531779
  0.7371551948860002  0.7048740131692242  0.7211344622578935
  0.9406147645617509  0.3557922550191392  0.9192763693706851
  0.5592334700786665  0.5008741612170766  0.4195955671072298
  0.7425218723553044  0.0389252618354732  0.8730066699543144
  0.7627698151041997  0.1521005755156182  0.2220007410113780
  0.2628448051139998  0.2048740131692242  0.2788655377421065
  0.7572050801520263  0.8178780972428044  0.3731447639641985
  0.5093896686807255  0.3313020141824907  0.9465345524641364
  0.2372301848958003  0.6521005755156182  0.7779992589886220
  0.7069994509391790  0.3098642745447791  0.6750517049960223
  0.2574781276446956  0.5389252618354732  0.1269933300456856

  0.00000000E+00  0.00000000E+00  0.00000000E+00
  0.00000000E+00  0.00000000E+00  0.00000000E+00
  0.00000000E+00  0.00000000E+00  0.00000000E+00
  0.00000000E+00  0.00000000E+00  0.00000000E+00
  0.00000000E+00  0.00000000E+00  0.00000000E+00
  0.00000000E+00  0.00000000E+00  0.00000000E+00
  0.00000000E+00  0.00000000E+00  0.00000000E+00
  0.00000000E+00  0.00000000E+00  0.00000000E+00
  0.00000000E+00  0.00000000E+00  0.00000000E+00
  0.00000000E+00  0.00000000E+00  0.00000000E+00
  0.00000000E+00  0.00000000E+00  0.00000000E+00
  0.00000000E+00  0.00000000E+00  0.00000000E+00
  0.00000000E+00  0.00000000E+00  0.00000000E+00
  0.00000000E+00  0.00000000E+00  0.00000000E+00
  0.00000000E+00  0.00000000E+00  0.00000000E+00
  0.00000000E+00  0.00000000E+00  0.00000000E+00
  0.00000000E+00  0.00000000E+00  0.00000000E+00
  0.00000000E+00  0.00000000E+00  0.00000000E+00
  0.00000000E+00  0.00000000E+00  0.00000000E+00
  0.00000000E+00  0.00000000E+00  0.00000000E+00
  0.00000000E+00  0.00000000E+00  0.00000000E+00
  0.00000000E+00  0.00000000E+00  0.00000000E+00
  0.00000000E+00  0.00000000E+00  0.00000000E+00
  0.00000000E+00  0.00000000E+00  0.00000000E+00
  0.00000000E+00  0.00000000E+00  0.00000000E+00
  0.00000000E+00  0.00000000E+00  0.00000000E+00
  0.00000000E+00  0.00000000E+00  0.00000000E+00
  0.00000000E+00  0.00000000E+00  0.00000000E+00
