Ca28 Tl11                               
   1.0000000000000000     
     5.4790313912269957    0.0000000031453361   -0.4737217269173303
    -0.0813659172282096    7.6711375215958144   -0.9410721078053361
    -0.0190607590479301   -0.0048876041899722   31.7014504253580292
   Ca   Tl
    28    11
Direct
  0.8234761946966387  0.6569992417064441  0.6469523893939098
  0.2373094156688396  0.9838379064932994  0.4746198313380461
  0.2246086493049333  0.4388986568047528  0.4492172986084029
  0.8630282401855354  0.0718547531363640  0.7260564803701826
  0.1369717598145357  0.3457982727663094  0.2739435196298032
  0.5957645709603270  0.2531027637729863  0.1915301419222644
  0.3535299566333165  0.3819053659807281  0.7070599132655602
  0.2935594961701113  0.3592807503997761  0.5871189923415940
  0.7626905843310325  0.5092180751552391  0.5253801686619894
  0.9561953108454873  0.5785975972373336  0.9123906216921753
  0.7753913506951662  0.9896813581965773  0.5507827013915687
  0.5834487196102955  0.7166490080665753  0.1668974392194400
  0.7064405038297252  0.7721617580579831  0.4128810076584415
  0.6821153240557081  0.3308710658016807  0.3642296481112197
  0.9406748109415375  0.0166162984185263  0.8813496218835439
  0.3178846759441996  0.9666414176905178  0.6357703518888016
  0.1172453195541365  0.8898820378289685  0.2344916391092156
  0.0593251890585265  0.1352666765348616  0.1186503781164419
  0.5000000000000568  0.6857079080857105  0.9999999999999858
  0.9999999999998082  0.9994185959712567  0.0000000000000426
  0.0438046891544701  0.6662069755449522  0.0876093783078318
  0.4697549876466880  0.2613536370233831  0.9395099752943992
  0.5302450123536246  0.3218436617286997  0.0604890247055323
  0.1765238053037663  0.0100468523123070  0.3530476106059979
  0.6464700433663353  0.6748454527154593  0.2929400867345180
  0.8827546804459132  0.6553903987195540  0.7655083608907773
  0.4042354290395167  0.0615736218504921  0.8084698580777712
  0.4165512803898821  0.5497515688472774  0.8331025607805174
  0.0908197324087610  0.4969919175271045  0.1816394648170245
  0.9999999999999645  0.4110151030786113  0.0000000000000142
  0.2730371545209138  0.7255326778605777  0.5460743090415079
  0.3608819533952001  0.7973594432880233  0.7217639067905850
  0.6391180466047786  0.0755955364974170  0.2782360932094221
  0.9091802675911822  0.3153524527101865  0.8183605351829897
  0.7269628454791501  0.1794583688191054  0.4539256909584779
  0.1802478241134295  0.6026928636206890  0.3604956482271220
  0.5435296202700215  0.9342794924484750  0.0870582405402089
  0.4564703797298790  0.8472212519082660  0.9129417594598124
  0.8197521758866060  0.2421972153935030  0.6395043517728709

  0.00000000E+00  0.00000000E+00  0.00000000E+00
  0.00000000E+00  0.00000000E+00  0.00000000E+00
  0.00000000E+00  0.00000000E+00  0.00000000E+00
  0.00000000E+00  0.00000000E+00  0.00000000E+00
  0.00000000E+00  0.00000000E+00  0.00000000E+00
  0.00000000E+00  0.00000000E+00  0.00000000E+00
  0.00000000E+00  0.00000000E+00  0.00000000E+00
  0.00000000E+00  0.00000000E+00  0.00000000E+00
  0.00000000E+00  0.00000000E+00  0.00000000E+00
  0.00000000E+00  0.00000000E+00  0.00000000E+00
  0.00000000E+00  0.00000000E+00  0.00000000E+00
  0.00000000E+00  0.00000000E+00  0.00000000E+00
  0.00000000E+00  0.00000000E+00  0.00000000E+00
  0.00000000E+00  0.00000000E+00  0.00000000E+00
  0.00000000E+00  0.00000000E+00  0.00000000E+00
  0.00000000E+00  0.00000000E+00  0.00000000E+00
  0.00000000E+00  0.00000000E+00  0.00000000E+00
  0.00000000E+00  0.00000000E+00  0.00000000E+00
  0.00000000E+00  0.00000000E+00  0.00000000E+00
  0.00000000E+00  0.00000000E+00  0.00000000E+00
  0.00000000E+00  0.00000000E+00  0.00000000E+00
  0.00000000E+00  0.00000000E+00  0.00000000E+00
  0.00000000E+00  0.00000000E+00  0.00000000E+00
  0.00000000E+00  0.00000000E+00  0.00000000E+00
  0.00000000E+00  0.00000000E+00  0.00000000E+00
  0.00000000E+00  0.00000000E+00  0.00000000E+00
  0.00000000E+00  0.00000000E+00  0.00000000E+00
  0.00000000E+00  0.00000000E+00  0.00000000E+00
  0.00000000E+00  0.00000000E+00  0.00000000E+00
  0.00000000E+00  0.00000000E+00  0.00000000E+00
  0.00000000E+00  0.00000000E+00  0.00000000E+00
  0.00000000E+00  0.00000000E+00  0.00000000E+00
  0.00000000E+00  0.00000000E+00  0.00000000E+00
  0.00000000E+00  0.00000000E+00  0.00000000E+00
  0.00000000E+00  0.00000000E+00  0.00000000E+00
  0.00000000E+00  0.00000000E+00  0.00000000E+00
  0.00000000E+00  0.00000000E+00  0.00000000E+00
  0.00000000E+00  0.00000000E+00  0.00000000E+00
  0.00000000E+00  0.00000000E+00  0.00000000E+00
