Mg4 Al2 F10                             
   1.00000000000000     
     7.1208948272317665    0.3475591920226632    1.5348724451330704
     0.2137651564424949    5.7129439348860176   -0.3890638093824443
     5.5976983987231410    2.6281069873895531    6.8642815583855707
   F    Al   Mg
    10     2     4
Direct
  0.0931868313620257  0.9965872952872630  0.8834935583800032
  0.3840691397514817  0.5388657471741212  0.0646882929163084
  0.5871826812896188  0.0857870476319178  0.0690467408681030
  0.9771060130805722  0.9880565612041892  0.3765891025158723
  0.7629119315558839  0.5759194086741672  0.0464786517549172
  0.8449709379391805  0.6718319969685851  0.2900159937097442
  0.1670799065459150  0.3884327403001038  0.6528772300625150
  0.1167568033736828  0.3494629853698896  0.0252772537041110
  0.0557239814361807  0.9720711394421855  0.6266319766877260
  0.4559158389374929  0.9913854738974663  0.8997611367443383
  0.3266362689672562  0.1289668905452288  0.5588409375218433
  0.6650479210390188  0.8173713914175096  0.5035915313352533
  0.3180555069788937  0.2120938183602021  0.0801237224405540
  0.8674133998528575  0.2625961179108742  0.0195735206050713
  0.2098927894628986  0.7098812501772969  0.9658124943513116
  0.6683500484270297  0.8109901356390381  0.9371978564023706
 
  0.00000000E+00  0.00000000E+00  0.00000000E+00
  0.00000000E+00  0.00000000E+00  0.00000000E+00
  0.00000000E+00  0.00000000E+00  0.00000000E+00
  0.00000000E+00  0.00000000E+00  0.00000000E+00
  0.00000000E+00  0.00000000E+00  0.00000000E+00
  0.00000000E+00  0.00000000E+00  0.00000000E+00
  0.00000000E+00  0.00000000E+00  0.00000000E+00
  0.00000000E+00  0.00000000E+00  0.00000000E+00
  0.00000000E+00  0.00000000E+00  0.00000000E+00
  0.00000000E+00  0.00000000E+00  0.00000000E+00
  0.00000000E+00  0.00000000E+00  0.00000000E+00
  0.00000000E+00  0.00000000E+00  0.00000000E+00
  0.00000000E+00  0.00000000E+00  0.00000000E+00
  0.00000000E+00  0.00000000E+00  0.00000000E+00
  0.00000000E+00  0.00000000E+00  0.00000000E+00
  0.00000000E+00  0.00000000E+00  0.00000000E+00
