Sr4 Ga4 Cl20                            
   1.0000000000000000     
    13.0820524641068126    0.0000000000000000    0.0000000000000000
     0.0000000000000000   10.7678255063911799    2.3672291616182948
     0.0000000000000000    9.2759712678391235   10.4774917090643260
   Sr   Ga   Cl
     4     4    20
Direct
  0.0814309750701767  0.5316561350637414  0.3521927620774363
  0.5814309750701554  0.4683438649362586  0.1478072379225424
  0.9185690249298446  0.4683438649362586  0.6478072379225566
  0.4185690249298162  0.5316561350637414  0.8521927620774434
  0.7156362315825078  0.8312202327430001  0.5235456178553335
  0.2156362315825078  0.1687797672569928  0.9764543821446665
  0.2843637684174922  0.1687797672569928  0.4764543821446665
  0.7843637684174922  0.8312202327430001  0.0235456178553264
  0.7358577200763108  0.1277296040493923  0.4088210387661420
  0.2358577200763108  0.8722703959506148  0.0911789612338509
  0.2641422799236892  0.8722703959506148  0.5911789612338509
  0.7641422799236892  0.1277296040493923  0.9088210387661491
  0.7777268827136510  0.8254232165675432  0.3802583717485888
  0.2777268827136297  0.1745767834324639  0.1197416282514183
  0.2222731172863561  0.1745767834324639  0.6197416282514254
  0.7222731172863490  0.8254232165675432  0.8802583717485746
  0.3083351045332918  0.4024446343687558  0.7514993413195867
  0.8083351045332918  0.5975553656312371  0.7485006586804133
  0.6916648954667082  0.5975553656312371  0.2485006586804204
  0.1916648954667082  0.4024446343687558  0.2514993413195867
  0.5508426036675687  0.7514306590764761  0.5675566934750833
  0.0508426036675615  0.2485693409235239  0.9324433065249167
  0.4491573963324242  0.2485693409235239  0.4324433065249167
  0.9491573963324313  0.7514306590764761  0.0675566934750833
  0.4191121134651468  0.7011565303912590  0.9278616580508015
  0.9191121134651468  0.2988434696087481  0.5721383419491985
  0.5808878865348532  0.2988434696087481  0.0721383419491985
  0.0808878865348532  0.7011565303912590  0.4278616580507943

  0.00000000E+00  0.00000000E+00  0.00000000E+00
  0.00000000E+00  0.00000000E+00  0.00000000E+00
  0.00000000E+00  0.00000000E+00  0.00000000E+00
  0.00000000E+00  0.00000000E+00  0.00000000E+00
  0.00000000E+00  0.00000000E+00  0.00000000E+00
  0.00000000E+00  0.00000000E+00  0.00000000E+00
  0.00000000E+00  0.00000000E+00  0.00000000E+00
  0.00000000E+00  0.00000000E+00  0.00000000E+00
  0.00000000E+00  0.00000000E+00  0.00000000E+00
  0.00000000E+00  0.00000000E+00  0.00000000E+00
  0.00000000E+00  0.00000000E+00  0.00000000E+00
  0.00000000E+00  0.00000000E+00  0.00000000E+00
  0.00000000E+00  0.00000000E+00  0.00000000E+00
  0.00000000E+00  0.00000000E+00  0.00000000E+00
  0.00000000E+00  0.00000000E+00  0.00000000E+00
  0.00000000E+00  0.00000000E+00  0.00000000E+00
  0.00000000E+00  0.00000000E+00  0.00000000E+00
  0.00000000E+00  0.00000000E+00  0.00000000E+00
  0.00000000E+00  0.00000000E+00  0.00000000E+00
  0.00000000E+00  0.00000000E+00  0.00000000E+00
  0.00000000E+00  0.00000000E+00  0.00000000E+00
  0.00000000E+00  0.00000000E+00  0.00000000E+00
  0.00000000E+00  0.00000000E+00  0.00000000E+00
  0.00000000E+00  0.00000000E+00  0.00000000E+00
  0.00000000E+00  0.00000000E+00  0.00000000E+00
  0.00000000E+00  0.00000000E+00  0.00000000E+00
  0.00000000E+00  0.00000000E+00  0.00000000E+00
  0.00000000E+00  0.00000000E+00  0.00000000E+00
