Ca4 Tl4 F20                             
   1.0000000000000000     
     5.3576757373996466   -0.0000000000000000    0.0000000000000003
    -0.0000000000000003    4.2303741572721814    0.0000000000000003
     0.0000000000000000   -0.0000000000000001   15.1692599424737242
   Ca   Tl   F 
     4     4    20
Direct
  0.7599732854061827  0.5005206614085651  0.3188610550378996
  0.2599732854061827  0.9994793385914349  0.6811389449621004
  0.2400267145938102  0.0005206614085651  0.1811389449621004
  0.7400267145938102  0.4994793385914349  0.8188610550378996
  0.2409157904658130  0.0038586396349700  0.4243680497309086
  0.7409157904658130  0.4961413603650300  0.5756319502690843
  0.7590842095341870  0.5038586396349771  0.0756319502690843
  0.2590842095341870  0.9961413603650229  0.9243680497309086
  0.6050231004900368  0.7335546809934357  0.4517952162297334
  0.1050231004900297  0.7664453190065643  0.5482047837702737
  0.3949768995099632  0.2335546809934357  0.0482047837702666
  0.8949768995099632  0.2664453190065643  0.9517952162297263
  0.9774391202849912  0.9943714380175734  0.3062148260455402
  0.4774391202849912  0.5056285619824266  0.6937851739544598
  0.0225608797150088  0.4943714380175734  0.1937851739544598
  0.5225608797150088  0.0056285619824266  0.8062148260455402
  0.1319303552395965  0.7427841488783642  0.0422074204889995
  0.6319303552395965  0.7572158511216358  0.9577925795110005
  0.8680696447604035  0.2427841488783642  0.4577925795110005
  0.3680696447604035  0.2572158511216358  0.5422074204889995
  0.5060751377233075  0.5438400963125716  0.1929188588787767
  0.0060751377233075  0.9561599036874284  0.8070811411212233
  0.4939248622766925  0.0438400963125716  0.3070811411212233
  0.9939248622766925  0.4561599036874284  0.6929188588787767
  0.2880023351600656  0.4868605258279999  0.8670099779529750
  0.7880023351600656  0.0131394741719930  0.1329900220470250
  0.7119976648399344  0.9868605258280070  0.6329900220470250
  0.2119976648399415  0.5131394741719930  0.3670099779529750

  0.00000000E+00  0.00000000E+00  0.00000000E+00
  0.00000000E+00  0.00000000E+00  0.00000000E+00
  0.00000000E+00  0.00000000E+00  0.00000000E+00
  0.00000000E+00  0.00000000E+00  0.00000000E+00
  0.00000000E+00  0.00000000E+00  0.00000000E+00
  0.00000000E+00  0.00000000E+00  0.00000000E+00
  0.00000000E+00  0.00000000E+00  0.00000000E+00
  0.00000000E+00  0.00000000E+00  0.00000000E+00
  0.00000000E+00  0.00000000E+00  0.00000000E+00
  0.00000000E+00  0.00000000E+00  0.00000000E+00
  0.00000000E+00  0.00000000E+00  0.00000000E+00
  0.00000000E+00  0.00000000E+00  0.00000000E+00
  0.00000000E+00  0.00000000E+00  0.00000000E+00
  0.00000000E+00  0.00000000E+00  0.00000000E+00
  0.00000000E+00  0.00000000E+00  0.00000000E+00
  0.00000000E+00  0.00000000E+00  0.00000000E+00
  0.00000000E+00  0.00000000E+00  0.00000000E+00
  0.00000000E+00  0.00000000E+00  0.00000000E+00
  0.00000000E+00  0.00000000E+00  0.00000000E+00
  0.00000000E+00  0.00000000E+00  0.00000000E+00
  0.00000000E+00  0.00000000E+00  0.00000000E+00
  0.00000000E+00  0.00000000E+00  0.00000000E+00
  0.00000000E+00  0.00000000E+00  0.00000000E+00
  0.00000000E+00  0.00000000E+00  0.00000000E+00
  0.00000000E+00  0.00000000E+00  0.00000000E+00
  0.00000000E+00  0.00000000E+00  0.00000000E+00
  0.00000000E+00  0.00000000E+00  0.00000000E+00
  0.00000000E+00  0.00000000E+00  0.00000000E+00
