BeGa2                                   
   1.00000000000000     
     0.0000000000000000    4.9983055915618904    4.9983055915618904
     4.9983055915618904    0.0000000000000000    4.9983055915618904
     4.9983055915618904    4.9983055915618904    0.0000000000000000
   Be   Ga
     2     4
Direct
  0.5000000000000000  0.5000000000000000  0.5000000000000000
  0.7500000000000000  0.7500000000000000  0.7500000000000000
  0.6250000000000000  0.6250000000000000  0.1250000000000000
  0.6250000000000000  0.1250000000000000  0.6250000000000000
  0.1250000000000000  0.6250000000000000  0.6250000000000000
  0.6250000000000000  0.6250000000000000  0.6250000000000000
 
  0.00000000E+00  0.00000000E+00  0.00000000E+00
  0.00000000E+00  0.00000000E+00  0.00000000E+00
  0.00000000E+00  0.00000000E+00  0.00000000E+00
  0.00000000E+00  0.00000000E+00  0.00000000E+00
  0.00000000E+00  0.00000000E+00  0.00000000E+00
  0.00000000E+00  0.00000000E+00  0.00000000E+00
