Ba10 Al4 F32                            
   1.00000000000000     
     3.8601554364848041   -6.6149434942905270    0.0000000000000000
     3.8601554364848041    6.6149434942905270    0.0000000000000000
     0.0000000000000000    0.0000000000000000   14.6985099827981660
   Ba   Al   F 
    10     4    32
Direct
  0.0000000000000000  0.0000000000000000  0.7149346547704809
  0.0000000000000000  0.0000000000000000  0.2850653452295191
  0.5000000000000000  0.5000000000000000  0.7850653452295191
  0.5000000000000000  0.5000000000000000  0.2149346547704809
  0.5000000000000000  0.5000000000000000  0.5000000000000000
  0.0000000000000000  0.0000000000000000  0.0000000000000000
  0.0000000000000000  0.5000000000000000  0.6239445796146512
  0.5000000000000000  0.0000000000000000  0.3760554203853488
  0.5000000000000000  0.0000000000000000  0.8760554203853488
  0.0000000000000000  0.5000000000000000  0.1239445796146512
  0.5000000000000000  0.0000000000000000  0.6241504818412409
  0.0000000000000000  0.5000000000000000  0.3758495181587591
  0.0000000000000000  0.5000000000000000  0.8758495181587591
  0.5000000000000000  0.0000000000000000  0.1241504818412409
  0.5250400055727766  0.1794840903758228  0.7115800119981657
  0.4749599944272234  0.8205159096241772  0.7115800119981657
  0.1794840903758228  0.5250400055727766  0.2884199880018272
  0.8205159096241772  0.4749599944272234  0.2884199880018272
  0.9749599944272234  0.3205159096241772  0.7884199880018343
  0.0250400055727766  0.6794840903758228  0.7884199880018343
  0.3205159096241772  0.9749599944272234  0.2115800119981728
  0.6794840903758228  0.0250400055727766  0.2115800119981728
  0.2268453563998136  0.8935116786512225  0.6219095854769421
  0.7731546436001864  0.1064883213487775  0.6219095854769421
  0.8935116786512225  0.2268453563998136  0.3780904145230650
  0.1064883213487775  0.7731546436001864  0.3780904145230650
  0.2731546436001864  0.6064883213487775  0.8780904145230579
  0.7268453563998136  0.3935116786512225  0.8780904145230579
  0.6715799864729703  0.0141412941028420  0.0365583523175061
  0.3284200135270297  0.9858587058971580  0.0365583523175061
  0.0141412941028420  0.6715799864729703  0.9634416476824939
  0.9858587058971580  0.3284200135270297  0.9634416476824939
  0.8284200135270297  0.4858587058971580  0.4634416476824939
  0.1715799864729703  0.5141412941028420  0.4634416476824939
  0.4858587058971580  0.8284200135270297  0.5365583523175061
  0.5141412941028420  0.1715799864729703  0.5365583523175061
  0.8566958702032466  0.7532887777717647  0.1433302474204439
  0.1433041297967534  0.2467112222282353  0.1433302474204439
  0.7532887777717647  0.8566958702032466  0.8566697525795561
  0.2467112222282353  0.1433041297967534  0.8566697525795561
  0.6433041297967534  0.7467112222282353  0.3566697525795561
  0.3566958702032466  0.2532887777717647  0.3566697525795561
  0.7467112222282353  0.6433041297967534  0.6433302474204439
  0.2532887777717647  0.3566958702032466  0.6433302474204439
  0.3935116786512225  0.7268453563998136  0.1219095854769279
  0.6064883213487775  0.2731546436001864  0.1219095854769279
 
  0.00000000E+00  0.00000000E+00  0.00000000E+00
  0.00000000E+00  0.00000000E+00  0.00000000E+00
  0.00000000E+00  0.00000000E+00  0.00000000E+00
  0.00000000E+00  0.00000000E+00  0.00000000E+00
  0.00000000E+00  0.00000000E+00  0.00000000E+00
  0.00000000E+00  0.00000000E+00  0.00000000E+00
  0.00000000E+00  0.00000000E+00  0.00000000E+00
  0.00000000E+00  0.00000000E+00  0.00000000E+00
  0.00000000E+00  0.00000000E+00  0.00000000E+00
  0.00000000E+00  0.00000000E+00  0.00000000E+00
  0.00000000E+00  0.00000000E+00  0.00000000E+00
  0.00000000E+00  0.00000000E+00  0.00000000E+00
  0.00000000E+00  0.00000000E+00  0.00000000E+00
  0.00000000E+00  0.00000000E+00  0.00000000E+00
  0.00000000E+00  0.00000000E+00  0.00000000E+00
  0.00000000E+00  0.00000000E+00  0.00000000E+00
  0.00000000E+00  0.00000000E+00  0.00000000E+00
  0.00000000E+00  0.00000000E+00  0.00000000E+00
  0.00000000E+00  0.00000000E+00  0.00000000E+00
  0.00000000E+00  0.00000000E+00  0.00000000E+00
  0.00000000E+00  0.00000000E+00  0.00000000E+00
  0.00000000E+00  0.00000000E+00  0.00000000E+00
  0.00000000E+00  0.00000000E+00  0.00000000E+00
  0.00000000E+00  0.00000000E+00  0.00000000E+00
  0.00000000E+00  0.00000000E+00  0.00000000E+00
  0.00000000E+00  0.00000000E+00  0.00000000E+00
  0.00000000E+00  0.00000000E+00  0.00000000E+00
  0.00000000E+00  0.00000000E+00  0.00000000E+00
  0.00000000E+00  0.00000000E+00  0.00000000E+00
  0.00000000E+00  0.00000000E+00  0.00000000E+00
  0.00000000E+00  0.00000000E+00  0.00000000E+00
  0.00000000E+00  0.00000000E+00  0.00000000E+00
  0.00000000E+00  0.00000000E+00  0.00000000E+00
  0.00000000E+00  0.00000000E+00  0.00000000E+00
  0.00000000E+00  0.00000000E+00  0.00000000E+00
  0.00000000E+00  0.00000000E+00  0.00000000E+00
  0.00000000E+00  0.00000000E+00  0.00000000E+00
  0.00000000E+00  0.00000000E+00  0.00000000E+00
  0.00000000E+00  0.00000000E+00  0.00000000E+00
  0.00000000E+00  0.00000000E+00  0.00000000E+00
  0.00000000E+00  0.00000000E+00  0.00000000E+00
  0.00000000E+00  0.00000000E+00  0.00000000E+00
  0.00000000E+00  0.00000000E+00  0.00000000E+00
  0.00000000E+00  0.00000000E+00  0.00000000E+00
  0.00000000E+00  0.00000000E+00  0.00000000E+00
  0.00000000E+00  0.00000000E+00  0.00000000E+00
