Ca10 B4 F32                             
   1.00000000000000     
     3.4528924154277720   -5.7854398337739745    0.0000000000000000
     3.4528924154277720    5.7854398337739745    0.0000000000000000
     0.0000000000000000    0.0000000000000000   12.9100081820697472
   Ca   B    F 
    10     4    32
Direct
  0.0000000000000000  0.0000000000000000  0.7144581090613613
  0.0000000000000000  0.0000000000000000  0.2855418909386387
  0.5000000000000000  0.5000000000000000  0.7855418909386387
  0.5000000000000000  0.5000000000000000  0.2144581090613613
  0.5000000000000000  0.5000000000000000  0.5000000000000000
  0.0000000000000000  0.0000000000000000  0.0000000000000000
  0.0000000000000000  0.5000000000000000  0.6286950749535976
  0.5000000000000000  0.0000000000000000  0.3713049250464024
  0.5000000000000000  0.0000000000000000  0.8713049250464024
  0.0000000000000000  0.5000000000000000  0.1286950749535976
  0.5000000000000000  0.0000000000000000  0.6187796975373914
  0.0000000000000000  0.5000000000000000  0.3812203024626086
  0.0000000000000000  0.5000000000000000  0.8812203024626086
  0.5000000000000000  0.0000000000000000  0.1187796975373914
  0.5232937278891328  0.1753856326853622  0.7068588928201365
  0.4767062721108672  0.8246143673146378  0.7068588928201365
  0.1753856326853622  0.5232937278891328  0.2931411071798635
  0.8246143673146378  0.4767062721108672  0.2931411071798635
  0.9767062721108672  0.3246143673146378  0.7931411071798635
  0.0232937278891328  0.6753856326853622  0.7931411071798635
  0.3246143673146378  0.9767062721108672  0.2068588928201294
  0.6753856326853622  0.0232937278891328  0.2068588928201294
  0.2089615171052159  0.8840519153450330  0.6176185371509320
  0.7910384828947841  0.1159480846549670  0.6176185371509320
  0.8840519153450330  0.2089615171052159  0.3823814628490751
  0.1159480846549670  0.7910384828947841  0.3823814628490751
  0.2910384828947841  0.6159480846549670  0.8823814628490680
  0.7089615171052159  0.3840519153450330  0.8823814628490680
  0.6655449046571675  0.0048778069051352  0.0337400750216688
  0.3344550953428325  0.9951221930948648  0.0337400750216688
  0.0048778069051352  0.6655449046571675  0.9662599249783383
  0.9951221930948648  0.3344550953428325  0.9662599249783383
  0.8344550953428325  0.4951221930948648  0.4662599249783383
  0.1655449046571675  0.5048778069051352  0.4662599249783383
  0.4951221930948648  0.8344550953428325  0.5337400750216617
  0.5048778069051352  0.1655449046571675  0.5337400750216617
  0.8606447335546292  0.7578684726640148  0.1445596094189128
  0.1393552664453708  0.2421315273359923  0.1445596094189128
  0.7578684726640148  0.8606447335546292  0.8554403905810872
  0.2421315273359923  0.1393552664453708  0.8554403905810872
  0.6393552664453708  0.7421315273359852  0.3554403905810872
  0.3606447335546292  0.2578684726640077  0.3554403905810872
  0.7421315273359852  0.6393552664453708  0.6445596094189128
  0.2578684726640077  0.3606447335546292  0.6445596094189128
  0.3840519153450330  0.7089615171052159  0.1176185371509320
  0.6159480846549670  0.2910384828947841  0.1176185371509320
 
  0.00000000E+00  0.00000000E+00  0.00000000E+00
  0.00000000E+00  0.00000000E+00  0.00000000E+00
  0.00000000E+00  0.00000000E+00  0.00000000E+00
  0.00000000E+00  0.00000000E+00  0.00000000E+00
  0.00000000E+00  0.00000000E+00  0.00000000E+00
  0.00000000E+00  0.00000000E+00  0.00000000E+00
  0.00000000E+00  0.00000000E+00  0.00000000E+00
  0.00000000E+00  0.00000000E+00  0.00000000E+00
  0.00000000E+00  0.00000000E+00  0.00000000E+00
  0.00000000E+00  0.00000000E+00  0.00000000E+00
  0.00000000E+00  0.00000000E+00  0.00000000E+00
  0.00000000E+00  0.00000000E+00  0.00000000E+00
  0.00000000E+00  0.00000000E+00  0.00000000E+00
  0.00000000E+00  0.00000000E+00  0.00000000E+00
  0.00000000E+00  0.00000000E+00  0.00000000E+00
  0.00000000E+00  0.00000000E+00  0.00000000E+00
  0.00000000E+00  0.00000000E+00  0.00000000E+00
  0.00000000E+00  0.00000000E+00  0.00000000E+00
  0.00000000E+00  0.00000000E+00  0.00000000E+00
  0.00000000E+00  0.00000000E+00  0.00000000E+00
  0.00000000E+00  0.00000000E+00  0.00000000E+00
  0.00000000E+00  0.00000000E+00  0.00000000E+00
  0.00000000E+00  0.00000000E+00  0.00000000E+00
  0.00000000E+00  0.00000000E+00  0.00000000E+00
  0.00000000E+00  0.00000000E+00  0.00000000E+00
  0.00000000E+00  0.00000000E+00  0.00000000E+00
  0.00000000E+00  0.00000000E+00  0.00000000E+00
  0.00000000E+00  0.00000000E+00  0.00000000E+00
  0.00000000E+00  0.00000000E+00  0.00000000E+00
  0.00000000E+00  0.00000000E+00  0.00000000E+00
  0.00000000E+00  0.00000000E+00  0.00000000E+00
  0.00000000E+00  0.00000000E+00  0.00000000E+00
  0.00000000E+00  0.00000000E+00  0.00000000E+00
  0.00000000E+00  0.00000000E+00  0.00000000E+00
  0.00000000E+00  0.00000000E+00  0.00000000E+00
  0.00000000E+00  0.00000000E+00  0.00000000E+00
  0.00000000E+00  0.00000000E+00  0.00000000E+00
  0.00000000E+00  0.00000000E+00  0.00000000E+00
  0.00000000E+00  0.00000000E+00  0.00000000E+00
  0.00000000E+00  0.00000000E+00  0.00000000E+00
  0.00000000E+00  0.00000000E+00  0.00000000E+00
  0.00000000E+00  0.00000000E+00  0.00000000E+00
  0.00000000E+00  0.00000000E+00  0.00000000E+00
  0.00000000E+00  0.00000000E+00  0.00000000E+00
  0.00000000E+00  0.00000000E+00  0.00000000E+00
  0.00000000E+00  0.00000000E+00  0.00000000E+00
