BaGa3                                   
   1.00000000000000     
     7.3910187111201582    0.0405529534848282    0.0000000000000000
    -3.6609098742231758    6.4222960302230545    0.0000000000000000
     0.0000000000000000    0.0000000000000000    4.4721411267500262
   Ba   Ga
     2     6
Direct
  0.3348849514438896  0.6651105698393138  0.7500000000000000
  0.6651150485561175  0.3348894301606862  0.2500000000000000
  0.1282184762175191  0.2602078969979118  0.2500000000000000
  0.7397825535633515  0.8717756195421345  0.2500000000000000
  0.1303341652221306  0.8696684098765317  0.2500000000000000
  0.8717815237824880  0.7397921030020882  0.7500000000000000
  0.2602174464366485  0.1282243804578655  0.7500000000000000
  0.8696658347778694  0.1303315901234683  0.7500000000000000
 
  0.00000000E+00  0.00000000E+00  0.00000000E+00
  0.00000000E+00  0.00000000E+00  0.00000000E+00
  0.00000000E+00  0.00000000E+00  0.00000000E+00
  0.00000000E+00  0.00000000E+00  0.00000000E+00
  0.00000000E+00  0.00000000E+00  0.00000000E+00
  0.00000000E+00  0.00000000E+00  0.00000000E+00
  0.00000000E+00  0.00000000E+00  0.00000000E+00
  0.00000000E+00  0.00000000E+00  0.00000000E+00
