Mg21 Al40                               
   1.00000000000000     
     4.5970367828104370   -7.9623015300828195    0.0000000000000000
     4.5970367828104370    7.9623015300828195    0.0000000000000000
     0.0000000000000000    0.0000000000000000   16.2110600859466238
   Mg   Al
    21    40
Direct
  0.0000000000111129  0.3332769110599685  0.3817765456240210
  0.6666669999999968  0.3333330000000032  0.3122483159999589
  0.6651522417545976  0.9999999999778595  0.6571680369850839
  0.3348477582675500  0.3348477582675500  0.6571680369850839
  0.0000000000000000  0.0000000000000000  0.1256467254629214
  0.0000000000527933  0.3325313972925485  0.5900888111832856
  0.3437503479326125  0.9999999999825278  0.0425504747341847
  0.9999999999778595  0.6651522417545976  0.6571680369850839
  0.6667230889289186  0.6667230889289186  0.3817765456240210
  0.3325313972925485  0.0000000000527933  0.5900888111832856
  0.3333330000000032  0.6666669999999968  0.1044514746610190
  0.9999999999922764  0.6323202828363677  0.8701624202821705
  0.6674686026546510  0.6674686026546510  0.5900888111832856
  0.3676797171713559  0.3676797171713559  0.8701624202821705
  0.6666669999999968  0.3333330000000032  0.1044514746610190
  0.3333330000000032  0.6666669999999968  0.3122483159999589
  0.9999999999825278  0.3437503479326125  0.0425504747341847
  0.3332769110599685  0.0000000000111129  0.3817765456240210
  0.6562496520848669  0.6562496520848669  0.0425504747341847
  0.6323202828363677  0.9999999999922764  0.8701624202821705
  0.0000000000000000  0.0000000000000000  0.3193001290690276
  0.3331045262311889  0.4998912324827529  0.4842309062247168
  0.1656582872310821  0.3356311170059882  0.2046912035408184
  0.4815737657160426  0.1729858512179803  0.7614798714470652
  0.8300271702860726  0.6643688831214831  0.2046912035408184
  0.5004772014336183  0.0000000000846683  0.2042616159658905
  0.0000000000000000  0.0000000000000000  0.6332500550358233
  0.3333330000000032  0.6666669999999968  0.9185469503517680
  0.1699728296474348  0.8343417127079391  0.2046912035408184
  0.2658117538346332  0.0000000000210321  0.8799171003001618
  0.0000000000638636  0.6690664283450189  0.3444291900269718
  0.3356311170059882  0.1656582872310821  0.2046912035408184
  0.1664707355029975  0.1664707355029975  0.4904677428483666
  0.7341882461443276  0.7341882461443276  0.8799171003001618
  0.6666669999999968  0.3333330000000032  0.9185469503517680
  0.9999999997998614  0.8335292646971340  0.4904677428483666
  0.4995227984817134  0.4995227984817134  0.2042616159658905
  0.8332132935158327  0.5001087672035780  0.4842309062247168
  0.5184262344888708  0.6914120854399286  0.7614798714470652
  0.0000000000846683  0.5004772014336183  0.2042616159658905
  0.8343417127079391  0.1699728296474348  0.2046912035408184
  0.0000000000106581  0.6785448497496489  0.0554526704268525
  0.3309335715911175  0.3309335715911175  0.3444291900269718
  0.3333330000000032  0.6666669999999968  0.6254641004486743
  0.0000000000210321  0.2658117538346332  0.8799171003001618
  0.6666669999999968  0.3333330000000032  0.6254641004486743
  0.1729858512179803  0.4815737657160426  0.7614798714470652
  0.5001087672035780  0.8332132935158327  0.4842309062247168
  0.1667867065652331  0.6668954740014215  0.4842309062247168
  0.6785448497496489  0.0000000000106581  0.0554526704268525
  0.3214551502396930  0.3214551502396930  0.0554526704268525
  0.8270141488440217  0.3085879142931560  0.7614798714470652
  0.6690664283450189  0.0000000000638636  0.3444291900269718
  0.4998912324827529  0.3331045262311889  0.4842309062247168
  0.6643688831214831  0.8300271702860726  0.2046912035408184
  0.8335292646971411  0.9999999997998614  0.4904677428483666
  0.6668954740014215  0.1667867065652331  0.4842309062247168
  0.3085879142931560  0.8270141488440217  0.7614798714470652
  0.0000000000000000  0.0000000000000000  0.9590686542211557
  0.6914120854399286  0.5184262344888708  0.7614798714470652
  0.0000000000000000  0.0000000000000000  0.7938420408817777
 
  0.00000000E+00  0.00000000E+00  0.00000000E+00
  0.00000000E+00  0.00000000E+00  0.00000000E+00
  0.00000000E+00  0.00000000E+00  0.00000000E+00
  0.00000000E+00  0.00000000E+00  0.00000000E+00
  0.00000000E+00  0.00000000E+00  0.00000000E+00
  0.00000000E+00  0.00000000E+00  0.00000000E+00
  0.00000000E+00  0.00000000E+00  0.00000000E+00
  0.00000000E+00  0.00000000E+00  0.00000000E+00
  0.00000000E+00  0.00000000E+00  0.00000000E+00
  0.00000000E+00  0.00000000E+00  0.00000000E+00
  0.00000000E+00  0.00000000E+00  0.00000000E+00
  0.00000000E+00  0.00000000E+00  0.00000000E+00
  0.00000000E+00  0.00000000E+00  0.00000000E+00
  0.00000000E+00  0.00000000E+00  0.00000000E+00
  0.00000000E+00  0.00000000E+00  0.00000000E+00
  0.00000000E+00  0.00000000E+00  0.00000000E+00
  0.00000000E+00  0.00000000E+00  0.00000000E+00
  0.00000000E+00  0.00000000E+00  0.00000000E+00
  0.00000000E+00  0.00000000E+00  0.00000000E+00
  0.00000000E+00  0.00000000E+00  0.00000000E+00
  0.00000000E+00  0.00000000E+00  0.00000000E+00
  0.00000000E+00  0.00000000E+00  0.00000000E+00
  0.00000000E+00  0.00000000E+00  0.00000000E+00
  0.00000000E+00  0.00000000E+00  0.00000000E+00
  0.00000000E+00  0.00000000E+00  0.00000000E+00
  0.00000000E+00  0.00000000E+00  0.00000000E+00
  0.00000000E+00  0.00000000E+00  0.00000000E+00
  0.00000000E+00  0.00000000E+00  0.00000000E+00
  0.00000000E+00  0.00000000E+00  0.00000000E+00
  0.00000000E+00  0.00000000E+00  0.00000000E+00
  0.00000000E+00  0.00000000E+00  0.00000000E+00
  0.00000000E+00  0.00000000E+00  0.00000000E+00
  0.00000000E+00  0.00000000E+00  0.00000000E+00
  0.00000000E+00  0.00000000E+00  0.00000000E+00
  0.00000000E+00  0.00000000E+00  0.00000000E+00
  0.00000000E+00  0.00000000E+00  0.00000000E+00
  0.00000000E+00  0.00000000E+00  0.00000000E+00
  0.00000000E+00  0.00000000E+00  0.00000000E+00
  0.00000000E+00  0.00000000E+00  0.00000000E+00
  0.00000000E+00  0.00000000E+00  0.00000000E+00
  0.00000000E+00  0.00000000E+00  0.00000000E+00
  0.00000000E+00  0.00000000E+00  0.00000000E+00
  0.00000000E+00  0.00000000E+00  0.00000000E+00
  0.00000000E+00  0.00000000E+00  0.00000000E+00
  0.00000000E+00  0.00000000E+00  0.00000000E+00
  0.00000000E+00  0.00000000E+00  0.00000000E+00
  0.00000000E+00  0.00000000E+00  0.00000000E+00
  0.00000000E+00  0.00000000E+00  0.00000000E+00
  0.00000000E+00  0.00000000E+00  0.00000000E+00
  0.00000000E+00  0.00000000E+00  0.00000000E+00
  0.00000000E+00  0.00000000E+00  0.00000000E+00
  0.00000000E+00  0.00000000E+00  0.00000000E+00
  0.00000000E+00  0.00000000E+00  0.00000000E+00
  0.00000000E+00  0.00000000E+00  0.00000000E+00
  0.00000000E+00  0.00000000E+00  0.00000000E+00
  0.00000000E+00  0.00000000E+00  0.00000000E+00
  0.00000000E+00  0.00000000E+00  0.00000000E+00
  0.00000000E+00  0.00000000E+00  0.00000000E+00
  0.00000000E+00  0.00000000E+00  0.00000000E+00
  0.00000000E+00  0.00000000E+00  0.00000000E+00
  0.00000000E+00  0.00000000E+00  0.00000000E+00
