Mg2 In4 F16                             
   1.00000000000000     
     5.2627173485835277    3.8079522895921456    0.1006109593635802
    -5.2627173485835277    3.8079522895921456    0.1006109593635802
     0.0000000000000000    0.5296960758669325    6.6869013776082236
   Mg   In   F 
     2     4    16
Direct
  0.5162941096094684  0.4837058903905316  0.7500000000000000
  0.4837058903905316  0.5162941096094684  0.2500000000000000
  0.9453241537750898  0.0546758462249102  0.7500000000000000
  0.0546758462249102  0.9453241537750898  0.2500000000000000
  0.5000000000000000  0.0000000000000000  0.5000000000000000
  0.0000000000000000  0.5000000000000000  0.0000000000000000
  0.7762633764035769  0.7250475206221836  0.7198850825967753
  0.2237366235964231  0.2749524793778164  0.2801149174032247
  0.2749524793778164  0.2237366235964231  0.7801149174032247
  0.7250475206221836  0.7762633764035769  0.2198850825967753
  0.6011305022868498  0.0310573536800760  0.7856134180123391
  0.3988694977131502  0.9689426463199311  0.2143865819876609
  0.9689426463199311  0.3988694977131502  0.7143865819876609
  0.0310573536800760  0.6011305022868498  0.2856134180123391
  0.1533951436711263  0.9175333625991797  0.5508184819863757
  0.8466048563288737  0.0824666374008274  0.4491815180136243
  0.0824666374008274  0.8466048563288737  0.9491815180136243
  0.9175333625991797  0.1533951436711263  0.0508184819863757
  0.4176862540636463  0.6531871424331612  0.5229986423318636
  0.5823137459363608  0.3468128575668388  0.4770013576681364
  0.3468128575668388  0.5823137459363608  0.9770013576681364
  0.6531871424331612  0.4176862540636463  0.0229986423318636
 
  0.00000000E+00  0.00000000E+00  0.00000000E+00
  0.00000000E+00  0.00000000E+00  0.00000000E+00
  0.00000000E+00  0.00000000E+00  0.00000000E+00
  0.00000000E+00  0.00000000E+00  0.00000000E+00
  0.00000000E+00  0.00000000E+00  0.00000000E+00
  0.00000000E+00  0.00000000E+00  0.00000000E+00
  0.00000000E+00  0.00000000E+00  0.00000000E+00
  0.00000000E+00  0.00000000E+00  0.00000000E+00
  0.00000000E+00  0.00000000E+00  0.00000000E+00
  0.00000000E+00  0.00000000E+00  0.00000000E+00
  0.00000000E+00  0.00000000E+00  0.00000000E+00
  0.00000000E+00  0.00000000E+00  0.00000000E+00
  0.00000000E+00  0.00000000E+00  0.00000000E+00
  0.00000000E+00  0.00000000E+00  0.00000000E+00
  0.00000000E+00  0.00000000E+00  0.00000000E+00
  0.00000000E+00  0.00000000E+00  0.00000000E+00
  0.00000000E+00  0.00000000E+00  0.00000000E+00
  0.00000000E+00  0.00000000E+00  0.00000000E+00
  0.00000000E+00  0.00000000E+00  0.00000000E+00
  0.00000000E+00  0.00000000E+00  0.00000000E+00
  0.00000000E+00  0.00000000E+00  0.00000000E+00
  0.00000000E+00  0.00000000E+00  0.00000000E+00
