Sr2 Ga2 Br6                             
   1.00000000000000     
    -4.5350678297116351    0.1080370815532731   -0.0025933236060717
    -2.4419921597638758    7.1836642961408490    0.0107457884914000
    -0.0067984690011142   -0.0179205140950584  -11.1608620368915901
   Br   Sr   Ga
     6     2     2
Direct
  0.1579654062936271  0.7268146388530781  0.0630252979243480
  0.3837815785726804  0.1876216686549768  0.2500507985614320
  0.1556538663212379  0.7288580306566956  0.4348592116291172
  0.8413601364726659  0.2730991175093180  0.5645648402134995
  0.6166668841039211  0.8122029644991144  0.7495274123481295
  0.8447926311061309  0.2714334727046506  0.9365028890157490
  0.5012702036002352  0.9992541064778848  0.0000526257514011
  0.4986395381284652  0.0007198495315492  0.5000294422871221
  0.6299951526225982  0.4932722041221282  0.2495900477658495
  0.3698746027784452  0.5067239469906042  0.7520974345033480
 
  0.00000000E+00  0.00000000E+00  0.00000000E+00
  0.00000000E+00  0.00000000E+00  0.00000000E+00
  0.00000000E+00  0.00000000E+00  0.00000000E+00
  0.00000000E+00  0.00000000E+00  0.00000000E+00
  0.00000000E+00  0.00000000E+00  0.00000000E+00
  0.00000000E+00  0.00000000E+00  0.00000000E+00
  0.00000000E+00  0.00000000E+00  0.00000000E+00
  0.00000000E+00  0.00000000E+00  0.00000000E+00
  0.00000000E+00  0.00000000E+00  0.00000000E+00
  0.00000000E+00  0.00000000E+00  0.00000000E+00
