Ba2 Al2 Br10                            
   1.00000000000000     
     6.9712438699627031   -1.8191134773282700   -0.3171411567405063
     8.7177206692580889    5.0449546365358096   -1.6433955143868038
    -7.7816790813988765   -3.2444837151635904   12.0308273731340343
   Al   Ba   Br
     2     2    10
Direct
  0.0004888136411907  0.9944584443782531  0.0311558188431675
  0.9989279917619029  0.0061556063820447  0.5403342834053859
  0.4997353578944370  0.7506648712230302  0.2857987196756184
  0.4989928071186540  0.2516261710205896  0.7856710306510593
  0.1061887820299319  0.6977433149847627  0.0377247216375665
  0.3927637790819531  0.7342578072151582  0.9217898360269814
  0.9915451776646051  0.2222995966914354  0.2571712355741269
  0.0002123546663668  0.7771983148692314  0.3142654625658636
  0.5000546504810970  0.8020145437464450  0.5334768221444364
  0.4987386609134603  0.1956902201389212  0.5328160631462922
  0.9081100764275689  0.3577120729121717  0.6525381642656924
  0.0906566746035651  0.8843128668099922  0.6563809295481136
  0.6189975171488058  0.0219681343887643  0.9124154434016702
  0.8947873565664537  0.3040980352391855  0.0387614691140072
 
  0.00000000E+00  0.00000000E+00  0.00000000E+00
  0.00000000E+00  0.00000000E+00  0.00000000E+00
  0.00000000E+00  0.00000000E+00  0.00000000E+00
  0.00000000E+00  0.00000000E+00  0.00000000E+00
  0.00000000E+00  0.00000000E+00  0.00000000E+00
  0.00000000E+00  0.00000000E+00  0.00000000E+00
  0.00000000E+00  0.00000000E+00  0.00000000E+00
  0.00000000E+00  0.00000000E+00  0.00000000E+00
  0.00000000E+00  0.00000000E+00  0.00000000E+00
  0.00000000E+00  0.00000000E+00  0.00000000E+00
  0.00000000E+00  0.00000000E+00  0.00000000E+00
  0.00000000E+00  0.00000000E+00  0.00000000E+00
  0.00000000E+00  0.00000000E+00  0.00000000E+00
  0.00000000E+00  0.00000000E+00  0.00000000E+00
