Mg10 Tl4 F32                            
   1.0000000000000000     
     3.8916164343569988   -5.0070542484973917    0.0000000000000000
     3.8916164343569988    5.0070542484973917    0.0000000000000000
     0.0000000000000000    0.0000000000000000   13.9243253144537196
   Mg   Tl   F 
    10     4    32
Direct
  0.0000000000000000  0.0000000000000000  0.7353788178273604
  0.0000000000000000  0.0000000000000000  0.2646211821726396
  0.5000000000000000  0.5000000000000000  0.7646211821726396
  0.5000000000000000  0.5000000000000000  0.2353788178273604
  0.5000000000000000  0.5000000000000000  0.5000000000000000
  0.0000000000000000  0.0000000000000000  0.0000000000000000
  0.0000000000000000  0.5000000000000000  0.6303728087734584
  0.5000000000000000  0.0000000000000000  0.3696271912265416
  0.5000000000000000  0.0000000000000000  0.8696271912265416
  0.0000000000000000  0.5000000000000000  0.1303728087734584
  0.5000000000000000  0.0000000000000000  0.6161385181918888
  0.0000000000000000  0.5000000000000000  0.3838614818081041
  0.0000000000000000  0.5000000000000000  0.8838614818081112
  0.5000000000000000  0.0000000000000000  0.1161385181918888
  0.3226201878390924  0.0718103396279872  0.7651708990770416
  0.6773798121609076  0.9281896603720199  0.7651708990770416
  0.0718103396279872  0.3226201878390924  0.2348291009229513
  0.9281896603720199  0.6773798121609076  0.2348291009229513
  0.1773798121609076  0.4281896603720128  0.7348291009229584
  0.8226201878390924  0.5718103396279801  0.7348291009229584
  0.4281896603720128  0.1773798121609076  0.2651708990770416
  0.5718103396279801  0.8226201878390924  0.2651708990770416
  0.1230002733455748  0.8379621899088576  0.6301174370433387
  0.8769997266544252  0.1620378100911424  0.6301174370433387
  0.8379621899088576  0.1230002733455748  0.3698825629566684
  0.1620378100911424  0.8769997266544252  0.3698825629566684
  0.3769997266544252  0.6620378100911424  0.8698825629566613
  0.6230002733455748  0.3379621899088576  0.8698825629566613
  0.6813588764864065  0.9495505360068464  0.9764030435684745
  0.3186411235135935  0.0504494639931465  0.9764030435684745
  0.9495505360068464  0.6813588764864065  0.0235969564315255
  0.0504494639931465  0.3186411235135935  0.0235969564315255
  0.8186411235135935  0.5504494639931536  0.5235969564315255
  0.1813588764864065  0.4495505360068535  0.5235969564315255
  0.5504494639931536  0.8186411235135935  0.4764030435684745
  0.4495505360068535  0.1813588764864065  0.4764030435684745
  0.1718830742309549  0.9834225608209266  0.1398751872258615
  0.8281169257690451  0.0165774391790734  0.1398751872258615
  0.9834225608209266  0.1718830742309549  0.8601248127741314
  0.0165774391790734  0.8281169257690451  0.8601248127741314
  0.3281169257690451  0.5165774391790734  0.3601248127741385
  0.6718830742309549  0.4834225608209266  0.3601248127741385
  0.5165774391790734  0.3281169257690451  0.6398751872258686
  0.4834225608209266  0.6718830742309549  0.6398751872258686
  0.3379621899088576  0.6230002733455748  0.1301174370433316
  0.6620378100911424  0.3769997266544252  0.1301174370433316

  0.00000000E+00  0.00000000E+00  0.00000000E+00
  0.00000000E+00  0.00000000E+00  0.00000000E+00
  0.00000000E+00  0.00000000E+00  0.00000000E+00
  0.00000000E+00  0.00000000E+00  0.00000000E+00
  0.00000000E+00  0.00000000E+00  0.00000000E+00
  0.00000000E+00  0.00000000E+00  0.00000000E+00
  0.00000000E+00  0.00000000E+00  0.00000000E+00
  0.00000000E+00  0.00000000E+00  0.00000000E+00
  0.00000000E+00  0.00000000E+00  0.00000000E+00
  0.00000000E+00  0.00000000E+00  0.00000000E+00
  0.00000000E+00  0.00000000E+00  0.00000000E+00
  0.00000000E+00  0.00000000E+00  0.00000000E+00
  0.00000000E+00  0.00000000E+00  0.00000000E+00
  0.00000000E+00  0.00000000E+00  0.00000000E+00
  0.00000000E+00  0.00000000E+00  0.00000000E+00
  0.00000000E+00  0.00000000E+00  0.00000000E+00
  0.00000000E+00  0.00000000E+00  0.00000000E+00
  0.00000000E+00  0.00000000E+00  0.00000000E+00
  0.00000000E+00  0.00000000E+00  0.00000000E+00
  0.00000000E+00  0.00000000E+00  0.00000000E+00
  0.00000000E+00  0.00000000E+00  0.00000000E+00
  0.00000000E+00  0.00000000E+00  0.00000000E+00
  0.00000000E+00  0.00000000E+00  0.00000000E+00
  0.00000000E+00  0.00000000E+00  0.00000000E+00
  0.00000000E+00  0.00000000E+00  0.00000000E+00
  0.00000000E+00  0.00000000E+00  0.00000000E+00
  0.00000000E+00  0.00000000E+00  0.00000000E+00
  0.00000000E+00  0.00000000E+00  0.00000000E+00
  0.00000000E+00  0.00000000E+00  0.00000000E+00
  0.00000000E+00  0.00000000E+00  0.00000000E+00
  0.00000000E+00  0.00000000E+00  0.00000000E+00
  0.00000000E+00  0.00000000E+00  0.00000000E+00
  0.00000000E+00  0.00000000E+00  0.00000000E+00
  0.00000000E+00  0.00000000E+00  0.00000000E+00
  0.00000000E+00  0.00000000E+00  0.00000000E+00
  0.00000000E+00  0.00000000E+00  0.00000000E+00
  0.00000000E+00  0.00000000E+00  0.00000000E+00
  0.00000000E+00  0.00000000E+00  0.00000000E+00
  0.00000000E+00  0.00000000E+00  0.00000000E+00
  0.00000000E+00  0.00000000E+00  0.00000000E+00
  0.00000000E+00  0.00000000E+00  0.00000000E+00
  0.00000000E+00  0.00000000E+00  0.00000000E+00
  0.00000000E+00  0.00000000E+00  0.00000000E+00
  0.00000000E+00  0.00000000E+00  0.00000000E+00
  0.00000000E+00  0.00000000E+00  0.00000000E+00
  0.00000000E+00  0.00000000E+00  0.00000000E+00
