Mg4 Al8 Cl16                            
   1.00000000000000     
     9.2687415209121955    0.1007509180399256   -0.1547778815854885
     0.0870699258095681    7.6973786654768039    0.1124496193133190
    -0.2193283369589370    0.2862034105144600   11.9721805293733361
   Mg   Cl   Al
     4    16     8
Direct
  0.7531146494296905  0.3058209673351797  0.0204626851519478
  0.1764361314013669  0.2208074449273241  0.4330105237259900
  0.7949739320447549  0.7452839311238648  0.5563124539833524
  0.3904197570763586  0.6430051243231532  0.9727058154554129
  0.3061332229821616  0.8106701550681734  0.1279871424456829
  0.5738421507047420  0.4945034541551649  0.0989505496494232
  0.7005153414861027  0.0554501270210110  0.1652487736643948
  0.9682255816937371  0.7825637181024661  0.9741679239880696
  0.2369580947062033  0.9129160164785475  0.4116282296920488
  0.2417457440957804  0.3748872045141809  0.2618782858323243
  0.9215437219571996  0.1754354728450522  0.3843285607399309
  0.8498197791056370  0.7286799809471773  0.3626556383671229
  0.1475807463180629  0.2800926338633118  0.6320672526216953
  0.9697126882256342  0.8751091232002040  0.6685705081434534
  0.7763341377638895  0.4485834586948698  0.6248466326069604
  0.5683121457256206  0.9021746384131077  0.5563375157240884
  0.2377983320762382  0.4082409702992464  0.9181320137156987
  0.2854939101776921  0.8578505273064536  0.8252047141226626
  0.5980851911571463  0.6426892743576076  0.8330145029948142
  0.6194270188771114  0.1924246005595123  0.8456705857998017
  0.0364855189012516  0.2474764626414157  0.9679970859863332
  0.4409817963569225  0.4281125955660201  0.3790748763433527
  0.9130312720740292  0.9682761319911179  0.2512101240644142
  0.3568930810206794  0.4091936526436442  0.5828177327143607
  0.4051643913109260  0.7169833768640075  0.4798795229769013
  0.0623628935657123  0.9846412340827086  0.8451972754088288
  0.5712599435133967  0.4144406966261300  0.7248713661087294
  0.0973488262519311  0.9732870260493343  0.0953717079722054
 
  0.00000000E+00  0.00000000E+00  0.00000000E+00
  0.00000000E+00  0.00000000E+00  0.00000000E+00
  0.00000000E+00  0.00000000E+00  0.00000000E+00
  0.00000000E+00  0.00000000E+00  0.00000000E+00
  0.00000000E+00  0.00000000E+00  0.00000000E+00
  0.00000000E+00  0.00000000E+00  0.00000000E+00
  0.00000000E+00  0.00000000E+00  0.00000000E+00
  0.00000000E+00  0.00000000E+00  0.00000000E+00
  0.00000000E+00  0.00000000E+00  0.00000000E+00
  0.00000000E+00  0.00000000E+00  0.00000000E+00
  0.00000000E+00  0.00000000E+00  0.00000000E+00
  0.00000000E+00  0.00000000E+00  0.00000000E+00
  0.00000000E+00  0.00000000E+00  0.00000000E+00
  0.00000000E+00  0.00000000E+00  0.00000000E+00
  0.00000000E+00  0.00000000E+00  0.00000000E+00
  0.00000000E+00  0.00000000E+00  0.00000000E+00
  0.00000000E+00  0.00000000E+00  0.00000000E+00
  0.00000000E+00  0.00000000E+00  0.00000000E+00
  0.00000000E+00  0.00000000E+00  0.00000000E+00
  0.00000000E+00  0.00000000E+00  0.00000000E+00
  0.00000000E+00  0.00000000E+00  0.00000000E+00
  0.00000000E+00  0.00000000E+00  0.00000000E+00
  0.00000000E+00  0.00000000E+00  0.00000000E+00
  0.00000000E+00  0.00000000E+00  0.00000000E+00
  0.00000000E+00  0.00000000E+00  0.00000000E+00
  0.00000000E+00  0.00000000E+00  0.00000000E+00
  0.00000000E+00  0.00000000E+00  0.00000000E+00
  0.00000000E+00  0.00000000E+00  0.00000000E+00
