Mg13 Tl14                               
   1.0000000000000000     
     8.5353681761269176   -4.9456891626886321    1.2779627623800531
     8.5353681761269176    4.9456891626886321    1.2779627623800531
    -1.7375385937313508    0.0000000000000000    8.2783243252508658
   Tl   Mg
    14    13
Direct
  0.6761466288927238  0.3238607902922013  0.9999016948802435
  0.3238607902922013  0.6761466288927238  0.9999016948802435
  0.8597366045995614  0.5096083169824794  0.0901329908534336
  0.5096083169824794  0.8597366045995614  0.0901329908534336
  0.0468155022345087  0.0468155022345087  0.1680003638909184
  0.7548119445473773  0.7548119445473773  0.4232703266606492
  0.3764336858786592  0.3764336858786592  0.2768768360260196
  0.7068716555879035  0.2931569290481661  0.5001360734751046
  0.2931569290481661  0.7068716555879035  0.5001360734751046
  0.6236997130300281  0.6236997130300281  0.7230724377140447
  0.2452348942809621  0.2452348942809621  0.5765517204164041
  0.9531781867074898  0.9531781867074898  0.8313686865423122
  0.4903463339020746  0.1402719862560602  0.9098781074497140
  0.1402719862560602  0.4903463339020746  0.9098781074497140
  0.2126020860682374  0.2126020860682374  0.1195850041211912
  0.5735778338283382  0.5735778338283382  0.2937084119760272
  0.7203606739478019  0.0423317046647753  0.2151518837590558
  0.0423317046647753  0.7203606739478019  0.2151518837590558
  0.9394491663679858  0.3777216927281728  0.4117122744214186
  0.3777216927281728  0.9394491663679858  0.4117122744214186
  0.0001531321188821  0.0001531321188821  0.4997883414635709
  0.6222830170326077  0.0605203447724278  0.5882745861855341
  0.0605203447724278  0.6222830170326077  0.5882745861855341
  0.9577986898951494  0.2796734159050089  0.7848764242338717
  0.2796734159050089  0.9577986898951494  0.7848764242338717
  0.4264012278044262  0.4264012278044262  0.7062998550798127
  0.7874938426259703  0.7874938426259703  0.8807499455922994

  0.00000000E+00  0.00000000E+00  0.00000000E+00
  0.00000000E+00  0.00000000E+00  0.00000000E+00
  0.00000000E+00  0.00000000E+00  0.00000000E+00
  0.00000000E+00  0.00000000E+00  0.00000000E+00
  0.00000000E+00  0.00000000E+00  0.00000000E+00
  0.00000000E+00  0.00000000E+00  0.00000000E+00
  0.00000000E+00  0.00000000E+00  0.00000000E+00
  0.00000000E+00  0.00000000E+00  0.00000000E+00
  0.00000000E+00  0.00000000E+00  0.00000000E+00
  0.00000000E+00  0.00000000E+00  0.00000000E+00
  0.00000000E+00  0.00000000E+00  0.00000000E+00
  0.00000000E+00  0.00000000E+00  0.00000000E+00
  0.00000000E+00  0.00000000E+00  0.00000000E+00
  0.00000000E+00  0.00000000E+00  0.00000000E+00
  0.00000000E+00  0.00000000E+00  0.00000000E+00
  0.00000000E+00  0.00000000E+00  0.00000000E+00
  0.00000000E+00  0.00000000E+00  0.00000000E+00
  0.00000000E+00  0.00000000E+00  0.00000000E+00
  0.00000000E+00  0.00000000E+00  0.00000000E+00
  0.00000000E+00  0.00000000E+00  0.00000000E+00
  0.00000000E+00  0.00000000E+00  0.00000000E+00
  0.00000000E+00  0.00000000E+00  0.00000000E+00
  0.00000000E+00  0.00000000E+00  0.00000000E+00
  0.00000000E+00  0.00000000E+00  0.00000000E+00
  0.00000000E+00  0.00000000E+00  0.00000000E+00
  0.00000000E+00  0.00000000E+00  0.00000000E+00
  0.00000000E+00  0.00000000E+00  0.00000000E+00
