SrF2                                    
   1.00000000000000     
     2.8832029510678363   -2.8832029510678363    0.0000000000000000
    -2.8832029510678363    0.0000000000000000   -2.8832029510678363
     2.8832029510678363    2.8832029510678363    0.0000000000000000
   F    Sr
     2     1
Direct
  0.7500000000000000  0.5000000000000000  0.2500000000000000
  0.2500000000000000  0.5000000000000000  0.7500000000000000
  0.5000000000000000  0.0000000000000000  0.5000000000000000
 
  0.00000000E+00  0.00000000E+00  0.00000000E+00
  0.00000000E+00  0.00000000E+00  0.00000000E+00
  0.00000000E+00  0.00000000E+00  0.00000000E+00
