Ba3 In4                                 
   1.0000000000000000     
     2.6460012620105067    2.4928161753066869    8.9634526895271769
    -2.6460012620105067    2.4928161753066869    8.9634526895271769
     0.0000000000000000   -3.1418434894664857    8.6328353578560755
   In   Ba
     4     3
Direct
  0.2001578569201996  0.2001578569201996  0.1472388078939417
  0.2827281984075753  0.2827281984075753  0.3407032443943336
  0.7221679168294628  0.7221679168294628  0.6641358649296691
  0.8046373079614000  0.8046373079614000  0.8577010217318062
  0.0024517421566372  0.0024517421566372  0.0024493440092002
  0.4420395247553941  0.4420395247553941  0.4133486609012138
  0.5628774529693104  0.5628774529693104  0.5914830561398574

  0.00000000E+00  0.00000000E+00  0.00000000E+00
  0.00000000E+00  0.00000000E+00  0.00000000E+00
  0.00000000E+00  0.00000000E+00  0.00000000E+00
  0.00000000E+00  0.00000000E+00  0.00000000E+00
  0.00000000E+00  0.00000000E+00  0.00000000E+00
  0.00000000E+00  0.00000000E+00  0.00000000E+00
  0.00000000E+00  0.00000000E+00  0.00000000E+00
