GaCl2                                   
   1.00000000000000     
     7.3389947057002010   -0.0004225830362129    0.0002785932098687
    -0.0006085549536349    9.9993016127443077   -0.0013993770118426
     0.0003913582129320   -0.0013792386912356   10.0117055553447116
   Cl   Ga
    16     8
Direct
  0.3217755023109348  0.1765929050945161  0.0625964980061156
  0.1781708021460418  0.8235157285993253  0.0626237740820912
  0.0060169696635342  0.4668056370346036  0.1899689952653603
  0.4940812359750950  0.5333850130921505  0.1899307340110639
  0.0059125555928077  0.0333943722680985  0.3100808432844531
  0.4939978025513128  0.9667984094656319  0.3100764551750785
  0.3218545191862177  0.3235719223714497  0.4374198379299656
  0.1782281542824293  0.6766653176874584  0.4374166841776983
  0.8218302527419254  0.3234134773777555  0.5626232987319355
  0.6781988808860362  0.6765058203653354  0.5626113070679182
  0.5059985911218945  0.0332693386520688  0.6899387998336053
  0.9940750873090778  0.9666776562170156  0.6899374161392444
  0.5059665348864613  0.4666982645799465  0.8100932881951550
  0.9940358512032574  0.5332789456228255  0.8100683943036060
  0.8218165206783041  0.1765471594712977  0.9373935216645322
  0.6782211425698534  0.8234728815622674  0.9374199724361887
  0.2499732234832450  0.0000981815044199  0.1853132026757791
  0.6306899501224379  0.2500068402642412  0.2499640072984590
  0.8693160726041285  0.7500249214501906  0.2500175322426230
  0.2500740270393251  0.5000844580357438  0.3147430288956201
  0.7499853976945445  0.4999973674093567  0.6852924933906976
  0.1306949037251286  0.2500164971407983  0.7499654920978713
  0.3693128512884769  0.7500129610851118  0.7499992778671896
  0.7500131709375566  0.9999659236484320  0.8147051452277339
 
  0.00000000E+00  0.00000000E+00  0.00000000E+00
  0.00000000E+00  0.00000000E+00  0.00000000E+00
  0.00000000E+00  0.00000000E+00  0.00000000E+00
  0.00000000E+00  0.00000000E+00  0.00000000E+00
  0.00000000E+00  0.00000000E+00  0.00000000E+00
  0.00000000E+00  0.00000000E+00  0.00000000E+00
  0.00000000E+00  0.00000000E+00  0.00000000E+00
  0.00000000E+00  0.00000000E+00  0.00000000E+00
  0.00000000E+00  0.00000000E+00  0.00000000E+00
  0.00000000E+00  0.00000000E+00  0.00000000E+00
  0.00000000E+00  0.00000000E+00  0.00000000E+00
  0.00000000E+00  0.00000000E+00  0.00000000E+00
  0.00000000E+00  0.00000000E+00  0.00000000E+00
  0.00000000E+00  0.00000000E+00  0.00000000E+00
  0.00000000E+00  0.00000000E+00  0.00000000E+00
  0.00000000E+00  0.00000000E+00  0.00000000E+00
  0.00000000E+00  0.00000000E+00  0.00000000E+00
  0.00000000E+00  0.00000000E+00  0.00000000E+00
  0.00000000E+00  0.00000000E+00  0.00000000E+00
  0.00000000E+00  0.00000000E+00  0.00000000E+00
  0.00000000E+00  0.00000000E+00  0.00000000E+00
  0.00000000E+00  0.00000000E+00  0.00000000E+00
  0.00000000E+00  0.00000000E+00  0.00000000E+00
  0.00000000E+00  0.00000000E+00  0.00000000E+00
