Ba5 Tl9                                 
   1.0000000000000000     
     6.6814383906809542   -0.0015188591945311    0.0151862442644925
    -3.3420333181710946    5.7850351011994858   -0.0151906323875380
    -3.3105001147274558    1.9108306064311493   13.1296385120398256
   Tl   Ba
     9     5
Direct
  0.9999205247811176  0.9998467514217282  0.9999331345771409
  0.2370388988124716  0.2747344975414521  0.2034335542345858
  0.2361834134169882  0.7634119911611847  0.2025168283112606
  0.7248870534529175  0.7627042148127359  0.2033607689592429
  0.1297539870502007  0.8692362072288518  0.3958460015534868
  0.8703689240023351  0.1311216261815105  0.6040644351993478
  0.2750401313170130  0.2370770934965662  0.7966025008410753
  0.7640030000154141  0.2366800930353961  0.7974517400178556
  0.7627111711478491  0.7252442143395115  0.7963888263603778
  0.6809091371790075  0.3193207752338338  0.0434139818637931
  0.7781468943746574  0.2214540814447830  0.3399418107639036
  0.4999688083574014  0.4997733850868471  0.5000888299146951
  0.2218097626985980  0.7784967240923635  0.6599271478050923
  0.3192582933940074  0.6808983449232500  0.9565304395981542

  0.00000000E+00  0.00000000E+00  0.00000000E+00
  0.00000000E+00  0.00000000E+00  0.00000000E+00
  0.00000000E+00  0.00000000E+00  0.00000000E+00
  0.00000000E+00  0.00000000E+00  0.00000000E+00
  0.00000000E+00  0.00000000E+00  0.00000000E+00
  0.00000000E+00  0.00000000E+00  0.00000000E+00
  0.00000000E+00  0.00000000E+00  0.00000000E+00
  0.00000000E+00  0.00000000E+00  0.00000000E+00
  0.00000000E+00  0.00000000E+00  0.00000000E+00
  0.00000000E+00  0.00000000E+00  0.00000000E+00
  0.00000000E+00  0.00000000E+00  0.00000000E+00
  0.00000000E+00  0.00000000E+00  0.00000000E+00
  0.00000000E+00  0.00000000E+00  0.00000000E+00
  0.00000000E+00  0.00000000E+00  0.00000000E+00
