Mg2Ga                                   
   1.00000000000000     
     7.7456560885129724   -0.0003553147366158    0.0214853005590609
    -3.8726413127996477    6.7079753886667532   -0.0100434095783741
     0.0193645062834866    0.0007304939394674    6.9731041824771571
   Ga   Mg
     6    12
Direct
  0.3322581971317291  0.6665626097263697  0.0348161828189717
  0.9999958178030468  0.9999752734372578  0.2500390632913110
  0.3343990919578985  0.6667965145889525  0.4651918836026496
  0.6656586891524583  0.3333364876931881  0.5340698314935963
  0.0000162334501894  0.0000204026485378  0.7499986402529260
  0.6676321620754706  0.3332853397227851  0.9659951305786620
  0.2765715786904792  0.0001984177988490  0.9997867776148226
  0.0001100129645693  0.2765333034802779  0.0002894722724420
  0.7234762855088661  0.7235889175016297  0.0003111262904056
  0.6276482257567721  0.0226693538503966  0.2501850881152663
  0.3950223758349907  0.3723178511497380  0.2501515558753482
  0.9772829592882104  0.6049547963756154  0.2497214233281682
  0.2763620759392467  0.9997657870576546  0.4995694021192563
  0.9998762923930897  0.2764089656431565  0.5000618319899388
  0.7235317565309458  0.7234469111759978  0.5000724447237417
  0.3725227216637776  0.3947554335002437  0.7497212884063487
  0.0222898772508771  0.6275004520479470  0.7501693297626346
  0.6051758866073840  0.9777137426014093  0.7501495274635062
 
  0.00000000E+00  0.00000000E+00  0.00000000E+00
  0.00000000E+00  0.00000000E+00  0.00000000E+00
  0.00000000E+00  0.00000000E+00  0.00000000E+00
  0.00000000E+00  0.00000000E+00  0.00000000E+00
  0.00000000E+00  0.00000000E+00  0.00000000E+00
  0.00000000E+00  0.00000000E+00  0.00000000E+00
  0.00000000E+00  0.00000000E+00  0.00000000E+00
  0.00000000E+00  0.00000000E+00  0.00000000E+00
  0.00000000E+00  0.00000000E+00  0.00000000E+00
  0.00000000E+00  0.00000000E+00  0.00000000E+00
  0.00000000E+00  0.00000000E+00  0.00000000E+00
  0.00000000E+00  0.00000000E+00  0.00000000E+00
  0.00000000E+00  0.00000000E+00  0.00000000E+00
  0.00000000E+00  0.00000000E+00  0.00000000E+00
  0.00000000E+00  0.00000000E+00  0.00000000E+00
  0.00000000E+00  0.00000000E+00  0.00000000E+00
  0.00000000E+00  0.00000000E+00  0.00000000E+00
  0.00000000E+00  0.00000000E+00  0.00000000E+00
