Tl40 Br56                               
   1.0000000000000000     
     9.6869327155424685    9.7033299435711626    0.0644482674459573
    -9.6869327155424685    9.7033299435711626    0.0644482674459573
     0.0000000000000000    5.1725500433074645   19.4577879930908040
   Tl   Br
    40    56
Direct
  0.3017982669645960  0.4333407538427068  0.7543766670908525
  0.5030687607818578  0.9888931617841266  0.8616290492677479
  0.9303648830783615  0.0696351169216456  0.2500000000000000
  0.1725484066658538  0.0113780727537787  0.4232689807183974
  0.4969312392181422  0.0111068382158734  0.1383709507322521
  0.8064656254839520  0.1935343745160480  0.7500000000000000
  0.2579468177252124  0.7004801936340925  0.8994572009470048
  0.4902107948703005  0.6323271438845737  0.0713027576013872
  0.8274515933341462  0.9886219272462213  0.5767310192816026
  0.5666592461573003  0.6982017330354111  0.7456233329091475
  0.9886219272462213  0.8274515933341462  0.0767310192816169
  0.7579244436591708  0.8505588948731244  0.9005292864089114
  0.7004801936340925  0.2579468177252124  0.3994572009469977
  0.5815481771364404  0.9975234937226816  0.3692652411436441
  0.7420531822747876  0.2995198063659075  0.1005427990529952
  0.4333407538427068  0.3017982669645960  0.2543766670908454
  0.1494411051268756  0.2420755563408292  0.5994707135910886
  0.5106732815612816  0.1862587169648151  0.6375848435716236
  0.9975234937226816  0.5815481771364404  0.8692652411436441
  0.6847619068531117  0.9200948985702126  0.1363126288263175
  0.1935343745160480  0.8064656254839520  0.2500000000000000
  0.3152380931468954  0.0799051014297802  0.8636873711736897
  0.8137412830351849  0.4893267184387255  0.8624151564283764
  0.0024765062773184  0.4184518228635596  0.1307347588563559
  0.0696351169216456  0.9303648830783615  0.7500000000000000
  0.4184518228635596  0.0024765062773184  0.6307347588563559
  0.5097892051296924  0.3676728561154192  0.9286972423986128
  0.8505588948731244  0.7579244436591708  0.4005292864089114
  0.9200948985702126  0.6847619068531117  0.6363126288263103
  0.2995198063659075  0.7420531822747876  0.6005427990529952
  0.1862587169648151  0.5106732815612816  0.1375848435716236
  0.9888931617841266  0.5030687607818578  0.3616290492677621
  0.3676728561154192  0.5097892051296924  0.4286972423986128
  0.0113780727537787  0.1725484066658538  0.9232689807183974
  0.0111068382158734  0.4969312392181422  0.6383709507322521
  0.2420755563408292  0.1494411051268756  0.0994707135910815
  0.6982017330354111  0.5666592461573003  0.2456233329091475
  0.6323271438845737  0.4902107948703005  0.5713027576013872
  0.0799051014297802  0.3152380931468954  0.3636873711736683
  0.4893267184387255  0.8137412830351849  0.3624151564283764
  0.7038290855738225  0.2155966403532616  0.5725109445882097
  0.2155966403532616  0.7038290855738225  0.0725109445882097
  0.2892299230109714  0.2400182942237166  0.9274815216145598
  0.5146209015316430  0.2652789044669532  0.7500778667885015
  0.9458998941094663  0.3714784220386207  0.5682071961373580
  0.1321982868713505  0.6486177105873665  0.7499953971591964
  0.8486721864761151  0.7669167685004865  0.7473760442252555
  0.4948230027690030  0.7895392175692137  0.9086107500457103
  0.7669167685004865  0.8486721864761151  0.2473760442252555
  0.0349164070811057  0.8453706728809678  0.5631245978748325
  0.9906152187886548  0.6354792723692597  0.2418789848268830
  0.0541001058905337  0.6285215779613864  0.4317928038626420
  0.2400182942237166  0.2892299230109714  0.4274815216145669
  0.2425458590477163  0.0102407481972051  0.5864413329844282
  0.4809489203877462  0.1285945824011065  0.4364251380253350
  0.1546293271190322  0.9650835929188943  0.9368754021251675
  0.0102407481972051  0.2425458590477163  0.0864413329844282
  0.9897592518027949  0.7574541409522908  0.9135586670155718
  0.8714054175988935  0.5190510796122538  0.0635748619746650
  0.3714784220386207  0.9458998941094663  0.0682071961373580
  0.5190510796122538  0.8714054175988935  0.5635748619746650
  0.8453706728809678  0.0349164070811057  0.0631245978748325
  0.7107700769890215  0.7599817057762976  0.0725184783854402
  0.5672225775302948  0.6548055701556805  0.4368719304456121
  0.1513278135238778  0.2330832314995206  0.2526239557747445
  0.6354792723692597  0.9906152187886548  0.7418789848268830
  0.3451944298443337  0.4327774224697052  0.0631280695543879
  0.7574541409522908  0.9897592518027949  0.4135586670155718
  0.4107548679938944  0.5436244274940876  0.8491126290447966
  0.9640325018516549  0.0899955883602885  0.6508592722359055
  0.2104607824307863  0.5051769972310112  0.5913892499542897
  0.6486177105873665  0.1321982868713505  0.2499953971591964
  0.5892451320060914  0.4563755725059124  0.1508873709552034
  0.7844033596467384  0.2961709144261917  0.9274890554117903
  0.3645207276307403  0.0093847812113523  0.2581210151731170
  0.1285945824011065  0.4809489203877462  0.9364251380253350
  0.4563755725059124  0.5892451320060914  0.6508873709552034
  0.8678017131286566  0.3513822894126264  0.2500046028408036
  0.0359674981483522  0.9100044116396973  0.3491407277640874
  0.0899955883602885  0.9640325018516549  0.1508592722359126
  0.6285215779613864  0.0541001058905337  0.9317928038626420
  0.5051769972310112  0.2104607824307863  0.0913892499542897
  0.2330832314995206  0.1513278135238778  0.7526239557747445
  0.3513822894126264  0.8678017131286566  0.7500046028408036
  0.4327774224697052  0.3451944298443337  0.5631280695543737
  0.2961709144261917  0.7844033596467384  0.4274890554117903
  0.7895392175692137  0.4948230027690030  0.4086107500457103
  0.7599817057762976  0.7107700769890215  0.5725184783854402
  0.0093847812113523  0.3645207276307403  0.7581210151731170
  0.9650835929188943  0.1546293271190322  0.4368754021251604
  0.4853790984683570  0.7347210955330468  0.2499221332114843
  0.6548055701556805  0.5672225775302948  0.9368719304456263
  0.9100044116396973  0.0359674981483522  0.8491407277640945
  0.5436244274940876  0.4107548679938944  0.3491126290448037
  0.7347210955330468  0.4853790984683570  0.7499221332114985
  0.2652789044669532  0.5146209015316430  0.2500778667885015

  0.00000000E+00  0.00000000E+00  0.00000000E+00
  0.00000000E+00  0.00000000E+00  0.00000000E+00
  0.00000000E+00  0.00000000E+00  0.00000000E+00
  0.00000000E+00  0.00000000E+00  0.00000000E+00
  0.00000000E+00  0.00000000E+00  0.00000000E+00
  0.00000000E+00  0.00000000E+00  0.00000000E+00
  0.00000000E+00  0.00000000E+00  0.00000000E+00
  0.00000000E+00  0.00000000E+00  0.00000000E+00
  0.00000000E+00  0.00000000E+00  0.00000000E+00
  0.00000000E+00  0.00000000E+00  0.00000000E+00
  0.00000000E+00  0.00000000E+00  0.00000000E+00
  0.00000000E+00  0.00000000E+00  0.00000000E+00
  0.00000000E+00  0.00000000E+00  0.00000000E+00
  0.00000000E+00  0.00000000E+00  0.00000000E+00
  0.00000000E+00  0.00000000E+00  0.00000000E+00
  0.00000000E+00  0.00000000E+00  0.00000000E+00
  0.00000000E+00  0.00000000E+00  0.00000000E+00
  0.00000000E+00  0.00000000E+00  0.00000000E+00
  0.00000000E+00  0.00000000E+00  0.00000000E+00
  0.00000000E+00  0.00000000E+00  0.00000000E+00
  0.00000000E+00  0.00000000E+00  0.00000000E+00
  0.00000000E+00  0.00000000E+00  0.00000000E+00
  0.00000000E+00  0.00000000E+00  0.00000000E+00
  0.00000000E+00  0.00000000E+00  0.00000000E+00
  0.00000000E+00  0.00000000E+00  0.00000000E+00
  0.00000000E+00  0.00000000E+00  0.00000000E+00
  0.00000000E+00  0.00000000E+00  0.00000000E+00
  0.00000000E+00  0.00000000E+00  0.00000000E+00
  0.00000000E+00  0.00000000E+00  0.00000000E+00
  0.00000000E+00  0.00000000E+00  0.00000000E+00
  0.00000000E+00  0.00000000E+00  0.00000000E+00
  0.00000000E+00  0.00000000E+00  0.00000000E+00
  0.00000000E+00  0.00000000E+00  0.00000000E+00
  0.00000000E+00  0.00000000E+00  0.00000000E+00
  0.00000000E+00  0.00000000E+00  0.00000000E+00
  0.00000000E+00  0.00000000E+00  0.00000000E+00
  0.00000000E+00  0.00000000E+00  0.00000000E+00
  0.00000000E+00  0.00000000E+00  0.00000000E+00
  0.00000000E+00  0.00000000E+00  0.00000000E+00
  0.00000000E+00  0.00000000E+00  0.00000000E+00
  0.00000000E+00  0.00000000E+00  0.00000000E+00
  0.00000000E+00  0.00000000E+00  0.00000000E+00
  0.00000000E+00  0.00000000E+00  0.00000000E+00
  0.00000000E+00  0.00000000E+00  0.00000000E+00
  0.00000000E+00  0.00000000E+00  0.00000000E+00
  0.00000000E+00  0.00000000E+00  0.00000000E+00
  0.00000000E+00  0.00000000E+00  0.00000000E+00
  0.00000000E+00  0.00000000E+00  0.00000000E+00
  0.00000000E+00  0.00000000E+00  0.00000000E+00
  0.00000000E+00  0.00000000E+00  0.00000000E+00
  0.00000000E+00  0.00000000E+00  0.00000000E+00
  0.00000000E+00  0.00000000E+00  0.00000000E+00
  0.00000000E+00  0.00000000E+00  0.00000000E+00
  0.00000000E+00  0.00000000E+00  0.00000000E+00
  0.00000000E+00  0.00000000E+00  0.00000000E+00
  0.00000000E+00  0.00000000E+00  0.00000000E+00
  0.00000000E+00  0.00000000E+00  0.00000000E+00
  0.00000000E+00  0.00000000E+00  0.00000000E+00
  0.00000000E+00  0.00000000E+00  0.00000000E+00
  0.00000000E+00  0.00000000E+00  0.00000000E+00
  0.00000000E+00  0.00000000E+00  0.00000000E+00
  0.00000000E+00  0.00000000E+00  0.00000000E+00
  0.00000000E+00  0.00000000E+00  0.00000000E+00
  0.00000000E+00  0.00000000E+00  0.00000000E+00
  0.00000000E+00  0.00000000E+00  0.00000000E+00
  0.00000000E+00  0.00000000E+00  0.00000000E+00
  0.00000000E+00  0.00000000E+00  0.00000000E+00
  0.00000000E+00  0.00000000E+00  0.00000000E+00
  0.00000000E+00  0.00000000E+00  0.00000000E+00
  0.00000000E+00  0.00000000E+00  0.00000000E+00
  0.00000000E+00  0.00000000E+00  0.00000000E+00
  0.00000000E+00  0.00000000E+00  0.00000000E+00
  0.00000000E+00  0.00000000E+00  0.00000000E+00
  0.00000000E+00  0.00000000E+00  0.00000000E+00
  0.00000000E+00  0.00000000E+00  0.00000000E+00
  0.00000000E+00  0.00000000E+00  0.00000000E+00
  0.00000000E+00  0.00000000E+00  0.00000000E+00
  0.00000000E+00  0.00000000E+00  0.00000000E+00
  0.00000000E+00  0.00000000E+00  0.00000000E+00
  0.00000000E+00  0.00000000E+00  0.00000000E+00
  0.00000000E+00  0.00000000E+00  0.00000000E+00
  0.00000000E+00  0.00000000E+00  0.00000000E+00
  0.00000000E+00  0.00000000E+00  0.00000000E+00
  0.00000000E+00  0.00000000E+00  0.00000000E+00
  0.00000000E+00  0.00000000E+00  0.00000000E+00
  0.00000000E+00  0.00000000E+00  0.00000000E+00
  0.00000000E+00  0.00000000E+00  0.00000000E+00
  0.00000000E+00  0.00000000E+00  0.00000000E+00
  0.00000000E+00  0.00000000E+00  0.00000000E+00
  0.00000000E+00  0.00000000E+00  0.00000000E+00
  0.00000000E+00  0.00000000E+00  0.00000000E+00
  0.00000000E+00  0.00000000E+00  0.00000000E+00
  0.00000000E+00  0.00000000E+00  0.00000000E+00
  0.00000000E+00  0.00000000E+00  0.00000000E+00
  0.00000000E+00  0.00000000E+00  0.00000000E+00
  0.00000000E+00  0.00000000E+00  0.00000000E+00
