Ba4 Al2 Br10                            
   1.00000000000000     
     9.4613165909078205   -0.2318801835288920   -1.1438877734601043
    -0.1929494863019252    9.0606177628827442    0.2727258004224318
     3.8146664036263860    4.6574457270711411    7.6357863875175331
   Br   Ba   Al
    10     4     2
Direct
  0.0051312150522662  0.0124906934361491  0.9805453223702756
  0.4985240921124969  0.4973215584459112  0.0058697779279129
  0.5625780073878843  0.9825152278081077  0.2027556962194339
  0.0349580796480353  0.2423666881214146  0.2541815555640952
  0.7854886364685001  0.5423694513843245  0.2335432129681010
  0.1600879781184616  0.6962984360873889  0.3093214746049711
  0.8343711849642474  0.3172129131805903  0.6862575537630491
  0.2272263019203180  0.4675094904082471  0.7590562833744769
  0.9612140383350081  0.7498708463729429  0.7441396827994993
  0.4365113273603143  0.0143061739389339  0.7936729668997771
  0.2992467636590206  0.1358103961703350  0.0627133323256999
  0.8217673420513734  0.3270252615029747  0.0231658633381215
  0.1712693519089399  0.6695235832194584  0.9830619583406772
  0.7008813286698512  0.8639518567432276  0.9332139602817904
  0.1490532468506629  0.3032240381893274  0.6068684462799467
  0.8513911054926169  0.6779033849906639  0.4216329129421794
 
  0.00000000E+00  0.00000000E+00  0.00000000E+00
  0.00000000E+00  0.00000000E+00  0.00000000E+00
  0.00000000E+00  0.00000000E+00  0.00000000E+00
  0.00000000E+00  0.00000000E+00  0.00000000E+00
  0.00000000E+00  0.00000000E+00  0.00000000E+00
  0.00000000E+00  0.00000000E+00  0.00000000E+00
  0.00000000E+00  0.00000000E+00  0.00000000E+00
  0.00000000E+00  0.00000000E+00  0.00000000E+00
  0.00000000E+00  0.00000000E+00  0.00000000E+00
  0.00000000E+00  0.00000000E+00  0.00000000E+00
  0.00000000E+00  0.00000000E+00  0.00000000E+00
  0.00000000E+00  0.00000000E+00  0.00000000E+00
  0.00000000E+00  0.00000000E+00  0.00000000E+00
  0.00000000E+00  0.00000000E+00  0.00000000E+00
  0.00000000E+00  0.00000000E+00  0.00000000E+00
  0.00000000E+00  0.00000000E+00  0.00000000E+00
