Ba1 Ga3 I6                              
   1.00000000000000     
     9.0361782036333445    0.0636641423023222    0.5413407944822415
     0.0636641423023222    9.0361782036333409    0.5413407944822414
     4.8964828331459689    4.8964828331459715    6.9767999582994218
   I    Ba   Ga
     6     1     3
Direct
  0.7341517280325220  0.2658482719674780  0.0000000000000000
  0.2288564095050134  0.2288564095050134  0.0709308416945049
  0.2658482719674780  0.7341517280325220  0.0000000000000000
  0.7711435904949866  0.7711435904949866  0.9290691583054951
  0.7714271455251378  0.7714271455251378  0.5286637281709972
  0.2285728544748551  0.2285728544748551  0.4713362718290028
  0.0000000000000000  0.0000000000000000  0.0000000000000000
  0.5000000000000000  0.5000000000000000  0.0000000000000000
  0.1405811546629678  0.8594188453370322  0.5000000000000000
  0.8594188453370322  0.1405811546629678  0.5000000000000000
 
  0.00000000E+00  0.00000000E+00  0.00000000E+00
  0.00000000E+00  0.00000000E+00  0.00000000E+00
  0.00000000E+00  0.00000000E+00  0.00000000E+00
  0.00000000E+00  0.00000000E+00  0.00000000E+00
  0.00000000E+00  0.00000000E+00  0.00000000E+00
  0.00000000E+00  0.00000000E+00  0.00000000E+00
  0.00000000E+00  0.00000000E+00  0.00000000E+00
  0.00000000E+00  0.00000000E+00  0.00000000E+00
  0.00000000E+00  0.00000000E+00  0.00000000E+00
  0.00000000E+00  0.00000000E+00  0.00000000E+00
