TlI3                                    
   1.0000000000000000     
     9.6819178661586083    0.0000000000000000   -0.0000710788446464
     0.0000000000000000    6.9329255749802376    0.0000000000000000
    -0.0010092973858351    0.0000000000000000   13.5157983538054527
   I    Tl
    12     4
Direct
  0.1691208351865612  0.7500000000000000  0.0729555825755739
  0.6178363780550313  0.2500000000000000  0.0888645349520232
  0.9648605847383394  0.7500000000000000  0.2306670880544246
  0.4647125845020241  0.7500000000000000  0.2692526628818115
  0.1180819872233272  0.2500000000000000  0.4108859000063418
  0.6693010719242594  0.7500000000000000  0.4268552620498198
  0.3307866157140253  0.2500000000000000  0.5729058053810547
  0.8820559967719674  0.7500000000000000  0.5888758833949836
  0.5352439576458110  0.2500000000000000  0.7305588152238087
  0.0352222180019695  0.2500000000000000  0.7694426196991060
  0.3817403211039476  0.7500000000000000  0.9107374294573773
  0.8306782856111283  0.2500000000000000  0.9270943769146101
  0.3206276005793640  0.2500000000000000  0.9359611380565269
  0.8210972578270983  0.2500000000000000  0.5641299494070466
  0.1794257114526161  0.7500000000000000  0.4361959612310429
  0.6789085936625270  0.7500000000000000  0.0637169907144752

  0.00000000E+00  0.00000000E+00  0.00000000E+00
  0.00000000E+00  0.00000000E+00  0.00000000E+00
  0.00000000E+00  0.00000000E+00  0.00000000E+00
  0.00000000E+00  0.00000000E+00  0.00000000E+00
  0.00000000E+00  0.00000000E+00  0.00000000E+00
  0.00000000E+00  0.00000000E+00  0.00000000E+00
  0.00000000E+00  0.00000000E+00  0.00000000E+00
  0.00000000E+00  0.00000000E+00  0.00000000E+00
  0.00000000E+00  0.00000000E+00  0.00000000E+00
  0.00000000E+00  0.00000000E+00  0.00000000E+00
  0.00000000E+00  0.00000000E+00  0.00000000E+00
  0.00000000E+00  0.00000000E+00  0.00000000E+00
  0.00000000E+00  0.00000000E+00  0.00000000E+00
  0.00000000E+00  0.00000000E+00  0.00000000E+00
  0.00000000E+00  0.00000000E+00  0.00000000E+00
  0.00000000E+00  0.00000000E+00  0.00000000E+00
