Mg3 B4                                  
   1.00000000000000     
     1.7064862838711727   -0.0568970241326508    8.0180124722122965
    -1.7064862838711727   -0.0568970241326508    8.0180124722122965
     0.0000000000000000   -3.7603709207102796    8.5208953224052486
   B    Mg
     4     3
Direct
  0.1057753155539274  0.1057753155539274  0.3854132381238315
  0.2580019299457206  0.2580019299457206  0.2764497199993201
  0.7468671498277359  0.7468671498277359  0.7284415381421425
  0.8991076364180017  0.8991076364180017  0.6194619382937603
  0.0024557280061401  0.0024557280061401  0.0023919214486199
  0.5256936166571080  0.5256936166571080  0.2761535882567401
  0.4791586235913812  0.4791586235913812  0.7287480557355792
 
  0.00000000E+00  0.00000000E+00  0.00000000E+00
  0.00000000E+00  0.00000000E+00  0.00000000E+00
  0.00000000E+00  0.00000000E+00  0.00000000E+00
  0.00000000E+00  0.00000000E+00  0.00000000E+00
  0.00000000E+00  0.00000000E+00  0.00000000E+00
  0.00000000E+00  0.00000000E+00  0.00000000E+00
  0.00000000E+00  0.00000000E+00  0.00000000E+00
