Ca1 B2 F10                              
   1.00000000000000     
     3.4990337495688428    2.9940135057125365    0.5369889267640108
    -3.4990337495688428    2.9940135057125370    0.5369889267640108
     0.0000000000000000    2.7742747097389282    8.1172366071618995
   Ca   B    F 
     1     2    10
Direct
  0.3904212974466788  0.6095787025533070  0.0000000000000000
  0.1561261036592896  0.9057586499256800  0.6510439718268870
  0.0942413500743200  0.8438738963407104  0.3489560281731201
  0.3279713542811606  0.2048664586317770  0.5872428587605043
  0.7951335413682230  0.6720286457188323  0.4127571412395028
  0.8332577018255236  0.8658080380688631  0.7267901325214581
  0.1341919619311369  0.1667422981744693  0.2732098674785419
  0.7111732568675819  0.2888267431324181  0.0000000000000000
  0.2112718551257586  0.7887281448742414  0.5000000000000000
  0.4820841769725916  0.1577895390585979  0.8970454029369463
  0.8422104609413950  0.5179158230274084  0.1029545970630537
  0.2535522390458027  0.6876362995394487  0.7637831304863809
  0.3123637004605442  0.7464477609541973  0.2362168695136191
 
  0.00000000E+00  0.00000000E+00  0.00000000E+00
  0.00000000E+00  0.00000000E+00  0.00000000E+00
  0.00000000E+00  0.00000000E+00  0.00000000E+00
  0.00000000E+00  0.00000000E+00  0.00000000E+00
  0.00000000E+00  0.00000000E+00  0.00000000E+00
  0.00000000E+00  0.00000000E+00  0.00000000E+00
  0.00000000E+00  0.00000000E+00  0.00000000E+00
  0.00000000E+00  0.00000000E+00  0.00000000E+00
  0.00000000E+00  0.00000000E+00  0.00000000E+00
  0.00000000E+00  0.00000000E+00  0.00000000E+00
  0.00000000E+00  0.00000000E+00  0.00000000E+00
  0.00000000E+00  0.00000000E+00  0.00000000E+00
  0.00000000E+00  0.00000000E+00  0.00000000E+00
