Mg16 Tl12 Cl1                           
   1.00000000000000     
     7.8724955489055644   -4.5452375056185117    3.2147553375598270
     0.0837197270174070    9.3285053894053060    3.3470004586135027
    -8.0368241790691020   -4.7363950386479825    3.3470633989996981
   Tl   Cl   Mg
    12     1    16
Direct
  0.7818045365375497  0.5180649970189251  0.9999635298424252
  0.6446483024869565  0.7859410920703951  0.9999476323933649
  0.3657528257961786  0.3946312206471703  0.1968260879924557
  0.1691341595078768  0.8031736591062142  0.1978128437052931
  0.8591028652243011  0.2141895451864784  0.2141895391456217
  0.3657528128209222  0.1968260743108274  0.3946311982805710
  0.2638698451957850  0.4822232565907782  0.4822232472870951
  0.7818045510211604  0.9999635389541268  0.5180650178303665
  0.9711929515549826  0.8021066066383327  0.6053729923439306
  0.6446483127972726  0.9999476399086618  0.7859411083548551
  0.9711929531348957  0.6053729862876835  0.8021066206260059
  0.1691341708888388  0.1978128660426606  0.8031736651162689
  0.3523299163817484  0.0002281478699615  0.0002281469955818
  0.9946647037784544  0.3320400853910215  0.9997825343603637
  0.5455835660465027  0.2424273127712979  0.0000234640132817
  0.3056357935699481  0.5937905815106888  0.9999788803903655
  0.0196147574428807  0.9999995568001410  0.0000005569862864
  0.6805594574417739  0.6537906654834629  0.2558024451242602
  0.5455835700416571  0.0000244648543841  0.2424273137600252
  0.0267720218989425  0.6020096695234045  0.3460078179565542
  0.9946647011197314  0.9997825319041240  0.3320400807154726
  0.7117457928889266  0.4061208077771141  0.4061208038230077
  0.4248462777231552  0.7441406789433884  0.3980703510432306
  0.0267720222098404  0.3460078187923443  0.6020096688837242
  0.3056357975205728  0.9999788839863157  0.5937905885877512
  0.6625922490629677  0.6678565078755625  0.6678565102162821
  0.6805594577170950  0.2558024454574550  0.6537906672034950
  0.3027553509552519  0.7576770089718252  0.7576770086400941
  0.4248462772338257  0.3980703493252520  0.7441406783819247
 
  0.00000000E+00  0.00000000E+00  0.00000000E+00
  0.00000000E+00  0.00000000E+00  0.00000000E+00
  0.00000000E+00  0.00000000E+00  0.00000000E+00
  0.00000000E+00  0.00000000E+00  0.00000000E+00
  0.00000000E+00  0.00000000E+00  0.00000000E+00
  0.00000000E+00  0.00000000E+00  0.00000000E+00
  0.00000000E+00  0.00000000E+00  0.00000000E+00
  0.00000000E+00  0.00000000E+00  0.00000000E+00
  0.00000000E+00  0.00000000E+00  0.00000000E+00
  0.00000000E+00  0.00000000E+00  0.00000000E+00
  0.00000000E+00  0.00000000E+00  0.00000000E+00
  0.00000000E+00  0.00000000E+00  0.00000000E+00
  0.00000000E+00  0.00000000E+00  0.00000000E+00
  0.00000000E+00  0.00000000E+00  0.00000000E+00
  0.00000000E+00  0.00000000E+00  0.00000000E+00
  0.00000000E+00  0.00000000E+00  0.00000000E+00
  0.00000000E+00  0.00000000E+00  0.00000000E+00
  0.00000000E+00  0.00000000E+00  0.00000000E+00
  0.00000000E+00  0.00000000E+00  0.00000000E+00
  0.00000000E+00  0.00000000E+00  0.00000000E+00
  0.00000000E+00  0.00000000E+00  0.00000000E+00
  0.00000000E+00  0.00000000E+00  0.00000000E+00
  0.00000000E+00  0.00000000E+00  0.00000000E+00
  0.00000000E+00  0.00000000E+00  0.00000000E+00
  0.00000000E+00  0.00000000E+00  0.00000000E+00
  0.00000000E+00  0.00000000E+00  0.00000000E+00
  0.00000000E+00  0.00000000E+00  0.00000000E+00
  0.00000000E+00  0.00000000E+00  0.00000000E+00
  0.00000000E+00  0.00000000E+00  0.00000000E+00
