Ba7 B13                                 
   1.00000000000000     
     7.4522021259861431    1.8320596440709132   -1.3270508539200441
    -2.1110346964922888    3.7759896873958367    0.4394288506562204
    -3.3632406546711144   -1.0970816226989333   15.6421147066876198
   B    Ba
    13     7
Direct
  0.3673217644134184  0.6082010187802993  0.2457997862043158
  0.4918985886033482  0.3362721578404688  0.2953508604552724
  0.4917002950825946  0.9522008129181145  0.2956670697793911
  0.6287119964282155  0.7136355234806402  0.2927008163495870
  0.4938137444045978  0.6053707328110889  0.3727677337546567
  0.3788307204022203  0.5008031606222758  0.4526008131070043
  0.5075259169383415  0.5075174973681271  0.5616182381986548
  0.6201674488945841  0.6060398498688002  0.4915582186420906
  0.5011932861959210  0.4486403631943787  0.6662082234366480
  0.3380107170035771  0.3378959339372187  0.7234617898129088
  0.4916372766451289  0.0991634955626139  0.7368640770225099
  0.4917163040727530  0.7153253168156724  0.7369727565754900
  0.6162339752030661  0.4406337226779939  0.7916777991509534
  0.8272464454059900  0.9731889498195940  0.9294272542394424
  0.5015394006045710  0.2324366607365462  0.1255614115666930
  0.8359325380775218  0.2493120094121792  0.4222328479604869
  0.1131297672774636  0.9664734104065431  0.2756862548104522
  0.7936904102641691  0.0945255911622809  0.6665526882957309
  0.2276266315264763  0.8655856622746398  0.5664317742253004
  0.2820747725560295  0.7467801303105404  0.8512595864124037
 
  0.00000000E+00  0.00000000E+00  0.00000000E+00
  0.00000000E+00  0.00000000E+00  0.00000000E+00
  0.00000000E+00  0.00000000E+00  0.00000000E+00
  0.00000000E+00  0.00000000E+00  0.00000000E+00
  0.00000000E+00  0.00000000E+00  0.00000000E+00
  0.00000000E+00  0.00000000E+00  0.00000000E+00
  0.00000000E+00  0.00000000E+00  0.00000000E+00
  0.00000000E+00  0.00000000E+00  0.00000000E+00
  0.00000000E+00  0.00000000E+00  0.00000000E+00
  0.00000000E+00  0.00000000E+00  0.00000000E+00
  0.00000000E+00  0.00000000E+00  0.00000000E+00
  0.00000000E+00  0.00000000E+00  0.00000000E+00
  0.00000000E+00  0.00000000E+00  0.00000000E+00
  0.00000000E+00  0.00000000E+00  0.00000000E+00
  0.00000000E+00  0.00000000E+00  0.00000000E+00
  0.00000000E+00  0.00000000E+00  0.00000000E+00
  0.00000000E+00  0.00000000E+00  0.00000000E+00
  0.00000000E+00  0.00000000E+00  0.00000000E+00
  0.00000000E+00  0.00000000E+00  0.00000000E+00
  0.00000000E+00  0.00000000E+00  0.00000000E+00
