Mg2 B2 F10                              
   1.00000000000000     
     3.6194924110548157   -3.3268625517038761   -0.2945509677816591
     3.6194924110548157    3.3268625517038766   -0.2945509677816591
    -3.0514020413260252    0.0000000000000000    6.4497827948164881
   Mg   F    B 
     2    10     2
Direct
  0.4999432388697969  0.4999784105231484  0.2142719642002504
  0.4999784105231484  0.4999432388697969  0.7142719642002504
  0.2268099441581910  0.8084611150049454  0.1349057501775306
  0.1484678363165202  0.2134447103997772  0.0430477034507248
  0.7731455989779903  0.1915980406300193  0.2937405589099598
  0.8514006326307495  0.7865273719641692  0.3854816325728265
  0.4158874117785700  0.5839720668112989  0.4642600885337345
  0.8084611150049454  0.2268099441581910  0.6349057501775306
  0.2134447103997772  0.1484678363165202  0.5430477034507248
  0.1915980406300193  0.7731455989779903  0.7937405589099598
  0.7865273719641692  0.8514006326307495  0.8854816325728336
  0.5839720668112989  0.4158874117785700  0.9642600885337345
  0.0880102854065896  0.9119533365281924  0.9642923021549734
  0.9119533365281924  0.0880102854065896  0.4642923021549734
 
  0.00000000E+00  0.00000000E+00  0.00000000E+00
  0.00000000E+00  0.00000000E+00  0.00000000E+00
  0.00000000E+00  0.00000000E+00  0.00000000E+00
  0.00000000E+00  0.00000000E+00  0.00000000E+00
  0.00000000E+00  0.00000000E+00  0.00000000E+00
  0.00000000E+00  0.00000000E+00  0.00000000E+00
  0.00000000E+00  0.00000000E+00  0.00000000E+00
  0.00000000E+00  0.00000000E+00  0.00000000E+00
  0.00000000E+00  0.00000000E+00  0.00000000E+00
  0.00000000E+00  0.00000000E+00  0.00000000E+00
  0.00000000E+00  0.00000000E+00  0.00000000E+00
  0.00000000E+00  0.00000000E+00  0.00000000E+00
  0.00000000E+00  0.00000000E+00  0.00000000E+00
  0.00000000E+00  0.00000000E+00  0.00000000E+00
