Mg4 Ga4 F2                              
   1.00000000000000     
     3.4218538686996012    0.8076901995877218   -0.0007255935563650
    -0.9621105565924016    3.3099412318179211    0.0004414495364664
     0.0031359343567031   -0.0029026550228891   16.2526236135442375
   F    Ga   Mg
     2     4     4
Direct
  0.7557157485471819  0.2416901587598943  0.2499978287180653
  0.2443548659772290  0.7582226916127084  0.7500229191373791
  0.2511172773551351  0.7481914896071302  0.0415255358405986
  0.2523116248044701  0.7482919118363540  0.4584864279206187
  0.7488781088056484  0.2518954339008985  0.5415326800764717
  0.7476451635580759  0.2516752279065884  0.9584936278505438
  0.7531463327514487  0.2461584419626774  0.1339346487322857
  0.7542391721167263  0.2462435761454529  0.3660728716273169
  0.2469422061877111  0.7540356163817279  0.6339509061738227
  0.2456494998963805  0.7535954518865751  0.8660825539228867
 
  0.00000000E+00  0.00000000E+00  0.00000000E+00
  0.00000000E+00  0.00000000E+00  0.00000000E+00
  0.00000000E+00  0.00000000E+00  0.00000000E+00
  0.00000000E+00  0.00000000E+00  0.00000000E+00
  0.00000000E+00  0.00000000E+00  0.00000000E+00
  0.00000000E+00  0.00000000E+00  0.00000000E+00
  0.00000000E+00  0.00000000E+00  0.00000000E+00
  0.00000000E+00  0.00000000E+00  0.00000000E+00
  0.00000000E+00  0.00000000E+00  0.00000000E+00
  0.00000000E+00  0.00000000E+00  0.00000000E+00
