Sr22 B14                                
   1.00000000000000     
     0.0000000000000000    7.7918400807217996    7.7918400807217996
     7.7918400807217996    0.0000000000000000    7.7918400807217996
     7.7918400807217996    7.7918400807217996    0.0000000000000000
   Sr   B 
    22    14
Direct
  0.6622373845349898  0.3377626154650102  0.0000000000000000
  0.6622373845349898  0.0000000000000000  0.0000000000000000
  0.0912763573472830  0.6362412142175771  0.6362412142175771
  0.0000000000000000  0.6622373845349898  0.3377626154650102
  0.0000000000000000  0.3377626154650102  0.6622373845349898
  0.3637587857824229  0.3637587857824229  0.3637587857824229
  0.0000000000000000  0.6622373845349898  0.0000000000000000
  0.6362412142175771  0.6362412142175771  0.0912763573472830
  0.0000000000000000  0.0000000000000000  0.6622373845349898
  0.6362412142175771  0.0912763573472830  0.6362412142175771
  0.0000000000000000  0.0000000000000000  0.3377626154650102
  0.3377626154650102  0.0000000000000000  0.0000000000000000
  0.0000000000000000  0.3377626154650102  0.0000000000000000
  0.6622373845349898  0.0000000000000000  0.3377626154650102
  0.5000000000000000  0.5000000000000000  0.5000000000000000
  0.3637587857824229  0.9087236426527170  0.3637587857824229
  0.3637587857824229  0.3637587857824229  0.9087236426527170
  0.3377626154650102  0.6622373845349898  0.0000000000000000
  0.3377626154650102  0.0000000000000000  0.6622373845349898
  0.6362412142175771  0.6362412142175771  0.6362412142175771
  0.0000000000000000  0.0000000000000000  0.0000000000000000
  0.9087236426527170  0.3637587857824229  0.3637587857824229
  0.2710346002556534  0.2710346002556534  0.7289653997443466
  0.7289653997443466  0.7289653997443466  0.2710346002556534
  0.7909633358746788  0.6271099923759564  0.7909633358746788
  0.7289653997443466  0.2710346002556534  0.2710346002556534
  0.3728900076240365  0.2090366641253212  0.2090366641253212
  0.2710346002556534  0.7289653997443466  0.7289653997443466
  0.2090366641253212  0.2090366641253212  0.2090366641253212
  0.2090366641253212  0.3728900076240365  0.2090366641253212
  0.6271099923759564  0.7909633358746788  0.7909633358746788
  0.7909633358746788  0.7909633358746788  0.7909633358746788
  0.7289653997443466  0.2710346002556534  0.7289653997443466
  0.2090366641253212  0.2090366641253212  0.3728900076240365
  0.2710346002556534  0.7289653997443466  0.2710346002556534
  0.7909633358746788  0.7909633358746788  0.6271099923759564
 
  0.00000000E+00  0.00000000E+00  0.00000000E+00
  0.00000000E+00  0.00000000E+00  0.00000000E+00
  0.00000000E+00  0.00000000E+00  0.00000000E+00
  0.00000000E+00  0.00000000E+00  0.00000000E+00
  0.00000000E+00  0.00000000E+00  0.00000000E+00
  0.00000000E+00  0.00000000E+00  0.00000000E+00
  0.00000000E+00  0.00000000E+00  0.00000000E+00
  0.00000000E+00  0.00000000E+00  0.00000000E+00
  0.00000000E+00  0.00000000E+00  0.00000000E+00
  0.00000000E+00  0.00000000E+00  0.00000000E+00
  0.00000000E+00  0.00000000E+00  0.00000000E+00
  0.00000000E+00  0.00000000E+00  0.00000000E+00
  0.00000000E+00  0.00000000E+00  0.00000000E+00
  0.00000000E+00  0.00000000E+00  0.00000000E+00
  0.00000000E+00  0.00000000E+00  0.00000000E+00
  0.00000000E+00  0.00000000E+00  0.00000000E+00
  0.00000000E+00  0.00000000E+00  0.00000000E+00
  0.00000000E+00  0.00000000E+00  0.00000000E+00
  0.00000000E+00  0.00000000E+00  0.00000000E+00
  0.00000000E+00  0.00000000E+00  0.00000000E+00
  0.00000000E+00  0.00000000E+00  0.00000000E+00
  0.00000000E+00  0.00000000E+00  0.00000000E+00
  0.00000000E+00  0.00000000E+00  0.00000000E+00
  0.00000000E+00  0.00000000E+00  0.00000000E+00
  0.00000000E+00  0.00000000E+00  0.00000000E+00
  0.00000000E+00  0.00000000E+00  0.00000000E+00
  0.00000000E+00  0.00000000E+00  0.00000000E+00
  0.00000000E+00  0.00000000E+00  0.00000000E+00
  0.00000000E+00  0.00000000E+00  0.00000000E+00
  0.00000000E+00  0.00000000E+00  0.00000000E+00
  0.00000000E+00  0.00000000E+00  0.00000000E+00
  0.00000000E+00  0.00000000E+00  0.00000000E+00
  0.00000000E+00  0.00000000E+00  0.00000000E+00
  0.00000000E+00  0.00000000E+00  0.00000000E+00
  0.00000000E+00  0.00000000E+00  0.00000000E+00
  0.00000000E+00  0.00000000E+00  0.00000000E+00
