Sr4 Al10                                
   1.00000000000000     
     4.7871094971068242    4.7871094971068251   -3.9505071151322286
     4.7871094971068242   -4.7871094971068251    3.9505071151322286
    -4.7871094971068242   -4.7871094971068251   -3.9505071151322286
   Al   Sr
    10     4
Direct
  0.8295544809972100  0.3239099396593730  0.1534644206565758
  0.4943554586621559  0.3239099396593730  0.1704455190027900
  0.8465355793434242  0.6760900603406270  0.1704455190027900
  0.1719891577851911  0.0000000000000000  0.1719891577851911
  0.1704455190027900  0.3239099396593730  0.4943554586621559
  0.8295544809972100  0.6760900603406270  0.5056445413378441
  0.8280108422148089  0.0000000000000000  0.8280108422148089
  0.1534644206565758  0.3239099396593730  0.8295544809972100
  0.5056445413378441  0.6760900603406270  0.8295544809972100
  0.1704455190027900  0.6760900603406270  0.8465355793434242
  0.6919315198855287  0.0000000000000000  0.3080684801144713
  0.3080684801144713  0.6161369602289355  0.3080684801144713
  0.3080684801144713  0.0000000000000000  0.6919315198855287
  0.6919315198855287  0.3838630397710645  0.6919315198855287
 
  0.00000000E+00  0.00000000E+00  0.00000000E+00
  0.00000000E+00  0.00000000E+00  0.00000000E+00
  0.00000000E+00  0.00000000E+00  0.00000000E+00
  0.00000000E+00  0.00000000E+00  0.00000000E+00
  0.00000000E+00  0.00000000E+00  0.00000000E+00
  0.00000000E+00  0.00000000E+00  0.00000000E+00
  0.00000000E+00  0.00000000E+00  0.00000000E+00
  0.00000000E+00  0.00000000E+00  0.00000000E+00
  0.00000000E+00  0.00000000E+00  0.00000000E+00
  0.00000000E+00  0.00000000E+00  0.00000000E+00
  0.00000000E+00  0.00000000E+00  0.00000000E+00
  0.00000000E+00  0.00000000E+00  0.00000000E+00
  0.00000000E+00  0.00000000E+00  0.00000000E+00
  0.00000000E+00  0.00000000E+00  0.00000000E+00
