Tl8 F14                                 
   1.0000000000000000     
     3.4575713944391362   -5.4098382392462678   -0.0538652090762105
    -3.4575713944391362   -5.4098382392462678   -0.0538652090762105
     0.0000000000000000    3.4632047645962065  -11.4558727667467899
   F    Tl
    14     8
Direct
  0.4005130333445024  0.4005130333445024  0.0354190346469139
  0.8840135462132253  0.2767244133886706  0.1672859378081810
  0.2767244133886706  0.8840135462132253  0.1672859378081810
  0.8137484310439405  0.8137484310439405  0.2056535726330182
  0.5896469528136734  0.1376908639760472  0.4098864451263466
  0.1376908639760472  0.5896469528136734  0.4098864451263466
  0.5639941227381087  0.5639941227381087  0.3282374004046957
  0.4392135314223466  0.4392135314223466  0.6652177564468431
  0.8537879358212805  0.4042449528914958  0.5737394763512782
  0.4042449528914958  0.8537879358212805  0.5737394763512782
  0.2032176193805952  0.2032176193805952  0.8024556588566156
  0.7388495371037891  0.1366754435449238  0.8357044225710411
  0.1366754435449238  0.7388495371037891  0.8357044225710411
  0.6192171211231496  0.6192171211231496  0.9678748192978404
  0.9035857335218367  0.9035857335218367  0.0253362838839308
  0.6073390901391704  0.6073390901391704  0.1562440724118943
  0.2946829959453510  0.2946829959453510  0.2116089767732916
  0.0396328324898363  0.0396328324898363  0.3763758550538512
  0.4928647759871012  0.4928647759871012  0.4925208056912780
  0.9865839731222152  0.9865839731222152  0.6532908545434992
  0.7058310230710561  0.7058310230710561  0.7607891057659160
  0.4087420709176541  0.4087420709176541  0.8454432398766727

  0.00000000E+00  0.00000000E+00 -0.00000000E+00
  0.00000000E+00  0.00000000E+00 -0.00000000E+00
  0.00000000E+00  0.00000000E+00 -0.00000000E+00
  0.00000000E+00  0.00000000E+00 -0.00000000E+00
  0.00000000E+00  0.00000000E+00 -0.00000000E+00
  0.00000000E+00  0.00000000E+00 -0.00000000E+00
  0.00000000E+00  0.00000000E+00 -0.00000000E+00
  0.00000000E+00  0.00000000E+00 -0.00000000E+00
  0.00000000E+00  0.00000000E+00 -0.00000000E+00
  0.00000000E+00  0.00000000E+00 -0.00000000E+00
  0.00000000E+00  0.00000000E+00 -0.00000000E+00
  0.00000000E+00  0.00000000E+00 -0.00000000E+00
  0.00000000E+00  0.00000000E+00 -0.00000000E+00
  0.00000000E+00  0.00000000E+00 -0.00000000E+00
  0.00000000E+00  0.00000000E+00 -0.00000000E+00
  0.00000000E+00  0.00000000E+00 -0.00000000E+00
  0.00000000E+00  0.00000000E+00 -0.00000000E+00
  0.00000000E+00  0.00000000E+00 -0.00000000E+00
  0.00000000E+00  0.00000000E+00 -0.00000000E+00
  0.00000000E+00  0.00000000E+00 -0.00000000E+00
  0.00000000E+00  0.00000000E+00 -0.00000000E+00
  0.00000000E+00  0.00000000E+00 -0.00000000E+00
