Be22 Al14                               
   1.00000000000000     
    -5.5231570086738007    5.4078552299307674    0.5034496828099150
     6.0918737671837615    0.0000000000000000   -8.1617940571829202
    -5.5231570086738007   -5.4078552299307674    0.5034496828099150
   Be   Al
    22    14
Direct
  0.9409828312820210  0.7924017805938206  0.9409828312820210
  0.3984751277739278  0.2860823786108071  0.0611913640056088
  0.8042703518872329  0.2210042510421246  0.1707811580867187
  0.8872015097896480  0.8439593508116303  0.2472409113168226
  0.4954980727889833  0.0248851079397880  0.1611461063311239
  0.3145590079715035  0.6853706920673730  0.3145590079715035
  0.6082612303222206  0.8502888312346570  0.2787591689550624
  0.0611913640056088  0.2860823786108071  0.3984751277739278
  0.1611461063311239  0.0248851079397880  0.4954980727889833
  0.3918288855618570  0.9335295976577598  0.3918288855618570
  0.8974201990969277  0.0676544862591157  0.5101784850295346
  0.4812362163329027  0.1883296569515664  0.4812362163329027
  0.7473214359441016  0.1733303137794664  0.4124203101620481
  0.2787591689550624  0.8502888312346570  0.6082612303222206
  0.5600455304964527  0.8661434428110653  0.5600455304964527
  0.9817989451168643  0.6652081399138154  0.6327536965951168
  0.5101784850295346  0.0676544862591157  0.8974201990969277
  0.4124203101620481  0.1733303137794664  0.7473214359441016
  0.6583615387266804  0.1414689627483909  0.6583615387266804
  0.1707811580867187  0.2210042510421246  0.8042703518872329
  0.2472409113168226  0.8439593508116303  0.8872015097896480
  0.6327536965951168  0.6652081399138154  0.9817989451168643
  0.7566104550091595  0.3720843201984465  0.0185346048585231
  0.2155741356720284  0.0956385861266824  0.2155741356720284
  0.7989233255336785  0.9704910893739935  0.0920616489308017
  0.1547063131110136  0.3778171411196851  0.1547063131110136
  0.6580773286666712  0.3916354714873336  0.3642604626012655
  0.5886427664710752  0.6129408471553077  0.2885008959108291
  0.0015701647593502  0.6954528890313014  0.3288332220660379
  0.0185346048585231  0.3720843201984465  0.7566104550091595
  0.3642604626012655  0.3916354714873336  0.6580773286666712
  0.2885008959108291  0.6129408471553077  0.5886427664710752
  0.0920616489308017  0.9704910893739935  0.7989233255336785
  0.8386704275727794  0.0903297619916401  0.8386704275727794
  0.7529021652634071  0.4789354242564485  0.7529021652634071
  0.3288332220660379  0.6954528890313014  0.0015701647593502
 
  0.00000000E+00  0.00000000E+00  0.00000000E+00
  0.00000000E+00  0.00000000E+00  0.00000000E+00
  0.00000000E+00  0.00000000E+00  0.00000000E+00
  0.00000000E+00  0.00000000E+00  0.00000000E+00
  0.00000000E+00  0.00000000E+00  0.00000000E+00
  0.00000000E+00  0.00000000E+00  0.00000000E+00
  0.00000000E+00  0.00000000E+00  0.00000000E+00
  0.00000000E+00  0.00000000E+00  0.00000000E+00
  0.00000000E+00  0.00000000E+00  0.00000000E+00
  0.00000000E+00  0.00000000E+00  0.00000000E+00
  0.00000000E+00  0.00000000E+00  0.00000000E+00
  0.00000000E+00  0.00000000E+00  0.00000000E+00
  0.00000000E+00  0.00000000E+00  0.00000000E+00
  0.00000000E+00  0.00000000E+00  0.00000000E+00
  0.00000000E+00  0.00000000E+00  0.00000000E+00
  0.00000000E+00  0.00000000E+00  0.00000000E+00
  0.00000000E+00  0.00000000E+00  0.00000000E+00
  0.00000000E+00  0.00000000E+00  0.00000000E+00
  0.00000000E+00  0.00000000E+00  0.00000000E+00
  0.00000000E+00  0.00000000E+00  0.00000000E+00
  0.00000000E+00  0.00000000E+00  0.00000000E+00
  0.00000000E+00  0.00000000E+00  0.00000000E+00
  0.00000000E+00  0.00000000E+00  0.00000000E+00
  0.00000000E+00  0.00000000E+00  0.00000000E+00
  0.00000000E+00  0.00000000E+00  0.00000000E+00
  0.00000000E+00  0.00000000E+00  0.00000000E+00
  0.00000000E+00  0.00000000E+00  0.00000000E+00
  0.00000000E+00  0.00000000E+00  0.00000000E+00
  0.00000000E+00  0.00000000E+00  0.00000000E+00
  0.00000000E+00  0.00000000E+00  0.00000000E+00
  0.00000000E+00  0.00000000E+00  0.00000000E+00
  0.00000000E+00  0.00000000E+00  0.00000000E+00
  0.00000000E+00  0.00000000E+00  0.00000000E+00
  0.00000000E+00  0.00000000E+00  0.00000000E+00
  0.00000000E+00  0.00000000E+00  0.00000000E+00
  0.00000000E+00  0.00000000E+00  0.00000000E+00
