Ca41 B67                                
   1.00000000000000     
    11.8606027621378125    0.0000000000000000    0.0000000000000000
     0.0000000000000000   11.8606027621378125    0.0000000000000000
     0.0000000000000000    0.0000000000000000   11.8606027621378125
   Ca   B 
    41    67
Direct
  0.6327972572869314  0.3672027427130686  0.1460405956720123
  0.6327972572869314  0.8539594043279877  0.3672027427130686
  0.1460405956720123  0.6327972572869314  0.6327972572869314
  0.3672027427130686  0.8539594043279877  0.6327972572869314
  0.0000000000000000  0.7652070423823716  0.0000000000000000
  0.8539594043279877  0.6327972572869314  0.6327972572869314
  0.1460405956720123  0.3672027427130686  0.3672027427130686
  0.6327972572869314  0.1460405956720123  0.3672027427130686
  0.8219530182480241  0.1780469817519759  0.1780469817519759
  0.8539594043279877  0.6327972572869314  0.3672027427130686
  0.0000000000000000  0.0000000000000000  0.2347929576176284
  0.6327972572869314  0.6327972572869314  0.1460405956720123
  0.3672027427130686  0.6327972572869314  0.8539594043279877
  0.1780469817519759  0.1780469817519759  0.8219530182480241
  0.6327972572869314  0.3672027427130686  0.8539594043279877
  0.0000000000000000  0.5000000000000000  0.0000000000000000
  0.6327972572869314  0.1460405956720123  0.6327972572869314
  0.1460405956720123  0.6327972572869314  0.3672027427130686
  0.8219530182480241  0.1780469817519759  0.8219530182480241
  0.1460405956720123  0.3672027427130686  0.6327972572869314
  0.1780469817519759  0.1780469817519759  0.1780469817519759
  0.6327972572869314  0.6327972572869314  0.8539594043279877
  0.6327972572869314  0.8539594043279877  0.6327972572869314
  0.8219530182480241  0.8219530182480241  0.1780469817519759
  0.2347929576176284  0.0000000000000000  0.0000000000000000
  0.3672027427130686  0.1460405956720123  0.6327972572869314
  0.8539594043279877  0.3672027427130686  0.6327972572869314
  0.0000000000000000  0.0000000000000000  0.5000000000000000
  0.1780469817519759  0.8219530182480241  0.1780469817519759
  0.3672027427130686  0.6327972572869314  0.1460405956720123
  0.0000000000000000  0.2347929576176284  0.0000000000000000
  0.1780469817519759  0.8219530182480241  0.8219530182480241
  0.7652070423823716  0.0000000000000000  0.0000000000000000
  0.3672027427130686  0.3672027427130686  0.8539594043279877
  0.3672027427130686  0.3672027427130686  0.1460405956720123
  0.3672027427130686  0.1460405956720123  0.3672027427130686
  0.5000000000000000  0.0000000000000000  0.0000000000000000
  0.8539594043279877  0.3672027427130686  0.3672027427130686
  0.3672027427130686  0.8539594043279877  0.3672027427130686
  0.0000000000000000  0.0000000000000000  0.7652070423823716
  0.8219530182480241  0.8219530182480241  0.8219530182480241
  0.5000000000000000  0.3889895973074005  0.3889895973074005
  0.8490699320423616  0.1509300679576384  0.5000000000000000
  0.3889895973074005  0.5000000000000000  0.6110104026925995
  0.7851970255216685  0.0000000000000000  0.5000000000000000
  0.6328475741538711  0.0000000000000000  0.8207747443623390
  0.8207747443623390  0.0000000000000000  0.6328475741538711
  0.5000000000000000  0.0000000000000000  0.2148029744783315
  0.3671524258461361  0.8207747443623390  0.0000000000000000
  0.0000000000000000  0.7851970255216685  0.5000000000000000
  0.2148029744783315  0.0000000000000000  0.5000000000000000
  0.6328475741538711  0.0000000000000000  0.1792252556376610
  0.5000000000000000  0.8490699320423616  0.1509300679576384
  0.7851970255216685  0.5000000000000000  0.0000000000000000
  0.1792252556376610  0.6328475741538711  0.0000000000000000
  0.8490699320423616  0.5000000000000000  0.1509300679576384
  0.2830038190535049  0.5000000000000000  0.5000000000000000
  0.1792252556376610  0.3671524258461361  0.0000000000000000
  0.5000000000000000  0.5000000000000000  0.2830038190535049
  0.5000000000000000  0.8490699320423616  0.8490699320423616
  0.5000000000000000  0.0000000000000000  0.7851970255216685
  0.3889895973074005  0.3889895973074005  0.5000000000000000
  0.5000000000000000  0.1509300679576384  0.1509300679576384
  0.5000000000000000  0.6110104026925995  0.3889895973074005
  0.3671524258461361  0.0000000000000000  0.1792252556376610
  0.1792252556376610  0.0000000000000000  0.6328475741538711
  0.8207747443623390  0.0000000000000000  0.3671524258461361
  0.1509300679576384  0.5000000000000000  0.1509300679576384
  0.0000000000000000  0.1792252556376610  0.6328475741538711
  0.3671524258461361  0.0000000000000000  0.8207747443623390
  0.0000000000000000  0.8207747443623390  0.3671524258461361
  0.1509300679576384  0.1509300679576384  0.5000000000000000
  0.5000000000000000  0.5000000000000000  0.5000000000000000
  0.5000000000000000  0.2148029744783315  0.0000000000000000
  0.5000000000000000  0.6110104026925995  0.6110104026925995
  0.6110104026925995  0.3889895973074005  0.5000000000000000
  0.1792252556376610  0.0000000000000000  0.3671524258461361
  0.6110104026925995  0.5000000000000000  0.6110104026925995
  0.5000000000000000  0.7851970255216685  0.0000000000000000
  0.0000000000000000  0.3671524258461361  0.8207747443623390
  0.0000000000000000  0.6328475741538711  0.8207747443623390
  0.5000000000000000  0.2830038190535049  0.5000000000000000
  0.5000000000000000  0.7169961809464951  0.5000000000000000
  0.8490699320423616  0.8490699320423616  0.5000000000000000
  0.0000000000000000  0.1792252556376610  0.3671524258461361
  0.1509300679576384  0.8490699320423616  0.5000000000000000
  0.0000000000000000  0.3671524258461361  0.1792252556376610
  0.0000000000000000  0.6328475741538711  0.1792252556376610
  0.0000000000000000  0.8207747443623390  0.6328475741538711
  0.3889895973074005  0.6110104026925995  0.5000000000000000
  0.6328475741538711  0.1792252556376610  0.0000000000000000
  0.8207747443623390  0.6328475741538711  0.0000000000000000
  0.2148029744783315  0.5000000000000000  0.0000000000000000
  0.3671524258461361  0.1792252556376610  0.0000000000000000
  0.6328475741538711  0.8207747443623390  0.0000000000000000
  0.8490699320423616  0.5000000000000000  0.8490699320423616
  0.7169961809464951  0.5000000000000000  0.5000000000000000
  0.0000000000000000  0.5000000000000000  0.2148029744783315
  0.5000000000000000  0.1509300679576384  0.8490699320423616
  0.5000000000000000  0.3889895973074005  0.6110104026925995
  0.3889895973074005  0.5000000000000000  0.3889895973074005
  0.0000000000000000  0.2148029744783315  0.5000000000000000
  0.8207747443623390  0.3671524258461361  0.0000000000000000
  0.1509300679576384  0.5000000000000000  0.8490699320423616
  0.6110104026925995  0.5000000000000000  0.3889895973074005
  0.6110104026925995  0.6110104026925995  0.5000000000000000
  0.5000000000000000  0.5000000000000000  0.7169961809464951
  0.0000000000000000  0.5000000000000000  0.7851970255216685
 
  0.00000000E+00  0.00000000E+00  0.00000000E+00
  0.00000000E+00  0.00000000E+00  0.00000000E+00
  0.00000000E+00  0.00000000E+00  0.00000000E+00
  0.00000000E+00  0.00000000E+00  0.00000000E+00
  0.00000000E+00  0.00000000E+00  0.00000000E+00
  0.00000000E+00  0.00000000E+00  0.00000000E+00
  0.00000000E+00  0.00000000E+00  0.00000000E+00
  0.00000000E+00  0.00000000E+00  0.00000000E+00
  0.00000000E+00  0.00000000E+00  0.00000000E+00
  0.00000000E+00  0.00000000E+00  0.00000000E+00
  0.00000000E+00  0.00000000E+00  0.00000000E+00
  0.00000000E+00  0.00000000E+00  0.00000000E+00
  0.00000000E+00  0.00000000E+00  0.00000000E+00
  0.00000000E+00  0.00000000E+00  0.00000000E+00
  0.00000000E+00  0.00000000E+00  0.00000000E+00
  0.00000000E+00  0.00000000E+00  0.00000000E+00
  0.00000000E+00  0.00000000E+00  0.00000000E+00
  0.00000000E+00  0.00000000E+00  0.00000000E+00
  0.00000000E+00  0.00000000E+00  0.00000000E+00
  0.00000000E+00  0.00000000E+00  0.00000000E+00
  0.00000000E+00  0.00000000E+00  0.00000000E+00
  0.00000000E+00  0.00000000E+00  0.00000000E+00
  0.00000000E+00  0.00000000E+00  0.00000000E+00
  0.00000000E+00  0.00000000E+00  0.00000000E+00
  0.00000000E+00  0.00000000E+00  0.00000000E+00
  0.00000000E+00  0.00000000E+00  0.00000000E+00
  0.00000000E+00  0.00000000E+00  0.00000000E+00
  0.00000000E+00  0.00000000E+00  0.00000000E+00
  0.00000000E+00  0.00000000E+00  0.00000000E+00
  0.00000000E+00  0.00000000E+00  0.00000000E+00
  0.00000000E+00  0.00000000E+00  0.00000000E+00
  0.00000000E+00  0.00000000E+00  0.00000000E+00
  0.00000000E+00  0.00000000E+00  0.00000000E+00
  0.00000000E+00  0.00000000E+00  0.00000000E+00
  0.00000000E+00  0.00000000E+00  0.00000000E+00
  0.00000000E+00  0.00000000E+00  0.00000000E+00
  0.00000000E+00  0.00000000E+00  0.00000000E+00
  0.00000000E+00  0.00000000E+00  0.00000000E+00
  0.00000000E+00  0.00000000E+00  0.00000000E+00
  0.00000000E+00  0.00000000E+00  0.00000000E+00
  0.00000000E+00  0.00000000E+00  0.00000000E+00
  0.00000000E+00  0.00000000E+00  0.00000000E+00
  0.00000000E+00  0.00000000E+00  0.00000000E+00
  0.00000000E+00  0.00000000E+00  0.00000000E+00
  0.00000000E+00  0.00000000E+00  0.00000000E+00
  0.00000000E+00  0.00000000E+00  0.00000000E+00
  0.00000000E+00  0.00000000E+00  0.00000000E+00
  0.00000000E+00  0.00000000E+00  0.00000000E+00
  0.00000000E+00  0.00000000E+00  0.00000000E+00
  0.00000000E+00  0.00000000E+00  0.00000000E+00
  0.00000000E+00  0.00000000E+00  0.00000000E+00
  0.00000000E+00  0.00000000E+00  0.00000000E+00
  0.00000000E+00  0.00000000E+00  0.00000000E+00
  0.00000000E+00  0.00000000E+00  0.00000000E+00
  0.00000000E+00  0.00000000E+00  0.00000000E+00
  0.00000000E+00  0.00000000E+00  0.00000000E+00
  0.00000000E+00  0.00000000E+00  0.00000000E+00
  0.00000000E+00  0.00000000E+00  0.00000000E+00
  0.00000000E+00  0.00000000E+00  0.00000000E+00
  0.00000000E+00  0.00000000E+00  0.00000000E+00
  0.00000000E+00  0.00000000E+00  0.00000000E+00
  0.00000000E+00  0.00000000E+00  0.00000000E+00
  0.00000000E+00  0.00000000E+00  0.00000000E+00
  0.00000000E+00  0.00000000E+00  0.00000000E+00
  0.00000000E+00  0.00000000E+00  0.00000000E+00
  0.00000000E+00  0.00000000E+00  0.00000000E+00
  0.00000000E+00  0.00000000E+00  0.00000000E+00
  0.00000000E+00  0.00000000E+00  0.00000000E+00
  0.00000000E+00  0.00000000E+00  0.00000000E+00
  0.00000000E+00  0.00000000E+00  0.00000000E+00
  0.00000000E+00  0.00000000E+00  0.00000000E+00
  0.00000000E+00  0.00000000E+00  0.00000000E+00
  0.00000000E+00  0.00000000E+00  0.00000000E+00
  0.00000000E+00  0.00000000E+00  0.00000000E+00
  0.00000000E+00  0.00000000E+00  0.00000000E+00
  0.00000000E+00  0.00000000E+00  0.00000000E+00
  0.00000000E+00  0.00000000E+00  0.00000000E+00
  0.00000000E+00  0.00000000E+00  0.00000000E+00
  0.00000000E+00  0.00000000E+00  0.00000000E+00
  0.00000000E+00  0.00000000E+00  0.00000000E+00
  0.00000000E+00  0.00000000E+00  0.00000000E+00
  0.00000000E+00  0.00000000E+00  0.00000000E+00
  0.00000000E+00  0.00000000E+00  0.00000000E+00
  0.00000000E+00  0.00000000E+00  0.00000000E+00
  0.00000000E+00  0.00000000E+00  0.00000000E+00
  0.00000000E+00  0.00000000E+00  0.00000000E+00
  0.00000000E+00  0.00000000E+00  0.00000000E+00
  0.00000000E+00  0.00000000E+00  0.00000000E+00
  0.00000000E+00  0.00000000E+00  0.00000000E+00
  0.00000000E+00  0.00000000E+00  0.00000000E+00
  0.00000000E+00  0.00000000E+00  0.00000000E+00
  0.00000000E+00  0.00000000E+00  0.00000000E+00
  0.00000000E+00  0.00000000E+00  0.00000000E+00
  0.00000000E+00  0.00000000E+00  0.00000000E+00
  0.00000000E+00  0.00000000E+00  0.00000000E+00
  0.00000000E+00  0.00000000E+00  0.00000000E+00
  0.00000000E+00  0.00000000E+00  0.00000000E+00
  0.00000000E+00  0.00000000E+00  0.00000000E+00
  0.00000000E+00  0.00000000E+00  0.00000000E+00
  0.00000000E+00  0.00000000E+00  0.00000000E+00
  0.00000000E+00  0.00000000E+00  0.00000000E+00
  0.00000000E+00  0.00000000E+00  0.00000000E+00
  0.00000000E+00  0.00000000E+00  0.00000000E+00
  0.00000000E+00  0.00000000E+00  0.00000000E+00
  0.00000000E+00  0.00000000E+00  0.00000000E+00
  0.00000000E+00  0.00000000E+00  0.00000000E+00
  0.00000000E+00  0.00000000E+00  0.00000000E+00
  0.00000000E+00  0.00000000E+00  0.00000000E+00
