Mg2 Al2 Br6                             
   1.00000000000000     
     7.2955979379328397    0.0004192054327504    0.0000000000000000
    -3.6474360598772586    6.3189121431678537    0.0000000000000000
     0.0000000000000000    0.0000000000000000    6.5045787499816248
   Br   Mg   Al
     6     2     2
Direct
  0.1671836979223826  0.3345336243647594  0.2500000000000000
  0.1672690960384315  0.8326893718665147  0.2500000000000000
  0.6654435191073276  0.8328912219739308  0.2500000000000000
  0.3345564808926724  0.1671087780260692  0.7500000000000000
  0.8327309039615685  0.1673106281334853  0.7500000000000000
  0.8328163020776174  0.6654663756352406  0.7500000000000000
  0.0000000000000000  0.0000000000000000  0.0000000000000000
  0.0000000000000000  0.0000000000000000  0.5000000000000000
  0.6670628305896074  0.3328982936489453  0.2500000000000000
  0.3329371694103926  0.6671017063510547  0.7500000000000000
 
  0.00000000E+00  0.00000000E+00  0.00000000E+00
  0.00000000E+00  0.00000000E+00  0.00000000E+00
  0.00000000E+00  0.00000000E+00  0.00000000E+00
  0.00000000E+00  0.00000000E+00  0.00000000E+00
  0.00000000E+00  0.00000000E+00  0.00000000E+00
  0.00000000E+00  0.00000000E+00  0.00000000E+00
  0.00000000E+00  0.00000000E+00  0.00000000E+00
  0.00000000E+00  0.00000000E+00  0.00000000E+00
  0.00000000E+00  0.00000000E+00  0.00000000E+00
  0.00000000E+00  0.00000000E+00  0.00000000E+00
