Ca2In11                                 
   1.00000000000000     
    10.3730796662315647    0.0000000000000000    0.0000000000000000
     0.0000000000000000   10.3730796662315647    0.0000000000000000
     0.0000000000000000    0.0000000000000000   10.3730796662315647
   Ca   In
     6    33
Direct
  0.2070644644194601  0.5000000000000000  0.0000000000000000
  0.7929355355805399  0.5000000000000000  0.0000000000000000
  0.5000000000000000  0.0000000000000000  0.2070644644194601
  0.0000000000000000  0.2070644644194601  0.5000000000000000
  0.0000000000000000  0.7929355355805399  0.5000000000000000
  0.5000000000000000  0.0000000000000000  0.7929355355805399
  0.0000000000000000  0.0000000000000000  0.0000000000000000
  0.2721211551013170  0.1538313555280126  0.0000000000000000
  0.7278788448986830  0.1538313555280126  0.0000000000000000
  0.5000000000000000  0.3410884176533955  0.0000000000000000
  0.5000000000000000  0.6589115823466045  0.0000000000000000
  0.2721211551013170  0.8461686444719874  0.0000000000000000
  0.7278788448986830  0.8461686444719874  0.0000000000000000
  0.0000000000000000  0.2721211551013170  0.1538313555280126
  0.0000000000000000  0.7278788448986830  0.1538313555280126
  0.5000000000000000  0.5000000000000000  0.2666867674980935
  0.1538313555280126  0.0000000000000000  0.2721211551013170
  0.8461686444719874  0.0000000000000000  0.2721211551013170
  0.2810979523230870  0.2810979523230870  0.2810979523230870
  0.7189020476769130  0.2810979523230870  0.2810979523230870
  0.2810979523230870  0.7189020476769130  0.2810979523230870
  0.7189020476769130  0.7189020476769130  0.2810979523230870
  0.0000000000000000  0.5000000000000000  0.3410884176533955
  0.3410884176533955  0.0000000000000000  0.5000000000000000
  0.6589115823466045  0.0000000000000000  0.5000000000000000
  0.5000000000000000  0.2666867674980935  0.5000000000000000
  0.2666867674980935  0.5000000000000000  0.5000000000000000
  0.7333132325019065  0.5000000000000000  0.5000000000000000
  0.5000000000000000  0.7333132325019065  0.5000000000000000
  0.0000000000000000  0.5000000000000000  0.6589115823466045
  0.2810979523230870  0.2810979523230870  0.7189020476769130
  0.7189020476769130  0.2810979523230870  0.7189020476769130
  0.2810979523230870  0.7189020476769130  0.7189020476769130
  0.7189020476769130  0.7189020476769130  0.7189020476769130
  0.1538313555280126  0.0000000000000000  0.7278788448986830
  0.8461686444719874  0.0000000000000000  0.7278788448986830
  0.5000000000000000  0.5000000000000000  0.7333132325019065
  0.0000000000000000  0.2721211551013170  0.8461686444719874
  0.0000000000000000  0.7278788448986830  0.8461686444719874
 
  0.00000000E+00  0.00000000E+00  0.00000000E+00
  0.00000000E+00  0.00000000E+00  0.00000000E+00
  0.00000000E+00  0.00000000E+00  0.00000000E+00
  0.00000000E+00  0.00000000E+00  0.00000000E+00
  0.00000000E+00  0.00000000E+00  0.00000000E+00
  0.00000000E+00  0.00000000E+00  0.00000000E+00
  0.00000000E+00  0.00000000E+00  0.00000000E+00
  0.00000000E+00  0.00000000E+00  0.00000000E+00
  0.00000000E+00  0.00000000E+00  0.00000000E+00
  0.00000000E+00  0.00000000E+00  0.00000000E+00
  0.00000000E+00  0.00000000E+00  0.00000000E+00
  0.00000000E+00  0.00000000E+00  0.00000000E+00
  0.00000000E+00  0.00000000E+00  0.00000000E+00
  0.00000000E+00  0.00000000E+00  0.00000000E+00
  0.00000000E+00  0.00000000E+00  0.00000000E+00
  0.00000000E+00  0.00000000E+00  0.00000000E+00
  0.00000000E+00  0.00000000E+00  0.00000000E+00
  0.00000000E+00  0.00000000E+00  0.00000000E+00
  0.00000000E+00  0.00000000E+00  0.00000000E+00
  0.00000000E+00  0.00000000E+00  0.00000000E+00
  0.00000000E+00  0.00000000E+00  0.00000000E+00
  0.00000000E+00  0.00000000E+00  0.00000000E+00
  0.00000000E+00  0.00000000E+00  0.00000000E+00
  0.00000000E+00  0.00000000E+00  0.00000000E+00
  0.00000000E+00  0.00000000E+00  0.00000000E+00
  0.00000000E+00  0.00000000E+00  0.00000000E+00
  0.00000000E+00  0.00000000E+00  0.00000000E+00
  0.00000000E+00  0.00000000E+00  0.00000000E+00
  0.00000000E+00  0.00000000E+00  0.00000000E+00
  0.00000000E+00  0.00000000E+00  0.00000000E+00
  0.00000000E+00  0.00000000E+00  0.00000000E+00
  0.00000000E+00  0.00000000E+00  0.00000000E+00
  0.00000000E+00  0.00000000E+00  0.00000000E+00
  0.00000000E+00  0.00000000E+00  0.00000000E+00
  0.00000000E+00  0.00000000E+00  0.00000000E+00
  0.00000000E+00  0.00000000E+00  0.00000000E+00
  0.00000000E+00  0.00000000E+00  0.00000000E+00
  0.00000000E+00  0.00000000E+00  0.00000000E+00
  0.00000000E+00  0.00000000E+00  0.00000000E+00
