Mg1 B2 Cl6                              
   1.00000000000000     
     3.3189999060983810    1.9161515251509651    5.4187805254452526
    -3.3189999060983810    1.9161515251509651    5.4187805254452526
     0.0000000000000000   -3.8300539561645222    5.4179850287067959
   Mg   Cl   B 
     1     6     2
Direct
  0.0000000000000000  0.0000000000000000  0.0000000000000000
  0.7427392040254901  0.7427392040254901  0.2572593960862974
  0.7427409303168204  0.2572604793769315  0.2572530289194006
  0.2572604793769315  0.7427409303168204  0.2572530289194006
  0.2572607959745099  0.2572607959745099  0.7427406039137026
  0.7427395206230685  0.2572590696831796  0.7427469710805994
  0.2572590696831796  0.7427395206230685  0.7427469710805994
  0.2500026630706174  0.2500026630706174  0.2499977238228652
  0.7499973369293826  0.7499973369293826  0.7500022761771348
 
  0.00000000E+00  0.00000000E+00  0.00000000E+00
  0.00000000E+00  0.00000000E+00  0.00000000E+00
  0.00000000E+00  0.00000000E+00  0.00000000E+00
  0.00000000E+00  0.00000000E+00  0.00000000E+00
  0.00000000E+00  0.00000000E+00  0.00000000E+00
  0.00000000E+00  0.00000000E+00  0.00000000E+00
  0.00000000E+00  0.00000000E+00  0.00000000E+00
  0.00000000E+00  0.00000000E+00  0.00000000E+00
  0.00000000E+00  0.00000000E+00  0.00000000E+00
