Ca4 B28                                 
   1.00000000000000     
     0.0000000000000000   -6.0756106354111550   -0.0006165769922039
     5.5354258071344065    3.0377248365867580    4.1397537042898902
    -5.5354258071344065    3.0377248365867580    4.1397537042898902
   B    Ca
    28     4
Direct
  0.8828941612016195  0.2641928247342094  0.0016186041040811
  0.2116463236773853  0.3826718778692211  0.0277833879417457
  0.6988239594118042  0.3827201171709547  0.0277557642105108
  0.6745923857253686  0.7501056216463837  0.0991567971482397
  0.5214668274765160  0.3578567043685510  0.1850200944727334
  0.5064836406743680  0.5999561999595713  0.2226925473214720
  0.8161336200772666  0.5999709365092656  0.2226794943075490
  0.3254118669931572  0.9009048422099966  0.2499509434825029
  0.8828941612016195  0.0016186041040811  0.2641928247342094
  0.5214668274765160  0.1850200944727334  0.3578567043685510
  0.2116463236773853  0.0277833879417457  0.3826718778692211
  0.6988239594118042  0.0277557642105108  0.3827201171709547
  0.1838707370774841  0.7773778271771477  0.4000825233292744
  0.4935140508500737  0.7773644676779270  0.4001043150834604
  0.5064836406743680  0.2226925473214720  0.5999561999595713
  0.8161336200772666  0.2226794943075490  0.5999709365092656
  0.3011725748554426  0.9722994710567932  0.6173307997837725
  0.7883533662145794  0.9722760211956043  0.6173823943005985
  0.4785313421273329  0.8150421010458970  0.6422012000991160
  0.1171040297882016  0.9984446769610997  0.7358556523185271
  0.6745923857253686  0.0991567971482397  0.7501056216463837
  0.1838707370774841  0.4000825233292744  0.7773778271771477
  0.4935140508500737  0.4001043150834604  0.7773644676779270
  0.4785313421273329  0.6422012000991160  0.8150421010458970
  0.3254118669931572  0.2499509434825029  0.9009048422099966
  0.3011725748554426  0.6173307997837725  0.9722994710567932
  0.7883533662145794  0.6173823943005985  0.9722760211956043
  0.1171040297882016  0.7358556523185271  0.9984446769610997
  0.9999946485600191  0.0000217229472668  0.0000217229472668
  0.4999951452938447  0.0000231675824978  0.0000231675824978
  0.1357990713151693  0.3858936568219207  0.3858936568219207
  0.8642133625297532  0.6141632451620893  0.6141632451620893
 
  0.00000000E+00  0.00000000E+00  0.00000000E+00
  0.00000000E+00  0.00000000E+00  0.00000000E+00
  0.00000000E+00  0.00000000E+00  0.00000000E+00
  0.00000000E+00  0.00000000E+00  0.00000000E+00
  0.00000000E+00  0.00000000E+00  0.00000000E+00
  0.00000000E+00  0.00000000E+00  0.00000000E+00
  0.00000000E+00  0.00000000E+00  0.00000000E+00
  0.00000000E+00  0.00000000E+00  0.00000000E+00
  0.00000000E+00  0.00000000E+00  0.00000000E+00
  0.00000000E+00  0.00000000E+00  0.00000000E+00
  0.00000000E+00  0.00000000E+00  0.00000000E+00
  0.00000000E+00  0.00000000E+00  0.00000000E+00
  0.00000000E+00  0.00000000E+00  0.00000000E+00
  0.00000000E+00  0.00000000E+00  0.00000000E+00
  0.00000000E+00  0.00000000E+00  0.00000000E+00
  0.00000000E+00  0.00000000E+00  0.00000000E+00
  0.00000000E+00  0.00000000E+00  0.00000000E+00
  0.00000000E+00  0.00000000E+00  0.00000000E+00
  0.00000000E+00  0.00000000E+00  0.00000000E+00
  0.00000000E+00  0.00000000E+00  0.00000000E+00
  0.00000000E+00  0.00000000E+00  0.00000000E+00
  0.00000000E+00  0.00000000E+00  0.00000000E+00
  0.00000000E+00  0.00000000E+00  0.00000000E+00
  0.00000000E+00  0.00000000E+00  0.00000000E+00
  0.00000000E+00  0.00000000E+00  0.00000000E+00
  0.00000000E+00  0.00000000E+00  0.00000000E+00
  0.00000000E+00  0.00000000E+00  0.00000000E+00
  0.00000000E+00  0.00000000E+00  0.00000000E+00
  0.00000000E+00  0.00000000E+00  0.00000000E+00
  0.00000000E+00  0.00000000E+00  0.00000000E+00
  0.00000000E+00  0.00000000E+00  0.00000000E+00
  0.00000000E+00  0.00000000E+00  0.00000000E+00
