Mg2 Ga2 Br10                            
   1.0000000000000000     
     4.6997648551799580   -0.0000000000000001    0.0000000000000003
    -0.0000000000000011   12.1391369215991602    0.0000000000000007
     0.0000000000000001    0.0000000000000004    9.2023335014835190
   Mg   Ga   Br
     2     2    10
Direct
  0.0000000000000000  0.0000000000000000  0.5000000000000000
  0.5000000000000000  0.5000000000000000  0.0000000000000000
  0.5000000000000000  0.0000000000000000  0.0000000000000000
  0.0000000000000000  0.5000000000000000  0.5000000000000000
  0.5000000000000000  0.7438155936546025  0.5000000000000000
  0.5000000000000000  0.2561844063453975  0.5000000000000000
  0.5000000000000000  0.0000000000000000  0.3185941224000004
  0.5000000000000000  0.0000000000000000  0.6814058775999996
  0.0000000000000000  0.0000000000000000  0.0000000000000000
  0.0000000000000000  0.2438155936546025  0.0000000000000000
  0.0000000000000000  0.7561844063453975  0.0000000000000000
  0.0000000000000000  0.5000000000000000  0.8185941224000004
  0.0000000000000000  0.5000000000000000  0.1814058775999996
  0.5000000000000000  0.5000000000000000  0.5000000000000000

  0.00000000E+00  0.00000000E+00  0.00000000E+00
  0.00000000E+00  0.00000000E+00  0.00000000E+00
  0.00000000E+00  0.00000000E+00  0.00000000E+00
  0.00000000E+00  0.00000000E+00  0.00000000E+00
  0.00000000E+00  0.00000000E+00  0.00000000E+00
  0.00000000E+00  0.00000000E+00  0.00000000E+00
  0.00000000E+00  0.00000000E+00  0.00000000E+00
  0.00000000E+00  0.00000000E+00  0.00000000E+00
  0.00000000E+00  0.00000000E+00  0.00000000E+00
  0.00000000E+00  0.00000000E+00  0.00000000E+00
  0.00000000E+00  0.00000000E+00  0.00000000E+00
  0.00000000E+00  0.00000000E+00  0.00000000E+00
  0.00000000E+00  0.00000000E+00  0.00000000E+00
  0.00000000E+00  0.00000000E+00  0.00000000E+00
