Sr10 Al38                               
   1.00000000000000     
     5.8255365838805195   -0.0002531531580585    0.0000056570881602
    -2.9125370064743845    5.0452078411952037   -0.0000040710869059
     0.0000306325554185   -0.0000107772636473   35.4680472775042830
   Sr   Al
    10    38
Direct
  0.3333344263194249  0.6666517335965310  0.0190427076431448
  0.3333332129294888  0.6666241458316762  0.1303391526689310
  0.3333360079143475  0.6666208280081918  0.2499842668409329
  0.3333459307194460  0.6666320706534137  0.3696252565920588
  0.3333381958133188  0.6666510021110383  0.4809112957474184
  0.6666699738740647  0.3333223178747886  0.5190429080839323
  0.6666628601136111  0.3333308584914150  0.6303396745552732
  0.6666602970194333  0.3333264843956485  0.7499789545424775
  0.6666575683681941  0.3333259335945797  0.8696158524062412
  0.6666661504880125  0.3333240884335069  0.9809081259226886
  0.9999999533824067  0.9999837948169343  0.9999807048965295
  0.8304783325996468  0.1695064790727301  0.0660924227245161
  0.3390636145553216  0.1695104172662596  0.0660924846935842
  0.8304707284277129  0.6609141910648546  0.0660933132391435
  0.0000014474854382  0.9999663405059067  0.1265061619024834
  0.6666677941958099  0.3332868337169828  0.1280649825522886
  0.8332568001405960  0.1666951453489531  0.1887959293085828
  0.8332546842341557  0.6664636414204281  0.1887949989327922
  0.3334916243368440  0.1666984186579441  0.1887955518732980
  0.0000007510677023  0.9999491311690321  0.2499887801528686
  0.6666713797422119  0.3332905222062479  0.2499875551006028
  0.3334931818741467  0.1666990712967547  0.3111744044416795
  0.8332605267651161  0.1667055774754260  0.3111743578422406
  0.8332662820935823  0.6664722164751140  0.3111752305551647
  0.6666730014076023  0.3332969865394588  0.3718971468266119
  0.0000111977815322  0.9999734913302376  0.3734569701605324
  0.8304758674903425  0.6609108202877891  0.4338606158560054
  0.8304839163721169  0.1695062796832829  0.4338608070351313
  0.3390711600512049  0.1695096523357478  0.4338610676717565
  0.0000030103289248  0.9999851478301238  0.4999784727747212
  0.6609524059452738  0.8304697384344237  0.5661025642415254
  0.1695235147149532  0.3390416532139540  0.5661025745632244
  0.1695254181856285  0.8304708997920045  0.5661030460245655
  0.9999967686564446  0.9999997276236030  0.6265169840471287
  0.3333343647680422  0.6666592586468312  0.6280718292235008
  0.6665043023138892  0.8332492978108377  0.6887998424188453
  0.1667416826420265  0.8332489639571889  0.6887984434968644
  0.1667421527827884  0.3334890255084773  0.6887998522327052
  0.9999979270972474  0.9999864539465975  0.7499809154301147
  0.3333176935884268  0.6666646588165435  0.7499804652332571
  0.1667284660109516  0.8332452943305739  0.8111642865465996
  0.1667308036336266  0.3334726080716734  0.8111628107301527
  0.6665044359747228  0.8332446404407534  0.8111625736918526
  0.3333276684151656  0.6666553907766328  0.8718901960719094
  0.9999887214826586  0.9999931273328571  0.8734517546739369
  0.1695260397199689  0.3390506332362975  0.9338639248310088
  0.1695273760067337  0.8304635273939454  0.9338636712898492
  0.6609303801696953  0.8304614791757672  0.9338641117093331
 
  0.00000000E+00  0.00000000E+00  0.00000000E+00
  0.00000000E+00  0.00000000E+00  0.00000000E+00
  0.00000000E+00  0.00000000E+00  0.00000000E+00
  0.00000000E+00  0.00000000E+00  0.00000000E+00
  0.00000000E+00  0.00000000E+00  0.00000000E+00
  0.00000000E+00  0.00000000E+00  0.00000000E+00
  0.00000000E+00  0.00000000E+00  0.00000000E+00
  0.00000000E+00  0.00000000E+00  0.00000000E+00
  0.00000000E+00  0.00000000E+00  0.00000000E+00
  0.00000000E+00  0.00000000E+00  0.00000000E+00
  0.00000000E+00  0.00000000E+00  0.00000000E+00
  0.00000000E+00  0.00000000E+00  0.00000000E+00
  0.00000000E+00  0.00000000E+00  0.00000000E+00
  0.00000000E+00  0.00000000E+00  0.00000000E+00
  0.00000000E+00  0.00000000E+00  0.00000000E+00
  0.00000000E+00  0.00000000E+00  0.00000000E+00
  0.00000000E+00  0.00000000E+00  0.00000000E+00
  0.00000000E+00  0.00000000E+00  0.00000000E+00
  0.00000000E+00  0.00000000E+00  0.00000000E+00
  0.00000000E+00  0.00000000E+00  0.00000000E+00
  0.00000000E+00  0.00000000E+00  0.00000000E+00
  0.00000000E+00  0.00000000E+00  0.00000000E+00
  0.00000000E+00  0.00000000E+00  0.00000000E+00
  0.00000000E+00  0.00000000E+00  0.00000000E+00
  0.00000000E+00  0.00000000E+00  0.00000000E+00
  0.00000000E+00  0.00000000E+00  0.00000000E+00
  0.00000000E+00  0.00000000E+00  0.00000000E+00
  0.00000000E+00  0.00000000E+00  0.00000000E+00
  0.00000000E+00  0.00000000E+00  0.00000000E+00
  0.00000000E+00  0.00000000E+00  0.00000000E+00
  0.00000000E+00  0.00000000E+00  0.00000000E+00
  0.00000000E+00  0.00000000E+00  0.00000000E+00
  0.00000000E+00  0.00000000E+00  0.00000000E+00
  0.00000000E+00  0.00000000E+00  0.00000000E+00
  0.00000000E+00  0.00000000E+00  0.00000000E+00
  0.00000000E+00  0.00000000E+00  0.00000000E+00
  0.00000000E+00  0.00000000E+00  0.00000000E+00
  0.00000000E+00  0.00000000E+00  0.00000000E+00
  0.00000000E+00  0.00000000E+00  0.00000000E+00
  0.00000000E+00  0.00000000E+00  0.00000000E+00
  0.00000000E+00  0.00000000E+00  0.00000000E+00
  0.00000000E+00  0.00000000E+00  0.00000000E+00
  0.00000000E+00  0.00000000E+00  0.00000000E+00
  0.00000000E+00  0.00000000E+00  0.00000000E+00
  0.00000000E+00  0.00000000E+00  0.00000000E+00
  0.00000000E+00  0.00000000E+00  0.00000000E+00
  0.00000000E+00  0.00000000E+00  0.00000000E+00
  0.00000000E+00  0.00000000E+00  0.00000000E+00
