Be4 In4 Br20                            
   1.0000000000000000     
     6.9170384426356408    0.0000000000000001    0.0000000000000004
    -0.0000000000000003    9.4191714782738281    0.0000000000000003
    -0.0000000000000003   -0.0000000000000007   25.9776821208847188
   Be   In   Br
     4     4    20
Direct
  0.9323071292122904  0.7088819533944744  0.6721147112222496
  0.4323071292122833  0.7911180466055256  0.3278852887777504
  0.0676928707877238  0.2088819533944744  0.8278852887777504
  0.5676928707877096  0.2911180466055256  0.1721147112222496
  0.3797587739829638  0.1628380608497011  0.5499455935038569
  0.8797587739829638  0.3371619391502989  0.4500544064961431
  0.6202412260170362  0.6628380608497011  0.9500544064961431
  0.1202412260170362  0.8371619391502989  0.0499455935038569
  0.2178608417739909  0.9337688545687470  0.5317671152802248
  0.7178608417739909  0.5662311454312530  0.4682328847197752
  0.7821391582260091  0.4337688545687470  0.9682328847197752
  0.2821391582260091  0.0662311454312530  0.0317671152802248
  0.4250500429524990  0.6224436090707925  0.2842300507123170
  0.9250500429524990  0.8775563909292075  0.7157699492876759
  0.5749499570475010  0.1224436090707925  0.2157699492876759
  0.0749499570475010  0.3775563909292075  0.7842300507123170
  0.9364215648378575  0.5400906302349924  0.6286033316628661
  0.4364215648378575  0.9599093697650076  0.3713966683371339
  0.0635784351621425  0.0400906302349924  0.8713966683371339
  0.5635784351621425  0.4599093697650076  0.1286033316628661
  0.4447335311733553  0.2557127458486264  0.6369679889952025
  0.9447335311733553  0.2442872541513736  0.3630320110047975
  0.5552664688266447  0.7557127458486264  0.8630320110047975
  0.0552664688266447  0.7442872541513736  0.1369679889952025
  0.2258420454838728  0.3759343775856365  0.4963678941889924
  0.7258420454838728  0.1240656224143635  0.5036321058110076
  0.7741579545161272  0.8759343775856365  0.0036321058110076
  0.2741579545161272  0.6240656224143635  0.9963678941889924

  0.00000000E+00  0.00000000E+00  0.00000000E+00
  0.00000000E+00  0.00000000E+00  0.00000000E+00
  0.00000000E+00  0.00000000E+00  0.00000000E+00
  0.00000000E+00  0.00000000E+00  0.00000000E+00
  0.00000000E+00  0.00000000E+00  0.00000000E+00
  0.00000000E+00  0.00000000E+00  0.00000000E+00
  0.00000000E+00  0.00000000E+00  0.00000000E+00
  0.00000000E+00  0.00000000E+00  0.00000000E+00
  0.00000000E+00  0.00000000E+00  0.00000000E+00
  0.00000000E+00  0.00000000E+00  0.00000000E+00
  0.00000000E+00  0.00000000E+00  0.00000000E+00
  0.00000000E+00  0.00000000E+00  0.00000000E+00
  0.00000000E+00  0.00000000E+00  0.00000000E+00
  0.00000000E+00  0.00000000E+00  0.00000000E+00
  0.00000000E+00  0.00000000E+00  0.00000000E+00
  0.00000000E+00  0.00000000E+00  0.00000000E+00
  0.00000000E+00  0.00000000E+00  0.00000000E+00
  0.00000000E+00  0.00000000E+00  0.00000000E+00
  0.00000000E+00  0.00000000E+00  0.00000000E+00
  0.00000000E+00  0.00000000E+00  0.00000000E+00
  0.00000000E+00  0.00000000E+00  0.00000000E+00
  0.00000000E+00  0.00000000E+00  0.00000000E+00
  0.00000000E+00  0.00000000E+00  0.00000000E+00
  0.00000000E+00  0.00000000E+00  0.00000000E+00
  0.00000000E+00  0.00000000E+00  0.00000000E+00
  0.00000000E+00  0.00000000E+00  0.00000000E+00
  0.00000000E+00  0.00000000E+00  0.00000000E+00
  0.00000000E+00  0.00000000E+00  0.00000000E+00
