Ba16 Al12 F1                            
   1.00000000000000     
     9.4734638305240928   -5.4700464417580283    3.8661646634177154
    -0.1774388137130949   10.4285515235232484    3.5753365916660811
    -9.1201100185224604   -5.0625859464458358    3.5794047767223351
   Al   F    Ba
    12     1    16
Direct
  0.8415551548126246  0.6167277137746652  0.0001932501974977
  0.6281853605005807  0.8482514591799557  0.0000272005412469
  0.3871654679239001  0.4016210848331809  0.2493507352428139
  0.1381584593573848  0.7506791115296423  0.1522102963788683
  0.7802050717933824  0.1517903187040091  0.1518773853411091
  0.3870841121778383  0.2493135421799550  0.4015526472763966
  0.2245819784609751  0.3833895643447036  0.3834070682394355
  0.8417986096934911  0.0002023010064107  0.6173952506407545
  0.9855059709440468  0.8475374551477586  0.5982840900843200
  0.6283056179962117  0.9999662844782691  0.8484161027930668
  0.9855074817864349  0.5982471145462185  0.8476003532241876
  0.1382890804608436  0.1522734163089865  0.7507021294537211
  0.3633624307131385  0.0003163265649988  0.9997553498889289
  0.5140936930339208  0.2405207643431027  0.0000538153582426
  0.2696384066161670  0.5324227275462761  0.9998518269385954
  0.1460390685250132  0.9999645801628390  0.9997366998750721
  0.9927371039806516  0.2657100443045906  0.0001911818116156
  0.6923080902733290  0.7095734634149338  0.2507930596700518
  0.5133357375841854  0.0000701411780355  0.2397769395022209
  0.9830955538915376  0.5414326786581753  0.2907814042746537
  0.9927076403836708  0.9999636147299213  0.2653919282209003
  0.4418647234455264  0.7494427843383349  0.4587480690911647
  0.7371042130643701  0.4673653595920157  0.4674199145265518
  0.2695173294891475  0.9998197582515047  0.5323265715120939
  0.9828533688337231  0.2904098551804779  0.5413318335498047
  0.7268953681083943  0.7341833757290104  0.7343959159199471
  0.6923309321995461  0.2504316125561843  0.7093250994903357
  0.2734025863807332  0.7598467767589341  0.7598005576461944
  0.4415713875692191  0.4585277706569144  0.7493053233101676
 
  0.00000000E+00  0.00000000E+00  0.00000000E+00
  0.00000000E+00  0.00000000E+00  0.00000000E+00
  0.00000000E+00  0.00000000E+00  0.00000000E+00
  0.00000000E+00  0.00000000E+00  0.00000000E+00
  0.00000000E+00  0.00000000E+00  0.00000000E+00
  0.00000000E+00  0.00000000E+00  0.00000000E+00
  0.00000000E+00  0.00000000E+00  0.00000000E+00
  0.00000000E+00  0.00000000E+00  0.00000000E+00
  0.00000000E+00  0.00000000E+00  0.00000000E+00
  0.00000000E+00  0.00000000E+00  0.00000000E+00
  0.00000000E+00  0.00000000E+00  0.00000000E+00
  0.00000000E+00  0.00000000E+00  0.00000000E+00
  0.00000000E+00  0.00000000E+00  0.00000000E+00
  0.00000000E+00  0.00000000E+00  0.00000000E+00
  0.00000000E+00  0.00000000E+00  0.00000000E+00
  0.00000000E+00  0.00000000E+00  0.00000000E+00
  0.00000000E+00  0.00000000E+00  0.00000000E+00
  0.00000000E+00  0.00000000E+00  0.00000000E+00
  0.00000000E+00  0.00000000E+00  0.00000000E+00
  0.00000000E+00  0.00000000E+00  0.00000000E+00
  0.00000000E+00  0.00000000E+00  0.00000000E+00
  0.00000000E+00  0.00000000E+00  0.00000000E+00
  0.00000000E+00  0.00000000E+00  0.00000000E+00
  0.00000000E+00  0.00000000E+00  0.00000000E+00
  0.00000000E+00  0.00000000E+00  0.00000000E+00
  0.00000000E+00  0.00000000E+00  0.00000000E+00
  0.00000000E+00  0.00000000E+00  0.00000000E+00
  0.00000000E+00  0.00000000E+00  0.00000000E+00
  0.00000000E+00  0.00000000E+00  0.00000000E+00
