BeGa3                                   
   1.00000000000000     
     3.9982658078282141    0.0000000000000000    0.0000000000000000
     0.0000000000000000    3.9982658078282141    0.0000000000000000
     0.0000000000000000    0.0000000000000000    3.9982658078282141
   Be   Ga
     1     3
Direct
  0.0000000000000000  0.0000000000000000  0.0000000000000000
  0.5000000000000000  0.5000000000000000  0.0000000000000000
  0.5000000000000000  0.0000000000000000  0.5000000000000000
  0.0000000000000000  0.5000000000000000  0.5000000000000000
 
  0.00000000E+00  0.00000000E+00  0.00000000E+00
  0.00000000E+00  0.00000000E+00  0.00000000E+00
  0.00000000E+00  0.00000000E+00  0.00000000E+00
  0.00000000E+00  0.00000000E+00  0.00000000E+00
