Sr4 B4 I20                              
   1.0000000000000000     
     9.7385940837368992   -0.0000000000000005    0.0000000000000005
    -0.0000000000000011   10.7241269119883746    0.0000000000000005
     0.0000000000000007    0.0000000000000005   14.1394280543533526
   Sr   B    I 
     4     4    20
Direct
  0.9387028133338760  0.7548944515735414  0.6420219808579688
  0.4387028133338760  0.7451055484264586  0.3579780191420312
  0.0612971866661240  0.2548944515735414  0.8579780191420312
  0.5612971866661240  0.2451055484264586  0.1420219808579688
  0.4696508953964553  0.3092670208555504  0.6383358906355880
  0.9696508953964553  0.1907329791444496  0.3616641093644120
  0.5303491046035447  0.8092670208555504  0.8616641093644120
  0.0303491046035447  0.6907329791444496  0.1383358906355880
  0.1780346690438108  0.6994861040160885  0.4911960587479598
  0.6780346690438037  0.8005138959839115  0.5088039412520402
  0.8219653309561892  0.1994861040160885  0.0088039412520402
  0.3219653309561892  0.3005138959839115  0.9911960587479598
  0.5868557337193039  0.5130441520829621  0.2480711804512126
  0.0868557337193039  0.9869558479170379  0.7519288195487803
  0.4131442662806961  0.0130441520829621  0.2519288195487803
  0.9131442662806961  0.4869558479170379  0.7480711804512126
  0.2605442054458891  0.3661501099846234  0.6632830224903401
  0.7605442054458891  0.1338498900153766  0.3367169775096599
  0.7394557945541109  0.8661501099846234  0.8367169775096599
  0.2394557945541109  0.6338498900153766  0.1632830224903401
  0.5633995374065677  0.1697531046656593  0.7214884467873119
  0.0633995374065677  0.3302468953343407  0.2785115532126881
  0.4366004625934323  0.6697531046656593  0.7785115532126881
  0.9366004625934323  0.8302468953343407  0.2214884467873119
  0.5754482847983766  0.4000787742400931  0.5269638391503477
  0.0754482847983766  0.0999212257599069  0.4730361608496452
  0.4245517152016234  0.9000787742400931  0.9730361608496523
  0.9245517152016234  0.5999212257599069  0.0269638391503477

  0.00000000E+00  0.00000000E+00  0.00000000E+00
  0.00000000E+00  0.00000000E+00  0.00000000E+00
  0.00000000E+00  0.00000000E+00  0.00000000E+00
  0.00000000E+00  0.00000000E+00  0.00000000E+00
  0.00000000E+00  0.00000000E+00  0.00000000E+00
  0.00000000E+00  0.00000000E+00  0.00000000E+00
  0.00000000E+00  0.00000000E+00  0.00000000E+00
  0.00000000E+00  0.00000000E+00  0.00000000E+00
  0.00000000E+00  0.00000000E+00  0.00000000E+00
  0.00000000E+00  0.00000000E+00  0.00000000E+00
  0.00000000E+00  0.00000000E+00  0.00000000E+00
  0.00000000E+00  0.00000000E+00  0.00000000E+00
  0.00000000E+00  0.00000000E+00  0.00000000E+00
  0.00000000E+00  0.00000000E+00  0.00000000E+00
  0.00000000E+00  0.00000000E+00  0.00000000E+00
  0.00000000E+00  0.00000000E+00  0.00000000E+00
  0.00000000E+00  0.00000000E+00  0.00000000E+00
  0.00000000E+00  0.00000000E+00  0.00000000E+00
  0.00000000E+00  0.00000000E+00  0.00000000E+00
  0.00000000E+00  0.00000000E+00  0.00000000E+00
  0.00000000E+00  0.00000000E+00  0.00000000E+00
  0.00000000E+00  0.00000000E+00  0.00000000E+00
  0.00000000E+00  0.00000000E+00  0.00000000E+00
  0.00000000E+00  0.00000000E+00  0.00000000E+00
  0.00000000E+00  0.00000000E+00  0.00000000E+00
  0.00000000E+00  0.00000000E+00  0.00000000E+00
  0.00000000E+00  0.00000000E+00  0.00000000E+00
  0.00000000E+00  0.00000000E+00  0.00000000E+00
