Tl12 Br28                               
   1.0000000000000000     
    13.6715764577957248    0.0024011236886948   -0.0020493850017132
     0.0023144862939127   10.9990064536241476    0.0025479826057612
    -0.0015829657522298    0.0018305053148988   11.3522945360821517
   Br   Tl
    28    12
Direct
  0.1635880196009865  0.6297744501624294  0.1236440029031911
  0.6631309155864713  0.8704655807502988  0.1236746500024353
  0.7524427094036241  0.2365255534127328  0.1309404336314941
  0.2523507224135031  0.2632994477802839  0.1308052969991849
  0.4641333162677910  0.5378612534669855  0.1327044444414014
  0.9643761227176526  0.9614477257264227  0.1328259588803675
  0.4985972098554896  0.2066039486410176  0.3329372545964091
  0.9985561255858499  0.2926208819098264  0.3331970404342570
  0.7140768006190470  0.5525616111906899  0.3016960203702368
  0.2139784029533445  0.9474453682811230  0.3020246554064840
  0.7761163687652086  0.0203963034590657  0.4420162463281230
  0.2763408777752261  0.4788274604598968  0.4423918139769256
  0.9912264208996007  0.6518858372250875  0.4190740308784555
  0.4905641807271479  0.8456411051122856  0.4185519147320562
  0.3368782017453427  0.1295046858291329  0.6236968706251318
  0.8358976045995234  0.3696798351878527  0.6235406015893830
  0.7478720435474884  0.7365695212486330  0.6305671226332947
  0.2475045503820823  0.7634102976335981  0.6311350070293500
  0.0359735715628346  0.0384533481613829  0.6326549573355180
  0.5353002930614679  0.4625807628803216  0.6328693258082723
  0.0012259531734600  0.7075864460447150  0.8331331450304162
  0.5018125245712568  0.7940003678046423  0.8326734035901566
  0.7861733178804329  0.0523486260090849  0.8020120330920193
  0.2858646352435841  0.4473934061227212  0.8017776662425717
  0.7239550927189100  0.5211267264069477  0.9420632700544758
  0.2237982163619563  0.9794087199566022  0.9424326438848070
  0.5095131596822142  0.1544616987779364  0.9181699087173314
  0.0088606039527761  0.3473653252335254  0.9188791699465142
  0.9032036555217644  0.6738069012165582  0.1309395559205981
  0.4022552965357633  0.8253180390793986  0.1311399630930126
  0.8819851269157652  0.1152274379169071  0.2781059801862753
  0.3819518359176115  0.3841356811410250  0.2782782732422291
  0.8251860274012230  0.5588742005502567  0.4868615034505481
  0.3253908728217354  0.9406095133264216  0.4870762618027058
  0.5979930427093905  0.1753385237993754  0.6305539116881462
  0.0967889233747599  0.3261283249025624  0.6308643127801190
  0.6180732772740285  0.6162047593795350  0.7780577310144281
  0.1180083823734677  0.8847145800245571  0.7783996245178244
  0.6746902984098213  0.0593767824577469  0.9867786449077087
  0.1747852990903880  0.4408189613304287  0.9868553482361193

  0.00000000E+00  0.00000000E+00  0.00000000E+00
  0.00000000E+00  0.00000000E+00  0.00000000E+00
  0.00000000E+00  0.00000000E+00  0.00000000E+00
  0.00000000E+00  0.00000000E+00  0.00000000E+00
  0.00000000E+00  0.00000000E+00  0.00000000E+00
  0.00000000E+00  0.00000000E+00  0.00000000E+00
  0.00000000E+00  0.00000000E+00  0.00000000E+00
  0.00000000E+00  0.00000000E+00  0.00000000E+00
  0.00000000E+00  0.00000000E+00  0.00000000E+00
  0.00000000E+00  0.00000000E+00  0.00000000E+00
  0.00000000E+00  0.00000000E+00  0.00000000E+00
  0.00000000E+00  0.00000000E+00  0.00000000E+00
  0.00000000E+00  0.00000000E+00  0.00000000E+00
  0.00000000E+00  0.00000000E+00  0.00000000E+00
  0.00000000E+00  0.00000000E+00  0.00000000E+00
  0.00000000E+00  0.00000000E+00  0.00000000E+00
  0.00000000E+00  0.00000000E+00  0.00000000E+00
  0.00000000E+00  0.00000000E+00  0.00000000E+00
  0.00000000E+00  0.00000000E+00  0.00000000E+00
  0.00000000E+00  0.00000000E+00  0.00000000E+00
  0.00000000E+00  0.00000000E+00  0.00000000E+00
  0.00000000E+00  0.00000000E+00  0.00000000E+00
  0.00000000E+00  0.00000000E+00  0.00000000E+00
  0.00000000E+00  0.00000000E+00  0.00000000E+00
  0.00000000E+00  0.00000000E+00  0.00000000E+00
  0.00000000E+00  0.00000000E+00  0.00000000E+00
  0.00000000E+00  0.00000000E+00  0.00000000E+00
  0.00000000E+00  0.00000000E+00  0.00000000E+00
  0.00000000E+00  0.00000000E+00  0.00000000E+00
  0.00000000E+00  0.00000000E+00  0.00000000E+00
  0.00000000E+00  0.00000000E+00  0.00000000E+00
  0.00000000E+00  0.00000000E+00  0.00000000E+00
  0.00000000E+00  0.00000000E+00  0.00000000E+00
  0.00000000E+00  0.00000000E+00  0.00000000E+00
  0.00000000E+00  0.00000000E+00  0.00000000E+00
  0.00000000E+00  0.00000000E+00  0.00000000E+00
  0.00000000E+00  0.00000000E+00  0.00000000E+00
  0.00000000E+00  0.00000000E+00  0.00000000E+00
  0.00000000E+00  0.00000000E+00  0.00000000E+00
  0.00000000E+00  0.00000000E+00  0.00000000E+00
