Mg7 In13                                
   1.00000000000000     
     5.7272315832439222   -0.1280511969110157   -0.0274768221396136
    -2.9919138550630264    5.4679529685536252   -0.0387539939746540
    -0.0435365632062151   -0.1393618700017419   16.1920353980472349
   In   Mg
    13     7
Direct
  0.3008341947167139  0.2895932968536314  0.0572371716749629
  0.3265512625411020  0.4084116906286326  0.2558985329369037
  0.3570045978667622  0.8121646145068411  0.0908749059222558
  0.8856262465473677  0.8555647710223226  0.2001883021183204
  0.4440152648975229  0.9733764657643960  0.2985835712286260
  0.9066811258398602  0.3942458765191148  0.5468754598230916
  0.4558183059390970  0.4984195476184468  0.4507106521648439
  0.3460734031576465  0.9360507384694614  0.5004939405169466
  0.3755814975028926  0.3424630640849671  0.6500419478775115
  0.3046456347200177  0.2110556952033704  0.8576723768447678
  0.8553058586359441  0.2932961202710729  0.7506267262048425
  0.7669143676903545  0.7532899099768784  0.7951013664458060
  0.7887319126184096  0.2249028024169135  0.9558976117895455
  0.8280373646805828  0.7489923989318470  0.9974693821538168
  0.8130769207488200  0.3363120789439762  0.1533372189511937
  0.9155405203866209  0.5085819035439059  0.3503957537305666
  0.9294891920873951  0.0180937340170075  0.3978433334670370
  0.8200714943555738  0.8695071218442578  0.5982657109880520
  0.2962045869759322  0.8220493122941335  0.6971483237343818
  0.2837982480913581  0.7036308570888039  0.8957377114265910
 
  0.00000000E+00  0.00000000E+00  0.00000000E+00
  0.00000000E+00  0.00000000E+00  0.00000000E+00
  0.00000000E+00  0.00000000E+00  0.00000000E+00
  0.00000000E+00  0.00000000E+00  0.00000000E+00
  0.00000000E+00  0.00000000E+00  0.00000000E+00
  0.00000000E+00  0.00000000E+00  0.00000000E+00
  0.00000000E+00  0.00000000E+00  0.00000000E+00
  0.00000000E+00  0.00000000E+00  0.00000000E+00
  0.00000000E+00  0.00000000E+00  0.00000000E+00
  0.00000000E+00  0.00000000E+00  0.00000000E+00
  0.00000000E+00  0.00000000E+00  0.00000000E+00
  0.00000000E+00  0.00000000E+00  0.00000000E+00
  0.00000000E+00  0.00000000E+00  0.00000000E+00
  0.00000000E+00  0.00000000E+00  0.00000000E+00
  0.00000000E+00  0.00000000E+00  0.00000000E+00
  0.00000000E+00  0.00000000E+00  0.00000000E+00
  0.00000000E+00  0.00000000E+00  0.00000000E+00
  0.00000000E+00  0.00000000E+00  0.00000000E+00
  0.00000000E+00  0.00000000E+00  0.00000000E+00
  0.00000000E+00  0.00000000E+00  0.00000000E+00
