Al2                                     
   1.00000000000000     
     2.8146554743541436   -0.0000000004517209    0.0000000000000000
    -1.4073282379594756    2.4375636681445152    0.0000000000000000
     0.0000000000000000    0.0000000000000000    4.8791592964212862
   Al
     2
Direct
  0.0000000000000000  0.0000000000000000  0.0000000000000000
  0.6666669999999968  0.3333330000000032  0.5000000000000000
 
  0.00000000E+00  0.00000000E+00  0.00000000E+00
  0.00000000E+00  0.00000000E+00  0.00000000E+00
