Ba5 Tl2                                 
   1.0000000000000000     
     3.0045766095998387    1.7345046287873975   10.9857902639040859
    -3.0045766095998387    1.7345046287873975   10.9857902639040859
     0.0000000000000000   -3.4701379309979328   10.9861092692529692
   Ba   Tl
     5     2
Direct
  0.2247716531371182  0.2247716531371182  0.2248038661888856
  0.3716257464565587  0.3716257464565587  0.3716611661108828
  0.4999881828593828  0.4999881828593828  0.4999881671577029
  0.6283412537455817  0.6283412537455817  0.6283068450240421
  0.7751991474339022  0.7751991474339022  0.7751655904531844
  0.0967150802568710  0.0967150802568710  0.0967980496267131
  0.9032589361105678  0.9032589361105678  0.9031763154385573

  0.00000000E+00  0.00000000E+00  0.00000000E+00
  0.00000000E+00  0.00000000E+00  0.00000000E+00
  0.00000000E+00  0.00000000E+00  0.00000000E+00
  0.00000000E+00  0.00000000E+00  0.00000000E+00
  0.00000000E+00  0.00000000E+00  0.00000000E+00
  0.00000000E+00  0.00000000E+00  0.00000000E+00
  0.00000000E+00  0.00000000E+00  0.00000000E+00
