Ba8 F2                                  
   1.00000000000000     
     5.5995736805497431    0.0000000000000000    0.0000000000000000
     0.0000000000000000    5.5995736805497440    0.0000000000000000
     0.0000000000000000    0.0000000000000000   15.2165947150834615
   Ba   F 
     8     2
Direct
  0.0000000000000000  0.0000000000000000  0.0000000000000000
  0.5000000000000000  0.5000000000000000  0.0000000000000000
  0.0000000000000000  0.0000000000000000  0.2643026616378563
  0.5000000000000000  0.5000000000000000  0.2643026616378563
  0.5000000000000000  0.0000000000000000  0.5199008303501813
  0.0000000000000000  0.5000000000000000  0.4800991696498187
  0.0000000000000000  0.0000000000000000  0.7356973383621437
  0.5000000000000000  0.5000000000000000  0.7356973383621437
  0.0000000000000000  0.5000000000000000  0.3010083205613583
  0.5000000000000000  0.0000000000000000  0.6989916794386417
 
  0.00000000E+00  0.00000000E+00  0.00000000E+00
  0.00000000E+00  0.00000000E+00  0.00000000E+00
  0.00000000E+00  0.00000000E+00  0.00000000E+00
  0.00000000E+00  0.00000000E+00  0.00000000E+00
  0.00000000E+00  0.00000000E+00  0.00000000E+00
  0.00000000E+00  0.00000000E+00  0.00000000E+00
  0.00000000E+00  0.00000000E+00  0.00000000E+00
  0.00000000E+00  0.00000000E+00  0.00000000E+00
  0.00000000E+00  0.00000000E+00  0.00000000E+00
  0.00000000E+00  0.00000000E+00  0.00000000E+00
