Ba4 B4 F20                              
   1.0000000000000000     
     5.2357546869040830   -0.0000000000000000    0.0000000000000003
    -0.0000000000000003    4.8115277240745922    0.0000000000000003
     0.0000000000000000   -0.0000000000000001   14.4821391812080886
   Ba   B    F 
     4     4    20
Direct
  0.8643314580719448  0.4269950851900361  0.3555941003870799
  0.3643314580719448  0.0730049148099639  0.6444058996129129
  0.1356685419280481  0.9269950851900361  0.1444058996129201
  0.6356685419280481  0.5730049148099639  0.8555941003870871
  0.3807767280162651  0.9485440033239527  0.4035298953768915
  0.8807767280162651  0.5514559966760473  0.5964701046231013
  0.6192232719837349  0.4485440033239527  0.0964701046231013
  0.1192232719837349  0.0514559966760473  0.9035298953768915
  0.0986674812293344  0.5128136443264495  0.5401607495125091
  0.5986674812293273  0.9871863556735505  0.4598392504874909
  0.9013325187706656  0.0128136443264495  0.9598392504874909
  0.4013325187706656  0.4871863556735505  0.0401607495125091
  0.8961677192374538  0.9263041510973622  0.2959301247458654
  0.3961677192374538  0.5736958489026378  0.7040698752541346
  0.1038322807625462  0.4263041510973622  0.2040698752541346
  0.6038322807625462  0.0736958489026378  0.7959301247458654
  0.8364482879709456  0.5164512939253783  0.0433228483510462
  0.3364482879709456  0.9835487060746217  0.9566771516489609
  0.1635517120290544  0.0164512939253783  0.4566771516489538
  0.6635517120290544  0.4835487060746217  0.5433228483510391
  0.6040455217011811  0.6254882469549727  0.1733618240326322
  0.1040455217011740  0.8745117530450273  0.8266381759673678
  0.3959544782988260  0.1254882469549656  0.3266381759673678
  0.8959544782988189  0.3745117530450415  0.6733618240326322
  0.1308014549735148  0.3303191739332547  0.8745015820469675
  0.6308014549735219  0.1696808260667453  0.1254984179530325
  0.8691985450264852  0.8303191739332547  0.6254984179530325
  0.3691985450264852  0.6696808260667453  0.3745015820469746

  0.00000000E+00  0.00000000E+00  0.00000000E+00
  0.00000000E+00  0.00000000E+00  0.00000000E+00
  0.00000000E+00  0.00000000E+00  0.00000000E+00
  0.00000000E+00  0.00000000E+00  0.00000000E+00
  0.00000000E+00  0.00000000E+00  0.00000000E+00
  0.00000000E+00  0.00000000E+00  0.00000000E+00
  0.00000000E+00  0.00000000E+00  0.00000000E+00
  0.00000000E+00  0.00000000E+00  0.00000000E+00
  0.00000000E+00  0.00000000E+00  0.00000000E+00
  0.00000000E+00  0.00000000E+00  0.00000000E+00
  0.00000000E+00  0.00000000E+00  0.00000000E+00
  0.00000000E+00  0.00000000E+00  0.00000000E+00
  0.00000000E+00  0.00000000E+00  0.00000000E+00
  0.00000000E+00  0.00000000E+00  0.00000000E+00
  0.00000000E+00  0.00000000E+00  0.00000000E+00
  0.00000000E+00  0.00000000E+00  0.00000000E+00
  0.00000000E+00  0.00000000E+00  0.00000000E+00
  0.00000000E+00  0.00000000E+00  0.00000000E+00
  0.00000000E+00  0.00000000E+00  0.00000000E+00
  0.00000000E+00  0.00000000E+00  0.00000000E+00
  0.00000000E+00  0.00000000E+00  0.00000000E+00
  0.00000000E+00  0.00000000E+00  0.00000000E+00
  0.00000000E+00  0.00000000E+00  0.00000000E+00
  0.00000000E+00  0.00000000E+00  0.00000000E+00
  0.00000000E+00  0.00000000E+00  0.00000000E+00
  0.00000000E+00  0.00000000E+00  0.00000000E+00
  0.00000000E+00  0.00000000E+00  0.00000000E+00
  0.00000000E+00  0.00000000E+00  0.00000000E+00
