Ba2 Tl2 F10                             
   1.00000000000000     
     4.8694186850214454   -0.0380860051288776    1.7086202156443902
     1.0299345233535429    4.7594032070248540    1.7086205547749911
    -0.8918364295265294   -0.7137446801622831    9.0038197474068298
   Ba   Tl   F 
     2     2    10
Direct
  0.5162279945423904  0.4837720050504757  0.2500000003870753
  0.4837720054576167  0.5162279949495243  0.7499999996129247
  0.0000000000000000  0.0000000000000000  0.5000000000000000
  0.0000000000000000  0.0000000000000000  0.0000000000000000
  0.9834210836459718  0.6005456516265824  0.6323070247341320
  0.3994543528395198  0.0165779140707301  0.8676929757609599
  0.0165779163540307  0.3994543483734105  0.3676939752658726
  0.6005456471604873  0.9834210859292725  0.1323070242390401
  0.9483684408819215  0.0516315579736499  0.7500000006294769
  0.0516315591180785  0.9483684420263501  0.2499999993705302
  0.7970621748605140  0.4356319996581419  0.9633543965712335
  0.5643679953774949  0.2029378236290640  0.5366456074689125
  0.2029378251394789  0.5643680003418510  0.0366456034287665
  0.4356320046225051  0.7970621763709360  0.4633543925310875
 
  0.00000000E+00  0.00000000E+00  0.00000000E+00
  0.00000000E+00  0.00000000E+00  0.00000000E+00
  0.00000000E+00  0.00000000E+00  0.00000000E+00
  0.00000000E+00  0.00000000E+00  0.00000000E+00
  0.00000000E+00  0.00000000E+00  0.00000000E+00
  0.00000000E+00  0.00000000E+00  0.00000000E+00
  0.00000000E+00  0.00000000E+00  0.00000000E+00
  0.00000000E+00  0.00000000E+00  0.00000000E+00
  0.00000000E+00  0.00000000E+00  0.00000000E+00
  0.00000000E+00  0.00000000E+00  0.00000000E+00
  0.00000000E+00  0.00000000E+00  0.00000000E+00
  0.00000000E+00  0.00000000E+00  0.00000000E+00
  0.00000000E+00  0.00000000E+00  0.00000000E+00
  0.00000000E+00  0.00000000E+00  0.00000000E+00
