Ba                                      
   1.00000000000000     
     2.5248510378744391    2.5248510378744391    2.5248510378744391
     2.5248510378744391   -2.5248510378744391   -2.5248510378744391
    -2.5248510378744391    2.5248510378744391   -2.5248510378744391
   Ba
     1
Direct
  0.0000000000000000  0.0000000000000000  0.0000000000000000
 
  0.00000000E+00  0.00000000E+00  0.00000000E+00
