Ba4 Ga4 F20                             
   1.0000000000000000     
     4.8407123473533042    0.0000000000000000    0.0000000000000003
    -0.0000000000000003    5.6365975536078725    0.0000000000000003
    -0.0000000000000000    0.0000000000000000   13.9107701435786968
   Ba   Ga   F 
     4     4    20
Direct
  0.7827227214566221  0.3483542314356143  0.3403174105342686
  0.2827227214566221  0.1516457685643857  0.6596825894657243
  0.2172772785433708  0.8483542314356143  0.1596825894657314
  0.7172772785433708  0.6516457685643857  0.8403174105342757
  0.1793276711802037  0.8629755770058409  0.4156538357918294
  0.6793276711802037  0.6370244229941591  0.5843461642081635
  0.8206723288197963  0.3629755770058409  0.0843461642081635
  0.3206723288197963  0.1370244229941591  0.9156538357918294
  0.9952669425380236  0.6287685665046325  0.4989827119353976
  0.4952669425380165  0.8712314334953675  0.5010172880646024
  0.0047330574619764  0.1287685665046325  0.0010172880646024
  0.5047330574619764  0.3712314334953675  0.9989827119353976
  0.8664077154840015  0.8540282736754392  0.3315953538743699
  0.3664077154840015  0.6459717263245608  0.6684046461256301
  0.1335922845159985  0.3540282736754392  0.1684046461256301
  0.6335922845159985  0.1459717263245608  0.8315953538743699
  0.9727339159461081  0.6090614807209747  0.0116074921640603
  0.4727339159461081  0.8909385192790253  0.9883925078359397
  0.0272660840538919  0.1090614807209747  0.4883925078359397
  0.5272660840538919  0.3909385192790253  0.5116074921640603
  0.6738754629485939  0.5904239088236380  0.1713143290982515
  0.1738754629485939  0.9095760911763620  0.8286856709017485
  0.3261245370514061  0.0904239088236380  0.3286856709017485
  0.8261245370514061  0.4095760911763620  0.6713143290982515
  0.1888948410046254  0.3913022389361487  0.8405110123033168
  0.6888948410046183  0.1086977610638513  0.1594889876966832
  0.8111051589953817  0.8913022389361487  0.6594889876966832
  0.3111051589953746  0.6086977610638513  0.3405110123033168

  0.00000000E+00  0.00000000E+00  0.00000000E+00
  0.00000000E+00  0.00000000E+00  0.00000000E+00
  0.00000000E+00  0.00000000E+00  0.00000000E+00
  0.00000000E+00  0.00000000E+00  0.00000000E+00
  0.00000000E+00  0.00000000E+00  0.00000000E+00
  0.00000000E+00  0.00000000E+00  0.00000000E+00
  0.00000000E+00  0.00000000E+00  0.00000000E+00
  0.00000000E+00  0.00000000E+00  0.00000000E+00
  0.00000000E+00  0.00000000E+00  0.00000000E+00
  0.00000000E+00  0.00000000E+00  0.00000000E+00
  0.00000000E+00  0.00000000E+00  0.00000000E+00
  0.00000000E+00  0.00000000E+00  0.00000000E+00
  0.00000000E+00  0.00000000E+00  0.00000000E+00
  0.00000000E+00  0.00000000E+00  0.00000000E+00
  0.00000000E+00  0.00000000E+00  0.00000000E+00
  0.00000000E+00  0.00000000E+00  0.00000000E+00
  0.00000000E+00  0.00000000E+00  0.00000000E+00
  0.00000000E+00  0.00000000E+00  0.00000000E+00
  0.00000000E+00  0.00000000E+00  0.00000000E+00
  0.00000000E+00  0.00000000E+00  0.00000000E+00
  0.00000000E+00  0.00000000E+00  0.00000000E+00
  0.00000000E+00  0.00000000E+00  0.00000000E+00
  0.00000000E+00  0.00000000E+00  0.00000000E+00
  0.00000000E+00  0.00000000E+00  0.00000000E+00
  0.00000000E+00  0.00000000E+00  0.00000000E+00
  0.00000000E+00  0.00000000E+00  0.00000000E+00
  0.00000000E+00  0.00000000E+00  0.00000000E+00
  0.00000000E+00  0.00000000E+00  0.00000000E+00
