Be10 Tl4 Cl32                           
   1.0000000000000000     
     2.9286346189191668   -6.1737445003302263    0.0000000000000000
     2.9286346189191668    6.1737445003302263    0.0000000000000000
     0.0000000000000000    0.0000000000000000   39.5982108885920425
   Be   Tl   Cl
    10     4    32
Direct
  0.0000000000000000  0.0000000000000000  0.7500472714770936
  0.0000000000000000  0.0000000000000000  0.2499527285229064
  0.5000000000000000  0.5000000000000000  0.7499527285229064
  0.5000000000000000  0.5000000000000000  0.2500472714770936
  0.5000000000000000  0.5000000000000000  0.5000000000000000
  0.0000000000000000  0.0000000000000000  0.0000000000000000
  0.0000000000000000  0.5000000000000000  0.6123617500273966
  0.5000000000000000  0.0000000000000000  0.3876382499726034
  0.5000000000000000  0.0000000000000000  0.8876382499726034
  0.0000000000000000  0.5000000000000000  0.1123617500273966
  0.5000000000000000  0.0000000000000000  0.5775895857366891
  0.0000000000000000  0.5000000000000000  0.4224104142633038
  0.0000000000000000  0.5000000000000000  0.9224104142633109
  0.5000000000000000  0.0000000000000000  0.0775895857366962
  0.3349965080498407  0.1640197910638435  0.7233336576259788
  0.6650034919501593  0.8359802089361565  0.7233336576259788
  0.1640197910638435  0.3349965080498407  0.2766663423740283
  0.8359802089361565  0.6650034919501593  0.2766663423740283
  0.1650034919501593  0.3359802089361565  0.7766663423740212
  0.8349965080498407  0.6640197910638435  0.7766663423740212
  0.3359802089361565  0.1650034919501593  0.2233336576259717
  0.6640197910638435  0.8349965080498407  0.2233336576259717
  0.0277276782538252  0.7582543485252131  0.5814661337164040
  0.9722723217461748  0.2417456514747869  0.5814661337164040
  0.7582543485252131  0.0277276782538252  0.4185338662835960
  0.2417456514747869  0.9722723217461748  0.4185338662835960
  0.4722723217461677  0.7417456514747869  0.9185338662835960
  0.5277276782538252  0.2582543485252131  0.9185338662835960
  0.6942677162396933  0.8862747494162733  0.0277955635184597
  0.3057322837603067  0.1137252505837267  0.0277955635184597
  0.8862747494162733  0.6942677162396933  0.9722044364815261
  0.1137252505837267  0.3057322837603067  0.9722044364815261
  0.8057322837603067  0.6137252505837267  0.4722044364815332
  0.1942677162396933  0.3862747494162662  0.4722044364815332
  0.6137252505837267  0.8057322837603067  0.5277955635184739
  0.3862747494162662  0.1942677162396933  0.5277955635184739
  0.1785939865524853  0.8393001856418891  0.1333161166832184
  0.8214060134475147  0.1606998143581109  0.1333161166832184
  0.8393001856418891  0.1785939865524853  0.8666838833167816
  0.1606998143581109  0.8214060134475147  0.8666838833167816
  0.3214060134475147  0.6606998143581109  0.3666838833167816
  0.6785939865524853  0.3393001856418891  0.3666838833167816
  0.6606998143581109  0.3214060134475147  0.6333161166832184
  0.3393001856418891  0.6785939865524853  0.6333161166832184
  0.2582543485252131  0.5277276782538252  0.0814661337164040
  0.7417456514747869  0.4722723217461677  0.0814661337164040

  0.00000000E+00  0.00000000E+00  0.00000000E+00
  0.00000000E+00  0.00000000E+00  0.00000000E+00
  0.00000000E+00  0.00000000E+00  0.00000000E+00
  0.00000000E+00  0.00000000E+00  0.00000000E+00
  0.00000000E+00  0.00000000E+00  0.00000000E+00
  0.00000000E+00  0.00000000E+00  0.00000000E+00
  0.00000000E+00  0.00000000E+00  0.00000000E+00
  0.00000000E+00  0.00000000E+00  0.00000000E+00
  0.00000000E+00  0.00000000E+00  0.00000000E+00
  0.00000000E+00  0.00000000E+00  0.00000000E+00
  0.00000000E+00  0.00000000E+00  0.00000000E+00
  0.00000000E+00  0.00000000E+00  0.00000000E+00
  0.00000000E+00  0.00000000E+00  0.00000000E+00
  0.00000000E+00  0.00000000E+00  0.00000000E+00
  0.00000000E+00  0.00000000E+00  0.00000000E+00
  0.00000000E+00  0.00000000E+00  0.00000000E+00
  0.00000000E+00  0.00000000E+00  0.00000000E+00
  0.00000000E+00  0.00000000E+00  0.00000000E+00
  0.00000000E+00  0.00000000E+00  0.00000000E+00
  0.00000000E+00  0.00000000E+00  0.00000000E+00
  0.00000000E+00  0.00000000E+00  0.00000000E+00
  0.00000000E+00  0.00000000E+00  0.00000000E+00
  0.00000000E+00  0.00000000E+00  0.00000000E+00
  0.00000000E+00  0.00000000E+00  0.00000000E+00
  0.00000000E+00  0.00000000E+00  0.00000000E+00
  0.00000000E+00  0.00000000E+00  0.00000000E+00
  0.00000000E+00  0.00000000E+00  0.00000000E+00
  0.00000000E+00  0.00000000E+00  0.00000000E+00
  0.00000000E+00  0.00000000E+00  0.00000000E+00
  0.00000000E+00  0.00000000E+00  0.00000000E+00
  0.00000000E+00  0.00000000E+00  0.00000000E+00
  0.00000000E+00  0.00000000E+00  0.00000000E+00
  0.00000000E+00  0.00000000E+00  0.00000000E+00
  0.00000000E+00  0.00000000E+00  0.00000000E+00
  0.00000000E+00  0.00000000E+00  0.00000000E+00
  0.00000000E+00  0.00000000E+00  0.00000000E+00
  0.00000000E+00  0.00000000E+00  0.00000000E+00
  0.00000000E+00  0.00000000E+00  0.00000000E+00
  0.00000000E+00  0.00000000E+00  0.00000000E+00
  0.00000000E+00  0.00000000E+00  0.00000000E+00
  0.00000000E+00  0.00000000E+00  0.00000000E+00
  0.00000000E+00  0.00000000E+00  0.00000000E+00
  0.00000000E+00  0.00000000E+00  0.00000000E+00
  0.00000000E+00  0.00000000E+00  0.00000000E+00
  0.00000000E+00  0.00000000E+00  0.00000000E+00
  0.00000000E+00  0.00000000E+00  0.00000000E+00
