Tl20 Br4                                
   1.0000000000000000     
     9.5743896964281507    3.1721239842961433    0.2070854280079171
    -9.5743896964281507    3.1721239842961433    0.2070854280079171
     0.0000000000000000    3.4669464326436055   14.6928414304229555
   Tl   Br
    20     4
Direct
  0.8364821233517290  0.6838411735280161  0.7319740797855303
  0.3161588264719839  0.1635178766482710  0.7680259202144697
  0.1635178766482710  0.3161588264719839  0.2680259202144697
  0.6838411735280161  0.8364821233517290  0.2319740797855303
  0.3503457804587313  0.4967746470586221  0.8617617755086755
  0.5032253529413779  0.6496542195412687  0.6382382244913245
  0.6496542195412687  0.5032253529413779  0.1382382244913245
  0.4967746470586221  0.3503457804587313  0.3617617755086684
  0.1553272699112824  0.1314691587439398  0.5709449366817623
  0.8685308412560602  0.8446727300887176  0.9290550633182377
  0.8446727300887176  0.8685308412560602  0.4290550633182377
  0.1314691587439398  0.1553272699112824  0.0709449366817623
  0.7018325925231608  0.4614913916654046  0.5519688999263579
  0.5385086083345954  0.2981674074768392  0.9480311000736421
  0.2981674074768392  0.5385086083345954  0.4480311000736421
  0.4614913916654046  0.7018325925231608  0.0519688999263579
  0.3418097680998571  0.8400022410303123  0.8646877369705805
  0.1599977589696877  0.6581902319001429  0.6353122630294195
  0.6581902319001429  0.1599977589696877  0.1353122630294195
  0.8400022410303123  0.3418097680998571  0.3646877369705805
  0.7263359779191632  0.1565951015551619  0.5858977313309737
  0.8434048984448452  0.2736640220808368  0.9141022686690263
  0.2736640220808368  0.8434048984448381  0.4141022686690334
  0.1565951015551619  0.7263359779191632  0.0858977313309666

  0.00000000E+00  0.00000000E+00  0.00000000E+00
  0.00000000E+00  0.00000000E+00  0.00000000E+00
  0.00000000E+00  0.00000000E+00  0.00000000E+00
  0.00000000E+00  0.00000000E+00  0.00000000E+00
  0.00000000E+00  0.00000000E+00  0.00000000E+00
  0.00000000E+00  0.00000000E+00  0.00000000E+00
  0.00000000E+00  0.00000000E+00  0.00000000E+00
  0.00000000E+00  0.00000000E+00  0.00000000E+00
  0.00000000E+00  0.00000000E+00  0.00000000E+00
  0.00000000E+00  0.00000000E+00  0.00000000E+00
  0.00000000E+00  0.00000000E+00  0.00000000E+00
  0.00000000E+00  0.00000000E+00  0.00000000E+00
  0.00000000E+00  0.00000000E+00  0.00000000E+00
  0.00000000E+00  0.00000000E+00  0.00000000E+00
  0.00000000E+00  0.00000000E+00  0.00000000E+00
  0.00000000E+00  0.00000000E+00  0.00000000E+00
  0.00000000E+00  0.00000000E+00  0.00000000E+00
  0.00000000E+00  0.00000000E+00  0.00000000E+00
  0.00000000E+00  0.00000000E+00  0.00000000E+00
  0.00000000E+00  0.00000000E+00  0.00000000E+00
  0.00000000E+00  0.00000000E+00  0.00000000E+00
  0.00000000E+00  0.00000000E+00  0.00000000E+00
  0.00000000E+00  0.00000000E+00  0.00000000E+00
  0.00000000E+00  0.00000000E+00  0.00000000E+00
