Mg1 In3 Br6                             
   1.0000000000000000     
     7.8074678764319296   -0.0003446780571783    0.0009203097972541
    -0.0003446780571783    7.8074678764319296    0.0009203097972541
     3.9042113332066943    3.9042113332066943    5.5314178545743662
   Br   Mg   In
     6     1     3
Direct
  0.7579499858514822  0.2420500141485178  0.0000000000000000
  0.2421054888120153  0.2421054888120153  0.9999074625886522
  0.2420500141485178  0.7579499858514822  0.0000000000000000
  0.7578945111879847  0.7578945111879847  0.0000925374113478
  0.7574775725376739  0.7574775725376739  0.4837226938358867
  0.2425224274623261  0.2425224274623261  0.5162773061641133
  0.0000000000000000  0.0000000000000000  0.0000000000000000
  0.5000000000000000  0.5000000000000000  0.0000000000000000
  0.2500549330733008  0.7499450669266992  0.5000000000000000
  0.7499450669266992  0.2500549330733008  0.5000000000000000

  0.00000000E+00  0.00000000E+00  0.00000000E+00
  0.00000000E+00  0.00000000E+00  0.00000000E+00
  0.00000000E+00  0.00000000E+00  0.00000000E+00
  0.00000000E+00  0.00000000E+00  0.00000000E+00
  0.00000000E+00  0.00000000E+00  0.00000000E+00
  0.00000000E+00  0.00000000E+00  0.00000000E+00
  0.00000000E+00  0.00000000E+00  0.00000000E+00
  0.00000000E+00  0.00000000E+00  0.00000000E+00
  0.00000000E+00  0.00000000E+00  0.00000000E+00
  0.00000000E+00  0.00000000E+00  0.00000000E+00
