Ba10 Tl4 Br32                           
   1.0000000000000000     
     5.1025517053745624   -8.7032085994027941    0.0000000000000000
     5.1025517053745624    8.7032085994027941    0.0000000000000000
     0.0000000000000000    0.0000000000000000   19.4473016714775788
   Ba   Tl   Br
    10     4    32
Direct
  0.0000000000000000  0.0000000000000000  0.7165864366040395
  0.0000000000000000  0.0000000000000000  0.2834135633959605
  0.5000000000000000  0.5000000000000000  0.7834135633959605
  0.5000000000000000  0.5000000000000000  0.2165864366040395
  0.5000000000000000  0.5000000000000000  0.5000000000000000
  0.0000000000000000  0.0000000000000000  0.0000000000000000
  0.0000000000000000  0.5000000000000000  0.6460949601571713
  0.5000000000000000  0.0000000000000000  0.3539050398428287
  0.5000000000000000  0.0000000000000000  0.8539050398428287
  0.0000000000000000  0.5000000000000000  0.1460949601571713
  0.5000000000000000  0.0000000000000000  0.6090401390028148
  0.0000000000000000  0.5000000000000000  0.3909598609971852
  0.0000000000000000  0.5000000000000000  0.8909598609971852
  0.5000000000000000  0.0000000000000000  0.1090401390028148
  0.5536081005796376  0.2124777585725823  0.7113494151934390
  0.4463918994203624  0.7875222414274177  0.7113494151934390
  0.2124777585725823  0.5536081005796376  0.2886505848065610
  0.7875222414274177  0.4463918994203624  0.2886505848065610
  0.9463918994203624  0.2875222414274177  0.7886505848065610
  0.0536081005796376  0.7124777585725823  0.7886505848065610
  0.2875222414274177  0.9463918994203624  0.2113494151934390
  0.7124777585725823  0.0536081005796376  0.2113494151934390
  0.1745878795286373  0.8721729202884774  0.6113644190630723
  0.8254121204713627  0.1278270797115226  0.6113644190630723
  0.8721729202884774  0.1745878795286373  0.3886355809369277
  0.1278270797115226  0.8254121204713627  0.3886355809369277
  0.3254121204713627  0.6278270797115226  0.8886355809369277
  0.6745878795286373  0.3721729202884774  0.8886355809369277
  0.6637492927240913  0.9715751788444678  0.0013215817926451
  0.3362507072759087  0.0284248211555322  0.0013215817926451
  0.9715751788444678  0.6637492927240913  0.9986784182073549
  0.0284248211555322  0.3362507072759087  0.9986784182073549
  0.8362507072759087  0.5284248211555322  0.4986784182073549
  0.1637492927240913  0.4715751788444678  0.4986784182073549
  0.5284248211555322  0.8362507072759087  0.5013215817926451
  0.4715751788444678  0.1637492927240913  0.5013215817926451
  0.8555807654687442  0.7619297037436112  0.1527208044035007
  0.1444192345312558  0.2380702962563888  0.1527208044035007
  0.7619297037436112  0.8555807654687442  0.8472791955964993
  0.2380702962563888  0.1444192345312558  0.8472791955964993
  0.6444192345312558  0.7380702962563888  0.3472791955964993
  0.3555807654687442  0.2619297037436112  0.3472791955964993
  0.7380702962563888  0.6444192345312558  0.6527208044035007
  0.2619297037436112  0.3555807654687442  0.6527208044035007
  0.3721729202884774  0.6745878795286373  0.1113644190630723
  0.6278270797115226  0.3254121204713627  0.1113644190630723

  0.00000000E+00  0.00000000E+00  0.00000000E+00
  0.00000000E+00  0.00000000E+00  0.00000000E+00
  0.00000000E+00  0.00000000E+00  0.00000000E+00
  0.00000000E+00  0.00000000E+00  0.00000000E+00
  0.00000000E+00  0.00000000E+00  0.00000000E+00
  0.00000000E+00  0.00000000E+00  0.00000000E+00
  0.00000000E+00  0.00000000E+00  0.00000000E+00
  0.00000000E+00  0.00000000E+00  0.00000000E+00
  0.00000000E+00  0.00000000E+00  0.00000000E+00
  0.00000000E+00  0.00000000E+00  0.00000000E+00
  0.00000000E+00  0.00000000E+00  0.00000000E+00
  0.00000000E+00  0.00000000E+00  0.00000000E+00
  0.00000000E+00  0.00000000E+00  0.00000000E+00
  0.00000000E+00  0.00000000E+00  0.00000000E+00
  0.00000000E+00  0.00000000E+00  0.00000000E+00
  0.00000000E+00  0.00000000E+00  0.00000000E+00
  0.00000000E+00  0.00000000E+00  0.00000000E+00
  0.00000000E+00  0.00000000E+00  0.00000000E+00
  0.00000000E+00  0.00000000E+00  0.00000000E+00
  0.00000000E+00  0.00000000E+00  0.00000000E+00
  0.00000000E+00  0.00000000E+00  0.00000000E+00
  0.00000000E+00  0.00000000E+00  0.00000000E+00
  0.00000000E+00  0.00000000E+00  0.00000000E+00
  0.00000000E+00  0.00000000E+00  0.00000000E+00
  0.00000000E+00  0.00000000E+00  0.00000000E+00
  0.00000000E+00  0.00000000E+00  0.00000000E+00
  0.00000000E+00  0.00000000E+00  0.00000000E+00
  0.00000000E+00  0.00000000E+00  0.00000000E+00
  0.00000000E+00  0.00000000E+00  0.00000000E+00
  0.00000000E+00  0.00000000E+00  0.00000000E+00
  0.00000000E+00  0.00000000E+00  0.00000000E+00
  0.00000000E+00  0.00000000E+00  0.00000000E+00
  0.00000000E+00  0.00000000E+00  0.00000000E+00
  0.00000000E+00  0.00000000E+00  0.00000000E+00
  0.00000000E+00  0.00000000E+00  0.00000000E+00
  0.00000000E+00  0.00000000E+00  0.00000000E+00
  0.00000000E+00  0.00000000E+00  0.00000000E+00
  0.00000000E+00  0.00000000E+00  0.00000000E+00
  0.00000000E+00  0.00000000E+00  0.00000000E+00
  0.00000000E+00  0.00000000E+00  0.00000000E+00
  0.00000000E+00  0.00000000E+00  0.00000000E+00
  0.00000000E+00  0.00000000E+00  0.00000000E+00
  0.00000000E+00  0.00000000E+00  0.00000000E+00
  0.00000000E+00  0.00000000E+00  0.00000000E+00
  0.00000000E+00  0.00000000E+00  0.00000000E+00
  0.00000000E+00  0.00000000E+00  0.00000000E+00
