Ca4 Al10 Br2                            
   1.00000000000000     
     7.8469046064699022    0.8966119080009475    5.0586884204805331
     1.0614086603966399    9.0240472343505065    4.3982241575322956
     7.1096088165932239    7.4749657064457828   12.6627899566061757
   Br   Ca   Al
     2     4    10
Direct
  0.4074766234369420  0.6931715934429121  0.6627481171162444
  0.6183760714759501  0.3468162999130300  0.3178216429273633
  0.2116989306864951  0.0986398732669258  0.0660792176507883
  0.6633466751923933  0.2049697835090853  0.1744275519785816
  0.4331766559726375  0.8059305441888114  0.7735099809882158
  0.8482647086279371  0.8838366305209107  0.8535153872779446
  0.0011481940452285  0.0199851410628753  0.9887495084029467
  0.2954528238826697  0.2034622043109451  0.1698729718280134
  0.6572366404288204  0.0498300101271809  0.0208028982649324
  0.1654850416906655  0.3392239241198993  0.3073587940295539
  0.7056926731370083  0.4850620854335617  0.4545785137036091
  0.9235323551932879  0.6145759562574966  0.5824684373303342
  0.0066328547182977  0.4846412142451939  0.4515031805178964
  0.2546409484654362  0.5908809662803947  0.5615964006344569
  0.8682467595441778  0.7501451291422470  0.7173105283416419
  0.4394920435020495  0.9287286441785270  0.8976568690074700
 
  0.00000000E+00  0.00000000E+00  0.00000000E+00
  0.00000000E+00  0.00000000E+00  0.00000000E+00
  0.00000000E+00  0.00000000E+00  0.00000000E+00
  0.00000000E+00  0.00000000E+00  0.00000000E+00
  0.00000000E+00  0.00000000E+00  0.00000000E+00
  0.00000000E+00  0.00000000E+00  0.00000000E+00
  0.00000000E+00  0.00000000E+00  0.00000000E+00
  0.00000000E+00  0.00000000E+00  0.00000000E+00
  0.00000000E+00  0.00000000E+00  0.00000000E+00
  0.00000000E+00  0.00000000E+00  0.00000000E+00
  0.00000000E+00  0.00000000E+00  0.00000000E+00
  0.00000000E+00  0.00000000E+00  0.00000000E+00
  0.00000000E+00  0.00000000E+00  0.00000000E+00
  0.00000000E+00  0.00000000E+00  0.00000000E+00
  0.00000000E+00  0.00000000E+00  0.00000000E+00
  0.00000000E+00  0.00000000E+00  0.00000000E+00
