Be1 Tl2 Br10                            
   1.0000000000000000     
     5.1324788800131520    5.4076328125304078    0.3820119833491057
    -5.1324788800131520    5.4076328125304078    0.3820119833491057
     0.0000000000000000    4.4611892230934966    9.2892516709925044
   Be   Tl   Br
     1     2    10
Direct
  0.3649064993831530  0.6350935006168470  0.0000000000000000
  0.9636126397649747  0.9538377978053845  0.7668330627239754
  0.0461622021946155  0.0363873602350253  0.2331669372760246
  0.3638536758543012  0.3965965572838996  0.5344120259312390
  0.6034034427161004  0.6361463241456988  0.4655879740687610
  0.6909067977727616  0.6434978314847370  0.9418904862385418
  0.3565021685152630  0.3090932022272384  0.0581095137614582
  0.9139697554035919  0.0860302445964081  0.0000000000000000
  0.1318677587614729  0.8681322412385271  0.5000000000000000
  0.8775045912103323  0.2915723400705943  0.6274511939940908
  0.7084276599294057  0.1224954087896677  0.3725488060059092
  0.3106930039635145  0.7878111954694731  0.7971980206658529
  0.2121888045305269  0.6893069960364855  0.2028019793341471

  0.00000000E+00  0.00000000E+00  0.00000000E+00
  0.00000000E+00  0.00000000E+00  0.00000000E+00
  0.00000000E+00  0.00000000E+00  0.00000000E+00
  0.00000000E+00  0.00000000E+00  0.00000000E+00
  0.00000000E+00  0.00000000E+00  0.00000000E+00
  0.00000000E+00  0.00000000E+00  0.00000000E+00
  0.00000000E+00  0.00000000E+00  0.00000000E+00
  0.00000000E+00  0.00000000E+00  0.00000000E+00
  0.00000000E+00  0.00000000E+00  0.00000000E+00
  0.00000000E+00  0.00000000E+00  0.00000000E+00
  0.00000000E+00  0.00000000E+00  0.00000000E+00
  0.00000000E+00  0.00000000E+00  0.00000000E+00
  0.00000000E+00  0.00000000E+00  0.00000000E+00
