Be1 Al2 Br10                            
   1.00000000000000     
     4.6642124991853722    4.8047596868605442    0.3803313430524469
    -4.6642124991853722    4.8047596868605442    0.3803313430524469
     0.0000000000000000    3.9279880180358364    9.0300989679206722
   Be   Al   Br
     1     2    10
Direct
  0.3792721316419474  0.6207278683580526  0.0000000000000000
  0.9923863339470387  0.9851777103873047  0.7534936322800903
  0.0148222896126953  0.0076136660529613  0.2465063677199097
  0.2631360011752619  0.2826583213236944  0.6271906633696887
  0.7173416786763056  0.7368639988247381  0.3728093366303113
  0.7396553479535939  0.6534447974350925  0.9051507664091858
  0.3465552025649075  0.2603446520464061  0.0948492335908142
  0.9247796814770979  0.0752203185229021  0.0000000000000000
  0.1046345015417600  0.8953654984582400  0.5000000000000000
  0.7447053941363535  0.2349035349957447  0.6898291523003905
  0.7650964650042553  0.2552946058636465  0.3101708476996166
  0.2822596100346288  0.7306456377658535  0.8006026893745215
  0.2693543622341465  0.7177403899653712  0.1993973106254785
 
  0.00000000E+00  0.00000000E+00  0.00000000E+00
  0.00000000E+00  0.00000000E+00  0.00000000E+00
  0.00000000E+00  0.00000000E+00  0.00000000E+00
  0.00000000E+00  0.00000000E+00  0.00000000E+00
  0.00000000E+00  0.00000000E+00  0.00000000E+00
  0.00000000E+00  0.00000000E+00  0.00000000E+00
  0.00000000E+00  0.00000000E+00  0.00000000E+00
  0.00000000E+00  0.00000000E+00  0.00000000E+00
  0.00000000E+00  0.00000000E+00  0.00000000E+00
  0.00000000E+00  0.00000000E+00  0.00000000E+00
  0.00000000E+00  0.00000000E+00  0.00000000E+00
  0.00000000E+00  0.00000000E+00  0.00000000E+00
  0.00000000E+00  0.00000000E+00  0.00000000E+00
