Ba4 Tl4 F20                             
   1.0000000000000000     
     5.0905221833623431   -0.0000000000000000    0.0000000000000003
    -0.0000000000000003    5.5789511846808972    0.0000000000000003
     0.0000000000000000   -0.0000000000000000   14.6058757430828052
   Ba   Tl   F 
     4     4    20
Direct
  0.7589455091801014  0.7490697125834771  0.6536803635667781
  0.2589455091801014  0.7509302874165229  0.3463196364332219
  0.2410544908199057  0.2490697125834771  0.8463196364332219
  0.7410544908198986  0.2509302874165229  0.1536803635667781
  0.2916964424376332  0.2492396368368830  0.5793185641128176
  0.7916964424376332  0.2507603631631170  0.4206814358871824
  0.7083035575623668  0.7492396368368830  0.9206814358871824
  0.2083035575623668  0.7507603631631170  0.0793185641128176
  0.0187039238793645  0.5096865169493228  0.5107026290787502
  0.5187039238793645  0.9903134830506772  0.4892973709212498
  0.9812960761206355  0.0096865169493228  0.9892973709212498
  0.4812960761206355  0.4903134830506772  0.0107026290787502
  0.7381337624527973  0.5122410371008854  0.3122434538461789
  0.2381337624527973  0.9877589628991146  0.6877565461538140
  0.2618662375472027  0.0122410371008854  0.1877565461538140
  0.7618662375472027  0.4877589628991146  0.8122434538461789
  0.2387206644273832  0.5103717940147590  0.6879072353983204
  0.7387206644273832  0.9896282059852410  0.3120927646016725
  0.7612793355726168  0.0103717940147590  0.8120927646016796
  0.2612793355726168  0.4896282059852410  0.1879072353983275
  0.7025093331129639  0.2484676735725841  0.6361265705709513
  0.2025093331129639  0.2515323264274159  0.3638734294290487
  0.2974906668870361  0.7484676735725913  0.8638734294290487
  0.7974906668870361  0.7515323264274087  0.1361265705709513
  0.5186832939581976  0.5100728488036665  0.4899259431301957
  0.0186832939582047  0.9899271511963335  0.5100740568698043
  0.4813167060417953  0.0100728488036665  0.0100740568698043
  0.9813167060417953  0.4899271511963335  0.9899259431301957

  0.00000000E+00  0.00000000E+00  0.00000000E+00
  0.00000000E+00  0.00000000E+00  0.00000000E+00
  0.00000000E+00  0.00000000E+00  0.00000000E+00
  0.00000000E+00  0.00000000E+00  0.00000000E+00
  0.00000000E+00  0.00000000E+00  0.00000000E+00
  0.00000000E+00  0.00000000E+00  0.00000000E+00
  0.00000000E+00  0.00000000E+00  0.00000000E+00
  0.00000000E+00  0.00000000E+00  0.00000000E+00
  0.00000000E+00  0.00000000E+00  0.00000000E+00
  0.00000000E+00  0.00000000E+00  0.00000000E+00
  0.00000000E+00  0.00000000E+00  0.00000000E+00
  0.00000000E+00  0.00000000E+00  0.00000000E+00
  0.00000000E+00  0.00000000E+00  0.00000000E+00
  0.00000000E+00  0.00000000E+00  0.00000000E+00
  0.00000000E+00  0.00000000E+00  0.00000000E+00
  0.00000000E+00  0.00000000E+00  0.00000000E+00
  0.00000000E+00  0.00000000E+00  0.00000000E+00
  0.00000000E+00  0.00000000E+00  0.00000000E+00
  0.00000000E+00  0.00000000E+00  0.00000000E+00
  0.00000000E+00  0.00000000E+00  0.00000000E+00
  0.00000000E+00  0.00000000E+00  0.00000000E+00
  0.00000000E+00  0.00000000E+00  0.00000000E+00
  0.00000000E+00  0.00000000E+00  0.00000000E+00
  0.00000000E+00  0.00000000E+00  0.00000000E+00
  0.00000000E+00  0.00000000E+00  0.00000000E+00
  0.00000000E+00  0.00000000E+00  0.00000000E+00
  0.00000000E+00  0.00000000E+00  0.00000000E+00
  0.00000000E+00  0.00000000E+00  0.00000000E+00
