Ba4 B10 Br2                             
   1.00000000000000     
     9.6193625274239505    3.0483543343299244    0.3226158655510940
     2.7782383751641229    9.5880366654106783   -0.1641224039325209
     6.5327322485497232    6.3584708819886195    4.3984080453742305
   Br   Ba   B 
     2     4    10
Direct
  0.6698206009446039  0.6845544982077740  0.5490722043526830
  0.1700297026037347  0.1931526226872506  0.5482279909827952
  0.2851544612403885  0.2399197722020716  0.0471335011460852
  0.7586625707202188  0.2383597472449921  0.1053154434218158
  0.2612158662627024  0.7434207693447377  0.1047136449532715
  0.7494496428372770  0.8010862618993073  0.0221344983765519
  0.3667749483687928  0.3634632963934763  0.5722708490942949
  0.8617766381554404  0.8584614706918430  0.5723889338230848
  0.2248066303394936  0.7623764422469890  0.5229070419342250
  0.7222221923210839  0.0428729305268476  0.5678330866527119
  0.8416685880598180  0.3580015617502568  0.2403782429205492
  0.0430357835830435  0.7164869863007368  0.5704812253657536
  0.7366181247862045  0.2064289939366262  0.5670271185715805
  0.2210260321321087  0.5449854140525119  0.5706596595578759
  0.0414355165061835  0.5293575840903202  0.8691986893659305
  0.5462027011389026  0.2169716484242628  0.5702578694808125
 
  0.00000000E+00  0.00000000E+00  0.00000000E+00
  0.00000000E+00  0.00000000E+00  0.00000000E+00
  0.00000000E+00  0.00000000E+00  0.00000000E+00
  0.00000000E+00  0.00000000E+00  0.00000000E+00
  0.00000000E+00  0.00000000E+00  0.00000000E+00
  0.00000000E+00  0.00000000E+00  0.00000000E+00
  0.00000000E+00  0.00000000E+00  0.00000000E+00
  0.00000000E+00  0.00000000E+00  0.00000000E+00
  0.00000000E+00  0.00000000E+00  0.00000000E+00
  0.00000000E+00  0.00000000E+00  0.00000000E+00
  0.00000000E+00  0.00000000E+00  0.00000000E+00
  0.00000000E+00  0.00000000E+00  0.00000000E+00
  0.00000000E+00  0.00000000E+00  0.00000000E+00
  0.00000000E+00  0.00000000E+00  0.00000000E+00
  0.00000000E+00  0.00000000E+00  0.00000000E+00
  0.00000000E+00  0.00000000E+00  0.00000000E+00
