Ca9 In4                                 
   1.00000000000000     
    -6.2955717714125816    6.3191573293049377    2.7053571644061623
     6.2989306276623855   -6.3201838862103932    2.7159116384418578
     6.3370478910208554    6.3617323676786430   -2.7078788767311996
   In   Ca
     4     9
Direct
  0.4052997492545884  0.7384867775368065  0.1432274033483552
  0.7370083767415778  0.5980003711383972  0.3344519941476491
  0.2630380838263520  0.4020351778263418  0.6656096115953147
  0.5946600461436518  0.2614832814345576  0.8568170800116022
  0.5000000622317557  0.4999964977514040  0.0000337548119163
  0.1875550912224568  0.8941691131826346  0.0828764523104581
  0.8846947010378869  0.3883919578251138  0.2732482649807793
  0.1028194841791006  0.1876725495969396  0.2916019320979970
  0.6128751752742403  0.8843440881162721  0.4976778161435220
  0.3871373276547772  0.1156782231158786  0.5023809169516582
  0.8972240384531815  0.8123707740702244  0.7084650373083221
  0.1152892711512123  0.6115827728247325  0.7268197313310480
  0.8123985928292186  0.1057884155806974  0.9171900049613768
 
  0.00000000E+00  0.00000000E+00  0.00000000E+00
  0.00000000E+00  0.00000000E+00  0.00000000E+00
  0.00000000E+00  0.00000000E+00  0.00000000E+00
  0.00000000E+00  0.00000000E+00  0.00000000E+00
  0.00000000E+00  0.00000000E+00  0.00000000E+00
  0.00000000E+00  0.00000000E+00  0.00000000E+00
  0.00000000E+00  0.00000000E+00  0.00000000E+00
  0.00000000E+00  0.00000000E+00  0.00000000E+00
  0.00000000E+00  0.00000000E+00  0.00000000E+00
  0.00000000E+00  0.00000000E+00  0.00000000E+00
  0.00000000E+00  0.00000000E+00  0.00000000E+00
  0.00000000E+00  0.00000000E+00  0.00000000E+00
  0.00000000E+00  0.00000000E+00  0.00000000E+00
