Mg4 Tl4 I20                             
   1.0000000000000000     
     6.2160338608096906    0.0000000000000001    0.0000000000000002
    -0.0000000000000006   14.4592396994561607    0.0000000000000003
    -0.0000000000000003   -0.0000000000000002   16.2220327215190814
   Mg   Tl   I 
     4     4    20
Direct
  0.7515366417990421  0.5068901135358459  0.3664194290838054
  0.2515366417990492  0.9931098864641541  0.6335805709161946
  0.2484633582009437  0.0068901135358459  0.1335805709161946
  0.7484633582009508  0.4931098864641541  0.8664194290838054
  0.9537342257074997  0.8789789944138278  0.4112821562164868
  0.4537342257075068  0.6210210055861722  0.5887178437835132
  0.0462657742925003  0.3789789944138278  0.0887178437835061
  0.5462657742924932  0.1210210055861722  0.9112821562164797
  0.9303145167258435  0.6384843549942687  0.4688646507776895
  0.4303145167258364  0.8615156450057313  0.5311353492223105
  0.0696854832741565  0.1384843549942829  0.0311353492223105
  0.5696854832741565  0.3615156450057171  0.9688646507776895
  0.7719035725480197  0.6003914620474404  0.1101276902029582
  0.2719035725480197  0.8996085379525596  0.8898723097970418
  0.2280964274519803  0.1003914620474404  0.3898723097970418
  0.7280964274519803  0.3996085379525596  0.6101276902029582
  0.5518540171171082  0.9073352404157902  0.0357221538358985
  0.0518540171171082  0.5926647595842098  0.9642778461640944
  0.4481459828828918  0.4073352404157902  0.4642778461641015
  0.9481459828828918  0.0926647595842098  0.5357221538359056
  0.9896895960770351  0.8784659933450172  0.2014135264417547
  0.4896895960770209  0.6215340066549828  0.7985864735582382
  0.0103104039229791  0.3784659933450101  0.2985864735582453
  0.5103104039229649  0.1215340066549828  0.7014135264417618
  0.0115627771511839  0.3944739501692212  0.7581375973015128
  0.5115627771511839  0.1055260498307860  0.2418624026984872
  0.9884372228488161  0.8944739501692140  0.7418624026984872
  0.4884372228488161  0.6055260498307860  0.2581375973015128

  0.00000000E+00  0.00000000E+00  0.00000000E+00
  0.00000000E+00  0.00000000E+00  0.00000000E+00
  0.00000000E+00  0.00000000E+00  0.00000000E+00
  0.00000000E+00  0.00000000E+00  0.00000000E+00
  0.00000000E+00  0.00000000E+00  0.00000000E+00
  0.00000000E+00  0.00000000E+00  0.00000000E+00
  0.00000000E+00  0.00000000E+00  0.00000000E+00
  0.00000000E+00  0.00000000E+00  0.00000000E+00
  0.00000000E+00  0.00000000E+00  0.00000000E+00
  0.00000000E+00  0.00000000E+00  0.00000000E+00
  0.00000000E+00  0.00000000E+00  0.00000000E+00
  0.00000000E+00  0.00000000E+00  0.00000000E+00
  0.00000000E+00  0.00000000E+00  0.00000000E+00
  0.00000000E+00  0.00000000E+00  0.00000000E+00
  0.00000000E+00  0.00000000E+00  0.00000000E+00
  0.00000000E+00  0.00000000E+00  0.00000000E+00
  0.00000000E+00  0.00000000E+00  0.00000000E+00
  0.00000000E+00  0.00000000E+00  0.00000000E+00
  0.00000000E+00  0.00000000E+00  0.00000000E+00
  0.00000000E+00  0.00000000E+00  0.00000000E+00
  0.00000000E+00  0.00000000E+00  0.00000000E+00
  0.00000000E+00  0.00000000E+00  0.00000000E+00
  0.00000000E+00  0.00000000E+00  0.00000000E+00
  0.00000000E+00  0.00000000E+00  0.00000000E+00
  0.00000000E+00  0.00000000E+00  0.00000000E+00
  0.00000000E+00  0.00000000E+00  0.00000000E+00
  0.00000000E+00  0.00000000E+00  0.00000000E+00
  0.00000000E+00  0.00000000E+00  0.00000000E+00
