Sr4 Al2 Cl10                            
   1.00000000000000     
     8.2227468851044367   -0.0007483603924751   -0.0018813867555077
    -0.0007483603924751    8.2227468851044367   -0.0018813867555077
     4.1092116164695414    4.1092116164695414    6.6005765410698425
   Cl   Sr   Al
    10     4     2
Direct
  0.4999953668447361  0.9999910776435996  0.0000269942764675
  0.9999910776435996  0.4999953668447361  0.0000269942764675
  0.7176167491768979  0.0126062369678834  0.2700856561215517
  0.2175242102227770  0.2175242102227770  0.2700926502458856
  0.5125760350493991  0.5125760350493991  0.2700079316991406
  0.0126062369678834  0.7176167491768979  0.2700856561215517
  0.9874051749204398  0.2823891947332342  0.7299420439423656
  0.4874369775183851  0.4874369775183851  0.7300192693916330
  0.7825413046016649  0.7825413046016649  0.7298826854386817
  0.2823891947332342  0.9874051749204398  0.7299420439423656
  0.1587672554422355  0.1587672554422355  0.9999414329233005
  0.6587887683027063  0.3412453265974449  0.9999993678878880
  0.3412453265974449  0.6587887683027063  0.9999993678878880
  0.8412415327991738  0.8412415327991738  0.0000730732288687
  0.7500777991886167  0.2498969899908019  0.4999374163079722
  0.2498969899908019  0.7500777991886167  0.4999374163079722
 
  0.00000000E+00  0.00000000E+00  0.00000000E+00
  0.00000000E+00  0.00000000E+00  0.00000000E+00
  0.00000000E+00  0.00000000E+00  0.00000000E+00
  0.00000000E+00  0.00000000E+00  0.00000000E+00
  0.00000000E+00  0.00000000E+00  0.00000000E+00
  0.00000000E+00  0.00000000E+00  0.00000000E+00
  0.00000000E+00  0.00000000E+00  0.00000000E+00
  0.00000000E+00  0.00000000E+00  0.00000000E+00
  0.00000000E+00  0.00000000E+00  0.00000000E+00
  0.00000000E+00  0.00000000E+00  0.00000000E+00
  0.00000000E+00  0.00000000E+00  0.00000000E+00
  0.00000000E+00  0.00000000E+00  0.00000000E+00
  0.00000000E+00  0.00000000E+00  0.00000000E+00
  0.00000000E+00  0.00000000E+00  0.00000000E+00
  0.00000000E+00  0.00000000E+00  0.00000000E+00
  0.00000000E+00  0.00000000E+00  0.00000000E+00
