Sr4 Tl6                                 
   1.0000000000000000     
     3.3718482507383944   -5.8763158468516545    0.0000000000000000
     3.3718482507383944    5.8763158468516545   -0.0000000000000000
     0.0000000000000000    0.0000000000000000    8.9397147195406195
   Sr   Tl
     4     6
Direct
  0.1501472261313097  0.8498527738686903  0.1026542631251957
  0.6501472261313097  0.3498527738686903  0.3973457368748043
  0.3498527738686903  0.6501472261313097  0.6026542631251957
  0.8498527738686903  0.1501472261313097  0.8973457368748043
  0.5000000000000000  0.5000000000000000  0.0000000000000000
  0.1289878266128781  0.3710121733871219  0.2500000000000000
  0.6289878266128781  0.8710121733871219  0.2500000000000000
  0.0000000000000000  0.0000000000000000  0.5000000000000000
  0.3710121733871219  0.1289878266128781  0.7500000000000000
  0.8710121733871219  0.6289878266128781  0.7500000000000000

  0.00000000E+00  0.00000000E+00  0.00000000E+00
  0.00000000E+00  0.00000000E+00  0.00000000E+00
  0.00000000E+00  0.00000000E+00  0.00000000E+00
  0.00000000E+00  0.00000000E+00  0.00000000E+00
  0.00000000E+00  0.00000000E+00  0.00000000E+00
  0.00000000E+00  0.00000000E+00  0.00000000E+00
  0.00000000E+00  0.00000000E+00  0.00000000E+00
  0.00000000E+00  0.00000000E+00  0.00000000E+00
  0.00000000E+00  0.00000000E+00  0.00000000E+00
  0.00000000E+00  0.00000000E+00  0.00000000E+00
