Be4 Al8 Br32                            
   1.00000000000000     
    -5.9999489887390940    5.9999489887390940   10.9681127677860850
     5.9999489887390940   -5.9999489887390940   10.9681127677860850
     5.9999489887390940    5.9999489887390940  -10.9681127677860850
   Be   Al   Br
     4     8    32
Direct
  0.0000000000000000  0.0000000000000000  0.0000000000000000
  0.7500000000000000  0.2500000000000000  0.5000000000000000
  0.2500000000000000  0.7500000000000000  0.5000000000000000
  0.5000000000000000  0.5000000000000000  0.0000000000000000
  0.5608887736063153  0.8750000000000000  0.1858887736063153
  0.1250000000000000  0.8108887736063153  0.1858887736063153
  0.1250000000000000  0.3108887736063153  0.6858887736063153
  0.6891112263936847  0.3750000000000000  0.8141112263936847
  0.6250000000000000  0.9391112263936847  0.8141112263936847
  0.0608887736063153  0.8750000000000000  0.6858887736063153
  0.1891112263936847  0.3750000000000000  0.3141112263936847
  0.6250000000000000  0.4391112263936847  0.3141112263936847
  0.6403745118404274  0.2427999538607537  0.2869316464410829
  0.1034428653993515  0.8903745118404274  0.8975745579796808
  0.7941316925803363  0.8965571346006485  0.7869316464410829
  0.3188709416198776  0.2702926296517987  0.2549206141702456
  0.8188709416198776  0.5639503274496178  0.0485793119680693
  0.8139503274496178  0.5688709416198776  0.5485793119680693
  0.1096254881595726  0.0072000461392463  0.2130683535589242
  0.9927999538607537  0.2058683074196637  0.1024254420203192
  0.4558683074196637  0.7427999538607537  0.6024254420203192
  0.2297073703482013  0.1811290583801224  0.7450793858297544
  0.0153710154815485  0.0639503274496178  0.7450793858297544
  0.9311290583801224  0.6860496725503822  0.4514206880319307
  0.9360496725503822  0.6811290583801224  0.9514206880319307
  0.1465571346006485  0.5441316925803363  0.2869316464410829
  0.2941316925803363  0.5072000461392463  0.8975745579796808
  0.6034428653993515  0.7058683074196637  0.2130683535589242
  0.7346289845184515  0.1860496725503822  0.7549206141702456
  0.2572000461392463  0.8596254881595726  0.7130683535589171
  0.4927999538607537  0.3903745118404274  0.7869316464410829
  0.9558683074196637  0.3534428653993515  0.7130683535589171
  0.3139503274496178  0.7653710154815485  0.2450793858297544
  0.4360496725503822  0.4846289845184515  0.2549206141702456
  0.6465571346006485  0.3596254881595726  0.6024254420203192
  0.6096254881595726  0.3965571346006485  0.1024254420203192
  0.2346289845184515  0.4797073703482013  0.5485793119680693
  0.4311290583801224  0.9797073703482013  0.2450793858297544
  0.1403745118404274  0.8534428653993515  0.3975745579796808
  0.5202926296517987  0.0688709416198776  0.7549206141702456
  0.5153710154815485  0.7702926296517987  0.9514206880319307
  0.0202926296517987  0.2653710154815485  0.4514206880319307
  0.7572000461392463  0.0441316925803363  0.3975745579796808
  0.7297073703482013  0.9846289845184515  0.0485793119680693
 
  0.00000000E+00  0.00000000E+00  0.00000000E+00
  0.00000000E+00  0.00000000E+00  0.00000000E+00
  0.00000000E+00  0.00000000E+00  0.00000000E+00
  0.00000000E+00  0.00000000E+00  0.00000000E+00
  0.00000000E+00  0.00000000E+00  0.00000000E+00
  0.00000000E+00  0.00000000E+00  0.00000000E+00
  0.00000000E+00  0.00000000E+00  0.00000000E+00
  0.00000000E+00  0.00000000E+00  0.00000000E+00
  0.00000000E+00  0.00000000E+00  0.00000000E+00
  0.00000000E+00  0.00000000E+00  0.00000000E+00
  0.00000000E+00  0.00000000E+00  0.00000000E+00
  0.00000000E+00  0.00000000E+00  0.00000000E+00
  0.00000000E+00  0.00000000E+00  0.00000000E+00
  0.00000000E+00  0.00000000E+00  0.00000000E+00
  0.00000000E+00  0.00000000E+00  0.00000000E+00
  0.00000000E+00  0.00000000E+00  0.00000000E+00
  0.00000000E+00  0.00000000E+00  0.00000000E+00
  0.00000000E+00  0.00000000E+00  0.00000000E+00
  0.00000000E+00  0.00000000E+00  0.00000000E+00
  0.00000000E+00  0.00000000E+00  0.00000000E+00
  0.00000000E+00  0.00000000E+00  0.00000000E+00
  0.00000000E+00  0.00000000E+00  0.00000000E+00
  0.00000000E+00  0.00000000E+00  0.00000000E+00
  0.00000000E+00  0.00000000E+00  0.00000000E+00
  0.00000000E+00  0.00000000E+00  0.00000000E+00
  0.00000000E+00  0.00000000E+00  0.00000000E+00
  0.00000000E+00  0.00000000E+00  0.00000000E+00
  0.00000000E+00  0.00000000E+00  0.00000000E+00
  0.00000000E+00  0.00000000E+00  0.00000000E+00
  0.00000000E+00  0.00000000E+00  0.00000000E+00
  0.00000000E+00  0.00000000E+00  0.00000000E+00
  0.00000000E+00  0.00000000E+00  0.00000000E+00
  0.00000000E+00  0.00000000E+00  0.00000000E+00
  0.00000000E+00  0.00000000E+00  0.00000000E+00
  0.00000000E+00  0.00000000E+00  0.00000000E+00
  0.00000000E+00  0.00000000E+00  0.00000000E+00
  0.00000000E+00  0.00000000E+00  0.00000000E+00
  0.00000000E+00  0.00000000E+00  0.00000000E+00
  0.00000000E+00  0.00000000E+00  0.00000000E+00
  0.00000000E+00  0.00000000E+00  0.00000000E+00
  0.00000000E+00  0.00000000E+00  0.00000000E+00
  0.00000000E+00  0.00000000E+00  0.00000000E+00
  0.00000000E+00  0.00000000E+00  0.00000000E+00
  0.00000000E+00  0.00000000E+00  0.00000000E+00
