Be21 Al40                               
   1.00000000000000     
     8.8232365269490689   -0.1100582682194867    0.6498803254639163
    -4.4903571527903088    7.4956375284096932    0.0934323073808511
     1.1596993841074823    0.8895713705126566   13.5666452923781904
   Be   Al
    21    40
Direct
  0.6837362198002737  0.8055473013912220  0.0298376277936256
  0.1197120143299415  0.2045256428821887  0.1227283021813790
  0.7974893400328469  0.6157644690131505  0.9929387045725306
  0.7153326259444910  0.3509125636629733  0.0791939735156362
  0.4073298346665624  0.6655027712881889  0.1205470066847170
  0.9215398457796411  0.9234388530838729  0.1914109691925461
  0.7450665556261953  0.3424752752472955  0.2601226023520340
  0.2923381323008485  0.7084951346547612  0.2550113008746067
  0.1157629741855928  0.0981136697166036  0.2724081755183008
  0.7258794621140936  0.9893499266802479  0.4547553938838718
  0.2732205031929666  0.3128120834403205  0.5108469765996801
  0.9969884537154314  0.7470751330082308  0.4904536883363875
  0.5209120619842338  0.9833009848361414  0.5652219501952089
  0.3814270686472341  0.4149079287431761  0.6425629897333209
  0.9600846888499035  0.4837509112301177  0.5162785739672771
  0.5433540918951891  0.0849634963113886  0.8421987938458386
  0.0719129135754599  0.5831858913622696  0.7685145397812434
  0.6114387702504160  0.6360481398088780  0.6892208006244402
  0.2739100135985311  0.0585541410884574  0.8696462368792837
  0.0328690243667253  0.3378850454008884  0.8464773018017411
  0.8471677312426351  0.8653360917630408  0.7389810668435217
  0.4255399343634920  0.7990111348567126  0.9582103375743500
  0.8967586698867933  0.1895095040084200  0.0328244693743329
  0.6180088130601717  0.6297984064883195  0.8756708866912746
  0.5507242876507803  0.9838580337092608  0.1367519325108191
  0.4836775977702246  0.4488030184522884  0.0676632304686464
  0.0581714385318293  0.4751445645349861  0.1529136465233591
  0.8425821982151120  0.1253675963685836  0.2616466342552926
  0.4417301071868494  0.2089042163134920  0.2238357647311062
  0.2848766833415226  0.4164782298969101  0.2478464407532499
  0.8186977266579447  0.6184643970659351  0.1693003679010374
  0.1751561391144349  0.8778566512702355  0.1823167216112154
  0.5973615958984340  0.7503831816855993  0.2497654080469189
  0.4761664408854571  0.9539407514997365  0.3587258096409585
  0.9822837456325288  0.5901581046659103  0.3407124614427630
  0.5503474547364107  0.4513013123302372  0.3632815991804392
  0.2358431384931450  0.0554649441989454  0.4151926496779694
  0.0265567903627542  0.2254808103062373  0.4223464907823526
  0.8486644603304114  0.8186185709425899  0.3800689836435396
  0.3851868659718889  0.1546619041257244  0.5886199079078196
  0.7143152815559404  0.2546786770249270  0.4389552449769809
  0.6785818729871522  0.5099187043562736  0.5350544259966412
  0.0882409821086654  0.3898662586720008  0.6434731800062892
  0.5037391943719953  0.6952461787938162  0.5363904081756132
  0.2662950870322334  0.5693552199306851  0.4171716861160633
  0.9508305583493240  0.9713794857367759  0.5677362826388901
  0.7222529236978303  0.2505305541062910  0.6463856365280378
  0.2164183422978070  0.7494386278255547  0.5700727301526811
  0.1279096694531816  0.1422385275193392  0.7546478903801841
  0.7692609232664509  0.3803102139909669  0.8778877334887270
  0.5101168815809345  0.3319017017124395  0.7658960706909284
  0.3343969657237409  0.5836942175282260  0.7878313676488276
  0.8797495912221862  0.6219142444589849  0.6796022583865522
  0.3230115858645775  0.8930562803257089  0.7440607300484174
  0.6368641175144418  0.9237472563512270  0.7023342390219440
  0.7821505851756072  0.0248082812591264  0.8693884823877553
  0.2504244275972312  0.3076727049894501  0.9360566477220686
  0.9960911646383792  0.7925074272465977  0.8424276837391176
  0.0312502800937438  0.9328543800274289  0.0188435301396552
  0.4209557450778973  0.1154522964549827  0.0118873448884571
  0.0613374062012326  0.5742779743556383  0.9641557089715391
 
  0.00000000E+00  0.00000000E+00  0.00000000E+00
  0.00000000E+00  0.00000000E+00  0.00000000E+00
  0.00000000E+00  0.00000000E+00  0.00000000E+00
  0.00000000E+00  0.00000000E+00  0.00000000E+00
  0.00000000E+00  0.00000000E+00  0.00000000E+00
  0.00000000E+00  0.00000000E+00  0.00000000E+00
  0.00000000E+00  0.00000000E+00  0.00000000E+00
  0.00000000E+00  0.00000000E+00  0.00000000E+00
  0.00000000E+00  0.00000000E+00  0.00000000E+00
  0.00000000E+00  0.00000000E+00  0.00000000E+00
  0.00000000E+00  0.00000000E+00  0.00000000E+00
  0.00000000E+00  0.00000000E+00  0.00000000E+00
  0.00000000E+00  0.00000000E+00  0.00000000E+00
  0.00000000E+00  0.00000000E+00  0.00000000E+00
  0.00000000E+00  0.00000000E+00  0.00000000E+00
  0.00000000E+00  0.00000000E+00  0.00000000E+00
  0.00000000E+00  0.00000000E+00  0.00000000E+00
  0.00000000E+00  0.00000000E+00  0.00000000E+00
  0.00000000E+00  0.00000000E+00  0.00000000E+00
  0.00000000E+00  0.00000000E+00  0.00000000E+00
  0.00000000E+00  0.00000000E+00  0.00000000E+00
  0.00000000E+00  0.00000000E+00  0.00000000E+00
  0.00000000E+00  0.00000000E+00  0.00000000E+00
  0.00000000E+00  0.00000000E+00  0.00000000E+00
  0.00000000E+00  0.00000000E+00  0.00000000E+00
  0.00000000E+00  0.00000000E+00  0.00000000E+00
  0.00000000E+00  0.00000000E+00  0.00000000E+00
  0.00000000E+00  0.00000000E+00  0.00000000E+00
  0.00000000E+00  0.00000000E+00  0.00000000E+00
  0.00000000E+00  0.00000000E+00  0.00000000E+00
  0.00000000E+00  0.00000000E+00  0.00000000E+00
  0.00000000E+00  0.00000000E+00  0.00000000E+00
  0.00000000E+00  0.00000000E+00  0.00000000E+00
  0.00000000E+00  0.00000000E+00  0.00000000E+00
  0.00000000E+00  0.00000000E+00  0.00000000E+00
  0.00000000E+00  0.00000000E+00  0.00000000E+00
  0.00000000E+00  0.00000000E+00  0.00000000E+00
  0.00000000E+00  0.00000000E+00  0.00000000E+00
  0.00000000E+00  0.00000000E+00  0.00000000E+00
  0.00000000E+00  0.00000000E+00  0.00000000E+00
  0.00000000E+00  0.00000000E+00  0.00000000E+00
  0.00000000E+00  0.00000000E+00  0.00000000E+00
  0.00000000E+00  0.00000000E+00  0.00000000E+00
  0.00000000E+00  0.00000000E+00  0.00000000E+00
  0.00000000E+00  0.00000000E+00  0.00000000E+00
  0.00000000E+00  0.00000000E+00  0.00000000E+00
  0.00000000E+00  0.00000000E+00  0.00000000E+00
  0.00000000E+00  0.00000000E+00  0.00000000E+00
  0.00000000E+00  0.00000000E+00  0.00000000E+00
  0.00000000E+00  0.00000000E+00  0.00000000E+00
  0.00000000E+00  0.00000000E+00  0.00000000E+00
  0.00000000E+00  0.00000000E+00  0.00000000E+00
  0.00000000E+00  0.00000000E+00  0.00000000E+00
  0.00000000E+00  0.00000000E+00  0.00000000E+00
  0.00000000E+00  0.00000000E+00  0.00000000E+00
  0.00000000E+00  0.00000000E+00  0.00000000E+00
  0.00000000E+00  0.00000000E+00  0.00000000E+00
  0.00000000E+00  0.00000000E+00  0.00000000E+00
  0.00000000E+00  0.00000000E+00  0.00000000E+00
  0.00000000E+00  0.00000000E+00  0.00000000E+00
  0.00000000E+00  0.00000000E+00  0.00000000E+00
