Be2 In2 Cl10                            
   1.0000000000000000     
     4.6004839053663442   -0.0000000000000002    0.0000000000000002
    -0.0000000000000012   11.7486972938990561    0.0000000000000005
    -0.0000000000000001    0.0000000000000003    8.1745867276669646
   Be   In   Cl
     2     2    10
Direct
  0.0000000000000000  0.0000000000000000  0.5000000000000000
  0.5000000000000000  0.5000000000000000  0.0000000000000000
  0.5000000000000000  0.0000000000000000  0.0000000000000000
  0.0000000000000000  0.5000000000000000  0.5000000000000000
  0.5000000000000000  0.7534007617134080  0.5000000000000000
  0.5000000000000000  0.2465992382865920  0.5000000000000000
  0.5000000000000000  0.0000000000000000  0.3164674951460711
  0.5000000000000000  0.0000000000000000  0.6835325048539289
  0.0000000000000000  0.0000000000000000  0.0000000000000000
  0.0000000000000000  0.2534007617134080  0.0000000000000000
  0.0000000000000000  0.7465992382865920  0.0000000000000000
  0.0000000000000000  0.5000000000000000  0.8164674951460711
  0.0000000000000000  0.5000000000000000  0.1835325048539289
  0.5000000000000000  0.5000000000000000  0.5000000000000000

  0.00000000E+00  0.00000000E+00  0.00000000E+00
  0.00000000E+00  0.00000000E+00  0.00000000E+00
  0.00000000E+00  0.00000000E+00  0.00000000E+00
  0.00000000E+00  0.00000000E+00  0.00000000E+00
  0.00000000E+00  0.00000000E+00  0.00000000E+00
  0.00000000E+00  0.00000000E+00  0.00000000E+00
  0.00000000E+00  0.00000000E+00  0.00000000E+00
  0.00000000E+00  0.00000000E+00  0.00000000E+00
  0.00000000E+00  0.00000000E+00  0.00000000E+00
  0.00000000E+00  0.00000000E+00  0.00000000E+00
  0.00000000E+00  0.00000000E+00  0.00000000E+00
  0.00000000E+00  0.00000000E+00  0.00000000E+00
  0.00000000E+00  0.00000000E+00  0.00000000E+00
  0.00000000E+00  0.00000000E+00  0.00000000E+00
