Sr8 Tl4 Cl28                            
   1.0000000000000000     
     7.1732457023308172    0.0001849059137174    0.3102774882988400
    -0.0005130669739728   14.2908717878827858   -0.0001360198357363
     0.3590694578875721    0.0000324969339758   11.0094074595702409
   Cl   Tl   Sr
    28     4     8
Direct
  0.2338378805727572  0.8280808482173327  0.0193981189921288
  0.4229105974615521  0.5905239945281053  0.0826529744365487
  0.9062648276529544  0.6096825342498775  0.0282109710078728
  0.3613572265850493  0.0654083135627914  0.1342030362375652
  0.9859468397866351  0.2499769819356032  0.2220712892514953
  0.4825939794471807  0.3030777081768576  0.2314665679803625
  0.8893932997236575  0.9802710757074138  0.1805930094877652
  0.1106432312867796  0.4802697502211259  0.3194071847317090
  0.5174536380670176  0.8031025564073317  0.2685361752326045
  0.0140821794795229  0.7499744414865361  0.2779211698070156
  0.6386940353522519  0.5654253346197464  0.3657981416468843
  0.0937306548891570  0.1096706076093383  0.4718100199125104
  0.5771165046522952  0.0905334829752533  0.4173143937138093
  0.7661691801728807  0.3280970344566896  0.4806169577902324
  0.2337221936626221  0.6718901513250231  0.5193697101574912
  0.4229040774536870  0.9094517091721883  0.5826361898177765
  0.9062753399136980  0.8903459107721119  0.5281684701268290
  0.3612778575409337  0.4345713486271876  0.6343365334758175
  0.9859819073896148  0.2500531680530784  0.7220678400976723
  0.4826622519137231  0.1968561296303406  0.7314977263413098
  0.8892677733258694  0.5197655819382874  0.6806350114618880
  0.1107587509131278  0.0197618314547512  0.8193635232632417
  0.5173399262113278  0.6968904427241469  0.7684976376039927
  0.0140423217724148  0.7500623104286035  0.7779302702469550
  0.6387356803035473  0.9345730453907706  0.8656924886929644
  0.0937788950924059  0.3903419985756642  0.9718491654130119
  0.5771432067213951  0.4094362853292637  0.9173739036142692
  0.7663610726862586  0.1718873275779700  0.9806012346577120
  0.6814983127920371  0.1392438906091513  0.2041112170984576
  0.3185686035599247  0.6392517619498790  0.2958579028171329
  0.6814665259325423  0.3607392781228143  0.7041473530635329
  0.3185445650343510  0.8607520252130811  0.7958637603431882
  0.8147835095036982  0.8051661831457650  0.0444066435786041
  0.7957966669907890  0.4398581307031577  0.1570577883744519
  0.2042989785748404  0.9398729086300364  0.3429337341750838
  0.1852659219825625  0.3051445697061794  0.4555742832608090
  0.8146531446376670  0.6949022484690701  0.5444020809840211
  0.7958569073284778  0.0601400416912838  0.6570523696939645
  0.2041479150379786  0.5601511165614639  0.8429623739321457
  0.1853936185947873  0.1948959400447308  0.9556107774791514

  0.00000000E+00  0.00000000E+00  0.00000000E+00
  0.00000000E+00  0.00000000E+00  0.00000000E+00
  0.00000000E+00  0.00000000E+00  0.00000000E+00
  0.00000000E+00  0.00000000E+00  0.00000000E+00
  0.00000000E+00  0.00000000E+00  0.00000000E+00
  0.00000000E+00  0.00000000E+00  0.00000000E+00
  0.00000000E+00  0.00000000E+00  0.00000000E+00
  0.00000000E+00  0.00000000E+00  0.00000000E+00
  0.00000000E+00  0.00000000E+00  0.00000000E+00
  0.00000000E+00  0.00000000E+00  0.00000000E+00
  0.00000000E+00  0.00000000E+00  0.00000000E+00
  0.00000000E+00  0.00000000E+00  0.00000000E+00
  0.00000000E+00  0.00000000E+00  0.00000000E+00
  0.00000000E+00  0.00000000E+00  0.00000000E+00
  0.00000000E+00  0.00000000E+00  0.00000000E+00
  0.00000000E+00  0.00000000E+00  0.00000000E+00
  0.00000000E+00  0.00000000E+00  0.00000000E+00
  0.00000000E+00  0.00000000E+00  0.00000000E+00
  0.00000000E+00  0.00000000E+00  0.00000000E+00
  0.00000000E+00  0.00000000E+00  0.00000000E+00
  0.00000000E+00  0.00000000E+00  0.00000000E+00
  0.00000000E+00  0.00000000E+00  0.00000000E+00
  0.00000000E+00  0.00000000E+00  0.00000000E+00
  0.00000000E+00  0.00000000E+00  0.00000000E+00
  0.00000000E+00  0.00000000E+00  0.00000000E+00
  0.00000000E+00  0.00000000E+00  0.00000000E+00
  0.00000000E+00  0.00000000E+00  0.00000000E+00
  0.00000000E+00  0.00000000E+00  0.00000000E+00
  0.00000000E+00  0.00000000E+00  0.00000000E+00
  0.00000000E+00  0.00000000E+00  0.00000000E+00
  0.00000000E+00  0.00000000E+00  0.00000000E+00
  0.00000000E+00  0.00000000E+00  0.00000000E+00
  0.00000000E+00  0.00000000E+00  0.00000000E+00
  0.00000000E+00  0.00000000E+00  0.00000000E+00
  0.00000000E+00  0.00000000E+00  0.00000000E+00
  0.00000000E+00  0.00000000E+00  0.00000000E+00
  0.00000000E+00  0.00000000E+00  0.00000000E+00
  0.00000000E+00  0.00000000E+00  0.00000000E+00
  0.00000000E+00  0.00000000E+00  0.00000000E+00
  0.00000000E+00  0.00000000E+00  0.00000000E+00
