Ca2 Tl2 I10                             
   1.0000000000000000     
     6.5187881570631356   -4.4685681000612298   -0.4306999620157744
     6.5187881570631356    4.4685681000612298   -0.4306999620157744
    -5.3965642010039812    0.0000000000000000   11.4730150311113377
   Ca   I    Tl
     2    10     2
Direct
  0.5009985139274917  0.4989271316547956  0.2504411142125704
  0.4989271316547956  0.5009985139274917  0.7504411142125704
  0.2270928902203195  0.5983782711666876  0.0225227698973569
  0.3620427903106105  0.1099430297823858  0.1413459330943923
  0.8535012162050108  0.1462541325912952  0.2499893151469053
  0.8899747403248384  0.6374443146676114  0.3595443489061481
  0.4002992874926221  0.7752254201749054  0.4774055085450755
  0.5983782711666876  0.2270928902203195  0.5225227698973569
  0.1099430297823858  0.3620427903106105  0.6413459330943923
  0.1462541325912952  0.8535012162050108  0.7499893151469053
  0.6374443146676114  0.8899747403248384  0.8595443489061481
  0.7752254201749054  0.4002992874926221  0.9774055085450755
  0.0006914275923648  0.9988268338890123  0.9987510101975516
  0.9988268338890123  0.0006914275923648  0.4987510101975516

  0.00000000E+00  0.00000000E+00  0.00000000E+00
  0.00000000E+00  0.00000000E+00  0.00000000E+00
  0.00000000E+00  0.00000000E+00  0.00000000E+00
  0.00000000E+00  0.00000000E+00  0.00000000E+00
  0.00000000E+00  0.00000000E+00  0.00000000E+00
  0.00000000E+00  0.00000000E+00  0.00000000E+00
  0.00000000E+00  0.00000000E+00  0.00000000E+00
  0.00000000E+00  0.00000000E+00  0.00000000E+00
  0.00000000E+00  0.00000000E+00  0.00000000E+00
  0.00000000E+00  0.00000000E+00  0.00000000E+00
  0.00000000E+00  0.00000000E+00  0.00000000E+00
  0.00000000E+00  0.00000000E+00  0.00000000E+00
  0.00000000E+00  0.00000000E+00  0.00000000E+00
  0.00000000E+00  0.00000000E+00  0.00000000E+00
