Be2 Tl7                                 
   1.0000000000000000     
     8.0726768334353167    0.0990266252181821    0.9032187246789414
    -4.0104574123728085    8.6876666346035467    0.8018325550346797
     0.3330461539895307    0.7117543830685918    3.5281828465159406
   Tl   Be
     7     2
Direct
  0.0000000000000000  0.0000000000000000  0.0000000000000000
  0.4078941099681117  0.2849111042851646  0.2150399718434883
  0.7036870397054997  0.1119979319754023  0.6011196187080330
  0.8632567123834036  0.5823408763110152  0.2604116101695126
  0.1367432876165964  0.4176591236889777  0.7395883898304874
  0.2963129602945003  0.8880020680245977  0.3988803812919599
  0.5921058900318883  0.7150888957148354  0.7849600281565117
  0.2387290578982970  0.6602106803673493  0.0625602495883513
  0.7612709421016959  0.3397893196326507  0.9374397504116487

  0.00000000E+00  0.00000000E+00  0.00000000E+00
  0.00000000E+00  0.00000000E+00  0.00000000E+00
  0.00000000E+00  0.00000000E+00  0.00000000E+00
  0.00000000E+00  0.00000000E+00  0.00000000E+00
  0.00000000E+00  0.00000000E+00  0.00000000E+00
  0.00000000E+00  0.00000000E+00  0.00000000E+00
  0.00000000E+00  0.00000000E+00  0.00000000E+00
  0.00000000E+00  0.00000000E+00  0.00000000E+00
  0.00000000E+00  0.00000000E+00  0.00000000E+00
