Tl2I                                    
   1.0000000000000000     
    -0.0000000000000000    4.1202027464174735    4.1202027464174735
     4.1202027464174735    0.0000000000000000    4.1202027464174735
     4.1202027464174735    4.1202027464174735   -0.0000000000000000
   I    Tl
     1     2
Direct
  0.0000000000000000  0.0000000000000000  0.0000000000000000
  0.2500000000000000  0.2500000000000000  0.2500000000000000
  0.7500000000000000  0.7500000000000000  0.7500000000000000

  0.00000000E+00  0.00000000E+00  0.00000000E+00
  0.00000000E+00  0.00000000E+00  0.00000000E+00
  0.00000000E+00  0.00000000E+00  0.00000000E+00
