Be1 Tl3 Br6                             
   1.0000000000000000     
     7.6253456704660270   -0.0002050219995026   -0.0025566479769787
    -0.0002050219995026    7.6253456704660270   -0.0025566479769787
     3.8107578306351146    3.8107578306351146    5.4136090775213477
   Br   Be   Tl
     6     1     3
Direct
  0.7722101611932501  0.2277898388067499  0.0000000000000000
  0.2284196901375566  0.2284196901375566  0.9987434766468155
  0.2277898388067499  0.7722101611932501  0.0000000000000000
  0.7715803098624434  0.7715803098624434  0.0012565233531845
  0.7723975782837940  0.7723975782837940  0.4568760307872921
  0.2276024217162060  0.2276024217162060  0.5431239692127079
  0.0000000000000000  0.0000000000000000  0.0000000000000000
  0.5000000000000000  0.5000000000000000  0.0000000000000000
  0.2499405416493801  0.7500594583506199  0.5000000000000000
  0.7500594583506199  0.2499405416493801  0.5000000000000000

  0.00000000E+00  0.00000000E+00  0.00000000E+00
  0.00000000E+00  0.00000000E+00  0.00000000E+00
  0.00000000E+00  0.00000000E+00  0.00000000E+00
  0.00000000E+00  0.00000000E+00  0.00000000E+00
  0.00000000E+00  0.00000000E+00  0.00000000E+00
  0.00000000E+00  0.00000000E+00  0.00000000E+00
  0.00000000E+00  0.00000000E+00  0.00000000E+00
  0.00000000E+00  0.00000000E+00  0.00000000E+00
  0.00000000E+00  0.00000000E+00  0.00000000E+00
  0.00000000E+00  0.00000000E+00  0.00000000E+00
