Sr4 Tl4 I20                             
   1.0000000000000000     
    13.4245595238917304    0.0000000000000000    0.0000000000000000
     0.0000000000000000    8.5064800564297531   -2.7101723536966906
     0.0000000000000000   -0.1991612999695070   13.1500367109585099
   Sr   Tl   I 
     4     4    20
Direct
  0.9004088356562363  0.3757707008245816  0.3559429137085601
  0.4004088356562434  0.6242292991754184  0.1440570862914328
  0.0995911643437566  0.6242292991754184  0.6440570862914399
  0.5995911643437637  0.3757707008245816  0.8559429137085601
  0.7835585769442019  0.9796503350802510  0.5145305049306259
  0.2835585769442019  0.0203496649197490  0.9854694950693741
  0.2164414230557981  0.0203496649197490  0.4854694950693741
  0.7164414230557981  0.9796503350802510  0.0145305049306259
  0.4082789224929755  0.6217605407282178  0.4043369600395081
  0.9082789224929684  0.3782394592717822  0.0956630399604919
  0.5917210775070316  0.3782394592717822  0.5956630399604919
  0.0917210775070245  0.6217605407282178  0.9043369600395081
  0.7394225615646164  0.0973447250320305  0.2863024654961634
  0.2394225615646164  0.9026552749679695  0.2136975345038366
  0.2605774384353836  0.9026552749679624  0.7136975345038366
  0.7605774384353836  0.0973447250320305  0.7863024654961634
  0.7439321590181152  0.5894723882516786  0.5423010797840320
  0.2439321590181152  0.4105276117483214  0.9576989202159680
  0.2560678409818848  0.4105276117483214  0.4576989202159680
  0.7560678409818848  0.5894723882516786  0.0423010797840320
  0.4476526418901301  0.1761275275669902  0.6588131815842857
  0.9476526418901301  0.8238724724330098  0.8411868184157143
  0.5523473581098699  0.8238724724330098  0.3411868184157214
  0.0523473581098699  0.1761275275669902  0.1588131815842786
  0.5023469753093721  0.2657790574775518  0.0496845776845944
  0.0023469753093721  0.7342209425224482  0.4503154223154056
  0.4976530246906279  0.7342209425224482  0.9503154223154056
  0.9976530246906279  0.2657790574775518  0.5496845776845944

  0.00000000E+00  0.00000000E+00  0.00000000E+00
  0.00000000E+00  0.00000000E+00  0.00000000E+00
  0.00000000E+00  0.00000000E+00  0.00000000E+00
  0.00000000E+00  0.00000000E+00  0.00000000E+00
  0.00000000E+00  0.00000000E+00  0.00000000E+00
  0.00000000E+00  0.00000000E+00  0.00000000E+00
  0.00000000E+00  0.00000000E+00  0.00000000E+00
  0.00000000E+00  0.00000000E+00  0.00000000E+00
  0.00000000E+00  0.00000000E+00  0.00000000E+00
  0.00000000E+00  0.00000000E+00  0.00000000E+00
  0.00000000E+00  0.00000000E+00  0.00000000E+00
  0.00000000E+00  0.00000000E+00  0.00000000E+00
  0.00000000E+00  0.00000000E+00  0.00000000E+00
  0.00000000E+00  0.00000000E+00  0.00000000E+00
  0.00000000E+00  0.00000000E+00  0.00000000E+00
  0.00000000E+00  0.00000000E+00  0.00000000E+00
  0.00000000E+00  0.00000000E+00  0.00000000E+00
  0.00000000E+00  0.00000000E+00  0.00000000E+00
  0.00000000E+00  0.00000000E+00  0.00000000E+00
  0.00000000E+00  0.00000000E+00  0.00000000E+00
  0.00000000E+00  0.00000000E+00  0.00000000E+00
  0.00000000E+00  0.00000000E+00  0.00000000E+00
  0.00000000E+00  0.00000000E+00  0.00000000E+00
  0.00000000E+00  0.00000000E+00  0.00000000E+00
  0.00000000E+00  0.00000000E+00  0.00000000E+00
  0.00000000E+00  0.00000000E+00  0.00000000E+00
  0.00000000E+00  0.00000000E+00  0.00000000E+00
  0.00000000E+00  0.00000000E+00  0.00000000E+00
