Be18 Ga11                               
   1.00000000000000     
     6.5982097129057511    3.9526109102912805    0.1784480327533730
    -6.5982097129057511    3.9526109102912805    0.1784480327533730
     0.0000000000000000    4.1644897891404744    7.1576956575408515
   Be   Ga
    18    11
Direct
  0.1074006055637469  0.1074006055637469  0.8896499250471024
  0.3504457760970965  0.6156418051987060  0.9712140911401335
  0.1132216450105190  0.4321097528464577  0.8685085758098694
  0.4321097528464577  0.1132216450105190  0.8685085758098694
  0.6156418051987060  0.3504457760970965  0.9712140911401335
  0.3532796210900671  0.3532796210900671  0.9236745696345778
  0.6549895844337286  0.6549895844337286  0.8380784361394475
  0.6683025701548075  0.9620442499201758  0.7143938544331832
  0.9620442499201758  0.6683025701548075  0.7143938544331832
  0.9841659085561858  0.9841659085561858  0.7119744248674493
  0.4781633668768634  0.6598815250897587  0.6772727371659215
  0.6598815250897587  0.4781633668768634  0.6772727371659215
  0.0379819776470569  0.2119883424983300  0.4382241172936929
  0.2119883424983300  0.0379819776470569  0.4382241172936929
  0.6843202024070578  0.6843202024070578  0.3935621717069111
  0.2590129612131165  0.5908989007040830  0.2663064655029430
  0.5908989007040830  0.2590129612131165  0.2663064655029430
  0.3964012160838166  0.3964012160838166  0.1738795632647125
  0.6587407792852318  0.8478442177237966  0.0471598109408831
  0.8478442177237966  0.6587407792852318  0.0471598109408831
  0.8248120910038921  0.2648491357345009  0.7815737985368187
  0.2648491357345009  0.8248120910038921  0.7815737985368187
  0.2528554533626775  0.4504851013790088  0.5590589395287893
  0.4504851013790088  0.2528554533626775  0.5590589395287893
  0.6786233794068650  0.0057342792187782  0.4058939929506806
  0.0057342792187782  0.6786233794068650  0.4058939929506806
  0.4326189087949857  0.9740038250338330  0.1982686737710679
  0.9740038250338330  0.4326189087949857  0.1982686737710679
  0.0491828176647431  0.0491828176647431  0.2134317951918590
 
  0.00000000E+00  0.00000000E+00  0.00000000E+00
  0.00000000E+00  0.00000000E+00  0.00000000E+00
  0.00000000E+00  0.00000000E+00  0.00000000E+00
  0.00000000E+00  0.00000000E+00  0.00000000E+00
  0.00000000E+00  0.00000000E+00  0.00000000E+00
  0.00000000E+00  0.00000000E+00  0.00000000E+00
  0.00000000E+00  0.00000000E+00  0.00000000E+00
  0.00000000E+00  0.00000000E+00  0.00000000E+00
  0.00000000E+00  0.00000000E+00  0.00000000E+00
  0.00000000E+00  0.00000000E+00  0.00000000E+00
  0.00000000E+00  0.00000000E+00  0.00000000E+00
  0.00000000E+00  0.00000000E+00  0.00000000E+00
  0.00000000E+00  0.00000000E+00  0.00000000E+00
  0.00000000E+00  0.00000000E+00  0.00000000E+00
  0.00000000E+00  0.00000000E+00  0.00000000E+00
  0.00000000E+00  0.00000000E+00  0.00000000E+00
  0.00000000E+00  0.00000000E+00  0.00000000E+00
  0.00000000E+00  0.00000000E+00  0.00000000E+00
  0.00000000E+00  0.00000000E+00  0.00000000E+00
  0.00000000E+00  0.00000000E+00  0.00000000E+00
  0.00000000E+00  0.00000000E+00  0.00000000E+00
  0.00000000E+00  0.00000000E+00  0.00000000E+00
  0.00000000E+00  0.00000000E+00  0.00000000E+00
  0.00000000E+00  0.00000000E+00  0.00000000E+00
  0.00000000E+00  0.00000000E+00  0.00000000E+00
  0.00000000E+00  0.00000000E+00  0.00000000E+00
  0.00000000E+00  0.00000000E+00  0.00000000E+00
  0.00000000E+00  0.00000000E+00  0.00000000E+00
  0.00000000E+00  0.00000000E+00  0.00000000E+00
