Mg4 Ga4 Cl20                            
   1.0000000000000000     
     6.8794938179353640   -0.0000000000000000    0.0000000000000005
    -0.0000000000000005    6.2574901739869757    0.0000000000000005
     0.0000000000000004    0.0000000000000001   19.7813728666835686
   Mg   Ga   Cl
     4     4    20
Direct
  0.9231544378571925  0.5893310380640742  0.5400701001521568
  0.4231544378571925  0.9106689619359258  0.4599298998478503
  0.0768455621428075  0.0893310380640742  0.9599298998478432
  0.5768455621428075  0.4106689619359258  0.0400701001521568
  0.1690750173088915  0.1271419044548665  0.6369401496852731
  0.6690750173088986  0.3728580955451335  0.3630598503147198
  0.8309249826911014  0.6271419044548665  0.8630598503147269
  0.3309249826911085  0.8728580955451335  0.1369401496852731
  0.1203592436454883  0.7307839123841617  0.4513398600382175
  0.6203592436454883  0.7692160876158383  0.5486601399617825
  0.8796407563545117  0.2307839123841617  0.0486601399617825
  0.3796407563545117  0.2692160876158383  0.9513398600382175
  0.6038190430352302  0.7218093078075967  0.3630265741560024
  0.1038190430352302  0.7781906921924033  0.6369734258439976
  0.3961809569647698  0.2218093078075967  0.1369734258439905
  0.8961809569647698  0.2781906921924033  0.8630265741560024
  0.8841411311478851  0.3034188783667915  0.6292219286419680
  0.3841411311478851  0.1965811216332085  0.3707780713580320
  0.1158588688521149  0.8034188783667915  0.8707780713580320
  0.6158588688521149  0.6965811216332085  0.1292219286419680
  0.3342502655462312  0.2185386537227458  0.7235917939867562
  0.8342502655462312  0.2814613462772542  0.2764082060132438
  0.6657497344537688  0.7185386537227458  0.7764082060132438
  0.1657497344537688  0.7814613462772542  0.2235917939867562
  0.8135502498246723  0.2798675834386586  0.4604435028316303
  0.3135502498246723  0.2201324165613414  0.5395564971683697
  0.1864497501753277  0.7798675834386586  0.0395564971683697
  0.6864497501753277  0.7201324165613414  0.9604435028316303

  0.00000000E+00  0.00000000E+00  0.00000000E+00
  0.00000000E+00  0.00000000E+00  0.00000000E+00
  0.00000000E+00  0.00000000E+00  0.00000000E+00
  0.00000000E+00  0.00000000E+00  0.00000000E+00
  0.00000000E+00  0.00000000E+00  0.00000000E+00
  0.00000000E+00  0.00000000E+00  0.00000000E+00
  0.00000000E+00  0.00000000E+00  0.00000000E+00
  0.00000000E+00  0.00000000E+00  0.00000000E+00
  0.00000000E+00  0.00000000E+00  0.00000000E+00
  0.00000000E+00  0.00000000E+00  0.00000000E+00
  0.00000000E+00  0.00000000E+00  0.00000000E+00
  0.00000000E+00  0.00000000E+00  0.00000000E+00
  0.00000000E+00  0.00000000E+00  0.00000000E+00
  0.00000000E+00  0.00000000E+00  0.00000000E+00
  0.00000000E+00  0.00000000E+00  0.00000000E+00
  0.00000000E+00  0.00000000E+00  0.00000000E+00
  0.00000000E+00  0.00000000E+00  0.00000000E+00
  0.00000000E+00  0.00000000E+00  0.00000000E+00
  0.00000000E+00  0.00000000E+00  0.00000000E+00
  0.00000000E+00  0.00000000E+00  0.00000000E+00
  0.00000000E+00  0.00000000E+00  0.00000000E+00
  0.00000000E+00  0.00000000E+00  0.00000000E+00
  0.00000000E+00  0.00000000E+00  0.00000000E+00
  0.00000000E+00  0.00000000E+00  0.00000000E+00
  0.00000000E+00  0.00000000E+00  0.00000000E+00
  0.00000000E+00  0.00000000E+00  0.00000000E+00
  0.00000000E+00  0.00000000E+00  0.00000000E+00
  0.00000000E+00  0.00000000E+00  0.00000000E+00
