Ba4 Al4 I20                             
   1.0000000000000000     
     5.4242554334158735   -0.0000000000000003    0.0000000000000003
    -0.0000000000000002    9.4074641217548827    0.0000000000000007
    -0.0000000000000011    0.0000000000000003   31.2204501600496300
   Ba   Al   I 
     4     4    20
Direct
  0.7498867274328020  0.0226811213397298  0.6966843837310321
  0.2498867274328092  0.4773188786602702  0.3033156162689679
  0.2501132725671908  0.5226811213397298  0.8033156162689679
  0.7501132725671980  0.9773188786602702  0.1966843837310321
  0.6455267141886978  0.3595766384809949  0.5439897182369080
  0.1455267141886978  0.1404233615190051  0.4560102817630920
  0.3544732858113022  0.8595766384809878  0.9560102817630920
  0.8544732858113022  0.6404233615190122  0.0439897182369080
  0.2514250032154663  0.8835225184342690  0.6456976959522507
  0.7514250032154592  0.6164774815657310  0.3543023040477493
  0.7485749967845408  0.3835225184342690  0.8543023040477493
  0.2485749967845337  0.1164774815657310  0.1456976959522507
  0.7495881564044069  0.2574443380557838  0.2681959369078513
  0.2495881564044069  0.2425556619442162  0.7318040630921345
  0.2504118435955931  0.7574443380557909  0.2318040630921416
  0.7504118435955931  0.7425556619442091  0.7681959369078584
  0.4206282075634888  0.5897687974580350  0.5452272360969914
  0.9206282075634888  0.9102312025419650  0.4547727639030015
  0.5793717924365112  0.0897687974580350  0.9547727639030086
  0.0793717924365112  0.4102312025419650  0.0452272360969985
  0.8865379603762378  0.3081432601423515  0.6114130320471389
  0.3865379603762378  0.1918567398576485  0.3885869679528611
  0.1134620396237622  0.8081432601423444  0.8885869679528611
  0.6134620396237622  0.6918567398576556  0.1114130320471389
  0.8991757044587558  0.3802923030222942  0.4705120231092579
  0.3991757044587558  0.1197076969777058  0.5294879768907279
  0.1008242955412442  0.8802923030222942  0.0294879768907350
  0.6008242955412442  0.6197076969777058  0.9705120231092721

  0.00000000E+00  0.00000000E+00  0.00000000E+00
  0.00000000E+00  0.00000000E+00  0.00000000E+00
  0.00000000E+00  0.00000000E+00  0.00000000E+00
  0.00000000E+00  0.00000000E+00  0.00000000E+00
  0.00000000E+00  0.00000000E+00  0.00000000E+00
  0.00000000E+00  0.00000000E+00  0.00000000E+00
  0.00000000E+00  0.00000000E+00  0.00000000E+00
  0.00000000E+00  0.00000000E+00  0.00000000E+00
  0.00000000E+00  0.00000000E+00  0.00000000E+00
  0.00000000E+00  0.00000000E+00  0.00000000E+00
  0.00000000E+00  0.00000000E+00  0.00000000E+00
  0.00000000E+00  0.00000000E+00  0.00000000E+00
  0.00000000E+00  0.00000000E+00  0.00000000E+00
  0.00000000E+00  0.00000000E+00  0.00000000E+00
  0.00000000E+00  0.00000000E+00  0.00000000E+00
  0.00000000E+00  0.00000000E+00  0.00000000E+00
  0.00000000E+00  0.00000000E+00  0.00000000E+00
  0.00000000E+00  0.00000000E+00  0.00000000E+00
  0.00000000E+00  0.00000000E+00  0.00000000E+00
  0.00000000E+00  0.00000000E+00  0.00000000E+00
  0.00000000E+00  0.00000000E+00  0.00000000E+00
  0.00000000E+00  0.00000000E+00  0.00000000E+00
  0.00000000E+00  0.00000000E+00  0.00000000E+00
  0.00000000E+00  0.00000000E+00  0.00000000E+00
  0.00000000E+00  0.00000000E+00  0.00000000E+00
  0.00000000E+00  0.00000000E+00  0.00000000E+00
  0.00000000E+00  0.00000000E+00  0.00000000E+00
  0.00000000E+00  0.00000000E+00  0.00000000E+00
