Sr2 B2 Br10                             
   1.0000000000000000     
     4.9247277344176359   -0.0000000000000002    0.0000000000000003
    -0.0000000000000012   12.7893573031641274    0.0000000000000010
     0.0000000000000002    0.0000000000000004   10.2024822077094175
   Sr   B    Br
     2     2    10
Direct
  0.0000000000000000  0.0000000000000000  0.5000000000000000
  0.5000000000000000  0.5000000000000000  0.0000000000000000
  0.5000000000000000  0.0000000000000000  0.0000000000000000
  0.0000000000000000  0.5000000000000000  0.5000000000000000
  0.5000000000000000  0.8551315114453004  0.5000000000000000
  0.5000000000000000  0.1448684885546996  0.5000000000000000
  0.5000000000000000  0.0000000000000000  0.1872628407081578
  0.5000000000000000  0.0000000000000000  0.8127371592918422
  0.0000000000000000  0.0000000000000000  0.0000000000000000
  0.0000000000000000  0.3551315114453004  0.0000000000000000
  0.0000000000000000  0.6448684885546996  0.0000000000000000
  0.0000000000000000  0.5000000000000000  0.6872628407081578
  0.0000000000000000  0.5000000000000000  0.3127371592918422
  0.5000000000000000  0.5000000000000000  0.5000000000000000

  0.00000000E+00  0.00000000E+00  0.00000000E+00
  0.00000000E+00  0.00000000E+00  0.00000000E+00
  0.00000000E+00  0.00000000E+00  0.00000000E+00
  0.00000000E+00  0.00000000E+00  0.00000000E+00
  0.00000000E+00  0.00000000E+00  0.00000000E+00
  0.00000000E+00  0.00000000E+00  0.00000000E+00
  0.00000000E+00  0.00000000E+00  0.00000000E+00
  0.00000000E+00  0.00000000E+00  0.00000000E+00
  0.00000000E+00  0.00000000E+00  0.00000000E+00
  0.00000000E+00  0.00000000E+00  0.00000000E+00
  0.00000000E+00  0.00000000E+00  0.00000000E+00
  0.00000000E+00  0.00000000E+00  0.00000000E+00
  0.00000000E+00  0.00000000E+00  0.00000000E+00
  0.00000000E+00  0.00000000E+00  0.00000000E+00
