Ca4 In4 F20                             
   1.0000000000000000     
    11.4056189522934659    0.0000000000000000    0.0000000000000000
     0.0000000000000000    4.1773476267860783    0.0097191460115056
     0.0000000000000000    1.9306126201537979    7.6229823295422934
   Ca   In   F 
     4     4    20
Direct
  0.9815643357176214  0.5225076861331459  0.2439371219192594
  0.4815643357176143  0.4774923138668541  0.2560628780807406
  0.0184356642823857  0.4774923138668541  0.7560628780807406
  0.5184356642823786  0.5225076861331459  0.7439371219192594
  0.7662306821563050  0.1822079031327917  0.5931543368253926
  0.2662306821563050  0.8177920968672012  0.9068456631746074
  0.2337693178436950  0.8177920968672012  0.4068456631746145
  0.7337693178436950  0.1822079031327917  0.0931543368253855
  0.5934456034456517  0.2927897572520024  0.5028831039498343
  0.0934456034456517  0.7072102427479976  0.9971168960501657
  0.4065543965543483  0.7072102427479976  0.4971168960501586
  0.9065543965543483  0.2927897572520024  0.0028831039498414
  0.8199182392161930  0.1266139054004540  0.3416634758000470
  0.3199182392161930  0.8733860945995460  0.1583365241999459
  0.1800817607838070  0.8733860945995460  0.6583365241999530
  0.6800817607838070  0.1266139054004540  0.8416634758000470
  0.4212581160020790  0.0205524107736323  0.7670526469094341
  0.9212581160020790  0.9794475892263677  0.7329473530905659
  0.5787418839979210  0.9794475892263677  0.2329473530905659
  0.0787418839979210  0.0205524107736323  0.2670526469094412
  0.7032565606309475  0.6946305740093521  0.6438616589955686
  0.2032565606309475  0.3053694259906479  0.8561383410044314
  0.2967434393690525  0.3053694259906479  0.3561383410044314
  0.7967434393690525  0.6946305740093521  0.1438616589955686
  0.3933232607884847  0.4524717653339962  0.9864065336104204
  0.8933232607884847  0.5475282346660109  0.5135934663895796
  0.6066767392115153  0.5475282346660109  0.0135934663895796
  0.1066767392115153  0.4524717653339962  0.4864065336104204

  0.00000000E+00  0.00000000E+00  0.00000000E+00
  0.00000000E+00  0.00000000E+00  0.00000000E+00
  0.00000000E+00  0.00000000E+00  0.00000000E+00
  0.00000000E+00  0.00000000E+00  0.00000000E+00
  0.00000000E+00  0.00000000E+00  0.00000000E+00
  0.00000000E+00  0.00000000E+00  0.00000000E+00
  0.00000000E+00  0.00000000E+00  0.00000000E+00
  0.00000000E+00  0.00000000E+00  0.00000000E+00
  0.00000000E+00  0.00000000E+00  0.00000000E+00
  0.00000000E+00  0.00000000E+00  0.00000000E+00
  0.00000000E+00  0.00000000E+00  0.00000000E+00
  0.00000000E+00  0.00000000E+00  0.00000000E+00
  0.00000000E+00  0.00000000E+00  0.00000000E+00
  0.00000000E+00  0.00000000E+00  0.00000000E+00
  0.00000000E+00  0.00000000E+00  0.00000000E+00
  0.00000000E+00  0.00000000E+00  0.00000000E+00
  0.00000000E+00  0.00000000E+00  0.00000000E+00
  0.00000000E+00  0.00000000E+00  0.00000000E+00
  0.00000000E+00  0.00000000E+00  0.00000000E+00
  0.00000000E+00  0.00000000E+00  0.00000000E+00
  0.00000000E+00  0.00000000E+00  0.00000000E+00
  0.00000000E+00  0.00000000E+00  0.00000000E+00
  0.00000000E+00  0.00000000E+00  0.00000000E+00
  0.00000000E+00  0.00000000E+00  0.00000000E+00
  0.00000000E+00  0.00000000E+00  0.00000000E+00
  0.00000000E+00  0.00000000E+00  0.00000000E+00
  0.00000000E+00  0.00000000E+00  0.00000000E+00
  0.00000000E+00  0.00000000E+00  0.00000000E+00
