Be1 Ga3 Br6                             
   1.00000000000000     
     7.2808623024844135   -0.0005297011799450   -0.0011097069602222
    -0.0005297011799450    7.2808623024844135   -0.0011097069602222
     3.6393839526921519    3.6393839526921519    5.1660416595408511
   Br   Be   Ga
     6     1     3
Direct
  0.7615699840949546  0.2384300159050454  0.0000000000000000
  0.2387557119404988  0.2387557119404988  0.9992918652309086
  0.2384300159050454  0.7615699840949546  0.0000000000000000
  0.7612442880595012  0.7612442880595012  0.0007081347690914
  0.7612827023890389  0.7612827023890389  0.4773658478844638
  0.2387172976109611  0.2387172976109611  0.5226341521155362
  0.0000000000000000  0.0000000000000000  0.0000000000000000
  0.5000000000000000  0.5000000000000000  0.0000000000000000
  0.2500170247263895  0.7499829752736105  0.5000000000000000
  0.7499829752736105  0.2500170247263895  0.5000000000000000
 
  0.00000000E+00  0.00000000E+00  0.00000000E+00
  0.00000000E+00  0.00000000E+00  0.00000000E+00
  0.00000000E+00  0.00000000E+00  0.00000000E+00
  0.00000000E+00  0.00000000E+00  0.00000000E+00
  0.00000000E+00  0.00000000E+00  0.00000000E+00
  0.00000000E+00  0.00000000E+00  0.00000000E+00
  0.00000000E+00  0.00000000E+00  0.00000000E+00
  0.00000000E+00  0.00000000E+00  0.00000000E+00
  0.00000000E+00  0.00000000E+00  0.00000000E+00
  0.00000000E+00  0.00000000E+00  0.00000000E+00
