Be17 Al12                               
   1.00000000000000     
    -4.6212001829219478   -4.6212001829219469    6.0453358438399754
    -4.6212001829219496    6.0453358438399754   -4.6212001829219460
     6.0453358438399754   -4.6212001829219487   -4.6212001829219487
   Al   Be
    12    17
Direct
  0.4863659173546750  0.2272391692803808  0.9896589128726703
  0.2272391692803808  0.4863659173546750  0.9896589128726703
  0.8692099843760133  0.8692099843760133  0.1032246228891651
  0.4863659173546750  0.9896589128726703  0.2272391692803808
  0.9896589128726703  0.4863659173546750  0.2272391692803808
  0.2272391692803808  0.9896589128726703  0.4863659173546750
  0.9896589128726703  0.2272391692803808  0.4863659173546750
  0.5902110548645965  0.4000331274218709  0.4000331274218709
  0.4000331274218709  0.5902110548645965  0.4000331274218709
  0.8692099843760133  0.1032246228891651  0.8692099843760133
  0.1032246228891651  0.8692099843760133  0.8692099843760133
  0.4000331274218709  0.4000331274218709  0.5902110548645965
  0.7688480310126096  0.7688480310126096  0.7688480310126096
  0.6730343652652451  0.0431830884380915  0.0431830884380915
  0.7113788635671057  0.4760216893192748  0.9621858926525562
  0.0431830884380915  0.6730343652652451  0.0431830884380915
  0.4760216893192748  0.7113788635671057  0.9621858926525562
  0.7463087659678820  0.7463087659678820  0.2606679482027587
  0.8481907865834444  0.3885884030718927  0.3885884030718927
  0.3885884030718927  0.8481907865834444  0.3885884030718927
  0.1554755625373545  0.1554755625373545  0.1554755625373545
  0.7113788635671057  0.9621858926525562  0.4760216893192748
  0.9621858926525562  0.7113788635671057  0.4760216893192748
  0.7463087659678820  0.2606679482027587  0.7463087659678820
  0.2606679482027587  0.7463087659678820  0.7463087659678820
  0.0431830884380915  0.0431830884380915  0.6730343652652451
  0.4760216893192748  0.9621858926525562  0.7113788635671057
  0.9621858926525562  0.4760216893192748  0.7113788635671057
  0.3885884030718927  0.3885884030718927  0.8481907865834444
 
  0.00000000E+00  0.00000000E+00  0.00000000E+00
  0.00000000E+00  0.00000000E+00  0.00000000E+00
  0.00000000E+00  0.00000000E+00  0.00000000E+00
  0.00000000E+00  0.00000000E+00  0.00000000E+00
  0.00000000E+00  0.00000000E+00  0.00000000E+00
  0.00000000E+00  0.00000000E+00  0.00000000E+00
  0.00000000E+00  0.00000000E+00  0.00000000E+00
  0.00000000E+00  0.00000000E+00  0.00000000E+00
  0.00000000E+00  0.00000000E+00  0.00000000E+00
  0.00000000E+00  0.00000000E+00  0.00000000E+00
  0.00000000E+00  0.00000000E+00  0.00000000E+00
  0.00000000E+00  0.00000000E+00  0.00000000E+00
  0.00000000E+00  0.00000000E+00  0.00000000E+00
  0.00000000E+00  0.00000000E+00  0.00000000E+00
  0.00000000E+00  0.00000000E+00  0.00000000E+00
  0.00000000E+00  0.00000000E+00  0.00000000E+00
  0.00000000E+00  0.00000000E+00  0.00000000E+00
  0.00000000E+00  0.00000000E+00  0.00000000E+00
  0.00000000E+00  0.00000000E+00  0.00000000E+00
  0.00000000E+00  0.00000000E+00  0.00000000E+00
  0.00000000E+00  0.00000000E+00  0.00000000E+00
  0.00000000E+00  0.00000000E+00  0.00000000E+00
  0.00000000E+00  0.00000000E+00  0.00000000E+00
  0.00000000E+00  0.00000000E+00  0.00000000E+00
  0.00000000E+00  0.00000000E+00  0.00000000E+00
  0.00000000E+00  0.00000000E+00  0.00000000E+00
  0.00000000E+00  0.00000000E+00  0.00000000E+00
  0.00000000E+00  0.00000000E+00  0.00000000E+00
  0.00000000E+00  0.00000000E+00  0.00000000E+00
