CaCl                                    
   1.00000000000000     
     4.0991187758290000   -0.0001599110373203    0.0000000000000000
    -2.0496978719389274    3.5498654004082226    0.0000000000000000
     0.0000000000000000    0.0000000000000000    6.8263081180703491
   Ca   Cl
     2     2
Direct
  0.3332039572342325  0.6667965677550853  0.2500000000000000
  0.6667960427657746  0.3332034322449147  0.7500000000000000
  0.0000000000000000  0.0000000000000000  0.0000000000000000
  0.0000000000000000  0.0000000000000000  0.5000000000000000
 
  0.00000000E+00  0.00000000E+00  0.00000000E+00
  0.00000000E+00  0.00000000E+00  0.00000000E+00
  0.00000000E+00  0.00000000E+00  0.00000000E+00
  0.00000000E+00  0.00000000E+00  0.00000000E+00
