Be2 B2 Br10                             
   1.00000000000000     
     6.2530903618513705   -0.7546989816737165    2.6983060543207724
     0.6339607484804752    6.2664816487329000    2.6983075018489102
    -1.1281233971035023   -0.9028452334769643   13.1896894396125912
   Be   B    Br
     2     2    10
Direct
  0.3681775897006787  0.6318224110931965  0.2499999990024548
  0.6318224102993213  0.3681775889068035  0.7500000009975452
  0.0000000000000000  0.0000000000000000  0.5000000000000000
  0.0000000000000000  0.0000000000000000  0.0000000000000000
  0.6417011420197056  0.6082766443692122  0.6040545488672038
  0.3917233623077649  0.3582978520497306  0.8959454502874280
  0.3582978579802969  0.3917233556307878  0.3959464511328008
  0.6082766376922351  0.6417011479502719  0.1040545497125720
  0.8638625734932006  0.1361374251189034  0.7500000012420003
  0.1361374265067994  0.8638625748811037  0.2499999987579997
  0.8186770330118947  0.1888661837019896  0.0474020243586750
  0.8111338120244582  0.1813229670852436  0.4525979805581386
  0.1813229669881053  0.8111338162980104  0.9525979756413250
  0.1888661879755418  0.8186770329147564  0.5474020194418614
 
  0.00000000E+00  0.00000000E+00  0.00000000E+00
  0.00000000E+00  0.00000000E+00  0.00000000E+00
  0.00000000E+00  0.00000000E+00  0.00000000E+00
  0.00000000E+00  0.00000000E+00  0.00000000E+00
  0.00000000E+00  0.00000000E+00  0.00000000E+00
  0.00000000E+00  0.00000000E+00  0.00000000E+00
  0.00000000E+00  0.00000000E+00  0.00000000E+00
  0.00000000E+00  0.00000000E+00  0.00000000E+00
  0.00000000E+00  0.00000000E+00  0.00000000E+00
  0.00000000E+00  0.00000000E+00  0.00000000E+00
  0.00000000E+00  0.00000000E+00  0.00000000E+00
  0.00000000E+00  0.00000000E+00  0.00000000E+00
  0.00000000E+00  0.00000000E+00  0.00000000E+00
  0.00000000E+00  0.00000000E+00  0.00000000E+00
