Mg1 Tl3 Br6                             
   1.0000000000000000     
     7.9069228729101591   -0.1880592956592679   -0.0335134434789887
    -0.1880592956592679    7.9069228729101591   -0.0335134434789887
     3.8310301515770195    3.8310301515770191    5.4174444234555326
   Br   Mg   Tl
     6     1     3
Direct
  0.7619991456926769  0.2380008543073231  0.0000000000000000
  0.3062038124263822  0.3062038124263822  0.8563699033314762
  0.2380008543073231  0.7619991456926769  0.0000000000000000
  0.6937961875736178  0.6937961875736178  0.1436300966685238
  0.8378329083403457  0.8378329083403457  0.4709604600732646
  0.1621670916596543  0.1621670916596543  0.5290395399267354
  0.0000000000000000  0.0000000000000000  0.0000000000000000
  0.5000000000000000  0.5000000000000000  0.0000000000000000
  0.2494785646605138  0.7505214353394862  0.5000000000000000
  0.7505214353394862  0.2494785646605138  0.5000000000000000

  0.00000000E+00  0.00000000E+00  0.00000000E+00
  0.00000000E+00  0.00000000E+00  0.00000000E+00
  0.00000000E+00  0.00000000E+00  0.00000000E+00
  0.00000000E+00  0.00000000E+00  0.00000000E+00
  0.00000000E+00  0.00000000E+00  0.00000000E+00
  0.00000000E+00  0.00000000E+00  0.00000000E+00
  0.00000000E+00  0.00000000E+00  0.00000000E+00
  0.00000000E+00  0.00000000E+00  0.00000000E+00
  0.00000000E+00  0.00000000E+00  0.00000000E+00
  0.00000000E+00  0.00000000E+00  0.00000000E+00
