Ca1 Al2 F10                             
   1.00000000000000     
     3.1211089511435310    4.2517866852640358    0.1706829283272026
    -3.1211089511435306    4.2517866852640358    0.1706829283272026
     0.0000000000000003    3.2663904008130422    6.2323570366097591
   Ca   Al   F 
     1     2    10
Direct
  0.5441113209191357  0.4558886790808643  0.0000000000000000
  0.0250226948316694  0.0179587951956464  0.7330220965036816
  0.9820412048043536  0.9749773051683377  0.2669779034963113
  0.2084688729329542  0.3091114958555110  0.5867557646625414
  0.6908885041445032  0.7915311270670458  0.4132442353374586
  0.8512274973418528  0.7248078130436397  0.8955966602560821
  0.2751921869563603  0.1487725026581472  0.1044033397439250
  0.9173611333154597  0.0826388666845475  0.0000000000000000
  0.0777171398193772  0.9222828601806228  0.5000000000000000
  0.7176225842764055  0.2748828819513420  0.7020852318830890
  0.7251171180486509  0.2823774157235945  0.2979147681169039
  0.3474111635800270  0.8181824209707145  0.7723820714250209
  0.1818175790292855  0.6525888364199730  0.2276179285749791
 
  0.00000000E+00  0.00000000E+00  0.00000000E+00
  0.00000000E+00  0.00000000E+00  0.00000000E+00
  0.00000000E+00  0.00000000E+00  0.00000000E+00
  0.00000000E+00  0.00000000E+00  0.00000000E+00
  0.00000000E+00  0.00000000E+00  0.00000000E+00
  0.00000000E+00  0.00000000E+00  0.00000000E+00
  0.00000000E+00  0.00000000E+00  0.00000000E+00
  0.00000000E+00  0.00000000E+00  0.00000000E+00
  0.00000000E+00  0.00000000E+00  0.00000000E+00
  0.00000000E+00  0.00000000E+00  0.00000000E+00
  0.00000000E+00  0.00000000E+00  0.00000000E+00
  0.00000000E+00  0.00000000E+00  0.00000000E+00
  0.00000000E+00  0.00000000E+00  0.00000000E+00
