Ba2 Al4 Br16                            
   1.00000000000000     
    13.6140079156022047   -0.0004060482562397   -0.1622185117709076
    -0.0002983598974458    7.6273751750171508   -0.0005573917650998
    -0.6585779643577309   -0.0000957198988112    8.8845254085849419
   Al   Br   Ba
     4    16     2
Direct
  0.0752450814917225  0.7362413824031435  0.3176974354360667
  0.5752995818953792  0.2635113312615331  0.3176323538948651
  0.4246776617434733  0.7365209973806159  0.6823540500018836
  0.9247265216915181  0.2637118436548960  0.6822669863857698
  0.6442686249872622  0.0384441433256342  0.1837148310589711
  0.1442333799286359  0.9612622838346283  0.1837311442742404
  0.1459183387960081  0.4686286917221807  0.2612343113407789
  0.6459882492628495  0.5311471936899750  0.2612336633762880
  0.4069153042827622  0.2867952998604864  0.2460621567865999
  0.9068747203498830  0.7130852106639338  0.2460234712655947
  0.8958027679532705  0.1950124118633738  0.4275801573497446
  0.3957852087501692  0.8051299992708252  0.4275929471803792
  0.6041549585645427  0.1948937293747903  0.5723791960987654
  0.1041737878184250  0.8048992028211046  0.5724215438036850
  0.0930751710461735  0.2868920876339445  0.7539419034306007
  0.5930672490704296  0.7132371705506273  0.7539365706354531
  0.3540055938638673  0.4688754805465933  0.7387517654085940
  0.8540736571229957  0.5313106699604191  0.7387834127258515
  0.8557775931651577  0.0387372575230671  0.8163088817198272
  0.3557446663523507  0.9615313920181165  0.8163636112407247
  0.7499927593786921  0.8463386120502463  0.4999846395002194
  0.2499991224844464  0.1535936085898868  0.5000049670850970
 
  0.00000000E+00  0.00000000E+00  0.00000000E+00
  0.00000000E+00  0.00000000E+00  0.00000000E+00
  0.00000000E+00  0.00000000E+00  0.00000000E+00
  0.00000000E+00  0.00000000E+00  0.00000000E+00
  0.00000000E+00  0.00000000E+00  0.00000000E+00
  0.00000000E+00  0.00000000E+00  0.00000000E+00
  0.00000000E+00  0.00000000E+00  0.00000000E+00
  0.00000000E+00  0.00000000E+00  0.00000000E+00
  0.00000000E+00  0.00000000E+00  0.00000000E+00
  0.00000000E+00  0.00000000E+00  0.00000000E+00
  0.00000000E+00  0.00000000E+00  0.00000000E+00
  0.00000000E+00  0.00000000E+00  0.00000000E+00
  0.00000000E+00  0.00000000E+00  0.00000000E+00
  0.00000000E+00  0.00000000E+00  0.00000000E+00
  0.00000000E+00  0.00000000E+00  0.00000000E+00
  0.00000000E+00  0.00000000E+00  0.00000000E+00
  0.00000000E+00  0.00000000E+00  0.00000000E+00
  0.00000000E+00  0.00000000E+00  0.00000000E+00
  0.00000000E+00  0.00000000E+00  0.00000000E+00
  0.00000000E+00  0.00000000E+00  0.00000000E+00
  0.00000000E+00  0.00000000E+00  0.00000000E+00
  0.00000000E+00  0.00000000E+00  0.00000000E+00
