Sr4 In10 Br2                            
   1.00000000000000     
     8.3733642099705872    0.0023716187690175   -0.0363306506986012
    -0.0021513839845980    8.3734650319275286    0.0092304191224718
     4.2140801993719403    4.1947697892293236    7.1722347716626906
   Br   Sr   In
     2     4    10
Direct
  0.5655689652801712  0.5656434081124004  0.8686609881223504
  0.0641289021168134  0.0641965714983641  0.8717927203235831
  0.3943034013672531  0.2271169678724334  0.8785902303603947
  0.8958167352086193  0.3960564390658377  0.8752704462347367
  0.2271870809665515  0.7273802047795428  0.8783238783263059
  0.7293375939728577  0.8963728537276054  0.8742389191912849
  0.8157891781733397  0.8148693682259065  0.3701303861616267
  0.3145240944153116  0.3147209133896638  0.3699529140931048
  0.5250387105627610  0.0227069038579870  0.2385457913516191
  0.0214179650103219  0.2372555293538525  0.2399976673527249
  0.7360066930768880  0.5236443901416550  0.2388705978008332
  0.2390006912346934  0.7365203741456696  0.2399159655205096
  0.8839653644856540  0.3852582489402394  0.5132519403087414
  0.3849522769222844  0.6008253665870029  0.5152565202600599
  0.1034354552874603  0.8856609736301237  0.5128771240245200
  0.5994268919189807  0.1016714866717052  0.5143239105675690
 
  0.00000000E+00  0.00000000E+00  0.00000000E+00
  0.00000000E+00  0.00000000E+00  0.00000000E+00
  0.00000000E+00  0.00000000E+00  0.00000000E+00
  0.00000000E+00  0.00000000E+00  0.00000000E+00
  0.00000000E+00  0.00000000E+00  0.00000000E+00
  0.00000000E+00  0.00000000E+00  0.00000000E+00
  0.00000000E+00  0.00000000E+00  0.00000000E+00
  0.00000000E+00  0.00000000E+00  0.00000000E+00
  0.00000000E+00  0.00000000E+00  0.00000000E+00
  0.00000000E+00  0.00000000E+00  0.00000000E+00
  0.00000000E+00  0.00000000E+00  0.00000000E+00
  0.00000000E+00  0.00000000E+00  0.00000000E+00
  0.00000000E+00  0.00000000E+00  0.00000000E+00
  0.00000000E+00  0.00000000E+00  0.00000000E+00
  0.00000000E+00  0.00000000E+00  0.00000000E+00
  0.00000000E+00  0.00000000E+00  0.00000000E+00
