Be1 B3 I6                               
   1.00000000000000     
     9.2134816347536876    0.1944105710697315    2.9364199018560151
     0.1944105710697319    9.2134816347536930    2.9364199018560182
     7.2408520235901017    7.2408520235901053   10.7913347261833472
   I    Be   B 
     6     1     3
Direct
  0.6596329957732223  0.3403670042267848  0.0000000000000000
  0.2810315681054334  0.2810315681054334  0.8465136893996217
  0.3403670042267848  0.6596329957732223  0.0000000000000000
  0.7189684318945666  0.7189684318945666  0.1534863106003783
  0.9172754837125936  0.9172754837125936  0.4526362546630338
  0.0827245162874064  0.0827245162874064  0.5473637453369591
  0.0000000000000000  0.0000000000000000  0.0000000000000000
  0.5000000000000000  0.5000000000000000  0.0000000000000000
  0.1236393098301605  0.8763606901698395  0.5000000000000000
  0.8763606901698395  0.1236393098301605  0.5000000000000000
 
  0.00000000E+00  0.00000000E+00  0.00000000E+00
  0.00000000E+00  0.00000000E+00  0.00000000E+00
  0.00000000E+00  0.00000000E+00  0.00000000E+00
  0.00000000E+00  0.00000000E+00  0.00000000E+00
  0.00000000E+00  0.00000000E+00  0.00000000E+00
  0.00000000E+00  0.00000000E+00  0.00000000E+00
  0.00000000E+00  0.00000000E+00  0.00000000E+00
  0.00000000E+00  0.00000000E+00  0.00000000E+00
  0.00000000E+00  0.00000000E+00  0.00000000E+00
  0.00000000E+00  0.00000000E+00  0.00000000E+00
