Ba6 Ga10                                
   1.00000000000000     
     4.5988869059525657   -0.0094194992741760    0.0001564088333970
     2.2908997211232291    6.4038768990181278    0.0001449285521114
     0.0006514847966853    0.0002538990728753   16.2386062717155397
   Ba   Ga
     6    10
Direct
  0.5717618079254834  0.8601633284369541  0.1019362247351481
  0.8632882658315353  0.2758292839365737  0.2499928634436444
  0.5717048620059799  0.8601570791160285  0.3980131582811239
  0.4282097869524506  0.1398421546328805  0.6019166072213267
  0.1367427172918099  0.7241385707624772  0.7499802675150136
  0.4283032034834022  0.1398677481562132  0.8980190565709307
  0.8412288554818232  0.3189693219061951  0.0372830346858635
  0.2745287992366343  0.4545306563571430  0.1043676897700507
  0.1621430663321917  0.6803098427011847  0.2499528577760231
  0.2743732692710026  0.4546154174995891  0.3955815636776236
  0.8410889635427949  0.3190489688173983  0.4626696506859247
  0.1587979419317236  0.6809859581332418  0.5372599998261549
  0.7254863013315429  0.5454491278705902  0.6043555038025161
  0.8378624871795068  0.3197060342898155  0.7499649713943768
  0.7255734442225688  0.5454223426657947  0.8956093609292211
  0.1589062279795641  0.6809641647178921  0.9626971896850876
 
  0.00000000E+00  0.00000000E+00  0.00000000E+00
  0.00000000E+00  0.00000000E+00  0.00000000E+00
  0.00000000E+00  0.00000000E+00  0.00000000E+00
  0.00000000E+00  0.00000000E+00  0.00000000E+00
  0.00000000E+00  0.00000000E+00  0.00000000E+00
  0.00000000E+00  0.00000000E+00  0.00000000E+00
  0.00000000E+00  0.00000000E+00  0.00000000E+00
  0.00000000E+00  0.00000000E+00  0.00000000E+00
  0.00000000E+00  0.00000000E+00  0.00000000E+00
  0.00000000E+00  0.00000000E+00  0.00000000E+00
  0.00000000E+00  0.00000000E+00  0.00000000E+00
  0.00000000E+00  0.00000000E+00  0.00000000E+00
  0.00000000E+00  0.00000000E+00  0.00000000E+00
  0.00000000E+00  0.00000000E+00  0.00000000E+00
  0.00000000E+00  0.00000000E+00  0.00000000E+00
  0.00000000E+00  0.00000000E+00  0.00000000E+00
