Mg4 Tl4 F2                              
   1.0000000000000000     
     6.1671519568274515   -1.0720556743621070    0.3143591407921587
    -4.0850763913522679    3.4398766177563820    0.2730608251155419
     0.4387517901191809    0.5817481158318627   13.4492375596439491
   Tl   F    Mg
     4     2     4
Direct
  0.5545101362090747  0.8148324112911425  0.9238989666576529
  0.3910954999043454  0.6969205511144239  0.6129621382631427
  0.6092189749331780  0.3027294559905727  0.3870787531819104
  0.4449497464899679  0.1852506009142942  0.0761672435850400
  0.2561646526371177  0.4673543211007356  0.2420260471003743
  0.7438657540359159  0.5325979743950384  0.7580294638542000
  0.8517700547457281  0.0859277642741318  0.1465582007812856
  0.0987760499330648  0.2901169436797630  0.3981748401601095
  0.9014803008071794  0.7093957574982923  0.6018892635207180
  0.1481688303044137  0.9148742197416055  0.8534950828955630

  0.00000000E+00  0.00000000E+00  0.00000000E+00
  0.00000000E+00  0.00000000E+00  0.00000000E+00
  0.00000000E+00  0.00000000E+00  0.00000000E+00
  0.00000000E+00  0.00000000E+00  0.00000000E+00
  0.00000000E+00  0.00000000E+00  0.00000000E+00
  0.00000000E+00  0.00000000E+00  0.00000000E+00
  0.00000000E+00  0.00000000E+00  0.00000000E+00
  0.00000000E+00  0.00000000E+00  0.00000000E+00
  0.00000000E+00  0.00000000E+00  0.00000000E+00
  0.00000000E+00  0.00000000E+00  0.00000000E+00
