Ba1 B2 Br10                             
   1.00000000000000     
     5.3082213503848852    5.6269178729810614    0.7113351947811244
    -5.3082213503848852    5.6269178729810614    0.7113351947811244
     0.0000000000000000    5.3291000422183128    8.9172443915897652
   Ba   B    Br
     1     2    10
Direct
  0.6564371750219138  0.3435628249780862  0.0000000000000000
  0.0252716139460674  0.8642148924430444  0.7121083422551990
  0.1357851075569556  0.9747283860539326  0.2878916577448010
  0.1648422029310268  0.1158324744613566  0.6659123712296733
  0.8841675255386434  0.8351577970689732  0.3340876287703267
  0.7475601100116194  0.8705787167516235  0.7663914605869380
  0.1294212832483765  0.2524398899883806  0.2336085394130620
  0.9773999059486584  0.0226000940513416  0.0000000000000000
  0.1807075130458671  0.8192924869541329  0.5000000000000000
  0.6565617365141208  0.4589275634090484  0.6728595465819822
  0.5410724365909516  0.3434382634858792  0.3271404534180178
  0.0743014016257106  0.6295290119799191  0.8738505451429006
  0.3704709880200809  0.9256985983742894  0.1261494548570994
 
  0.00000000E+00  0.00000000E+00  0.00000000E+00
  0.00000000E+00  0.00000000E+00  0.00000000E+00
  0.00000000E+00  0.00000000E+00  0.00000000E+00
  0.00000000E+00  0.00000000E+00  0.00000000E+00
  0.00000000E+00  0.00000000E+00  0.00000000E+00
  0.00000000E+00  0.00000000E+00  0.00000000E+00
  0.00000000E+00  0.00000000E+00  0.00000000E+00
  0.00000000E+00  0.00000000E+00  0.00000000E+00
  0.00000000E+00  0.00000000E+00  0.00000000E+00
  0.00000000E+00  0.00000000E+00  0.00000000E+00
  0.00000000E+00  0.00000000E+00  0.00000000E+00
  0.00000000E+00  0.00000000E+00  0.00000000E+00
  0.00000000E+00  0.00000000E+00  0.00000000E+00
