Mg4 Al4 Br20                            
   1.0000000000000000     
    10.6177915798202083    0.0000000000000000    0.0000000000000000
     0.0000000000000000    9.0603506368874971    3.3406180719215337
     0.0000000000000000    7.7795153472365977   14.2539204929163361
   Mg   Al   Br
     4     4    20
Direct
  0.8700633052484719  0.4769078031415646  0.4389939726650809
  0.3700633052484719  0.5230921968584354  0.0610060273349191
  0.1299366947515281  0.5230921968584354  0.5610060273349191
  0.6299366947515281  0.4769078031415646  0.9389939726650809
  0.7386011765709952  0.9644461927769186  0.6457171657371390
  0.2386011765709952  0.0355538072230814  0.8542828342628610
  0.2613988234290119  0.0355538072230814  0.3542828342628681
  0.7613988234290048  0.9644461927769186  0.1457171657371319
  0.7254099399036278  0.1990751998072895  0.6509582269080525
  0.2254099399036278  0.8009248001927105  0.8490417730919475
  0.2745900600963651  0.8009248001927105  0.3490417730919475
  0.7745900600963722  0.1990751998072895  0.1509582269080525
  0.8135694406474840  0.1787528870420729  0.4441743047334654
  0.3135694406474840  0.8212471129579342  0.0558256952665417
  0.1864305593525160  0.8212471129579342  0.5558256952665417
  0.6864305593525160  0.1787528870420729  0.9441743047334583
  0.3635093643393077  0.3227687146135452  0.6897098268373867
  0.8635093643393148  0.6772312853864619  0.8102901731626133
  0.6364906356606852  0.6772312853864619  0.3102901731626133
  0.1364906356606852  0.3227687146135452  0.1897098268373867
  0.5485573158543886  0.7972307575100714  0.6892252884230246
  0.0485573158543886  0.2027692424899286  0.8107747115769754
  0.4514426841456114  0.2027692424899286  0.3107747115769826
  0.9514426841456114  0.7972307575100714  0.1892252884230246
  0.4093865919860349  0.3071629380025982  0.0246821030730544
  0.9093865919860349  0.6928370619974018  0.4753178969269456
  0.5906134080139651  0.6928370619974018  0.9753178969269456
  0.0906134080139651  0.3071629380025982  0.5246821030730615

  0.00000000E+00  0.00000000E+00  0.00000000E+00
  0.00000000E+00  0.00000000E+00  0.00000000E+00
  0.00000000E+00  0.00000000E+00  0.00000000E+00
  0.00000000E+00  0.00000000E+00  0.00000000E+00
  0.00000000E+00  0.00000000E+00  0.00000000E+00
  0.00000000E+00  0.00000000E+00  0.00000000E+00
  0.00000000E+00  0.00000000E+00  0.00000000E+00
  0.00000000E+00  0.00000000E+00  0.00000000E+00
  0.00000000E+00  0.00000000E+00  0.00000000E+00
  0.00000000E+00  0.00000000E+00  0.00000000E+00
  0.00000000E+00  0.00000000E+00  0.00000000E+00
  0.00000000E+00  0.00000000E+00  0.00000000E+00
  0.00000000E+00  0.00000000E+00  0.00000000E+00
  0.00000000E+00  0.00000000E+00  0.00000000E+00
  0.00000000E+00  0.00000000E+00  0.00000000E+00
  0.00000000E+00  0.00000000E+00  0.00000000E+00
  0.00000000E+00  0.00000000E+00  0.00000000E+00
  0.00000000E+00  0.00000000E+00  0.00000000E+00
  0.00000000E+00  0.00000000E+00  0.00000000E+00
  0.00000000E+00  0.00000000E+00  0.00000000E+00
  0.00000000E+00  0.00000000E+00  0.00000000E+00
  0.00000000E+00  0.00000000E+00  0.00000000E+00
  0.00000000E+00  0.00000000E+00  0.00000000E+00
  0.00000000E+00  0.00000000E+00  0.00000000E+00
  0.00000000E+00  0.00000000E+00  0.00000000E+00
  0.00000000E+00  0.00000000E+00  0.00000000E+00
  0.00000000E+00  0.00000000E+00  0.00000000E+00
  0.00000000E+00  0.00000000E+00  0.00000000E+00
