Sr3B                                    
   1.00000000000000     
    10.0154122310912399    0.0012850929014587    0.0000000000000000
    -5.0060823885539740    8.6741991671181715    0.0000000000000000
     0.0000000000000000    0.0000000000000000    3.9598085884974363
   B    Sr
     2     6
Direct
  0.3332568400625533  0.6667163681722030  0.7500000000000000
  0.6667431599374467  0.3332836318277970  0.2500000000000000
  0.2140239321431778  0.4280866517603101  0.2500000000000000
  0.5718810224959583  0.7859316748087153  0.2500000000000000
  0.2139763950434812  0.7860527758635598  0.2500000000000000
  0.7859760678568222  0.5719133482396899  0.7500000000000000
  0.4281189775040417  0.2140683251912847  0.7500000000000000
  0.7860236049565188  0.2139472241364402  0.7500000000000000
 
  0.00000000E+00  0.00000000E+00  0.00000000E+00
  0.00000000E+00  0.00000000E+00  0.00000000E+00
  0.00000000E+00  0.00000000E+00  0.00000000E+00
  0.00000000E+00  0.00000000E+00  0.00000000E+00
  0.00000000E+00  0.00000000E+00  0.00000000E+00
  0.00000000E+00  0.00000000E+00  0.00000000E+00
  0.00000000E+00  0.00000000E+00  0.00000000E+00
  0.00000000E+00  0.00000000E+00  0.00000000E+00
