Ca16 Tl12 F1                            
   1.0000000000000000     
     8.8667428430111883   -5.1194610824896483    3.6171935506120669
    -0.1013541991815912    9.9476930367413452    3.4528660926954831
    -8.6622453014899410   -4.8853400307981776    3.4498559291155853
   Tl   F    Ca
    12     1    16
Direct
  0.7897144856643266  0.5938747952998398  0.9995036113745499
  0.6118387739871451  0.8035860483987989  0.9995120342927208
  0.3818058129644086  0.3981972307308652  0.2066478546732000
  0.1766495053104293  0.7945944205489397  0.1926514260813690
  0.8083875973630938  0.1970745876502278  0.1967342415749087
  0.3820897848338021  0.2049050271340036  0.3984103803625132
  0.1957411402861524  0.4071881780267717  0.4075196876141050
  0.7880706028470499  0.9994835176617656  0.5922840142801604
  0.9834473693771528  0.8074248992488364  0.6017586940271542
  0.6115772262348997  0.0003795670033000  0.8032565182477924
  0.9839360869511680  0.6018627352277264  0.8075837255612015
  0.1758137663401129  0.1922871042122622  0.7950073238349660
  0.3946367975831109  0.0000580501315142  0.9999295732177202
  0.5279408897524789  0.2385198443795034  0.0002674238872800
  0.2653995934172428  0.5540389295066390  0.0002041144057046
  0.1874816747667651  0.9998055282243428  0.0002935431911411
  0.9903528339421399  0.2310659969312709  0.0000800395556908
  0.6929335146459081  0.7073033026453430  0.2703913987137696
  0.5286671818999338  0.9998561049374786  0.2384831598264725
  0.9851061493120667  0.5635480894463356  0.2919710033636278
  0.9907655205620358  0.0005196320375376  0.2310224771433980
  0.4215649634592182  0.7292603548086873  0.4367329067852950
  0.7111821368669879  0.4455048875766963  0.4459081376281517
  0.2646789826545870  0.9999906428558347  0.5545003302794456
  0.9853807640886174  0.2919132489212757  0.5633689915425606
  0.7594207053752555  0.7692179427664030  0.7684103320838531
  0.6930329536683288  0.2708819311468318  0.7075289292454769
  0.2893576255245378  0.7611837023533852  0.7610654481086740
  0.4222255603210314  0.4364747001875884  0.7289746790970852

  0.00000000E+00  0.00000000E+00  0.00000000E+00
  0.00000000E+00  0.00000000E+00  0.00000000E+00
  0.00000000E+00  0.00000000E+00  0.00000000E+00
  0.00000000E+00  0.00000000E+00  0.00000000E+00
  0.00000000E+00  0.00000000E+00  0.00000000E+00
  0.00000000E+00  0.00000000E+00  0.00000000E+00
  0.00000000E+00  0.00000000E+00  0.00000000E+00
  0.00000000E+00  0.00000000E+00  0.00000000E+00
  0.00000000E+00  0.00000000E+00  0.00000000E+00
  0.00000000E+00  0.00000000E+00  0.00000000E+00
  0.00000000E+00  0.00000000E+00  0.00000000E+00
  0.00000000E+00  0.00000000E+00  0.00000000E+00
  0.00000000E+00  0.00000000E+00  0.00000000E+00
  0.00000000E+00  0.00000000E+00  0.00000000E+00
  0.00000000E+00  0.00000000E+00  0.00000000E+00
  0.00000000E+00  0.00000000E+00  0.00000000E+00
  0.00000000E+00  0.00000000E+00  0.00000000E+00
  0.00000000E+00  0.00000000E+00  0.00000000E+00
  0.00000000E+00  0.00000000E+00  0.00000000E+00
  0.00000000E+00  0.00000000E+00  0.00000000E+00
  0.00000000E+00  0.00000000E+00  0.00000000E+00
  0.00000000E+00  0.00000000E+00  0.00000000E+00
  0.00000000E+00  0.00000000E+00  0.00000000E+00
  0.00000000E+00  0.00000000E+00  0.00000000E+00
  0.00000000E+00  0.00000000E+00  0.00000000E+00
  0.00000000E+00  0.00000000E+00  0.00000000E+00
  0.00000000E+00  0.00000000E+00  0.00000000E+00
  0.00000000E+00  0.00000000E+00  0.00000000E+00
  0.00000000E+00  0.00000000E+00  0.00000000E+00
