Ca4 B4 Cl20                             
   1.0000000000000000     
     7.1767100046943426   -0.0000000000000001    0.0000000000000007
    -0.0000000000000005    6.6637487395762589    0.0000000000000005
     0.0000000000000006    0.0000000000000001   19.8135750928835570
   Ca   B    Cl
     4     4    20
Direct
  0.5565922941906294  0.5760427464836155  0.6505436309017796
  0.0565922941906294  0.9239572535163845  0.3494563690982204
  0.4434077058093706  0.0760427464836155  0.8494563690982204
  0.9434077058093706  0.4239572535163845  0.1505436309017796
  0.3103690101142575  0.0372195956437693  0.6725987778073872
  0.8103690101142575  0.4627804043562307  0.3274012221926128
  0.6896309898857425  0.5372195956437693  0.8274012221926128
  0.1896309898857425  0.9627804043562307  0.1725987778073872
  0.7431172929349401  0.6825961363627044  0.3786099869568886
  0.2431172929349401  0.8174038636372956  0.6213900130431114
  0.2568827070650599  0.1825961363627044  0.1213900130431114
  0.7568827070650599  0.3174038636372956  0.8786099869568886
  0.6618969863490989  0.4473402999179612  0.2505224622605056
  0.1618969863490989  0.0526597000820388  0.7494775377394802
  0.3381030136509011  0.9473402999179612  0.2494775377394873
  0.8381030136509011  0.5526597000820388  0.7505224622605127
  0.2903876325407637  0.2680086247442333  0.6213426155537434
  0.7903876325407637  0.2319913752557667  0.3786573844462495
  0.7096123674592363  0.7680086247442333  0.8786573844462566
  0.2096123674592363  0.7319913752557667  0.1213426155537505
  0.5632834481284092  0.0038910946971811  0.7022924812885236
  0.0632834481284092  0.4961089053028118  0.2977075187114764
  0.4367165518715908  0.5038910946971882  0.7977075187114764
  0.9367165518715908  0.9961089053028118  0.2022924812885236
  0.7977481377776101  0.5423466648441533  0.5638706442306187
  0.2977481377776101  0.9576533351558467  0.4361293557693813
  0.2022518622223899  0.0423466648441533  0.9361293557693813
  0.7022518622223899  0.4576533351558467  0.0638706442306187

  0.00000000E+00  0.00000000E+00  0.00000000E+00
  0.00000000E+00  0.00000000E+00  0.00000000E+00
  0.00000000E+00  0.00000000E+00  0.00000000E+00
  0.00000000E+00  0.00000000E+00  0.00000000E+00
  0.00000000E+00  0.00000000E+00  0.00000000E+00
  0.00000000E+00  0.00000000E+00  0.00000000E+00
  0.00000000E+00  0.00000000E+00  0.00000000E+00
  0.00000000E+00  0.00000000E+00  0.00000000E+00
  0.00000000E+00  0.00000000E+00  0.00000000E+00
  0.00000000E+00  0.00000000E+00  0.00000000E+00
  0.00000000E+00  0.00000000E+00  0.00000000E+00
  0.00000000E+00  0.00000000E+00  0.00000000E+00
  0.00000000E+00  0.00000000E+00  0.00000000E+00
  0.00000000E+00  0.00000000E+00  0.00000000E+00
  0.00000000E+00  0.00000000E+00  0.00000000E+00
  0.00000000E+00  0.00000000E+00  0.00000000E+00
  0.00000000E+00  0.00000000E+00  0.00000000E+00
  0.00000000E+00  0.00000000E+00  0.00000000E+00
  0.00000000E+00  0.00000000E+00  0.00000000E+00
  0.00000000E+00  0.00000000E+00  0.00000000E+00
  0.00000000E+00  0.00000000E+00  0.00000000E+00
  0.00000000E+00  0.00000000E+00  0.00000000E+00
  0.00000000E+00  0.00000000E+00  0.00000000E+00
  0.00000000E+00  0.00000000E+00  0.00000000E+00
  0.00000000E+00  0.00000000E+00  0.00000000E+00
  0.00000000E+00  0.00000000E+00  0.00000000E+00
  0.00000000E+00  0.00000000E+00  0.00000000E+00
  0.00000000E+00  0.00000000E+00  0.00000000E+00
