MgTl3                                   
   1.0000000000000000     
     4.8486514417695865   -0.0000000000000000    0.0000000000000000
     0.0000000000000000    4.8486514417695865    0.0000000000000000
    -0.0000000000000000   -0.0000000000000000    4.8486514417695865
   Mg   Tl
     1     3
Direct
  0.0000000000000000  0.0000000000000000  0.0000000000000000
  0.5000000000000000  0.5000000000000000  0.0000000000000000
  0.5000000000000000  0.0000000000000000  0.5000000000000000
  0.0000000000000000  0.5000000000000000  0.5000000000000000

  0.00000000E+00  0.00000000E+00  0.00000000E+00
  0.00000000E+00  0.00000000E+00  0.00000000E+00
  0.00000000E+00  0.00000000E+00  0.00000000E+00
  0.00000000E+00  0.00000000E+00  0.00000000E+00
