Ca6 Tl33                                
   1.0000000000000000     
    10.7726463705585438   -0.0000000000000000   -0.0000000000000000
     0.0000000000000000   10.7726463705585438   -0.0000000000000000
     0.0000000000000000   -0.0000000000000000   10.7726463705585438
   Ca   Tl
     6    33
Direct
  0.2052062925510256  0.5000000000000000  0.0000000000000000
  0.7947937074489744  0.5000000000000000  0.0000000000000000
  0.5000000000000000  0.0000000000000000  0.2052062925510256
  0.0000000000000000  0.2052062925510256  0.5000000000000000
  0.0000000000000000  0.7947937074489744  0.5000000000000000
  0.5000000000000000  0.0000000000000000  0.7947937074489744
  0.0000000000000000  0.0000000000000000  0.0000000000000000
  0.2781013468717717  0.1501096119120646  0.0000000000000000
  0.7218986531282283  0.1501096119120646  0.0000000000000000
  0.5000000000000000  0.3402579647744659  0.0000000000000000
  0.5000000000000000  0.6597420352255341  0.0000000000000000
  0.2781013468717717  0.8498903880879354  0.0000000000000000
  0.7218986531282283  0.8498903880879354  0.0000000000000000
  0.0000000000000000  0.2781013468717717  0.1501096119120646
  0.0000000000000000  0.7218986531282283  0.1501096119120646
  0.5000000000000000  0.5000000000000000  0.2642236289602877
  0.1501096119120646  0.0000000000000000  0.2781013468717717
  0.8498903880879354  0.0000000000000000  0.2781013468717717
  0.2807218243689320  0.2807218243689320  0.2807218243689320
  0.7192781756310680  0.2807218243689320  0.2807218243689320
  0.2807218243689320  0.7192781756310680  0.2807218243689320
  0.7192781756310680  0.7192781756310680  0.2807218243689320
  0.0000000000000000  0.5000000000000000  0.3402579647744659
  0.3402579647744659  0.0000000000000000  0.5000000000000000
  0.6597420352255341  0.0000000000000000  0.5000000000000000
  0.5000000000000000  0.2642236289602877  0.5000000000000000
  0.2642236289602877  0.5000000000000000  0.5000000000000000
  0.7357763710397123  0.5000000000000000  0.5000000000000000
  0.5000000000000000  0.7357763710397123  0.5000000000000000
  0.0000000000000000  0.5000000000000000  0.6597420352255341
  0.2807218243689320  0.2807218243689320  0.7192781756310680
  0.7192781756310680  0.2807218243689320  0.7192781756310680
  0.2807218243689320  0.7192781756310680  0.7192781756310680
  0.7192781756310680  0.7192781756310680  0.7192781756310680
  0.1501096119120646  0.0000000000000000  0.7218986531282283
  0.8498903880879354  0.0000000000000000  0.7218986531282283
  0.5000000000000000  0.5000000000000000  0.7357763710397123
  0.0000000000000000  0.2781013468717717  0.8498903880879354
  0.0000000000000000  0.7218986531282283  0.8498903880879354

  0.00000000E+00  0.00000000E+00  0.00000000E+00
  0.00000000E+00  0.00000000E+00  0.00000000E+00
  0.00000000E+00  0.00000000E+00  0.00000000E+00
  0.00000000E+00  0.00000000E+00  0.00000000E+00
  0.00000000E+00  0.00000000E+00  0.00000000E+00
  0.00000000E+00  0.00000000E+00  0.00000000E+00
  0.00000000E+00  0.00000000E+00  0.00000000E+00
  0.00000000E+00  0.00000000E+00  0.00000000E+00
  0.00000000E+00  0.00000000E+00  0.00000000E+00
  0.00000000E+00  0.00000000E+00  0.00000000E+00
  0.00000000E+00  0.00000000E+00  0.00000000E+00
  0.00000000E+00  0.00000000E+00  0.00000000E+00
  0.00000000E+00  0.00000000E+00  0.00000000E+00
  0.00000000E+00  0.00000000E+00  0.00000000E+00
  0.00000000E+00  0.00000000E+00  0.00000000E+00
  0.00000000E+00  0.00000000E+00  0.00000000E+00
  0.00000000E+00  0.00000000E+00  0.00000000E+00
  0.00000000E+00  0.00000000E+00  0.00000000E+00
  0.00000000E+00  0.00000000E+00  0.00000000E+00
  0.00000000E+00  0.00000000E+00  0.00000000E+00
  0.00000000E+00  0.00000000E+00  0.00000000E+00
  0.00000000E+00  0.00000000E+00  0.00000000E+00
  0.00000000E+00  0.00000000E+00  0.00000000E+00
  0.00000000E+00  0.00000000E+00  0.00000000E+00
  0.00000000E+00  0.00000000E+00  0.00000000E+00
  0.00000000E+00  0.00000000E+00  0.00000000E+00
  0.00000000E+00  0.00000000E+00  0.00000000E+00
  0.00000000E+00  0.00000000E+00  0.00000000E+00
  0.00000000E+00  0.00000000E+00  0.00000000E+00
  0.00000000E+00  0.00000000E+00  0.00000000E+00
  0.00000000E+00  0.00000000E+00  0.00000000E+00
  0.00000000E+00  0.00000000E+00  0.00000000E+00
  0.00000000E+00  0.00000000E+00  0.00000000E+00
  0.00000000E+00  0.00000000E+00  0.00000000E+00
  0.00000000E+00  0.00000000E+00  0.00000000E+00
  0.00000000E+00  0.00000000E+00  0.00000000E+00
  0.00000000E+00  0.00000000E+00  0.00000000E+00
  0.00000000E+00  0.00000000E+00  0.00000000E+00
  0.00000000E+00  0.00000000E+00  0.00000000E+00
