Sr2 Al2 Br10                            
   1.00000000000000     
     5.9062324505766979   -4.1250639510221898    0.0087031225040750
     5.9062479025391985    4.1250999923153211    0.0096014442630768
    -4.2109011466413442    0.0010155375780308    9.3864300360534862
   Al   Sr   Br
     2     2    10
Direct
  0.9999720128512308  0.0000458708089539  0.0001798733192260
  0.0000521813388730  0.9999711188876645  0.5001771533682273
  0.5448151564658374  0.4552448948072438  0.2500539175758973
  0.4552252306829132  0.5448065036928043  0.7499813092182208
  0.2198138546025490  0.6407151260924593  0.0046190378961057
  0.3055339017141421  0.1234244760291148  0.1208473191490995
  0.9220897149354528  0.0783029001599331  0.2500882262187289
  0.8765568638889079  0.6946445901993599  0.3788820772931345
  0.3593655175966077  0.7802282464819896  0.4954609703016359
  0.6406781720324659  0.2198056749037818  0.5045620837825169
  0.1234440590067294  0.3054379187407150  0.6210728417699940
  0.0779039277952762  0.9216931923894336  0.7498625369235015
  0.6945495274454814  0.8765605513962456  0.8791097958126670
  0.7801998796435115  0.3593189354103288  0.9954028573710545
 
  0.00000000E+00  0.00000000E+00  0.00000000E+00
  0.00000000E+00  0.00000000E+00  0.00000000E+00
  0.00000000E+00  0.00000000E+00  0.00000000E+00
  0.00000000E+00  0.00000000E+00  0.00000000E+00
  0.00000000E+00  0.00000000E+00  0.00000000E+00
  0.00000000E+00  0.00000000E+00  0.00000000E+00
  0.00000000E+00  0.00000000E+00  0.00000000E+00
  0.00000000E+00  0.00000000E+00  0.00000000E+00
  0.00000000E+00  0.00000000E+00  0.00000000E+00
  0.00000000E+00  0.00000000E+00  0.00000000E+00
  0.00000000E+00  0.00000000E+00  0.00000000E+00
  0.00000000E+00  0.00000000E+00  0.00000000E+00
  0.00000000E+00  0.00000000E+00  0.00000000E+00
  0.00000000E+00  0.00000000E+00  0.00000000E+00
