Be1 Tl2 Br4                             
   1.0000000000000000     
    -2.6498531495179698    2.6498531495179698    7.8960835679155998
     2.6498531495179698   -2.6498531495179698    7.8960835679155998
     2.6498531495179698    2.6498531495179698   -7.8960835679155998
   Be   Br   Tl
     1     4     2
Direct
  0.0000000000000000  0.0000000000000000  0.0000000000000000
  0.1436526835627632  0.1436526835627632  0.0000000000000000
  0.8563473164372368  0.8563473164372368  0.0000000000000000
  0.5000000000000000  0.0000000000000000  0.5000000000000000
  0.0000000000000000  0.5000000000000000  0.5000000000000000
  0.3669171767626551  0.3669171767626551  0.0000000000000000
  0.6330828232373449  0.6330828232373449  0.0000000000000000

  0.00000000E+00  0.00000000E+00  0.00000000E+00
  0.00000000E+00  0.00000000E+00  0.00000000E+00
  0.00000000E+00  0.00000000E+00  0.00000000E+00
  0.00000000E+00  0.00000000E+00  0.00000000E+00
  0.00000000E+00  0.00000000E+00  0.00000000E+00
  0.00000000E+00  0.00000000E+00  0.00000000E+00
  0.00000000E+00  0.00000000E+00  0.00000000E+00
