Ba1 In2 Br8                             
   1.0000000000000000     
     4.1773322936521220    9.7634327177244931    1.9621873312930058
    -4.1773322936521220    9.7634327177244931    1.9621873312930058
     0.0000000000000000    4.1539033788719095    6.6489485845083189
   Ba   In   Br
     1     2     8
Direct
  0.0000000000000000  0.0000000000000000  0.0000000000000000
  0.3388205770833750  0.3388205770833750  0.6654454804415408
  0.6611794229166250  0.6611794229166250  0.3345545195584592
  0.6179200210276719  0.1100736957923019  0.4433953399710404
  0.8395705470530359  0.8395705470530359  0.9837901393600958
  0.1100736957923019  0.6179200210276719  0.4433953399710404
  0.4032050478888181  0.4032050478888181  0.8489594479442104
  0.8899263042076981  0.3820799789723281  0.5566046600289596
  0.3820799789723281  0.8899263042076981  0.5566046600289596
  0.1604294529469641  0.1604294529469641  0.0162098606399042
  0.5967949521111819  0.5967949521111819  0.1510405520557896

  0.00000000E+00  0.00000000E+00  0.00000000E+00
  0.00000000E+00  0.00000000E+00  0.00000000E+00
  0.00000000E+00  0.00000000E+00  0.00000000E+00
  0.00000000E+00  0.00000000E+00  0.00000000E+00
  0.00000000E+00  0.00000000E+00  0.00000000E+00
  0.00000000E+00  0.00000000E+00  0.00000000E+00
  0.00000000E+00  0.00000000E+00  0.00000000E+00
  0.00000000E+00  0.00000000E+00  0.00000000E+00
  0.00000000E+00  0.00000000E+00  0.00000000E+00
  0.00000000E+00  0.00000000E+00  0.00000000E+00
  0.00000000E+00  0.00000000E+00  0.00000000E+00
