Sr4B                                    
   1.00000000000000     
     5.2529151171770021    0.0000000000000000    0.0000000000000000
     0.0000000000000000    5.2529151171770021    0.0000000000000000
     0.0000000000000000    0.0000000000000000   13.8601911887057145
   B    Sr
     2     8
Direct
  0.0000000000000000  0.5000000000000000  0.1378837998517639
  0.5000000000000000  0.0000000000000000  0.8621162001482361
  0.0000000000000000  0.0000000000000000  0.0000000000000000
  0.5000000000000000  0.5000000000000000  0.0000000000000000
  0.0000000000000000  0.0000000000000000  0.2510140127951885
  0.5000000000000000  0.5000000000000000  0.2510140127951885
  0.0000000000000000  0.5000000000000000  0.4895777928647789
  0.5000000000000000  0.0000000000000000  0.5104222071352211
  0.0000000000000000  0.0000000000000000  0.7489859872048115
  0.5000000000000000  0.5000000000000000  0.7489859872048115
 
  0.00000000E+00  0.00000000E+00  0.00000000E+00
  0.00000000E+00  0.00000000E+00  0.00000000E+00
  0.00000000E+00  0.00000000E+00  0.00000000E+00
  0.00000000E+00  0.00000000E+00  0.00000000E+00
  0.00000000E+00  0.00000000E+00  0.00000000E+00
  0.00000000E+00  0.00000000E+00  0.00000000E+00
  0.00000000E+00  0.00000000E+00  0.00000000E+00
  0.00000000E+00  0.00000000E+00  0.00000000E+00
  0.00000000E+00  0.00000000E+00  0.00000000E+00
  0.00000000E+00  0.00000000E+00  0.00000000E+00
