Mg5Al2                                  
   1.00000000000000     
     6.4875032187085457   -1.5156855094207682    0.0557401935048474
     6.4875032187085457    1.5156855094207682    0.0557401935048474
    -6.2084217748403105    0.0000000000000000    7.8883378775880493
   Al   Mg
     2     5
Direct
  0.6427371198493219  0.6427371198493219  0.4198610859471614
  0.3572628801506781  0.3572628801506781  0.5801389140528386
  0.3825113304675867  0.3825113304675867  0.1216665951556166
  0.1621273916684913  0.1621273916684913  0.1856334400791582
  0.0000000000000000  0.0000000000000000  0.5000000000000000
  0.8378726083315087  0.8378726083315087  0.8143665599208418
  0.6174886695324133  0.6174886695324133  0.8783334048443834
 
  0.00000000E+00  0.00000000E+00  0.00000000E+00
  0.00000000E+00  0.00000000E+00  0.00000000E+00
  0.00000000E+00  0.00000000E+00  0.00000000E+00
  0.00000000E+00  0.00000000E+00  0.00000000E+00
  0.00000000E+00  0.00000000E+00  0.00000000E+00
  0.00000000E+00  0.00000000E+00  0.00000000E+00
  0.00000000E+00  0.00000000E+00  0.00000000E+00
