Mg4 B10 F2                              
   1.00000000000000     
     9.5768349174597098    1.6313164734275818   -0.7405186483019001
    -3.8211936798778003    4.2327888152353532   -1.4173907943976058
    -5.9268687840862402   -4.3853805119014018    5.8835372847601075
   F    Mg   B 
     2     4    10
Direct
  0.2991213845903786  0.6455059017307718  0.4735707288268216
  0.5224802088348284  0.0694686604154171  0.4480579142297074
  0.2549229325743028  0.9398234566028663  0.4117226892667532
  0.3832403028399298  0.0465823243556400  0.1409748636466546
  0.4499952122077886  0.7058403240150426  0.8035087537511032
  0.5361526699773904  0.7438012435077042  0.4835376791014028
  0.0492703372913894  0.0400590964395349  0.9881231147777854
  0.8062533560435270  0.2044244491372069  0.3601097229639478
  0.4767500682467514  0.7328441920934807  0.1371172710403883
  0.2252293253057402  0.3364248994435854  0.0158769867699959
  0.8752525826019948  0.9925703118538252  0.4030246025485553
  0.0661026180837183  0.6749742671474834  0.5627968817827593
  0.1632861597111983  0.0428597267846129  0.6084599725260276
  0.8062079510552564  0.7321988030893394  0.9137267681069261
  0.6075118695091817  0.4600509857179986  0.8823934885382982
  0.4782230211266025  0.1323713576654768  0.8667985621228524
 
  0.00000000E+00  0.00000000E+00  0.00000000E+00
  0.00000000E+00  0.00000000E+00  0.00000000E+00
  0.00000000E+00  0.00000000E+00  0.00000000E+00
  0.00000000E+00  0.00000000E+00  0.00000000E+00
  0.00000000E+00  0.00000000E+00  0.00000000E+00
  0.00000000E+00  0.00000000E+00  0.00000000E+00
  0.00000000E+00  0.00000000E+00  0.00000000E+00
  0.00000000E+00  0.00000000E+00  0.00000000E+00
  0.00000000E+00  0.00000000E+00  0.00000000E+00
  0.00000000E+00  0.00000000E+00  0.00000000E+00
  0.00000000E+00  0.00000000E+00  0.00000000E+00
  0.00000000E+00  0.00000000E+00  0.00000000E+00
  0.00000000E+00  0.00000000E+00  0.00000000E+00
  0.00000000E+00  0.00000000E+00  0.00000000E+00
  0.00000000E+00  0.00000000E+00  0.00000000E+00
  0.00000000E+00  0.00000000E+00  0.00000000E+00
