Mg17 In12                               
   1.00000000000000     
    -5.5684386378750466   -5.5684386378750466    5.5689230175195741
    -5.5684386378750457    5.5689230175195741   -5.5684386378750457
     5.5689230175195741   -5.5684386378750457   -5.5684386378750457
   In   Mg
    12    17
Direct
  0.3842489967137652  0.1951799784119359  0.0000265802407213
  0.1951799784119359  0.3842489967137652  0.0000265802407213
  0.8048737342243228  0.8048737342243228  0.1889288641615892
  0.3842489967137652  0.0000265802407213  0.1951799784119359
  0.0000265802407213  0.3842489967137652  0.1951799784119359
  0.1951799784119359  0.0000265802407213  0.3842489967137652
  0.0000265802407213  0.1951799784119359  0.3842489967137652
  0.8107900675885134  0.6156939998986246  0.6156939998986246
  0.6156939998986246  0.8107900675885134  0.6156939998986246
  0.8048737342243228  0.1889288641615892  0.8048737342243228
  0.1889288641615892  0.8048737342243228  0.8048737342243228
  0.6156939998986246  0.6156939998986246  0.8107900675885134
  0.0000644826271099  0.0000644826271099  0.0000644826271099
  0.6633275244460037  0.9999775491792278  0.9999775491792278
  0.6883323904978909  0.4058715559559118  0.9999778311599883
  0.9999775491792278  0.6633275244460037  0.9999775491792278
  0.4058715559559118  0.6883323904978909  0.9999778311599883
  0.5942280463176104  0.5942280463176104  0.2823763712923011
  0.7175369854810256  0.3116879923451776  0.3116879923451776
  0.3116879923451776  0.7175369854810256  0.3116879923451776
  0.3367783945131109  0.3367783945131109  0.3367783945131109
  0.6883323904978909  0.9999778311599883  0.4058715559559118
  0.9999778311599883  0.6883323904978909  0.4058715559559118
  0.5942280463176104  0.2823763712923011  0.5942280463176104
  0.2823763712923011  0.5942280463176104  0.5942280463176104
  0.9999775491792278  0.9999775491792278  0.6633275244460037
  0.4058715559559118  0.9999778311599883  0.6883323904978909
  0.9999778311599883  0.4058715559559118  0.6883323904978909
  0.3116879923451776  0.3116879923451776  0.7175369854810256
 
  0.00000000E+00  0.00000000E+00  0.00000000E+00
  0.00000000E+00  0.00000000E+00  0.00000000E+00
  0.00000000E+00  0.00000000E+00  0.00000000E+00
  0.00000000E+00  0.00000000E+00  0.00000000E+00
  0.00000000E+00  0.00000000E+00  0.00000000E+00
  0.00000000E+00  0.00000000E+00  0.00000000E+00
  0.00000000E+00  0.00000000E+00  0.00000000E+00
  0.00000000E+00  0.00000000E+00  0.00000000E+00
  0.00000000E+00  0.00000000E+00  0.00000000E+00
  0.00000000E+00  0.00000000E+00  0.00000000E+00
  0.00000000E+00  0.00000000E+00  0.00000000E+00
  0.00000000E+00  0.00000000E+00  0.00000000E+00
  0.00000000E+00  0.00000000E+00  0.00000000E+00
  0.00000000E+00  0.00000000E+00  0.00000000E+00
  0.00000000E+00  0.00000000E+00  0.00000000E+00
  0.00000000E+00  0.00000000E+00  0.00000000E+00
  0.00000000E+00  0.00000000E+00  0.00000000E+00
  0.00000000E+00  0.00000000E+00  0.00000000E+00
  0.00000000E+00  0.00000000E+00  0.00000000E+00
  0.00000000E+00  0.00000000E+00  0.00000000E+00
  0.00000000E+00  0.00000000E+00  0.00000000E+00
  0.00000000E+00  0.00000000E+00  0.00000000E+00
  0.00000000E+00  0.00000000E+00  0.00000000E+00
  0.00000000E+00  0.00000000E+00  0.00000000E+00
  0.00000000E+00  0.00000000E+00  0.00000000E+00
  0.00000000E+00  0.00000000E+00  0.00000000E+00
  0.00000000E+00  0.00000000E+00  0.00000000E+00
  0.00000000E+00  0.00000000E+00  0.00000000E+00
  0.00000000E+00  0.00000000E+00  0.00000000E+00
