Ba1 In12                                
   1.0000000000000000     
     0.0000000000000000    6.2309564763739980    6.2309564763739971
     6.2309564763739980    0.0000000000000000    6.2309564763739971
     6.2309564763739980    6.2309564763739980   -0.0000000000000000
   In   Ba
    12     1
Direct
  0.8390763550225699  0.5000000000000000  0.1609236449774301
  0.5000000000000000  0.8390763550225699  0.1609236449774301
  0.5000000000000000  0.5000000000000000  0.1609236449774301
  0.5000000000000000  0.1609236449774301  0.5000000000000000
  0.8390763550225699  0.1609236449774301  0.5000000000000000
  0.1609236449774301  0.5000000000000000  0.5000000000000000
  0.8390763550225699  0.5000000000000000  0.5000000000000000
  0.5000000000000000  0.8390763550225699  0.5000000000000000
  0.1609236449774301  0.8390763550225699  0.5000000000000000
  0.5000000000000000  0.1609236449774301  0.8390763550225699
  0.5000000000000000  0.5000000000000000  0.8390763550225699
  0.1609236449774301  0.5000000000000000  0.8390763550225699
  0.0000000000000000  0.0000000000000000  0.0000000000000000

  0.00000000E+00  0.00000000E+00  0.00000000E+00
  0.00000000E+00  0.00000000E+00  0.00000000E+00
  0.00000000E+00  0.00000000E+00  0.00000000E+00
  0.00000000E+00  0.00000000E+00  0.00000000E+00
  0.00000000E+00  0.00000000E+00  0.00000000E+00
  0.00000000E+00  0.00000000E+00  0.00000000E+00
  0.00000000E+00  0.00000000E+00  0.00000000E+00
  0.00000000E+00  0.00000000E+00  0.00000000E+00
  0.00000000E+00  0.00000000E+00  0.00000000E+00
  0.00000000E+00  0.00000000E+00  0.00000000E+00
  0.00000000E+00  0.00000000E+00  0.00000000E+00
  0.00000000E+00  0.00000000E+00  0.00000000E+00
  0.00000000E+00  0.00000000E+00  0.00000000E+00
