Mg8 In4 F20                             
   1.00000000000000     
     9.7088172386018510   -0.0025431151464809    1.6186820751624416
     0.0010554491133793    3.8962865370627680    0.0009560086286309
     2.1484286379900945   -0.0006074433764145   11.7720709165936590
   Mg   F    In
     8    20     4
Direct
  0.6216774233162567  0.0020115240249581  0.2242588449125904
  0.1214641174591549  0.5017034522796351  0.2245175841954818
  0.7941915884826756  0.5019552022085563  0.3255444269494134
  0.2943595787471622  0.0016339359542030  0.3253252675974778
  0.6216922748918705  0.9979100260917662  0.7242579747868305
  0.1214778105855245  0.4982419359686148  0.7245210369955544
  0.7942054112705321  0.4976777894558353  0.8255431814984746
  0.2943737946529623  0.9980216604601679  0.8253285469626022
  0.7681574967875733  0.0024140735744425  0.0694550452741680
  0.2680346727388283  0.5020250054080933  0.0697428961890409
  0.6404759295401377  0.5020242095256933  0.2451203389305050
  0.1403532989299947  0.0017180817351985  0.2453257763060392
  0.9531596616084599  0.5015471270648106  0.1693769161543415
  0.4532795750481995  0.0013397807736624  0.1691737616378290
  0.7656434862668178  0.0019175642135636  0.3161497142480769
  0.2656962221574801  0.5016166970449731  0.3161854034982454
  0.9537953022228436  0.5011318573425143  0.3844952045240717
  0.4539019110243601  0.0013397934689010  0.3842962710985347
  0.7681670308623794  0.9978867099382782  0.5694536896890625
  0.2680394515795257  0.4983171942487203  0.5697444538352556
  0.6404939959161737  0.4978562354402243  0.7451189945181511
  0.1403702597171588  0.9981861887704042  0.7453293757443902
  0.9531765819160327  0.4982179695863422  0.6693757587447564
  0.4532936096595748  0.9984318870368725  0.6691739351270343
  0.7656605895554804  0.9977570832689793  0.8161479616554530
  0.2657122381234132  0.4980792019752300  0.8161877065399494
  0.9538077586278391  0.4986834363414729  0.8844946242011247
  0.4539192586947394  0.9984707565463538  0.8842943778354453
  0.0029232522561600  0.0014495428963386  0.0156810212554248
  0.5027846659503297  0.5014672907991482  0.0155533768040286
  0.5027838274604903  0.4988316693191450  0.5155500487074960
  0.0029279239498976  0.9988351172368510  0.5156764835832064
 
  0.00000000E+00  0.00000000E+00  0.00000000E+00
  0.00000000E+00  0.00000000E+00  0.00000000E+00
  0.00000000E+00  0.00000000E+00  0.00000000E+00
  0.00000000E+00  0.00000000E+00  0.00000000E+00
  0.00000000E+00  0.00000000E+00  0.00000000E+00
  0.00000000E+00  0.00000000E+00  0.00000000E+00
  0.00000000E+00  0.00000000E+00  0.00000000E+00
  0.00000000E+00  0.00000000E+00  0.00000000E+00
  0.00000000E+00  0.00000000E+00  0.00000000E+00
  0.00000000E+00  0.00000000E+00  0.00000000E+00
  0.00000000E+00  0.00000000E+00  0.00000000E+00
  0.00000000E+00  0.00000000E+00  0.00000000E+00
  0.00000000E+00  0.00000000E+00  0.00000000E+00
  0.00000000E+00  0.00000000E+00  0.00000000E+00
  0.00000000E+00  0.00000000E+00  0.00000000E+00
  0.00000000E+00  0.00000000E+00  0.00000000E+00
  0.00000000E+00  0.00000000E+00  0.00000000E+00
  0.00000000E+00  0.00000000E+00  0.00000000E+00
  0.00000000E+00  0.00000000E+00  0.00000000E+00
  0.00000000E+00  0.00000000E+00  0.00000000E+00
  0.00000000E+00  0.00000000E+00  0.00000000E+00
  0.00000000E+00  0.00000000E+00  0.00000000E+00
  0.00000000E+00  0.00000000E+00  0.00000000E+00
  0.00000000E+00  0.00000000E+00  0.00000000E+00
  0.00000000E+00  0.00000000E+00  0.00000000E+00
  0.00000000E+00  0.00000000E+00  0.00000000E+00
  0.00000000E+00  0.00000000E+00  0.00000000E+00
  0.00000000E+00  0.00000000E+00  0.00000000E+00
  0.00000000E+00  0.00000000E+00  0.00000000E+00
  0.00000000E+00  0.00000000E+00  0.00000000E+00
  0.00000000E+00  0.00000000E+00  0.00000000E+00
  0.00000000E+00  0.00000000E+00  0.00000000E+00
