Mg2 I8                                  
   1.00000000000000     
     7.2433916257118547   -0.8096080995114858    0.0085868597793792
    -4.4611420931107526    7.8900018809975458   -0.2753916353845831
    -0.7173569677582223   -3.1587971372982731    8.1631507536286065
   Mg   I 
     2     8
Direct
  0.2119322371449712  0.1649270987158928  0.3934347213051197
  0.7880636747846239  0.8349925121531570  0.6065859493715422
  0.1698120480333927  0.8351905044119050  0.1204532300442054
  0.2426576611560591  0.3170330905618997  0.1141334706984338
  0.6791044869740475  0.4522345489433874  0.3613484046815856
  0.7251695633175999  0.9558677520537273  0.3608724375712598
  0.2748255588771045  0.0440619968607550  0.6391613679762571
  0.3208950727075148  0.5476619643453375  0.6386559875177440
  0.7573528805978853  0.6828836933525011  0.8858749046967702
  0.8301868164068011  0.1647468386014381  0.8795795261370998
 
  0.00000000E+00  0.00000000E+00  0.00000000E+00
  0.00000000E+00  0.00000000E+00  0.00000000E+00
  0.00000000E+00  0.00000000E+00  0.00000000E+00
  0.00000000E+00  0.00000000E+00  0.00000000E+00
  0.00000000E+00  0.00000000E+00  0.00000000E+00
  0.00000000E+00  0.00000000E+00  0.00000000E+00
  0.00000000E+00  0.00000000E+00  0.00000000E+00
  0.00000000E+00  0.00000000E+00  0.00000000E+00
  0.00000000E+00  0.00000000E+00  0.00000000E+00
  0.00000000E+00  0.00000000E+00  0.00000000E+00
