Sr1 In2 Br10                            
   1.00000000000000     
     6.3074583517035716    5.5083574320414126    1.1638708002633598
    -6.3074583517035672    5.5083574320414073    1.1638708002633491
     0.0000000000000144    5.3804899491433300    9.1154851215185122
   Sr   In   Br
     1     2    10
Direct
  0.6207162901984731  0.3792837098015269  0.0000000000000000
  0.9411427220491078  0.1078986883851343  0.7174718271277598
  0.8921013116148657  0.0588572779508922  0.2825281728722473
  0.2671241399159783  0.3994627355472531  0.4977970146542248
  0.6005372644527540  0.7328758600840217  0.5022029853457752
  0.9033878938276629  0.7635611306315297  0.9171884136694857
  0.2364388693684703  0.0966121061723371  0.0828115863305072
  0.8603313213913921  0.1396686786086079  0.0000000000000000
  0.0019598263727048  0.9980401736272952  0.5000000000000000
  0.6934562364589070  0.2588691873427607  0.7214892478541515
  0.7411308126572393  0.3065437635411001  0.2785107521458485
  0.4490947886914682  0.6634224769990311  0.8508389143890795
  0.3365775230009689  0.5509052113085318  0.1491610856109133
 
  0.00000000E+00  0.00000000E+00  0.00000000E+00
  0.00000000E+00  0.00000000E+00  0.00000000E+00
  0.00000000E+00  0.00000000E+00  0.00000000E+00
  0.00000000E+00  0.00000000E+00  0.00000000E+00
  0.00000000E+00  0.00000000E+00  0.00000000E+00
  0.00000000E+00  0.00000000E+00  0.00000000E+00
  0.00000000E+00  0.00000000E+00  0.00000000E+00
  0.00000000E+00  0.00000000E+00  0.00000000E+00
  0.00000000E+00  0.00000000E+00  0.00000000E+00
  0.00000000E+00  0.00000000E+00  0.00000000E+00
  0.00000000E+00  0.00000000E+00  0.00000000E+00
  0.00000000E+00  0.00000000E+00  0.00000000E+00
  0.00000000E+00  0.00000000E+00  0.00000000E+00
