Mg6 Tl4 Cl24                            
   1.00000000000000     
     0.0000000000000000    0.0000000000000000    6.9731280035071315
    13.0583882403488900    1.0753854145598787    0.0000000000000000
     1.0608163937080954   13.1388454338799932    0.0000000000000000
   Mg   Cl   Tl
     6    24     4
Direct
  0.0000000000000000  0.9958343854505003  0.1550561195318778
  0.5000000000000000  0.2057119192281718  0.0266827167832417
  0.5000000000000000  0.1206958530967555  0.3170481389342044
  0.0000000000000000  0.4841077375792011  0.3334494983512784
  0.5000000000000000  0.8259829261915073  0.6636210927920487
  0.5000000000000000  0.4098774421183577  0.8677919818951523
  0.2704830333278068  0.3592576775985847  0.0019565506590027
  0.7295169666721932  0.3592576775985847  0.0019565506590027
  0.2388089485913554  0.8812539441878755  0.0879024959889136
  0.7611910514086446  0.8812539441878755  0.0879024959889136
  0.0000000000000000  0.3279402463379313  0.2592361563306085
  0.2684461478274898  0.1235568690312761  0.1735849035185808
  0.7315538521725102  0.1235568690312761  0.1735849035185808
  0.2428228305258031  0.6101164475448044  0.2500624866533414
  0.7571771694742040  0.6101164475448044  0.2500624866533414
  0.0000000000000000  0.8838870145778444  0.3218333945104206
  0.2452587291613000  0.4068940847710749  0.4591790251235111
  0.7547412708387000  0.4068940847710749  0.4591790251235111
  0.2563406423969923  0.1045347656987090  0.4439232011134493
  0.7436593576030077  0.1045347656987090  0.4439232011134493
  0.2581791260885566  0.7198077008010912  0.6025221088660260
  0.7418208739114363  0.7198077008010912  0.6025221088660260
  0.0000000000000000  0.1797853345133262  0.6570824152013017
  0.2509687863322085  0.4145025481542390  0.7408222820207513
  0.7490312136677915  0.4145025481542390  0.7408222820207513
  0.2585035533839033  0.9153986570566275  0.7438492229413924
  0.7414964466160896  0.9153986570566275  0.7438492229413924
  0.0000000000000000  0.6515159066498200  0.8844882903450326
  0.2589900270799035  0.1415098736817058  0.9012659291312559
  0.7410099729200965  0.1415098736817058  0.9012659291312559
  0.0000000000000000  0.7521718780791744  0.1910380486409125
  0.0000000000000000  0.2556760834220455  0.4619318564270429
  0.0000000000000000  0.7766907220157364  0.7266117419311229
  0.0000000000000000  0.2766574136877011  0.8241921362933056
 
  0.00000000E+00  0.00000000E+00  0.00000000E+00
  0.00000000E+00  0.00000000E+00  0.00000000E+00
  0.00000000E+00  0.00000000E+00  0.00000000E+00
  0.00000000E+00  0.00000000E+00  0.00000000E+00
  0.00000000E+00  0.00000000E+00  0.00000000E+00
  0.00000000E+00  0.00000000E+00  0.00000000E+00
  0.00000000E+00  0.00000000E+00  0.00000000E+00
  0.00000000E+00  0.00000000E+00  0.00000000E+00
  0.00000000E+00  0.00000000E+00  0.00000000E+00
  0.00000000E+00  0.00000000E+00  0.00000000E+00
  0.00000000E+00  0.00000000E+00  0.00000000E+00
  0.00000000E+00  0.00000000E+00  0.00000000E+00
  0.00000000E+00  0.00000000E+00  0.00000000E+00
  0.00000000E+00  0.00000000E+00  0.00000000E+00
  0.00000000E+00  0.00000000E+00  0.00000000E+00
  0.00000000E+00  0.00000000E+00  0.00000000E+00
  0.00000000E+00  0.00000000E+00  0.00000000E+00
  0.00000000E+00  0.00000000E+00  0.00000000E+00
  0.00000000E+00  0.00000000E+00  0.00000000E+00
  0.00000000E+00  0.00000000E+00  0.00000000E+00
  0.00000000E+00  0.00000000E+00  0.00000000E+00
  0.00000000E+00  0.00000000E+00  0.00000000E+00
  0.00000000E+00  0.00000000E+00  0.00000000E+00
  0.00000000E+00  0.00000000E+00  0.00000000E+00
  0.00000000E+00  0.00000000E+00  0.00000000E+00
  0.00000000E+00  0.00000000E+00  0.00000000E+00
  0.00000000E+00  0.00000000E+00  0.00000000E+00
  0.00000000E+00  0.00000000E+00  0.00000000E+00
  0.00000000E+00  0.00000000E+00  0.00000000E+00
  0.00000000E+00  0.00000000E+00  0.00000000E+00
  0.00000000E+00  0.00000000E+00  0.00000000E+00
  0.00000000E+00  0.00000000E+00  0.00000000E+00
  0.00000000E+00  0.00000000E+00  0.00000000E+00
  0.00000000E+00  0.00000000E+00  0.00000000E+00
