Be4 Al10                                
   1.00000000000000     
     3.2123781123946222    3.2123781123946227   -5.2978145964275631
     3.2123781123946222   -3.2123781123946227    5.2978145964275631
    -3.2123781123946222   -3.2123781123946222   -5.2978145964275623
   Al   Be
    10     4
Direct
  0.8636173164953931  0.2980624485504464  0.1616797650458466
  0.4344451320550462  0.2980624485504464  0.1363826835046069
  0.8383202349541534  0.7019375514495536  0.1363826835046069
  0.3245637334213853  0.0000000000000000  0.3245637334213853
  0.1363826835046069  0.2980624485504464  0.4344451320550462
  0.8636173164953931  0.7019375514495536  0.5655548679449538
  0.6754362665786147  0.0000000000000000  0.6754362665786147
  0.1616797650458466  0.2980624485504464  0.8636173164953931
  0.5655548679449538  0.7019375514495536  0.8636173164953931
  0.1363826835046069  0.7019375514495536  0.8383202349541534
  0.6823546173183530  0.0000000000000000  0.3176453826816470
  0.3176453826816470  0.6352907653633224  0.3176453826816470
  0.3176453826816470  0.0000000000000000  0.6823546173183530
  0.6823546173183530  0.3647092346366776  0.6823546173183530
 
  0.00000000E+00  0.00000000E+00  0.00000000E+00
  0.00000000E+00  0.00000000E+00  0.00000000E+00
  0.00000000E+00  0.00000000E+00  0.00000000E+00
  0.00000000E+00  0.00000000E+00  0.00000000E+00
  0.00000000E+00  0.00000000E+00  0.00000000E+00
  0.00000000E+00  0.00000000E+00  0.00000000E+00
  0.00000000E+00  0.00000000E+00  0.00000000E+00
  0.00000000E+00  0.00000000E+00  0.00000000E+00
  0.00000000E+00  0.00000000E+00  0.00000000E+00
  0.00000000E+00  0.00000000E+00  0.00000000E+00
  0.00000000E+00  0.00000000E+00  0.00000000E+00
  0.00000000E+00  0.00000000E+00  0.00000000E+00
  0.00000000E+00  0.00000000E+00  0.00000000E+00
  0.00000000E+00  0.00000000E+00  0.00000000E+00
