Be1 Tl2 F8                              
   1.0000000000000000     
     3.4047501399603104    7.0756272234834778    1.3416791937540384
    -3.4047501399603104    7.0756272234834778    1.3416791937540384
     0.0000000000000000    3.1095872883648608    3.2529767839816484
   Be   Tl   F 
     1     2     8
Direct
  0.0000000000000000  0.0000000000000000  0.0000000000000000
  0.3197298816495149  0.3197298816495149  0.7276577435360210
  0.6802701183504851  0.6802701183504851  0.2723422564639719
  0.6795891636444722  0.0495135304458074  0.5251185381327232
  0.8905457702777895  0.8905457702777895  0.9960211631140439
  0.0495135304458074  0.6795891636444722  0.5251185381327232
  0.4145979502368249  0.4145979502368249  0.9658404376771088
  0.9504864695541926  0.3204108363555278  0.4748814618672768
  0.3204108363555278  0.9504864695541926  0.4748814618672768
  0.1094542297222105  0.1094542297222105  0.0039788368859561
  0.5854020497631751  0.5854020497631751  0.0341595623228912

  0.00000000E+00  0.00000000E+00  0.00000000E+00
  0.00000000E+00  0.00000000E+00  0.00000000E+00
  0.00000000E+00  0.00000000E+00  0.00000000E+00
  0.00000000E+00  0.00000000E+00  0.00000000E+00
  0.00000000E+00  0.00000000E+00  0.00000000E+00
  0.00000000E+00  0.00000000E+00  0.00000000E+00
  0.00000000E+00  0.00000000E+00  0.00000000E+00
  0.00000000E+00  0.00000000E+00  0.00000000E+00
  0.00000000E+00  0.00000000E+00  0.00000000E+00
  0.00000000E+00  0.00000000E+00  0.00000000E+00
  0.00000000E+00  0.00000000E+00  0.00000000E+00
