Ba4 Ga4 Cl20                            
   1.0000000000000000     
     6.5091453833603339   -0.0000000000000001    0.0000000000000005
    -0.0000000000000005    6.8962287900145052    0.0000000000000004
     0.0000000000000003    0.0000000000000002   17.4745575645216213
   Ba   Ga   Cl
     4     4    20
Direct
  0.7916754710623692  0.4277584404534451  0.3569194459618004
  0.2916754710623621  0.0722415595465549  0.6430805540381996
  0.2083245289376308  0.9277584404534451  0.1430805540381996
  0.7083245289376237  0.5722415595465549  0.8569194459618004
  0.2412516649050076  0.8971918346536469  0.3921760143243205
  0.7412516649050076  0.6028081653463531  0.6078239856756724
  0.7587483350949924  0.3971918346536469  0.1078239856756724
  0.2587483350949924  0.1028081653463531  0.8921760143243205
  0.9739941886720302  0.6091803646783447  0.5075433569557717
  0.4739941886720231  0.8908196353216553  0.4924566430442283
  0.0260058113279698  0.1091803646783447  0.9924566430442212
  0.5260058113279698  0.3908196353216553  0.0075433569557717
  0.9556458221760522  0.8567884431217934  0.3035121831505165
  0.4556458221760522  0.6432115568782066  0.6964878168494835
  0.0443541778239478  0.3567884431217934  0.1964878168494835
  0.5443541778239478  0.1432115568782066  0.8035121831505165
  0.9546049764346378  0.6188022692646129  0.0420952197849473
  0.4546049764346378  0.8811977307353871  0.9579047802150527
  0.0453950235653622  0.1188022692646129  0.4579047802150527
  0.5453950235653622  0.3811977307353871  0.5420952197849473
  0.5699760618390641  0.5725337267488868  0.1925206707921845
  0.0699760618390570  0.9274662732511132  0.8074793292078155
  0.4300239381609430  0.0725337267488868  0.3074793292078155
  0.9300239381609359  0.4274662732511132  0.6925206707921845
  0.1862093578405322  0.4247217387762703  0.8643855301352090
  0.6862093578405322  0.0752782612237297  0.1356144698647910
  0.8137906421594678  0.9247217387762703  0.6356144698647910
  0.3137906421594678  0.5752782612237297  0.3643855301352090

  0.00000000E+00  0.00000000E+00  0.00000000E+00
  0.00000000E+00  0.00000000E+00  0.00000000E+00
  0.00000000E+00  0.00000000E+00  0.00000000E+00
  0.00000000E+00  0.00000000E+00  0.00000000E+00
  0.00000000E+00  0.00000000E+00  0.00000000E+00
  0.00000000E+00  0.00000000E+00  0.00000000E+00
  0.00000000E+00  0.00000000E+00  0.00000000E+00
  0.00000000E+00  0.00000000E+00  0.00000000E+00
  0.00000000E+00  0.00000000E+00  0.00000000E+00
  0.00000000E+00  0.00000000E+00  0.00000000E+00
  0.00000000E+00  0.00000000E+00  0.00000000E+00
  0.00000000E+00  0.00000000E+00  0.00000000E+00
  0.00000000E+00  0.00000000E+00  0.00000000E+00
  0.00000000E+00  0.00000000E+00  0.00000000E+00
  0.00000000E+00  0.00000000E+00  0.00000000E+00
  0.00000000E+00  0.00000000E+00  0.00000000E+00
  0.00000000E+00  0.00000000E+00  0.00000000E+00
  0.00000000E+00  0.00000000E+00  0.00000000E+00
  0.00000000E+00  0.00000000E+00  0.00000000E+00
  0.00000000E+00  0.00000000E+00  0.00000000E+00
  0.00000000E+00  0.00000000E+00  0.00000000E+00
  0.00000000E+00  0.00000000E+00  0.00000000E+00
  0.00000000E+00  0.00000000E+00  0.00000000E+00
  0.00000000E+00  0.00000000E+00  0.00000000E+00
  0.00000000E+00  0.00000000E+00  0.00000000E+00
  0.00000000E+00  0.00000000E+00  0.00000000E+00
  0.00000000E+00  0.00000000E+00  0.00000000E+00
  0.00000000E+00  0.00000000E+00  0.00000000E+00
