Mg1 In13                                
   1.00000000000000     
     6.8028234146786586   -4.6468358971586410    0.1574513798321414
     6.8028234146786586    4.6468358971586410    0.1574513798321414
    -1.1832248257051710    0.0000000000000000    6.0235152688294535
   Mg   In
     1    13
Direct
  0.0000953859715267  0.0000953859715267  0.9996955157945067
  0.7770926450974258  0.7770926450974258  0.1240730563039705
  0.6091362041138950  0.2134938768252184  0.1776237914422296
  0.2134938768252184  0.6091362041138950  0.1776237914422296
  0.9995082192352385  0.3514634114842394  0.3211698853255882
  0.3514634114842394  0.9995082192352385  0.3211698853255882
  0.5990322442387992  0.5990322442387992  0.3725277621620293
  0.9999137128551041  0.9999137128551041  0.4996646814255143
  0.4007405313535770  0.4007405313535770  0.6271431920547741
  0.6486023525285134  0.0004393491140036  0.6790943135881946
  0.0004393491140036  0.6486023525285134  0.6790943135881946
  0.7863423585563609  0.3910745255691381  0.8223446422493410
  0.3910745255691381  0.7863423585563609  0.8223446422493410
  0.2229541830569630  0.2229541830569630  0.8764305270484982
 
  0.00000000E+00  0.00000000E+00  0.00000000E+00
  0.00000000E+00  0.00000000E+00  0.00000000E+00
  0.00000000E+00  0.00000000E+00  0.00000000E+00
  0.00000000E+00  0.00000000E+00  0.00000000E+00
  0.00000000E+00  0.00000000E+00  0.00000000E+00
  0.00000000E+00  0.00000000E+00  0.00000000E+00
  0.00000000E+00  0.00000000E+00  0.00000000E+00
  0.00000000E+00  0.00000000E+00  0.00000000E+00
  0.00000000E+00  0.00000000E+00  0.00000000E+00
  0.00000000E+00  0.00000000E+00  0.00000000E+00
  0.00000000E+00  0.00000000E+00  0.00000000E+00
  0.00000000E+00  0.00000000E+00  0.00000000E+00
  0.00000000E+00  0.00000000E+00  0.00000000E+00
  0.00000000E+00  0.00000000E+00  0.00000000E+00
