Mg1 B2 F8                               
   1.00000000000000     
     6.4458693015813227   -2.5826334666857158   -1.4968263260268648
     6.4458693015813227    2.5826334666857158   -1.4968263260268648
    -2.9028722280978068    0.0000000000000000    3.9813900324326692
   B    F    Mg
     2     8     1
Direct
  0.3212026132737691  0.3212026132737691  0.3247897869952681
  0.6787986051114032  0.6787986051114032  0.6751382121172966
  0.3530824262230396  0.3530824262230396  0.1204936719510243
  0.1576217862451941  0.1576217862451941  0.0330175075376360
  0.6038267060853855  0.1595839374348387  0.5802125111658185
  0.1595839374348387  0.6038267060853855  0.5802125111658185
  0.8404154893982252  0.3961751901338104  0.4197160312085941
  0.3961751901338104  0.8404154893982252  0.4197160312085941
  0.8423764036911336  0.8423764036911336  0.9669088317160828
  0.6469169995648372  0.6469169995648372  0.8794312162419402
  0.9999998428383421  0.9999998428383421  0.9999636886919276
 
  0.00000000E+00  0.00000000E+00  0.00000000E+00
  0.00000000E+00  0.00000000E+00  0.00000000E+00
  0.00000000E+00  0.00000000E+00  0.00000000E+00
  0.00000000E+00  0.00000000E+00  0.00000000E+00
  0.00000000E+00  0.00000000E+00  0.00000000E+00
  0.00000000E+00  0.00000000E+00  0.00000000E+00
  0.00000000E+00  0.00000000E+00  0.00000000E+00
  0.00000000E+00  0.00000000E+00  0.00000000E+00
  0.00000000E+00  0.00000000E+00  0.00000000E+00
  0.00000000E+00  0.00000000E+00  0.00000000E+00
  0.00000000E+00  0.00000000E+00  0.00000000E+00
