Sr1 Tl13                                
   1.0000000000000000     
     7.2194652208895533   -4.7836180897647234    0.1356808621157222
     7.2194652208895533    4.7836180897647234    0.1356808621157222
    -1.2859253004182611    0.0000000000000000    6.5038070613975671
   Sr   Tl
     1    13
Direct
  0.9999954848456696  0.9999954848456696  0.0001241082856893
  0.7826827047548903  0.7826827047548903  0.1680372819467237
  0.5881555802335754  0.2186652153268867  0.1759371164658603
  0.2186652153268867  0.5881555802335754  0.1759371164658603
  0.9946716743113271  0.3589313127019764  0.3176144512314210
  0.3589313127019764  0.9946716743113271  0.3176144512314210
  0.5944129486370642  0.5944129486370642  0.3686872222597586
  0.9999983345750536  0.9999983345750536  0.4998273899332091
  0.4055730202132253  0.4055730202132253  0.6313165745497358
  0.6410280055540056  0.0053104567536906  0.6823893439743998
  0.0053104567536906  0.6410280055540056  0.6823893439743998
  0.7812942843861279  0.4118503856106841  0.8240719769753255
  0.4118503856106841  0.7812942843861279  0.8240719769753255
  0.2173195920958619  0.2173195920958619  0.8319816457308562

  0.00000000E+00  0.00000000E+00  0.00000000E+00
  0.00000000E+00  0.00000000E+00  0.00000000E+00
  0.00000000E+00  0.00000000E+00  0.00000000E+00
  0.00000000E+00  0.00000000E+00  0.00000000E+00
  0.00000000E+00  0.00000000E+00  0.00000000E+00
  0.00000000E+00  0.00000000E+00  0.00000000E+00
  0.00000000E+00  0.00000000E+00  0.00000000E+00
  0.00000000E+00  0.00000000E+00  0.00000000E+00
  0.00000000E+00  0.00000000E+00  0.00000000E+00
  0.00000000E+00  0.00000000E+00  0.00000000E+00
  0.00000000E+00  0.00000000E+00  0.00000000E+00
  0.00000000E+00  0.00000000E+00  0.00000000E+00
  0.00000000E+00  0.00000000E+00  0.00000000E+00
  0.00000000E+00  0.00000000E+00  0.00000000E+00
