Ca2Cl                                   
   1.00000000000000     
     6.9143468638760801    0.0000000000000000    0.0000000000000000
     0.0000000000000000    6.9143468638760801    0.0000000000000000
     0.0000000000000000    0.0000000000000000    4.0926024286538363
   Ca   Cl
     4     2
Direct
  0.2844438146502171  0.2844438146502171  0.0000000000000000
  0.7155561853497829  0.7155561853497829  0.0000000000000000
  0.7844438146502171  0.2155561853497829  0.5000000000000000
  0.2155561853497829  0.7844438146502171  0.5000000000000000
  0.0000000000000000  0.0000000000000000  0.0000000000000000
  0.5000000000000000  0.5000000000000000  0.5000000000000000
 
  0.00000000E+00  0.00000000E+00  0.00000000E+00
  0.00000000E+00  0.00000000E+00  0.00000000E+00
  0.00000000E+00  0.00000000E+00  0.00000000E+00
  0.00000000E+00  0.00000000E+00  0.00000000E+00
  0.00000000E+00  0.00000000E+00  0.00000000E+00
  0.00000000E+00  0.00000000E+00  0.00000000E+00
