Be4 Ga10 F2                             
   1.00000000000000     
     6.4559502546656811   -0.7757539318762272   -0.7030451754913226
    -3.8705050994348498    7.6598710013771791    1.4676085737379763
    -3.7060714996286781   -0.7550175229401956    5.6845697330986731
   F    Be   Ga
     2     4    10
Direct
  0.1633189208868160  0.3423871585607969  0.3469109551862388
  0.7374180223471782  0.6122607089028307  0.5977133106134289
  0.7292938874533377  0.5691495431589928  0.1538475471372465
  0.4582316765388228  0.0803736324780360  0.3490273956958703
  0.4936969056823699  0.8883952685152465  0.6384109077026636
  0.2580407611042190  0.3891133173851884  0.8761435872857106
  0.0164029362032636  0.0364671766836580  0.9686004727390483
  0.4504665832402992  0.7398635086893535  0.0122827572283768
  0.2330653779850778  0.7669410238276342  0.2073109686528483
  0.4501548027054412  0.3605665289789783  0.3144416749187897
  0.9359273638436960  0.1200851110695282  0.5108013913472149
  0.0764333007165874  0.5474645013307935  0.5430401046570310
  0.0392326485699996  0.8983855507219758  0.4224102308039761
  0.6562675066652446  0.6709782774113435  0.7825271753088288
  0.7291239297613430  0.2247749635033287  0.7631041332859994
  0.5729253762962685  0.2525937287823297  0.0132273874367854
 
  0.00000000E+00  0.00000000E+00  0.00000000E+00
  0.00000000E+00  0.00000000E+00  0.00000000E+00
  0.00000000E+00  0.00000000E+00  0.00000000E+00
  0.00000000E+00  0.00000000E+00  0.00000000E+00
  0.00000000E+00  0.00000000E+00  0.00000000E+00
  0.00000000E+00  0.00000000E+00  0.00000000E+00
  0.00000000E+00  0.00000000E+00  0.00000000E+00
  0.00000000E+00  0.00000000E+00  0.00000000E+00
  0.00000000E+00  0.00000000E+00  0.00000000E+00
  0.00000000E+00  0.00000000E+00  0.00000000E+00
  0.00000000E+00  0.00000000E+00  0.00000000E+00
  0.00000000E+00  0.00000000E+00  0.00000000E+00
  0.00000000E+00  0.00000000E+00  0.00000000E+00
  0.00000000E+00  0.00000000E+00  0.00000000E+00
  0.00000000E+00  0.00000000E+00  0.00000000E+00
  0.00000000E+00  0.00000000E+00  0.00000000E+00
