Be8 Al6                                 
   1.00000000000000     
     4.8595655815618359    6.7627936872365240    0.0000000000000000
    -1.3933575940485892    7.5803819834930204    0.0000000000000000
     0.0000000000000000    0.0000000000000000    3.6403412633136214
   Al   Be
     6     8
Direct
  0.0867053694112627  0.2512806544909196  0.0000000000000000
  0.2588438352019722  0.5505428016447311  0.0000000000000000
  0.8153526163013396  0.7728240467069085  0.0000000000000000
  0.4371751642040493  0.1297707292885235  0.5000000000000000
  0.7084423680367635  0.6082558986004543  0.5000000000000000
  0.2649744819287534  0.8305289349771172  0.5000000000000000
  0.6397628947861378  0.1772145125957536  0.0000000000000000
  0.6774310257575280  0.4261797712909541  0.0000000000000000
  0.4674292477694451  0.8614266312171353  0.0000000000000000
  0.9842245019993996  0.9903457868142951  0.0000000000000000
  0.8841114326201875  0.2038485035764523  0.5000000000000000
  0.5396719396648564  0.3907275735287143  0.5000000000000000
  0.0564419233897695  0.5195740531327857  0.5000000000000000
  0.8464931989285347  0.9547801021352456  0.5000000000000000
 
  0.00000000E+00  0.00000000E+00  0.00000000E+00
  0.00000000E+00  0.00000000E+00  0.00000000E+00
  0.00000000E+00  0.00000000E+00  0.00000000E+00
  0.00000000E+00  0.00000000E+00  0.00000000E+00
  0.00000000E+00  0.00000000E+00  0.00000000E+00
  0.00000000E+00  0.00000000E+00  0.00000000E+00
  0.00000000E+00  0.00000000E+00  0.00000000E+00
  0.00000000E+00  0.00000000E+00  0.00000000E+00
  0.00000000E+00  0.00000000E+00  0.00000000E+00
  0.00000000E+00  0.00000000E+00  0.00000000E+00
  0.00000000E+00  0.00000000E+00  0.00000000E+00
  0.00000000E+00  0.00000000E+00  0.00000000E+00
  0.00000000E+00  0.00000000E+00  0.00000000E+00
  0.00000000E+00  0.00000000E+00  0.00000000E+00
