Be4Tl                                   
   1.0000000000000000     
     3.2660448836938554    0.0000000000000000    0.0000000000000000
     0.0000000000000000    3.2660448836938554   -0.0000000000000000
     0.0000000000000000   -0.0000000000000000   11.7205880740262547
   Be   Tl
     8     2
Direct
  0.0000000000000000  0.0000000000000000  0.0000000000000000
  0.5000000000000000  0.5000000000000000  0.0000000000000000
  0.0000000000000000  0.0000000000000000  0.3764823701140756
  0.5000000000000000  0.5000000000000000  0.3764823701140756
  0.5000000000000000  0.0000000000000000  0.4964605638746207
  0.0000000000000000  0.5000000000000000  0.5035394361253793
  0.0000000000000000  0.0000000000000000  0.6235176298859244
  0.5000000000000000  0.5000000000000000  0.6235176298859244
  0.0000000000000000  0.5000000000000000  0.1857239374728437
  0.5000000000000000  0.0000000000000000  0.8142760625271563

  0.00000000E+00  0.00000000E+00  0.00000000E+00
  0.00000000E+00  0.00000000E+00  0.00000000E+00
  0.00000000E+00  0.00000000E+00  0.00000000E+00
  0.00000000E+00  0.00000000E+00  0.00000000E+00
  0.00000000E+00  0.00000000E+00  0.00000000E+00
  0.00000000E+00  0.00000000E+00  0.00000000E+00
  0.00000000E+00  0.00000000E+00  0.00000000E+00
  0.00000000E+00  0.00000000E+00  0.00000000E+00
  0.00000000E+00  0.00000000E+00  0.00000000E+00
  0.00000000E+00  0.00000000E+00  0.00000000E+00
