Sr4 Tl4 I20                             
   1.0000000000000000     
     5.5182558501557430   -0.0000000000000001    0.0000000000000004
    -0.0000000000000003    9.2556573147531189    0.0000000000000011
    -0.0000000000000012   -0.0000000000000003   30.7729096689666939
   Sr   Tl   I 
     4     4    20
Direct
  0.0179382886645669  0.1586618923908460  0.3864189193187357
  0.5179382886645669  0.3413381076091540  0.6135810806812643
  0.9820617113354260  0.6586618923908460  0.1135810806812572
  0.4820617113354260  0.8413381076091540  0.8864189193187357
  0.5117423270665356  0.5926358157798077  0.4395527431701822
  0.0117423270665356  0.9073641842201923  0.5604472568298178
  0.4882576729334644  0.0926358157797935  0.0604472568298178
  0.9882576729334644  0.4073641842201994  0.9395527431701822
  0.0108632195690035  0.3890654069798813  0.4621361584534398
  0.5108632195689964  0.1109345930201258  0.5378638415465602
  0.9891367804310036  0.8890654069798813  0.0378638415465602
  0.4891367804310036  0.6109345930201187  0.9621361584534398
  0.4811233748739951  0.8027306337436642  0.1505506074410548
  0.9811233748739951  0.6972693662563358  0.8494493925589452
  0.5188766251260049  0.3027306337436642  0.3494493925589452
  0.0188766251260049  0.1972693662563358  0.6505506074410548
  0.5165898220410838  0.1267377164844206  0.9462416186883900
  0.0165898220410909  0.3732622835155865  0.0537583813116100
  0.4834101779589091  0.6267377164844206  0.5537583813116100
  0.9834101779589162  0.8732622835155794  0.4462416186883900
  0.1569667788033371  0.8301002561196924  0.3421084828745933
  0.6569667788033300  0.6698997438803076  0.6578915171254138
  0.8430332211966700  0.3301002561196924  0.1578915171254067
  0.3430332211966629  0.1698997438803076  0.8421084828745862
  0.8067636967154641  0.6785897362896023  0.7450522345518635
  0.3067636967154641  0.8214102637103977  0.2549477654481436
  0.1932363032845359  0.1785897362896023  0.7549477654481365
  0.6932363032845359  0.3214102637103977  0.2450522345518635

  0.00000000E+00  0.00000000E+00  0.00000000E+00
  0.00000000E+00  0.00000000E+00  0.00000000E+00
  0.00000000E+00  0.00000000E+00  0.00000000E+00
  0.00000000E+00  0.00000000E+00  0.00000000E+00
  0.00000000E+00  0.00000000E+00  0.00000000E+00
  0.00000000E+00  0.00000000E+00  0.00000000E+00
  0.00000000E+00  0.00000000E+00  0.00000000E+00
  0.00000000E+00  0.00000000E+00  0.00000000E+00
  0.00000000E+00  0.00000000E+00  0.00000000E+00
  0.00000000E+00  0.00000000E+00  0.00000000E+00
  0.00000000E+00  0.00000000E+00  0.00000000E+00
  0.00000000E+00  0.00000000E+00  0.00000000E+00
  0.00000000E+00  0.00000000E+00  0.00000000E+00
  0.00000000E+00  0.00000000E+00  0.00000000E+00
  0.00000000E+00  0.00000000E+00  0.00000000E+00
  0.00000000E+00  0.00000000E+00  0.00000000E+00
  0.00000000E+00  0.00000000E+00  0.00000000E+00
  0.00000000E+00  0.00000000E+00  0.00000000E+00
  0.00000000E+00  0.00000000E+00  0.00000000E+00
  0.00000000E+00  0.00000000E+00  0.00000000E+00
  0.00000000E+00  0.00000000E+00  0.00000000E+00
  0.00000000E+00  0.00000000E+00  0.00000000E+00
  0.00000000E+00  0.00000000E+00  0.00000000E+00
  0.00000000E+00  0.00000000E+00  0.00000000E+00
  0.00000000E+00  0.00000000E+00  0.00000000E+00
  0.00000000E+00  0.00000000E+00  0.00000000E+00
  0.00000000E+00  0.00000000E+00  0.00000000E+00
  0.00000000E+00  0.00000000E+00  0.00000000E+00
