Ba16 Al12 I1                            
   1.00000000000000     
     9.8940734975116840   -5.7124133878676551    3.8034122588692649
    -0.3825740689051250   10.5578737924097439    3.5522320950019122
    -9.3345989350523002   -4.9471922079748394    3.5522490085938552
   Al   I    Ba
    12     1    16
Direct
  0.8466180909180991  0.6086082206470991  0.9879426534886804
  0.6385080046552716  0.8450861485865460  0.9931243807447458
  0.3645167799240312  0.4114261534924140  0.2621699746088098
  0.1390115268955014  0.7471007892261383  0.1446857190729389
  0.7997808766215684  0.1539595586107936  0.1539595581121702
  0.3645167920717398  0.2621699847495691  0.4114261800783154
  0.1934281629475194  0.3749886536417861  0.3749886594303220
  0.8466180831897390  0.9879426612595381  0.6086082189088913
  0.9834368659132764  0.8356822563346213  0.5987779063388246
  0.6385080037751862  0.9931243767447171  0.8450861439873378
  0.9834368713601762  0.5987779121146986  0.8356822493223248
  0.1390115153644800  0.1446857030992703  0.7471007826729448
  0.4180428311038753  0.1041923869283607  0.1041923751350780
  0.9843344017320703  0.2774791402771868  0.9912706392311676
  0.5833243542032349  0.2728377042825727  0.9721696444324550
  0.2661356784884816  0.5328033097683615  0.9985061162168165
  0.0854544091141420  0.9873225966919819  0.9873235974214580
  0.6824432790672006  0.6816475102321178  0.2473525290194161
  0.5833243559074432  0.9721706439805473  0.2728377188729922
  0.9914306188729824  0.5505111910262741  0.3004759626920475
  0.9843344274246562  0.9912706708116943  0.2774791844155118
  0.7188277016179896  0.4356980215395510  0.4356980167593889
  0.4228820619492311  0.7485866650589017  0.4569996533589489
  0.9914306241879771  0.3004759744957681  0.5505112084769195
  0.2661356919350197  0.9985061392250998  0.5328033438032804
  0.6949796342017081  0.6953611924114611  0.6953611833640565
  0.6824432698414498  0.2473525105614840  0.6816474974638211
  0.2774030181210208  0.7832332601853835  0.7832332413541039
  0.4228820685949302  0.4569996640160738  0.7485866612162226
 
  0.00000000E+00  0.00000000E+00  0.00000000E+00
  0.00000000E+00  0.00000000E+00  0.00000000E+00
  0.00000000E+00  0.00000000E+00  0.00000000E+00
  0.00000000E+00  0.00000000E+00  0.00000000E+00
  0.00000000E+00  0.00000000E+00  0.00000000E+00
  0.00000000E+00  0.00000000E+00  0.00000000E+00
  0.00000000E+00  0.00000000E+00  0.00000000E+00
  0.00000000E+00  0.00000000E+00  0.00000000E+00
  0.00000000E+00  0.00000000E+00  0.00000000E+00
  0.00000000E+00  0.00000000E+00  0.00000000E+00
  0.00000000E+00  0.00000000E+00  0.00000000E+00
  0.00000000E+00  0.00000000E+00  0.00000000E+00
  0.00000000E+00  0.00000000E+00  0.00000000E+00
  0.00000000E+00  0.00000000E+00  0.00000000E+00
  0.00000000E+00  0.00000000E+00  0.00000000E+00
  0.00000000E+00  0.00000000E+00  0.00000000E+00
  0.00000000E+00  0.00000000E+00  0.00000000E+00
  0.00000000E+00  0.00000000E+00  0.00000000E+00
  0.00000000E+00  0.00000000E+00  0.00000000E+00
  0.00000000E+00  0.00000000E+00  0.00000000E+00
  0.00000000E+00  0.00000000E+00  0.00000000E+00
  0.00000000E+00  0.00000000E+00  0.00000000E+00
  0.00000000E+00  0.00000000E+00  0.00000000E+00
  0.00000000E+00  0.00000000E+00  0.00000000E+00
  0.00000000E+00  0.00000000E+00  0.00000000E+00
  0.00000000E+00  0.00000000E+00  0.00000000E+00
  0.00000000E+00  0.00000000E+00  0.00000000E+00
  0.00000000E+00  0.00000000E+00  0.00000000E+00
  0.00000000E+00  0.00000000E+00  0.00000000E+00
