Be4 F16                                 
   1.00000000000000     
     0.0000000000000000   -3.9382472237295398    0.0000000000000000
    -5.3511444868409903    0.0000000000000003    0.0000000000000000
     0.0000000000000000    0.0000000000000000   -8.8742116768167918
   Be   F 
     4    16
Direct
  0.7500000000000000  0.7500004901897341  0.8947301927641504
  0.2500000000000000  0.2499995098102659  0.1052698072358424
  0.2500000000000000  0.7499995098102659  0.3947301927641576
  0.7500000000000000  0.2500004901897341  0.6052698072358496
  0.0047852727831241  0.7500021100091487  0.7611169307972858
  0.9952147272168759  0.2499978899908513  0.2388830692027142
  0.9952147272168759  0.7499978899908513  0.2611169307972858
  0.5047852727831241  0.2499978899908513  0.2388830692027142
  0.0047852727831241  0.2500021100091487  0.7388830692027142
  0.4952147272168759  0.7500021100091487  0.7611169307972858
  0.4952147272168759  0.2500021100091487  0.7388830692027142
  0.5047852727831241  0.7499978899908513  0.2611169307972858
  0.7500000000000000  0.0080856095669120  0.5049567670485899
  0.2500000000000000  0.9919143904330880  0.4950432329514101
  0.2500000000000000  0.4919143904330880  0.0049567670485899
  0.7500000000000000  0.5080856095669120  0.9950432329514101
  0.7500000000000000  0.9919148123797612  0.9950436185743783
  0.2500000000000000  0.0080851876202388  0.0049563814256217
  0.2500000000000000  0.5080851876202388  0.4950436185743783
  0.7500000000000000  0.4919148123797612  0.5049563814256217
 
  0.00000000E+00  0.00000000E+00  0.00000000E+00
  0.00000000E+00  0.00000000E+00  0.00000000E+00
  0.00000000E+00  0.00000000E+00  0.00000000E+00
  0.00000000E+00  0.00000000E+00  0.00000000E+00
  0.00000000E+00  0.00000000E+00  0.00000000E+00
  0.00000000E+00  0.00000000E+00  0.00000000E+00
  0.00000000E+00  0.00000000E+00  0.00000000E+00
  0.00000000E+00  0.00000000E+00  0.00000000E+00
  0.00000000E+00  0.00000000E+00  0.00000000E+00
  0.00000000E+00  0.00000000E+00  0.00000000E+00
  0.00000000E+00  0.00000000E+00  0.00000000E+00
  0.00000000E+00  0.00000000E+00  0.00000000E+00
  0.00000000E+00  0.00000000E+00  0.00000000E+00
  0.00000000E+00  0.00000000E+00  0.00000000E+00
  0.00000000E+00  0.00000000E+00  0.00000000E+00
  0.00000000E+00  0.00000000E+00  0.00000000E+00
  0.00000000E+00  0.00000000E+00  0.00000000E+00
  0.00000000E+00  0.00000000E+00  0.00000000E+00
  0.00000000E+00  0.00000000E+00  0.00000000E+00
  0.00000000E+00  0.00000000E+00  0.00000000E+00
