Be4 In8 I32                             
   1.00000000000000     
    -6.7806405048847527    6.7806405048847527   12.4907642060573369
     6.7806405048847527   -6.7806405048847527   12.4907642060573369
     6.7806405048847527    6.7806405048847527  -12.4907642060573369
   Be   In   I 
     4     8    32
Direct
  0.0000000000000000  0.0000000000000000  0.0000000000000000
  0.7500000000000000  0.2500000000000000  0.5000000000000000
  0.2500000000000000  0.7500000000000000  0.5000000000000000
  0.5000000000000000  0.5000000000000000  0.0000000000000000
  0.5588894422347934  0.8750000000000000  0.1838894422347934
  0.1250000000000000  0.8088894422347934  0.1838894422347934
  0.1250000000000000  0.3088894422347934  0.6838894422347934
  0.6911105577652066  0.3750000000000000  0.8161105577652066
  0.6250000000000000  0.9411105577652066  0.8161105577652066
  0.0588894422347934  0.8750000000000000  0.6838894422347934
  0.1911105577652066  0.3750000000000000  0.3161105577652066
  0.6250000000000000  0.4411105577652066  0.3161105577652066
  0.6459066725665252  0.2364166666413041  0.2904073562424898
  0.1054993163240212  0.8959066725665252  0.9094900059252211
  0.8039906896011999  0.8945006836759788  0.7904073562424898
  0.3220721108237257  0.2612049293727949  0.2451442391466614
  0.8220721108237257  0.5769278716770714  0.0608681814509282
  0.8269278716770714  0.5720721108237257  0.5608681814509282
  0.1040933274334748  0.0135833333586959  0.2095926437575102
  0.9864166666413112  0.1960093103988001  0.0905099940747789
  0.4460093103988001  0.7364166666413112  0.5905099940747789
  0.2387950706272051  0.1779278891762743  0.7548557608533386
  0.0160596902261432  0.0769278716770714  0.7548557608533386
  0.9279278891762743  0.6730721283229286  0.4391318185490718
  0.9230721283229286  0.6779278891762743  0.9391318185490718
  0.1445006836759788  0.5539906896011999  0.2904073562424898
  0.3039906896011999  0.5135833333586888  0.9094900059252211
  0.6054993163240212  0.6960093103988001  0.2095926437575102
  0.7339403097738568  0.1730721283229286  0.7451442391466614
  0.2635833333586959  0.8540933274334748  0.7095926437575102
  0.4864166666413041  0.3959066725665252  0.7904073562424898
  0.9460093103988001  0.3554993163240283  0.7095926437575102
  0.3269278716770714  0.7660596902261432  0.2548557608533386
  0.4230721283229286  0.4839403097738568  0.2451442391466614
  0.6445006836759788  0.3540933274334748  0.5905099940747789
  0.6040933274334748  0.3945006836759717  0.0905099940747789
  0.2339403097738568  0.4887950706272051  0.5608681814509282
  0.4279278891762743  0.9887950706272051  0.2548557608533386
  0.1459066725665252  0.8554993163240212  0.4094900059252211
  0.5112049293727949  0.0720721108237257  0.7451442391466614
  0.5160596902261432  0.7612049293727949  0.9391318185490718
  0.0112049293727949  0.2660596902261432  0.4391318185490718
  0.7635833333586888  0.0539906896011999  0.4094900059252211
  0.7387950706272051  0.9839403097738568  0.0608681814509282
 
  0.00000000E+00  0.00000000E+00  0.00000000E+00
  0.00000000E+00  0.00000000E+00  0.00000000E+00
  0.00000000E+00  0.00000000E+00  0.00000000E+00
  0.00000000E+00  0.00000000E+00  0.00000000E+00
  0.00000000E+00  0.00000000E+00  0.00000000E+00
  0.00000000E+00  0.00000000E+00  0.00000000E+00
  0.00000000E+00  0.00000000E+00  0.00000000E+00
  0.00000000E+00  0.00000000E+00  0.00000000E+00
  0.00000000E+00  0.00000000E+00  0.00000000E+00
  0.00000000E+00  0.00000000E+00  0.00000000E+00
  0.00000000E+00  0.00000000E+00  0.00000000E+00
  0.00000000E+00  0.00000000E+00  0.00000000E+00
  0.00000000E+00  0.00000000E+00  0.00000000E+00
  0.00000000E+00  0.00000000E+00  0.00000000E+00
  0.00000000E+00  0.00000000E+00  0.00000000E+00
  0.00000000E+00  0.00000000E+00  0.00000000E+00
  0.00000000E+00  0.00000000E+00  0.00000000E+00
  0.00000000E+00  0.00000000E+00  0.00000000E+00
  0.00000000E+00  0.00000000E+00  0.00000000E+00
  0.00000000E+00  0.00000000E+00  0.00000000E+00
  0.00000000E+00  0.00000000E+00  0.00000000E+00
  0.00000000E+00  0.00000000E+00  0.00000000E+00
  0.00000000E+00  0.00000000E+00  0.00000000E+00
  0.00000000E+00  0.00000000E+00  0.00000000E+00
  0.00000000E+00  0.00000000E+00  0.00000000E+00
  0.00000000E+00  0.00000000E+00  0.00000000E+00
  0.00000000E+00  0.00000000E+00  0.00000000E+00
  0.00000000E+00  0.00000000E+00  0.00000000E+00
  0.00000000E+00  0.00000000E+00  0.00000000E+00
  0.00000000E+00  0.00000000E+00  0.00000000E+00
  0.00000000E+00  0.00000000E+00  0.00000000E+00
  0.00000000E+00  0.00000000E+00  0.00000000E+00
  0.00000000E+00  0.00000000E+00  0.00000000E+00
  0.00000000E+00  0.00000000E+00  0.00000000E+00
  0.00000000E+00  0.00000000E+00  0.00000000E+00
  0.00000000E+00  0.00000000E+00  0.00000000E+00
  0.00000000E+00  0.00000000E+00  0.00000000E+00
  0.00000000E+00  0.00000000E+00  0.00000000E+00
  0.00000000E+00  0.00000000E+00  0.00000000E+00
  0.00000000E+00  0.00000000E+00  0.00000000E+00
  0.00000000E+00  0.00000000E+00  0.00000000E+00
  0.00000000E+00  0.00000000E+00  0.00000000E+00
  0.00000000E+00  0.00000000E+00  0.00000000E+00
  0.00000000E+00  0.00000000E+00  0.00000000E+00
