Mg4 Ga2 I10                             
   1.00000000000000     
     7.0089065756187932   -5.9644021167522174   -0.3696384701870951
     7.0089065756187932    5.9644021167522174   -0.3696384701870951
    -7.4128823092755178    0.0000000000000000    9.3761850509523565
   I    Mg   Ga
    10     4     2
Direct
  0.4707515737728301  0.8466369231293100  0.9157983852519394
  0.8466369231293100  0.4707515737728301  0.9157983852519394
  0.9441310453950180  0.9441310453950180  0.3607901485051244
  0.7112532736712041  0.3535378939781211  0.1629709633198075
  0.3535378939781211  0.7112532736712041  0.1629709633198075
  0.3799203682301240  0.3799203682301240  0.3299077288394514
  0.9669509259059339  0.9669509259059339  0.9959576030540589
  0.5177371331580929  0.0100580188877046  0.6199525560590828
  0.0100580188877046  0.5177371331580929  0.6199525560590828
  0.1491268049274339  0.1491268049274339  0.8004694892766864
  0.7349438481846988  0.1981489962787322  0.9114800520098072
  0.3714966279823884  0.3714966279823884  0.0979068821701006
  0.8067669615573791  0.8067669615573791  0.0658781426143520
  0.1981489962787322  0.7349438481846988  0.9114800520098072
  0.7961053443357287  0.2423342606052969  0.5643430461294727
  0.2423342606052969  0.7961053443357287  0.5643430461294727
 
  0.00000000E+00  0.00000000E+00  0.00000000E+00
  0.00000000E+00  0.00000000E+00  0.00000000E+00
  0.00000000E+00  0.00000000E+00  0.00000000E+00
  0.00000000E+00  0.00000000E+00  0.00000000E+00
  0.00000000E+00  0.00000000E+00  0.00000000E+00
  0.00000000E+00  0.00000000E+00  0.00000000E+00
  0.00000000E+00  0.00000000E+00  0.00000000E+00
  0.00000000E+00  0.00000000E+00  0.00000000E+00
  0.00000000E+00  0.00000000E+00  0.00000000E+00
  0.00000000E+00  0.00000000E+00  0.00000000E+00
  0.00000000E+00  0.00000000E+00  0.00000000E+00
  0.00000000E+00  0.00000000E+00  0.00000000E+00
  0.00000000E+00  0.00000000E+00  0.00000000E+00
  0.00000000E+00  0.00000000E+00  0.00000000E+00
  0.00000000E+00  0.00000000E+00  0.00000000E+00
  0.00000000E+00  0.00000000E+00  0.00000000E+00
