Ca40 In4                                
   1.00000000000000     
     0.0000000000000000    9.7616003521600376    9.7616003521600376
     9.7616003521600376    0.0000000000000000    9.7616003521600376
     9.7616003521600376    9.7616003521600376    0.0000000000000000
   Ca   In
    40     4
Direct
  0.6179949039735320  0.6179949039735320  0.8820050960264680
  0.3679949039735320  0.6320050960264680  0.6320050960264680
  0.6320050960264680  0.3679949039735320  0.3679949039735320
  0.3679949039735320  0.3679949039735320  0.6320050960264680
  0.3679949039735320  0.6320050960264680  0.3679949039735320
  0.6320050960264680  0.3679949039735320  0.6320050960264680
  0.8820050960264680  0.6179949039735320  0.8820050960264680
  0.8820050960264680  0.6179949039735320  0.6179949039735320
  0.6179949039735320  0.8820050960264680  0.8820050960264680
  0.6179949039735320  0.8820050960264680  0.6179949039735320
  0.6320050960264680  0.6320050960264680  0.3679949039735320
  0.8820050960264680  0.8820050960264680  0.6179949039735320
  0.7932519568519041  0.0695109060231474  0.3439841802730470
  0.4567480431480959  0.4567480431480959  0.1804890939768526
  0.1804890939768526  0.9060158197269530  0.4567480431480959
  0.4567480431480959  0.9060158197269530  0.4567480431480959
  0.9060158197269530  0.4567480431480959  0.1804890939768526
  0.9060158197269530  0.4567480431480959  0.4567480431480959
  0.1804890939768526  0.4567480431480959  0.4567480431480959
  0.3439841802730470  0.0695109060231474  0.7932519568519041
  0.7932519568519041  0.0695109060231474  0.7932519568519041
  0.0695109060231474  0.7932519568519041  0.3439841802730470
  0.7932519568519041  0.7932519568519041  0.3439841802730470
  0.0695109060231474  0.3439841802730470  0.7932519568519041
  0.3439841802730470  0.7932519568519041  0.0695109060231474
  0.7932519568519041  0.7932519568519041  0.0695109060231474
  0.7932519568519041  0.3439841802730470  0.7932519568519041
  0.1804890939768526  0.4567480431480959  0.9060158197269530
  0.4567480431480959  0.4567480431480959  0.9060158197269530
  0.4567480431480959  0.9060158197269530  0.1804890939768526
  0.4567480431480959  0.1804890939768526  0.9060158197269530
  0.9060158197269530  0.1804890939768526  0.4567480431480959
  0.4567480431480959  0.1804890939768526  0.4567480431480959
  0.3439841802730470  0.7932519568519041  0.7932519568519041
  0.0695109060231474  0.7932519568519041  0.7932519568519041
  0.7932519568519041  0.3439841802730470  0.0695109060231474
  0.1250000000000000  0.1250000000000000  0.1250000000000000
  0.6250000000000000  0.1250000000000000  0.1250000000000000
  0.1250000000000000  0.1250000000000000  0.6250000000000000
  0.1250000000000000  0.6250000000000000  0.1250000000000000
  0.6250000000000000  0.6250000000000000  0.6250000000000000
  0.1250000000000000  0.6250000000000000  0.6250000000000000
  0.6250000000000000  0.6250000000000000  0.1250000000000000
  0.6250000000000000  0.1250000000000000  0.6250000000000000
 
  0.00000000E+00  0.00000000E+00  0.00000000E+00
  0.00000000E+00  0.00000000E+00  0.00000000E+00
  0.00000000E+00  0.00000000E+00  0.00000000E+00
  0.00000000E+00  0.00000000E+00  0.00000000E+00
  0.00000000E+00  0.00000000E+00  0.00000000E+00
  0.00000000E+00  0.00000000E+00  0.00000000E+00
  0.00000000E+00  0.00000000E+00  0.00000000E+00
  0.00000000E+00  0.00000000E+00  0.00000000E+00
  0.00000000E+00  0.00000000E+00  0.00000000E+00
  0.00000000E+00  0.00000000E+00  0.00000000E+00
  0.00000000E+00  0.00000000E+00  0.00000000E+00
  0.00000000E+00  0.00000000E+00  0.00000000E+00
  0.00000000E+00  0.00000000E+00  0.00000000E+00
  0.00000000E+00  0.00000000E+00  0.00000000E+00
  0.00000000E+00  0.00000000E+00  0.00000000E+00
  0.00000000E+00  0.00000000E+00  0.00000000E+00
  0.00000000E+00  0.00000000E+00  0.00000000E+00
  0.00000000E+00  0.00000000E+00  0.00000000E+00
  0.00000000E+00  0.00000000E+00  0.00000000E+00
  0.00000000E+00  0.00000000E+00  0.00000000E+00
  0.00000000E+00  0.00000000E+00  0.00000000E+00
  0.00000000E+00  0.00000000E+00  0.00000000E+00
  0.00000000E+00  0.00000000E+00  0.00000000E+00
  0.00000000E+00  0.00000000E+00  0.00000000E+00
  0.00000000E+00  0.00000000E+00  0.00000000E+00
  0.00000000E+00  0.00000000E+00  0.00000000E+00
  0.00000000E+00  0.00000000E+00  0.00000000E+00
  0.00000000E+00  0.00000000E+00  0.00000000E+00
  0.00000000E+00  0.00000000E+00  0.00000000E+00
  0.00000000E+00  0.00000000E+00  0.00000000E+00
  0.00000000E+00  0.00000000E+00  0.00000000E+00
  0.00000000E+00  0.00000000E+00  0.00000000E+00
  0.00000000E+00  0.00000000E+00  0.00000000E+00
  0.00000000E+00  0.00000000E+00  0.00000000E+00
  0.00000000E+00  0.00000000E+00  0.00000000E+00
  0.00000000E+00  0.00000000E+00  0.00000000E+00
  0.00000000E+00  0.00000000E+00  0.00000000E+00
  0.00000000E+00  0.00000000E+00  0.00000000E+00
  0.00000000E+00  0.00000000E+00  0.00000000E+00
  0.00000000E+00  0.00000000E+00  0.00000000E+00
  0.00000000E+00  0.00000000E+00  0.00000000E+00
  0.00000000E+00  0.00000000E+00  0.00000000E+00
  0.00000000E+00  0.00000000E+00  0.00000000E+00
  0.00000000E+00  0.00000000E+00  0.00000000E+00
