Mg2 Tl2 I6                              
   1.0000000000000000     
     8.6154104418489190   -0.3160008172505565    0.0000000000000000
    -4.5810814559706241    7.3103579562030099    0.0000000000000000
     0.0000000000000000    0.0000000000000000    7.0530491104136139
   I    Mg   Tl
     6     2     2
Direct
  0.1711698709454552  0.3342456181477402  0.2500000000000000
  0.1500358617866979  0.8517266997310529  0.2500000000000000
  0.6652449073839222  0.8275714487399668  0.2500000000000000
  0.3347550926160778  0.1724285512600332  0.7500000000000000
  0.8499641382133021  0.1482733002689471  0.7500000000000000
  0.8288301290545448  0.6657543818522527  0.7500000000000000
  0.0000000000000000  0.0000000000000000  0.0000000000000000
  0.0000000000000000  0.0000000000000000  0.5000000000000000
  0.5994854760029753  0.3981682595368454  0.2500000000000000
  0.4005145239970247  0.6018317404631546  0.7500000000000000

  0.00000000E+00  0.00000000E+00  0.00000000E+00
  0.00000000E+00  0.00000000E+00  0.00000000E+00
  0.00000000E+00  0.00000000E+00  0.00000000E+00
  0.00000000E+00  0.00000000E+00  0.00000000E+00
  0.00000000E+00  0.00000000E+00  0.00000000E+00
  0.00000000E+00  0.00000000E+00  0.00000000E+00
  0.00000000E+00  0.00000000E+00  0.00000000E+00
  0.00000000E+00  0.00000000E+00  0.00000000E+00
  0.00000000E+00  0.00000000E+00  0.00000000E+00
  0.00000000E+00  0.00000000E+00  0.00000000E+00
