Mg2 B2 I10                              
   1.00000000000000     
     7.0624022988104995   -4.8835538273670425   -1.0222340948459485
     7.0626961729926236    4.8816300200777869   -1.0209861459535428
    -7.0235500758773846   -0.0054815550040589   11.2034655289480582
   B    Mg   I 
     2     2    10
Direct
  0.1051349411941231  0.8113057933137569  0.0051050126566565
  0.8122087446095136  0.1056037760021340  0.5051802898397071
  0.5647883697305076  0.6153392759358240  0.3059270401597942
  0.6148083399900202  0.5644091285486894  0.8060299646722697
  0.2433993999755231  0.5666098442049616  0.0336493560518534
  0.2350136080301510  0.0516279364631274  0.1189770778600874
  0.6846020321529807  0.2643496187694367  0.2066879467644469
  0.8074031493876461  0.8322437413023138  0.3452316459913405
  0.4383823562893028  0.7799495121111377  0.4846048144789634
  0.5672414991335657  0.2448335674116535  0.5332038663983241
  0.0531054828564166  0.2345776566258451  0.6197187232857289
  0.2644139145948827  0.6849123305617510  0.7062512755776567
  0.8319009265066697  0.8067940059059922  0.8453708464866807
  0.7777972355486895  0.4376438128433762  0.9843621397764792
 
  0.00000000E+00  0.00000000E+00  0.00000000E+00
  0.00000000E+00  0.00000000E+00  0.00000000E+00
  0.00000000E+00  0.00000000E+00  0.00000000E+00
  0.00000000E+00  0.00000000E+00  0.00000000E+00
  0.00000000E+00  0.00000000E+00  0.00000000E+00
  0.00000000E+00  0.00000000E+00  0.00000000E+00
  0.00000000E+00  0.00000000E+00  0.00000000E+00
  0.00000000E+00  0.00000000E+00  0.00000000E+00
  0.00000000E+00  0.00000000E+00  0.00000000E+00
  0.00000000E+00  0.00000000E+00  0.00000000E+00
  0.00000000E+00  0.00000000E+00  0.00000000E+00
  0.00000000E+00  0.00000000E+00  0.00000000E+00
  0.00000000E+00  0.00000000E+00  0.00000000E+00
  0.00000000E+00  0.00000000E+00  0.00000000E+00
