Sr6 In4                                 
   1.0000000000000000     
     9.3976108494147628    0.0000000000000000    0.0000000000000000
     0.0000000000000000    9.3976108494147628   -0.0000000000000000
     0.0000000000000000    0.0000000000000000    4.3791959215934986
   In   Sr
     4     6
Direct
  0.6245657119031307  0.1245657119031307  0.0000000000000000
  0.1245657119031307  0.3754342880968693  0.0000000000000000
  0.8754342880968693  0.6245657119031307  0.0000000000000000
  0.3754342880968693  0.8754342880968693  0.0000000000000000
  0.0000000000000000  0.0000000000000000  0.0000000000000000
  0.5000000000000000  0.5000000000000000  0.0000000000000000
  0.3295126972620253  0.1704873027379747  0.5000000000000000
  0.8295126972620253  0.3295126972620253  0.5000000000000000
  0.1704873027379747  0.6704873027379747  0.5000000000000000
  0.6704873027379747  0.8295126972620253  0.5000000000000000

  0.00000000E+00  0.00000000E+00  0.00000000E+00
  0.00000000E+00  0.00000000E+00  0.00000000E+00
  0.00000000E+00  0.00000000E+00  0.00000000E+00
  0.00000000E+00  0.00000000E+00  0.00000000E+00
  0.00000000E+00  0.00000000E+00  0.00000000E+00
  0.00000000E+00  0.00000000E+00  0.00000000E+00
  0.00000000E+00  0.00000000E+00  0.00000000E+00
  0.00000000E+00  0.00000000E+00  0.00000000E+00
  0.00000000E+00  0.00000000E+00  0.00000000E+00
  0.00000000E+00  0.00000000E+00  0.00000000E+00
