AlF3                                    
   1.00000000000000     
     2.5340331771242082    1.4631905720947085    2.0690637601727673
    -2.5340331771242077    1.4631905720947085    2.0690637601727673
     0.0000000000000000   -2.9258961420894511    2.0694301766572116
   Al   F 
     1     3
Direct
  0.0000000000000000  0.0000000000000000  0.0000000000000000
  0.5000000000000000  0.0000000000000000  0.0000000000000000
  0.0000000000000000  0.5000000000000000  0.0000000000000000
  0.0000000000000000  0.0000000000000000  0.5000000000000000
 
  0.00000000E+00  0.00000000E+00  0.00000000E+00
  0.00000000E+00  0.00000000E+00  0.00000000E+00
  0.00000000E+00  0.00000000E+00  0.00000000E+00
  0.00000000E+00  0.00000000E+00  0.00000000E+00
