Be4 Ga4 F20                             
   1.0000000000000000     
     5.1850102071079451   -0.0000000000000000    0.0000000000000003
    -0.0000000000000003    5.2696902379359383    0.0000000000000003
    -0.0000000000000001   -0.0000000000000000   10.8966342600450705
   Be   Ga   F 
     4     4    20
Direct
  0.8775453389969172  0.6741578607763330  0.6225288787340943
  0.3775453389969243  0.8258421392236670  0.3774711212658985
  0.1224546610030757  0.1741578607763330  0.8774711212659057
  0.6224546610030828  0.3258421392236670  0.1225288787340943
  0.2255335470037707  0.1590655913685879  0.6002409408305738
  0.7255335470037707  0.3409344086314050  0.3997590591694262
  0.7744664529962293  0.6590655913686021  0.8997590591694262
  0.2744664529962293  0.8409344086313979  0.1002409408305738
  0.8215170194737738  0.6468534418637049  0.4820789816182085
  0.3215170194737738  0.8531465581362951  0.5179210183817915
  0.1784829805262262  0.1468534418637049  0.0179210183817915
  0.6784829805262262  0.3531465581363022  0.9820789816182085
  0.4265671590440263  0.5349783900595142  0.3631834447048305
  0.9265671590440263  0.9650216099404858  0.6368165552951623
  0.5734328409559737  0.0349783900595213  0.1368165552951623
  0.0734328409559737  0.4650216099404787  0.8631834447048305
  0.1100233190854425  0.4878036717813430  0.6414338183166350
  0.6100233190854425  0.0121963282186570  0.3585661816833650
  0.8899766809145575  0.9878036717813430  0.8585661816833650
  0.3899766809145504  0.5121963282186570  0.1414338183166208
  0.3206586393636712  0.1130224104058186  0.7694600864441057
  0.8206586393636712  0.3869775895941743  0.2305399135559014
  0.6793413606363288  0.6130224104058257  0.7305399135558943
  0.1793413606363288  0.8869775895941743  0.2694600864440986
  0.5565800741769493  0.2764913949409760  0.5586626045829419
  0.0565800741769493  0.2235086050590240  0.4413373954170581
  0.4434199258230507  0.7764913949409760  0.9413373954170581
  0.9434199258230507  0.7235086050590240  0.0586626045829419

  0.00000000E+00  0.00000000E+00  0.00000000E+00
  0.00000000E+00  0.00000000E+00  0.00000000E+00
  0.00000000E+00  0.00000000E+00  0.00000000E+00
  0.00000000E+00  0.00000000E+00  0.00000000E+00
  0.00000000E+00  0.00000000E+00  0.00000000E+00
  0.00000000E+00  0.00000000E+00  0.00000000E+00
  0.00000000E+00  0.00000000E+00  0.00000000E+00
  0.00000000E+00  0.00000000E+00  0.00000000E+00
  0.00000000E+00  0.00000000E+00  0.00000000E+00
  0.00000000E+00  0.00000000E+00  0.00000000E+00
  0.00000000E+00  0.00000000E+00  0.00000000E+00
  0.00000000E+00  0.00000000E+00  0.00000000E+00
  0.00000000E+00  0.00000000E+00  0.00000000E+00
  0.00000000E+00  0.00000000E+00  0.00000000E+00
  0.00000000E+00  0.00000000E+00  0.00000000E+00
  0.00000000E+00  0.00000000E+00  0.00000000E+00
  0.00000000E+00  0.00000000E+00  0.00000000E+00
  0.00000000E+00  0.00000000E+00  0.00000000E+00
  0.00000000E+00  0.00000000E+00  0.00000000E+00
  0.00000000E+00  0.00000000E+00  0.00000000E+00
  0.00000000E+00  0.00000000E+00  0.00000000E+00
  0.00000000E+00  0.00000000E+00  0.00000000E+00
  0.00000000E+00  0.00000000E+00  0.00000000E+00
  0.00000000E+00  0.00000000E+00  0.00000000E+00
  0.00000000E+00  0.00000000E+00  0.00000000E+00
  0.00000000E+00  0.00000000E+00  0.00000000E+00
  0.00000000E+00  0.00000000E+00  0.00000000E+00
  0.00000000E+00  0.00000000E+00  0.00000000E+00
