Ca4 Ga4 F20                             
   1.0000000000000000     
     0.0000000000000000    5.1571832998441582   -0.2222141307880809
     9.2274235245915222    0.0000000000000000    0.0000000000000000
     0.0000000000000000    0.1762035454135951   -6.9957180284922797
   Ca   Ga   F 
     4     4    20
Direct
  0.5527704820057053  0.3716582419022387  0.3773590718111137
  0.4472295179942947  0.8716582419022387  0.6226409281888863
  0.9608450667109025  0.0198163000158260  0.1492008572940335
  0.0391549332890975  0.5198163000158260  0.8507991427059665
  0.4931514524329828  0.7310413018637618  0.1085976555085821
  0.5068485475670172  0.2310413018637618  0.8914023444914179
  0.9813283487995079  0.6301632867715199  0.4063962413801434
  0.0186716512004921  0.1301632867715199  0.5936037586198566
  0.2430461403646973  0.0254892171638161  0.4154616220058287
  0.2407921342606443  0.5242437478921573  0.5311141183383654
  0.7592078657393557  0.0242437478921573  0.4688858816616275
  0.7992286475493984  0.7100637268136580  0.9569297075566325
  0.9001492959409205  0.5061516444226726  0.2064080532469390
  0.5440141278929715  0.9283094137519114  0.1283749101128890
  0.8654600178752290  0.2766458845161708  0.7700012529456401
  0.6424790689415474  0.7360123477578853  0.3665595239758019
  0.0998507040590795  0.0061516444226726  0.7935919467530610
  0.0291870653093227  0.7700858216857043  0.5929365438450063
  0.4559858721070285  0.4283094137519114  0.8716250898871110
  0.7569538596353027  0.5254892171638232  0.5845383779941713
  0.6055357001622497  0.0451614717216771  0.8179002524651935
  0.6766368685676696  0.2227565737209929  0.1236152059508413
  0.9708129346906773  0.2700858216857114  0.4070634561549937
  0.1345399821247710  0.7766458845161708  0.2299987470543599
  0.2007713524506087  0.2100637268136580  0.0430702924433604
  0.3233631314323304  0.7227565737209929  0.8763847940491587
  0.3575209310584526  0.2360123477578853  0.6334404760241981
  0.3944642998377503  0.5451614717216771  0.1820997475348065

  0.00000000E+00  0.00000000E+00  0.00000000E+00
  0.00000000E+00  0.00000000E+00  0.00000000E+00
  0.00000000E+00  0.00000000E+00  0.00000000E+00
  0.00000000E+00  0.00000000E+00  0.00000000E+00
  0.00000000E+00  0.00000000E+00  0.00000000E+00
  0.00000000E+00  0.00000000E+00  0.00000000E+00
  0.00000000E+00  0.00000000E+00  0.00000000E+00
  0.00000000E+00  0.00000000E+00  0.00000000E+00
  0.00000000E+00  0.00000000E+00  0.00000000E+00
  0.00000000E+00  0.00000000E+00  0.00000000E+00
  0.00000000E+00  0.00000000E+00  0.00000000E+00
  0.00000000E+00  0.00000000E+00  0.00000000E+00
  0.00000000E+00  0.00000000E+00  0.00000000E+00
  0.00000000E+00  0.00000000E+00  0.00000000E+00
  0.00000000E+00  0.00000000E+00  0.00000000E+00
  0.00000000E+00  0.00000000E+00  0.00000000E+00
  0.00000000E+00  0.00000000E+00  0.00000000E+00
  0.00000000E+00  0.00000000E+00  0.00000000E+00
  0.00000000E+00  0.00000000E+00  0.00000000E+00
  0.00000000E+00  0.00000000E+00  0.00000000E+00
  0.00000000E+00  0.00000000E+00  0.00000000E+00
  0.00000000E+00  0.00000000E+00  0.00000000E+00
  0.00000000E+00  0.00000000E+00  0.00000000E+00
  0.00000000E+00  0.00000000E+00  0.00000000E+00
  0.00000000E+00  0.00000000E+00  0.00000000E+00
  0.00000000E+00  0.00000000E+00  0.00000000E+00
  0.00000000E+00  0.00000000E+00  0.00000000E+00
  0.00000000E+00  0.00000000E+00  0.00000000E+00
