CaTl2Cl4                                
   1.0000000000000000     
    -2.6946544505739052    2.6946544505739052    8.0768460582313093
     2.6946544505739052   -2.6946544505739052    8.0768460582313093
     2.6946544505739052    2.6946544505739052   -8.0768460582313093
   Ca   Cl   Tl
     1     4     2
Direct
  0.0000000000000000  0.0000000000000000  0.0000000000000000
  0.1691056951572492  0.1691056951572492  0.0000000000000000
  0.8308943048427508  0.8308943048427508  0.0000000000000000
  0.5000000000000000  0.0000000000000000  0.5000000000000000
  0.0000000000000000  0.5000000000000000  0.5000000000000000
  0.3560184052767355  0.3560184052767355  0.0000000000000000
  0.6439815947232645  0.6439815947232645  0.0000000000000000

  0.00000000E+00  0.00000000E+00  0.00000000E+00
  0.00000000E+00  0.00000000E+00  0.00000000E+00
  0.00000000E+00  0.00000000E+00  0.00000000E+00
  0.00000000E+00  0.00000000E+00  0.00000000E+00
  0.00000000E+00  0.00000000E+00  0.00000000E+00
  0.00000000E+00  0.00000000E+00  0.00000000E+00
  0.00000000E+00  0.00000000E+00  0.00000000E+00
