Sr1 In2 F6                              
   1.0000000000000000     
     3.6806478202310569    1.3264332056460688    4.6198210273111462
    -3.6806478202310569    1.3264332056460688    4.6198210273111462
     0.0000000000000000   -3.4728919842254542    4.9486836479945282
   Sr   F    In
     1     6     2
Direct
  0.0000000000000000  0.0000000000000000  0.0000000000000000
  0.6772659470660898  0.6772659470660898  0.3696114978793901
  0.8499174370752982  0.2847853254974382  0.2064288518807871
  0.2847853254974382  0.8499174370752982  0.2064288518807871
  0.3227340529339102  0.3227340529339102  0.6303885021206099
  0.7152146745025547  0.1500825629247018  0.7935711481192129
  0.1500825629247018  0.7152146745025547  0.7935711481192129
  0.4541686395438163  0.4541686395438163  0.8246791779162876
  0.5458313604561909  0.5458313604561909  0.1753208220837124

  0.00000000E+00  0.00000000E+00  0.00000000E+00
  0.00000000E+00  0.00000000E+00  0.00000000E+00
  0.00000000E+00  0.00000000E+00  0.00000000E+00
  0.00000000E+00  0.00000000E+00  0.00000000E+00
  0.00000000E+00  0.00000000E+00  0.00000000E+00
  0.00000000E+00  0.00000000E+00  0.00000000E+00
  0.00000000E+00  0.00000000E+00  0.00000000E+00
  0.00000000E+00  0.00000000E+00  0.00000000E+00
  0.00000000E+00  0.00000000E+00  0.00000000E+00
