Ba7 In10                                
   1.0000000000000000     
     3.2194627757446117   -5.5903815856421550   -0.0060627196815724
    -6.4511036382953719   -0.0070345940498825    0.0063387689366624
     3.2402475274268348   -1.8702665695604441  -17.1701627356470681
   In   Ba
    10     7
Direct
  0.2871489666309088  0.7129829708573041  0.1284761705887405
  0.8967128762695253  0.5858713892957397  0.2724510721267137
  0.4143768291823449  0.1034780862430793  0.2724977521142051
  0.4137872247601138  0.5863331999044306  0.2715741076415839
  0.1951798338610544  0.8049086133208334  0.4124779178170783
  0.8049621776871092  0.1950195856513233  0.5875488768992412
  0.5862557430915771  0.4136807524101371  0.7284454823151947
  0.5856715925446423  0.8965577790807941  0.7275450775763517
  0.1033049940285693  0.4142013989676556  0.7275984386867194
  0.7128466057837883  0.2870991033152350  0.8715763577875677
  0.6403013107056452  0.3596530010526635  0.0811137697777866
  0.9473374789157134  0.0527126935199362  0.1571672525482910
  0.8718998426187738  0.1283006964521149  0.3835919509591150
  0.5000670390918742  0.4999799326313834  0.4999193717707442
  0.1281852711512244  0.8717079249514441  0.6164363360914322
  0.0526778271873525  0.9474120383826232  0.8428474349076467
  0.3596843864897750  0.6405008339632943  0.9189326303915735

  0.00000000E+00 -0.00000000E+00  0.00000000E+00
  0.00000000E+00 -0.00000000E+00  0.00000000E+00
  0.00000000E+00 -0.00000000E+00  0.00000000E+00
  0.00000000E+00 -0.00000000E+00  0.00000000E+00
  0.00000000E+00 -0.00000000E+00  0.00000000E+00
  0.00000000E+00 -0.00000000E+00  0.00000000E+00
  0.00000000E+00 -0.00000000E+00  0.00000000E+00
  0.00000000E+00 -0.00000000E+00  0.00000000E+00
  0.00000000E+00 -0.00000000E+00  0.00000000E+00
  0.00000000E+00 -0.00000000E+00  0.00000000E+00
  0.00000000E+00 -0.00000000E+00  0.00000000E+00
  0.00000000E+00 -0.00000000E+00  0.00000000E+00
  0.00000000E+00 -0.00000000E+00  0.00000000E+00
  0.00000000E+00 -0.00000000E+00  0.00000000E+00
  0.00000000E+00 -0.00000000E+00  0.00000000E+00
  0.00000000E+00 -0.00000000E+00  0.00000000E+00
  0.00000000E+00 -0.00000000E+00  0.00000000E+00
