Ba10 In4 F32                            
   1.0000000000000000     
     3.9474329779945179   -6.8426511595740598    0.0000000000000000
     3.9474329779945179    6.8426511595740598    0.0000000000000000
     0.0000000000000000    0.0000000000000000   15.1413525383174576
   Ba   In   F 
    10     4    32
Direct
  0.0000000000000000  0.0000000000000000  0.7132427601114344
  0.0000000000000000  0.0000000000000000  0.2867572398885656
  0.5000000000000000  0.5000000000000000  0.7867572398885656
  0.5000000000000000  0.5000000000000000  0.2132427601114344
  0.5000000000000000  0.5000000000000000  0.5000000000000000
  0.0000000000000000  0.0000000000000000  0.0000000000000000
  0.0000000000000000  0.5000000000000000  0.6408628819611195
  0.5000000000000000  0.0000000000000000  0.3591371180388805
  0.5000000000000000  0.0000000000000000  0.8591371180388805
  0.0000000000000000  0.5000000000000000  0.1408628819611195
  0.5000000000000000  0.0000000000000000  0.6107062815601054
  0.0000000000000000  0.5000000000000000  0.3892937184398946
  0.0000000000000000  0.5000000000000000  0.8892937184398946
  0.5000000000000000  0.0000000000000000  0.1107062815601054
  0.5494388150876190  0.2089683563144362  0.7083029793378230
  0.4505611849123810  0.7910316436855638  0.7083029793378230
  0.2089683563144362  0.5494388150876190  0.2916970206621841
  0.7910316436855638  0.4505611849123810  0.2916970206621841
  0.9505611849123810  0.2910316436855638  0.7916970206621770
  0.0494388150876190  0.7089683563144362  0.7916970206621770
  0.2910316436855638  0.9505611849123810  0.2083029793378230
  0.7089683563144362  0.0494388150876190  0.2083029793378230
  0.1958639340291271  0.8813796647527283  0.6145598824354579
  0.8041360659708729  0.1186203352472717  0.6145598824354579
  0.8813796647527283  0.1958639340291271  0.3854401175645421
  0.1186203352472717  0.8041360659708729  0.3854401175645421
  0.3041360659708729  0.6186203352472717  0.8854401175645421
  0.6958639340291271  0.3813796647527283  0.8854401175645421
  0.6688369658182509  0.9908089320124631  0.0085946064956559
  0.3311630341817491  0.0091910679875369  0.0085946064956559
  0.9908089320124631  0.6688369658182509  0.9914053935043441
  0.0091910679875369  0.3311630341817491  0.9914053935043441
  0.8311630341817491  0.5091910679875369  0.4914053935043441
  0.1688369658182509  0.4908089320124631  0.4914053935043441
  0.5091910679875369  0.8311630341817491  0.5085946064956559
  0.4908089320124631  0.1688369658182509  0.5085946064956559
  0.8595925391452752  0.7582348549433817  0.1515547087797060
  0.1404074608547248  0.2417651450566112  0.1515547087797060
  0.7582348549433817  0.8595925391452752  0.8484452912202940
  0.2417651450566112  0.1404074608547248  0.8484452912202940
  0.6404074608547248  0.7417651450566183  0.3484452912202940
  0.3595925391452752  0.2582348549433888  0.3484452912202940
  0.7417651450566183  0.6404074608547248  0.6515547087797060
  0.2582348549433888  0.3595925391452752  0.6515547087797060
  0.3813796647527283  0.6958639340291271  0.1145598824354579
  0.6186203352472717  0.3041360659708729  0.1145598824354579

  0.00000000E+00  0.00000000E+00  0.00000000E+00
  0.00000000E+00  0.00000000E+00  0.00000000E+00
  0.00000000E+00  0.00000000E+00  0.00000000E+00
  0.00000000E+00  0.00000000E+00  0.00000000E+00
  0.00000000E+00  0.00000000E+00  0.00000000E+00
  0.00000000E+00  0.00000000E+00  0.00000000E+00
  0.00000000E+00  0.00000000E+00  0.00000000E+00
  0.00000000E+00  0.00000000E+00  0.00000000E+00
  0.00000000E+00  0.00000000E+00  0.00000000E+00
  0.00000000E+00  0.00000000E+00  0.00000000E+00
  0.00000000E+00  0.00000000E+00  0.00000000E+00
  0.00000000E+00  0.00000000E+00  0.00000000E+00
  0.00000000E+00  0.00000000E+00  0.00000000E+00
  0.00000000E+00  0.00000000E+00  0.00000000E+00
  0.00000000E+00  0.00000000E+00  0.00000000E+00
  0.00000000E+00  0.00000000E+00  0.00000000E+00
  0.00000000E+00  0.00000000E+00  0.00000000E+00
  0.00000000E+00  0.00000000E+00  0.00000000E+00
  0.00000000E+00  0.00000000E+00  0.00000000E+00
  0.00000000E+00  0.00000000E+00  0.00000000E+00
  0.00000000E+00  0.00000000E+00  0.00000000E+00
  0.00000000E+00  0.00000000E+00  0.00000000E+00
  0.00000000E+00  0.00000000E+00  0.00000000E+00
  0.00000000E+00  0.00000000E+00  0.00000000E+00
  0.00000000E+00  0.00000000E+00  0.00000000E+00
  0.00000000E+00  0.00000000E+00  0.00000000E+00
  0.00000000E+00  0.00000000E+00  0.00000000E+00
  0.00000000E+00  0.00000000E+00  0.00000000E+00
  0.00000000E+00  0.00000000E+00  0.00000000E+00
  0.00000000E+00  0.00000000E+00  0.00000000E+00
  0.00000000E+00  0.00000000E+00  0.00000000E+00
  0.00000000E+00  0.00000000E+00  0.00000000E+00
  0.00000000E+00  0.00000000E+00  0.00000000E+00
  0.00000000E+00  0.00000000E+00  0.00000000E+00
  0.00000000E+00  0.00000000E+00  0.00000000E+00
  0.00000000E+00  0.00000000E+00  0.00000000E+00
  0.00000000E+00  0.00000000E+00  0.00000000E+00
  0.00000000E+00  0.00000000E+00  0.00000000E+00
  0.00000000E+00  0.00000000E+00  0.00000000E+00
  0.00000000E+00  0.00000000E+00  0.00000000E+00
  0.00000000E+00  0.00000000E+00  0.00000000E+00
  0.00000000E+00  0.00000000E+00  0.00000000E+00
  0.00000000E+00  0.00000000E+00  0.00000000E+00
  0.00000000E+00  0.00000000E+00  0.00000000E+00
  0.00000000E+00  0.00000000E+00  0.00000000E+00
  0.00000000E+00  0.00000000E+00  0.00000000E+00
