Sr4 Ga4 F20                             
   1.0000000000000000     
     4.8160619195644419    0.0000000000000000    0.0000000000000003
    -0.0000000000000003    5.4233896929140011    0.0000000000000003
    -0.0000000000000000    0.0000000000000000   13.4021156844929479
   Sr   Ga   F 
     4     4    20
Direct
  0.7720061829073543  0.3524997073111962  0.3401491368565956
  0.2720061829073543  0.1475002926888038  0.6598508631434044
  0.2279938170926386  0.8524997073111962  0.1598508631434044
  0.7279938170926386  0.6475002926888038  0.8401491368565956
  0.1896881427534893  0.8687216024492272  0.4128139740217094
  0.6896881427534893  0.6312783975507728  0.5871860259782835
  0.8103118572465107  0.3687216024492272  0.0871860259782835
  0.3103118572465107  0.1312783975507728  0.9128139740217094
  0.9811415346238022  0.6225218961709587  0.4890909241306858
  0.4811415346237951  0.8774781038290413  0.5109090758693213
  0.0188584653761978  0.1225218961709587  0.0109090758693213
  0.5188584653761978  0.3774781038290413  0.9890909241306787
  0.8945516525904509  0.8632971150512461  0.3176917702513791
  0.3945516525904509  0.6367028849487539  0.6823082297486280
  0.1054483474095491  0.3632971150512461  0.1823082297486209
  0.6054483474095491  0.1367028849487539  0.8176917702513720
  0.9791615302714902  0.6228377864740580  0.0162755813442104
  0.4791615302714902  0.8771622135259420  0.9837244186557896
  0.0208384697285027  0.1228377864740580  0.4837244186557896
  0.5208384697285098  0.3771622135259420  0.5162755813442104
  0.6364530967868092  0.5912533895863277  0.1744136345981602
  0.1364530967868092  0.9087466104136723  0.8255863654018398
  0.3635469032131908  0.0912533895863277  0.3255863654018540
  0.8635469032131908  0.4087466104136723  0.6744136345981602
  0.1641711715236198  0.3977779036161380  0.8419203560482416
  0.6641711715236198  0.1022220963838620  0.1580796439517584
  0.8358288284763802  0.8977779036161380  0.6580796439517584
  0.3358288284763802  0.6022220963838620  0.3419203560482416

  0.00000000E+00  0.00000000E+00  0.00000000E+00
  0.00000000E+00  0.00000000E+00  0.00000000E+00
  0.00000000E+00  0.00000000E+00  0.00000000E+00
  0.00000000E+00  0.00000000E+00  0.00000000E+00
  0.00000000E+00  0.00000000E+00  0.00000000E+00
  0.00000000E+00  0.00000000E+00  0.00000000E+00
  0.00000000E+00  0.00000000E+00  0.00000000E+00
  0.00000000E+00  0.00000000E+00  0.00000000E+00
  0.00000000E+00  0.00000000E+00  0.00000000E+00
  0.00000000E+00  0.00000000E+00  0.00000000E+00
  0.00000000E+00  0.00000000E+00  0.00000000E+00
  0.00000000E+00  0.00000000E+00  0.00000000E+00
  0.00000000E+00  0.00000000E+00  0.00000000E+00
  0.00000000E+00  0.00000000E+00  0.00000000E+00
  0.00000000E+00  0.00000000E+00  0.00000000E+00
  0.00000000E+00  0.00000000E+00  0.00000000E+00
  0.00000000E+00  0.00000000E+00  0.00000000E+00
  0.00000000E+00  0.00000000E+00  0.00000000E+00
  0.00000000E+00  0.00000000E+00  0.00000000E+00
  0.00000000E+00  0.00000000E+00  0.00000000E+00
  0.00000000E+00  0.00000000E+00  0.00000000E+00
  0.00000000E+00  0.00000000E+00  0.00000000E+00
  0.00000000E+00  0.00000000E+00  0.00000000E+00
  0.00000000E+00  0.00000000E+00  0.00000000E+00
  0.00000000E+00  0.00000000E+00  0.00000000E+00
  0.00000000E+00  0.00000000E+00  0.00000000E+00
  0.00000000E+00  0.00000000E+00  0.00000000E+00
  0.00000000E+00  0.00000000E+00  0.00000000E+00
