Ca16 B16 F80                            
   1.0000000000000000     
    12.4767096382577485   -0.0000002744218976    0.0000000000000008
     0.0000002744218969   12.4767096382577485    0.0000000000000008
     0.0000000000000000    0.0000000000000000    8.7089779019745528
   Ca   B    F 
    16    16    80
Direct
  0.5845972540818636  0.7349447485432492  0.6229096699144065
  0.2349447485432421  0.9154027459181364  0.1229096699144065
  0.7650552514567508  0.0845972540818636  0.1229096699144065
  0.4154027459181364  0.2650552514567437  0.6229096699144065
  0.2057482848471892  0.0650712710816919  0.4911747388332657
  0.5650712710816848  0.2942517151528037  0.9911747388332728
  0.4349287289183223  0.7057482848471963  0.9911747388332728
  0.7942517151528037  0.9349287289183152  0.4911747388332657
  0.0845972540818636  0.2349447485432421  0.1229096699144065
  0.7349447485432492  0.4154027459181364  0.6229096699144065
  0.2650552514567437  0.5845972540818636  0.6229096699144065
  0.9154027459181364  0.7650552514567508  0.1229096699144065
  0.7057482848471963  0.5650712710816848  0.9911747388332728
  0.0650712710816919  0.7942517151528037  0.4911747388332657
  0.9349287289183152  0.2057482848471892  0.4911747388332657
  0.2942517151528037  0.4349287289183223  0.9911747388332728
  0.0000000000000000  0.0000000000000000  0.6956387907656776
  0.0000000000000000  0.0000000000000000  0.1371662121071324
  0.5000000000000000  0.0000000000000000  0.9113060231287164
  0.5000000000000000  0.0000000000000000  0.4113060231287307
  0.3223091113429817  0.1736426063986727  0.1314016131177382
  0.6736426063986798  0.1776908886570112  0.6314016131177311
  0.3263573936013415  0.8223091113429888  0.6314016131177311
  0.6776908886570112  0.8263573936013202  0.1314016131177382
  0.5000000000000000  0.5000000000000000  0.1956387907656847
  0.5000000000000000  0.5000000000000000  0.6371662121071324
  0.0000000000000000  0.5000000000000000  0.4113060231287307
  0.0000000000000000  0.5000000000000000  0.9113060231287164
  0.8223091113429888  0.6736426063986798  0.6314016131177311
  0.1736426063986727  0.6776908886570112  0.1314016131177382
  0.8263573936013202  0.3223091113429817  0.1314016131177382
  0.1776908886570112  0.3263573936013415  0.6314016131177311
  0.0000000000000000  0.0000000000000000  0.8502330386968637
  0.0000000000000000  0.0000000000000000  0.2963980100455714
  0.0591928333629781  0.1073037438499114  0.6450659708151107
  0.6073037438499114  0.4408071666370290  0.1450659708151250
  0.3926962561500886  0.5591928333629852  0.1450659708151250
  0.9408071666370148  0.8926962561500886  0.6450659708151107
  0.1112574817535759  0.0523600170083967  0.0923146775430297
  0.5523600170084038  0.3887425182464241  0.5923146775430226
  0.4476399829915962  0.6112574817535616  0.5923146775430226
  0.8887425182464384  0.9476399829915962  0.0923146775430297
  0.5000000000000000  0.0000000000000000  0.5623108088508886
  0.5000000000000000  0.0000000000000000  0.0623108088508957
  0.4349720290961585  0.0654259202168745  0.8350442917574981
  0.5654259202168745  0.0650279709038415  0.3350442917575123
  0.4345740797831183  0.9349720290961585  0.3350442917575123
  0.5650279709038415  0.9345740797831255  0.8350442917574981
  0.3640055618252305  0.1389016639872693  0.4795744481697568
  0.6389016639872835  0.1359944381747553  0.9795744481697568
  0.3610983360127236  0.8640055618252447  0.9795744481697568
  0.6359944381747411  0.8610983360127165  0.4795744481697568
  0.4078823442483852  0.3165615823133479  0.8654951772465864
  0.8165615823133336  0.0921176557516148  0.3654951772465793
  0.1834384176866521  0.9078823442483923  0.3654951772465793
  0.5921176557516077  0.6834384176866664  0.8654951772465864
  0.4321431334964032  0.1880409628193362  0.1319553411767842
  0.6880409628193433  0.0678568665035897  0.6319553411767558
  0.3119590371806638  0.9321431334963890  0.6319553411767558
  0.5678568665036110  0.8119590371806567  0.1319553411767842
  0.2770442246363203  0.1581381598897664  0.9871446343510755
  0.6581381598897948  0.2229557753636797  0.4871446343510755
  0.3418618401102194  0.7770442246363345  0.4871446343510755
  0.7229557753636655  0.8418618401102052  0.9871446343510755
  0.2955875389136864  0.0803168660181868  0.2213442155560088
  0.5803168660181939  0.2044124610863207  0.7213442155560159
  0.4196831339818132  0.7955875389136793  0.7213442155560159
  0.7044124610863207  0.9196831339818061  0.2213442155560088
  0.7699738934964202  0.7643416434135162  0.6977515426251202
  0.2643416434135162  0.7300261065035656  0.1977515426251131
  0.7356583565864838  0.2699738934964202  0.1977515426251131
  0.2300261065035656  0.2356583565864696  0.6977515426251202
  0.5000000000000000  0.5000000000000000  0.3502330386968708
  0.5000000000000000  0.5000000000000000  0.7963980100455643
  0.5591928333629852  0.6073037438499114  0.1450659708151250
  0.1073037438499114  0.9408071666370148  0.6450659708151107
  0.8926962561500886  0.0591928333629781  0.6450659708151107
  0.4408071666370290  0.3926962561500886  0.1450659708151250
  0.6112574817535616  0.5523600170084038  0.5923146775430226
  0.0523600170083967  0.8887425182464384  0.0923146775430297
  0.9476399829915962  0.1112574817535759  0.0923146775430297
  0.3887425182464241  0.4476399829915962  0.5923146775430226
  0.0000000000000000  0.5000000000000000  0.0623108088508957
  0.0000000000000000  0.5000000000000000  0.5623108088508886
  0.9349720290961585  0.5654259202168745  0.3350442917575123
  0.0654259202168745  0.5650279709038415  0.8350442917574981
  0.9345740797831255  0.4349720290961585  0.8350442917574981
  0.0650279709038415  0.4345740797831183  0.3350442917575123
  0.8640055618252447  0.6389016639872835  0.9795744481697568
  0.1389016639872693  0.6359944381747411  0.4795744481697568
  0.8610983360127165  0.3640055618252305  0.4795744481697568
  0.1359944381747553  0.3610983360127236  0.9795744481697568
  0.9078823442483923  0.8165615823133336  0.3654951772465793
  0.3165615823133479  0.5921176557516077  0.8654951772465864
  0.6834384176866664  0.4078823442483852  0.8654951772465864
  0.0921176557516148  0.1834384176866521  0.3654951772465793
  0.9321431334963890  0.6880409628193433  0.6319553411767558
  0.1880409628193362  0.5678568665036110  0.1319553411767842
  0.8119590371806567  0.4321431334964032  0.1319553411767842
  0.0678568665035897  0.3119590371806638  0.6319553411767558
  0.7770442246363345  0.6581381598897948  0.4871446343510755
  0.1581381598897664  0.7229557753636655  0.9871446343510755
  0.8418618401102052  0.2770442246363203  0.9871446343510755
  0.2229557753636797  0.3418618401102194  0.4871446343510755
  0.7955875389136793  0.5803168660181939  0.7213442155560159
  0.0803168660181868  0.7044124610863207  0.2213442155560088
  0.9196831339818061  0.2955875389136864  0.2213442155560088
  0.2044124610863207  0.4196831339818132  0.7213442155560159
  0.2699738934964202  0.2643416434135162  0.1977515426251131
  0.7643416434135162  0.2300261065035656  0.6977515426251202
  0.2356583565864696  0.7699738934964202  0.6977515426251202
  0.7300261065035656  0.7356583565864838  0.1977515426251131

  0.00000000E+00  0.00000000E+00  0.00000000E+00
  0.00000000E+00  0.00000000E+00  0.00000000E+00
  0.00000000E+00  0.00000000E+00  0.00000000E+00
  0.00000000E+00  0.00000000E+00  0.00000000E+00
  0.00000000E+00  0.00000000E+00  0.00000000E+00
  0.00000000E+00  0.00000000E+00  0.00000000E+00
  0.00000000E+00  0.00000000E+00  0.00000000E+00
  0.00000000E+00  0.00000000E+00  0.00000000E+00
  0.00000000E+00  0.00000000E+00  0.00000000E+00
  0.00000000E+00  0.00000000E+00  0.00000000E+00
  0.00000000E+00  0.00000000E+00  0.00000000E+00
  0.00000000E+00  0.00000000E+00  0.00000000E+00
  0.00000000E+00  0.00000000E+00  0.00000000E+00
  0.00000000E+00  0.00000000E+00  0.00000000E+00
  0.00000000E+00  0.00000000E+00  0.00000000E+00
  0.00000000E+00  0.00000000E+00  0.00000000E+00
  0.00000000E+00  0.00000000E+00  0.00000000E+00
  0.00000000E+00  0.00000000E+00  0.00000000E+00
  0.00000000E+00  0.00000000E+00  0.00000000E+00
  0.00000000E+00  0.00000000E+00  0.00000000E+00
  0.00000000E+00  0.00000000E+00  0.00000000E+00
  0.00000000E+00  0.00000000E+00  0.00000000E+00
  0.00000000E+00  0.00000000E+00  0.00000000E+00
  0.00000000E+00  0.00000000E+00  0.00000000E+00
  0.00000000E+00  0.00000000E+00  0.00000000E+00
  0.00000000E+00  0.00000000E+00  0.00000000E+00
  0.00000000E+00  0.00000000E+00  0.00000000E+00
  0.00000000E+00  0.00000000E+00  0.00000000E+00
  0.00000000E+00  0.00000000E+00  0.00000000E+00
  0.00000000E+00  0.00000000E+00  0.00000000E+00
  0.00000000E+00  0.00000000E+00  0.00000000E+00
  0.00000000E+00  0.00000000E+00  0.00000000E+00
  0.00000000E+00  0.00000000E+00  0.00000000E+00
  0.00000000E+00  0.00000000E+00  0.00000000E+00
  0.00000000E+00  0.00000000E+00  0.00000000E+00
  0.00000000E+00  0.00000000E+00  0.00000000E+00
  0.00000000E+00  0.00000000E+00  0.00000000E+00
  0.00000000E+00  0.00000000E+00  0.00000000E+00
  0.00000000E+00  0.00000000E+00  0.00000000E+00
  0.00000000E+00  0.00000000E+00  0.00000000E+00
  0.00000000E+00  0.00000000E+00  0.00000000E+00
  0.00000000E+00  0.00000000E+00  0.00000000E+00
  0.00000000E+00  0.00000000E+00  0.00000000E+00
  0.00000000E+00  0.00000000E+00  0.00000000E+00
  0.00000000E+00  0.00000000E+00  0.00000000E+00
  0.00000000E+00  0.00000000E+00  0.00000000E+00
  0.00000000E+00  0.00000000E+00  0.00000000E+00
  0.00000000E+00  0.00000000E+00  0.00000000E+00
  0.00000000E+00  0.00000000E+00  0.00000000E+00
  0.00000000E+00  0.00000000E+00  0.00000000E+00
  0.00000000E+00  0.00000000E+00  0.00000000E+00
  0.00000000E+00  0.00000000E+00  0.00000000E+00
  0.00000000E+00  0.00000000E+00  0.00000000E+00
  0.00000000E+00  0.00000000E+00  0.00000000E+00
  0.00000000E+00  0.00000000E+00  0.00000000E+00
  0.00000000E+00  0.00000000E+00  0.00000000E+00
  0.00000000E+00  0.00000000E+00  0.00000000E+00
  0.00000000E+00  0.00000000E+00  0.00000000E+00
  0.00000000E+00  0.00000000E+00  0.00000000E+00
  0.00000000E+00  0.00000000E+00  0.00000000E+00
  0.00000000E+00  0.00000000E+00  0.00000000E+00
  0.00000000E+00  0.00000000E+00  0.00000000E+00
  0.00000000E+00  0.00000000E+00  0.00000000E+00
  0.00000000E+00  0.00000000E+00  0.00000000E+00
  0.00000000E+00  0.00000000E+00  0.00000000E+00
  0.00000000E+00  0.00000000E+00  0.00000000E+00
  0.00000000E+00  0.00000000E+00  0.00000000E+00
  0.00000000E+00  0.00000000E+00  0.00000000E+00
  0.00000000E+00  0.00000000E+00  0.00000000E+00
  0.00000000E+00  0.00000000E+00  0.00000000E+00
  0.00000000E+00  0.00000000E+00  0.00000000E+00
  0.00000000E+00  0.00000000E+00  0.00000000E+00
  0.00000000E+00  0.00000000E+00  0.00000000E+00
  0.00000000E+00  0.00000000E+00  0.00000000E+00
  0.00000000E+00  0.00000000E+00  0.00000000E+00
  0.00000000E+00  0.00000000E+00  0.00000000E+00
  0.00000000E+00  0.00000000E+00  0.00000000E+00
  0.00000000E+00  0.00000000E+00  0.00000000E+00
  0.00000000E+00  0.00000000E+00  0.00000000E+00
  0.00000000E+00  0.00000000E+00  0.00000000E+00
  0.00000000E+00  0.00000000E+00  0.00000000E+00
  0.00000000E+00  0.00000000E+00  0.00000000E+00
  0.00000000E+00  0.00000000E+00  0.00000000E+00
  0.00000000E+00  0.00000000E+00  0.00000000E+00
  0.00000000E+00  0.00000000E+00  0.00000000E+00
  0.00000000E+00  0.00000000E+00  0.00000000E+00
  0.00000000E+00  0.00000000E+00  0.00000000E+00
  0.00000000E+00  0.00000000E+00  0.00000000E+00
  0.00000000E+00  0.00000000E+00  0.00000000E+00
  0.00000000E+00  0.00000000E+00  0.00000000E+00
  0.00000000E+00  0.00000000E+00  0.00000000E+00
  0.00000000E+00  0.00000000E+00  0.00000000E+00
  0.00000000E+00  0.00000000E+00  0.00000000E+00
  0.00000000E+00  0.00000000E+00  0.00000000E+00
  0.00000000E+00  0.00000000E+00  0.00000000E+00
  0.00000000E+00  0.00000000E+00  0.00000000E+00
  0.00000000E+00  0.00000000E+00  0.00000000E+00
  0.00000000E+00  0.00000000E+00  0.00000000E+00
  0.00000000E+00  0.00000000E+00  0.00000000E+00
  0.00000000E+00  0.00000000E+00  0.00000000E+00
  0.00000000E+00  0.00000000E+00  0.00000000E+00
  0.00000000E+00  0.00000000E+00  0.00000000E+00
  0.00000000E+00  0.00000000E+00  0.00000000E+00
  0.00000000E+00  0.00000000E+00  0.00000000E+00
  0.00000000E+00  0.00000000E+00  0.00000000E+00
  0.00000000E+00  0.00000000E+00  0.00000000E+00
  0.00000000E+00  0.00000000E+00  0.00000000E+00
  0.00000000E+00  0.00000000E+00  0.00000000E+00
  0.00000000E+00  0.00000000E+00  0.00000000E+00
  0.00000000E+00  0.00000000E+00  0.00000000E+00
  0.00000000E+00  0.00000000E+00  0.00000000E+00
  0.00000000E+00  0.00000000E+00  0.00000000E+00
