Ba10 Ga6                                
   1.00000000000000     
     7.4215662398756654    0.0000000000000000    0.0000000000000000
     0.0000000000000000   10.1772789583442602    0.0007754905060389
     0.0000000000000000    5.0893108817165711    8.8132018410604474
   Ga   Ba
     6    10
Direct
  0.7500000000000000  0.3906075646136529  0.9998586293798226
  0.2500000000000000  0.6093924353863471  0.0001413706201774
  0.2500000000000000  0.9997448315024045  0.3905914795632484
  0.7500000000000000  0.6095273889958861  0.3904911779670641
  0.7500000000000000  0.0002551684976027  0.6094085204367516
  0.2500000000000000  0.3904726110041139  0.6095088220329359
  0.2500000000000000  0.2691836080109837  0.0000639815497223
  0.7500000000000000  0.7308163919890163  0.9999360184502777
  0.7500000000000000  0.0000356370312389  0.2692754937333959
  0.2500000000000000  0.7305936463109148  0.2693730282405866
  0.4999986404595944  0.3333030457012569  0.3333063077438325
  0.0000013595404056  0.3333030457012569  0.3333063077438325
  0.9999986404595944  0.6666969542987431  0.6666936922561675
  0.5000013595404056  0.6666969542987431  0.6666936922561675
  0.2500000000000000  0.9999643629687611  0.7307245062666041
  0.7500000000000000  0.2694063536890852  0.7306269717594063
 
  0.00000000E+00  0.00000000E+00  0.00000000E+00
  0.00000000E+00  0.00000000E+00  0.00000000E+00
  0.00000000E+00  0.00000000E+00  0.00000000E+00
  0.00000000E+00  0.00000000E+00  0.00000000E+00
  0.00000000E+00  0.00000000E+00  0.00000000E+00
  0.00000000E+00  0.00000000E+00  0.00000000E+00
  0.00000000E+00  0.00000000E+00  0.00000000E+00
  0.00000000E+00  0.00000000E+00  0.00000000E+00
  0.00000000E+00  0.00000000E+00  0.00000000E+00
  0.00000000E+00  0.00000000E+00  0.00000000E+00
  0.00000000E+00  0.00000000E+00  0.00000000E+00
  0.00000000E+00  0.00000000E+00  0.00000000E+00
  0.00000000E+00  0.00000000E+00  0.00000000E+00
  0.00000000E+00  0.00000000E+00  0.00000000E+00
  0.00000000E+00  0.00000000E+00  0.00000000E+00
  0.00000000E+00  0.00000000E+00  0.00000000E+00
