Sr2Ga2I                                 
   1.00000000000000     
     4.4596024521976947   -0.0013815478012058    0.0000000000000000
    -2.2304974878393340    3.8615726386002693    0.0000000000000000
     0.0000000000000000    0.0000000000000000   18.3211830875213018
   Ga   I    Sr
     4     2     4
Direct
  0.3333631805973880  0.6666226435108484  0.0099207004159894
  0.3333631805973880  0.6666226435108484  0.4900792995840106
  0.6666368194026120  0.3333773564891516  0.5099207004159894
  0.6666368194026120  0.3333773564891516  0.9900792995840106
  0.6683144621232628  0.3315810248950797  0.2500000000000000
  0.3316855378767301  0.6684189751049203  0.7500000000000000
  0.0003527805517791  0.9996366907302559  0.1163449398792267
  0.0003527805517791  0.9996366907302559  0.3836550601207733
  0.9996472194482209  0.0003633092697441  0.6163449398792267
  0.9996472194482209  0.0003633092697441  0.8836550601207733
 
  0.00000000E+00  0.00000000E+00  0.00000000E+00
  0.00000000E+00  0.00000000E+00  0.00000000E+00
  0.00000000E+00  0.00000000E+00  0.00000000E+00
  0.00000000E+00  0.00000000E+00  0.00000000E+00
  0.00000000E+00  0.00000000E+00  0.00000000E+00
  0.00000000E+00  0.00000000E+00  0.00000000E+00
  0.00000000E+00  0.00000000E+00  0.00000000E+00
  0.00000000E+00  0.00000000E+00  0.00000000E+00
  0.00000000E+00  0.00000000E+00  0.00000000E+00
  0.00000000E+00  0.00000000E+00  0.00000000E+00
