B2F                                     
   1.00000000000000     
     5.9563169722234024    0.0000000000000000    0.0000000000000000
     0.0000000000000000    5.9563169722234015    0.0000000000000000
     0.0000000000000000    0.0000000000000000    1.8596278973370004
   B    F 
     4     2
Direct
  0.1812008506956957  0.1812008506956957  0.0000000000000000
  0.8187991493043043  0.8187991493043043  0.0000000000000000
  0.6812008506956957  0.3187991493043043  0.5000000000000000
  0.3187991493043043  0.6812008506956957  0.5000000000000000
  0.0000000000000000  0.0000000000000000  0.0000000000000000
  0.5000000000000000  0.5000000000000000  0.5000000000000000
 
  0.00000000E+00  0.00000000E+00  0.00000000E+00
  0.00000000E+00  0.00000000E+00  0.00000000E+00
  0.00000000E+00  0.00000000E+00  0.00000000E+00
  0.00000000E+00  0.00000000E+00  0.00000000E+00
  0.00000000E+00  0.00000000E+00  0.00000000E+00
  0.00000000E+00  0.00000000E+00  0.00000000E+00
