SrAl12                                  
   1.00000000000000     
    -4.7250651941052659    4.7250651941052659    2.6979967259231601
     4.7250651941052659   -4.7250651941052659    2.6979967259231601
     4.7250651941052659    4.7250651941052659   -2.6979967259231601
   Al   Sr
    12     1
Direct
  0.5000000000000000  0.0000000000000000  0.0000000000000000
  0.0000000000000000  0.5000000000000000  0.0000000000000000
  0.7250459460264480  0.5000000000000000  0.2250459460264480
  0.5000000000000000  0.7250459460264480  0.2250459460264480
  0.3576379518063604  0.0000000000000000  0.3576379518063604
  0.0000000000000000  0.3576379518063604  0.3576379518063604
  0.0000000000000000  0.0000000000000000  0.5000000000000000
  0.5000000000000000  0.5000000000000000  0.5000000000000000
  0.6423620481936396  0.0000000000000000  0.6423620481936396
  0.0000000000000000  0.6423620481936396  0.6423620481936396
  0.5000000000000000  0.2749540539735520  0.7749540539735520
  0.2749540539735520  0.5000000000000000  0.7749540539735520
  0.0000000000000000  0.0000000000000000  0.0000000000000000
 
  0.00000000E+00  0.00000000E+00  0.00000000E+00
  0.00000000E+00  0.00000000E+00  0.00000000E+00
  0.00000000E+00  0.00000000E+00  0.00000000E+00
  0.00000000E+00  0.00000000E+00  0.00000000E+00
  0.00000000E+00  0.00000000E+00  0.00000000E+00
  0.00000000E+00  0.00000000E+00  0.00000000E+00
  0.00000000E+00  0.00000000E+00  0.00000000E+00
  0.00000000E+00  0.00000000E+00  0.00000000E+00
  0.00000000E+00  0.00000000E+00  0.00000000E+00
  0.00000000E+00  0.00000000E+00  0.00000000E+00
  0.00000000E+00  0.00000000E+00  0.00000000E+00
  0.00000000E+00  0.00000000E+00  0.00000000E+00
  0.00000000E+00  0.00000000E+00  0.00000000E+00
