Be6 B4                                  
   1.00000000000000     
    -4.2999462404651032   -0.4791362751912553    0.1353024999098521
     1.7464108024087772   -4.1010103654424768   -0.1292710168889163
    -2.1362650277610982    1.2710973766124298    4.2684990424784193
   B    Be
     4     6
Direct
  0.3284815477952066  0.6177274320057862  0.0475305577606662
  0.1107166731990077  0.8253319078630170  0.4504570489247683
  0.8893793888129835  0.1747458078284581  0.5494780708000775
  0.6716111490931738  0.3823499616578161  0.9524024561751077
  0.6451141610027378  0.8239428586110051  0.2777289899336779
  0.8813854692208594  0.3857638093222135  0.2583013648641028
  0.3346589741330632  0.1394195843811872  0.2281679135387193
  0.6654395586822588  0.8606556175090958  0.7717697751679751
  0.1187147315812709  0.6143188953127776  0.7416312399625866
  0.3549983464794408  0.1761441255086567  0.7221825828723283
 
  0.00000000E+00  0.00000000E+00  0.00000000E+00
  0.00000000E+00  0.00000000E+00  0.00000000E+00
  0.00000000E+00  0.00000000E+00  0.00000000E+00
  0.00000000E+00  0.00000000E+00  0.00000000E+00
  0.00000000E+00  0.00000000E+00  0.00000000E+00
  0.00000000E+00  0.00000000E+00  0.00000000E+00
  0.00000000E+00  0.00000000E+00  0.00000000E+00
  0.00000000E+00  0.00000000E+00  0.00000000E+00
  0.00000000E+00  0.00000000E+00  0.00000000E+00
  0.00000000E+00  0.00000000E+00  0.00000000E+00
