Ca1 B8                                  
   1.00000000000000     
     5.7993326598120447    0.9435718209144892    0.0000000000000000
    -2.1459778614752691    3.9251710290446633    0.0000000000000000
     0.0000000000000000    0.0000000000000000    4.5224694973587063
   B    Ca
     8     1
Direct
  0.2988662382938969  0.1920503799631632  0.0000000000000000
  0.7961803282371918  0.1916273768360668  0.0000000000000000
  0.6011565713696285  0.4074945553805804  0.0000000000000000
  0.1021540260480194  0.4059718980330089  0.0000000000000000
  0.8978459739519806  0.5940281019669911  0.0000000000000000
  0.3988434286303715  0.5925054446194196  0.0000000000000000
  0.2038196717628082  0.8083726231639332  0.0000000000000000
  0.7011337617061031  0.8079496200368439  0.0000000000000000
  0.0000000000000000  0.0000000000000000  0.5000000000000000
 
  0.00000000E+00  0.00000000E+00  0.00000000E+00
  0.00000000E+00  0.00000000E+00  0.00000000E+00
  0.00000000E+00  0.00000000E+00  0.00000000E+00
  0.00000000E+00  0.00000000E+00  0.00000000E+00
  0.00000000E+00  0.00000000E+00  0.00000000E+00
  0.00000000E+00  0.00000000E+00  0.00000000E+00
  0.00000000E+00  0.00000000E+00  0.00000000E+00
  0.00000000E+00  0.00000000E+00  0.00000000E+00
  0.00000000E+00  0.00000000E+00  0.00000000E+00
