Ba4 Al10 Cl2                            
   1.00000000000000     
     7.9940127955419342   -0.0072171820284991    0.0141393381799661
     0.0067697872117302    8.6646414740967721   -0.0095748832535313
     4.0058934161236817    4.3160806762797774    6.6080806082711279
   Cl   Ba   Al
     2     4    10
Direct
  0.9228194547036352  0.9029544024089091  0.1621018063821680
  0.4161244653294887  0.4026608537206968  0.1627363131933137
  0.2823364528127925  0.0977633597033005  0.1126845495576703
  0.7779219369331614  0.2609214107812576  0.1216604177516487
  0.1058610212986437  0.5969379010103211  0.1139488070888390
  0.6017336251012395  0.7604791867218594  0.1225426981355611
  0.2310588069541666  0.2620570224324155  0.6409587025520551
  0.6269204549097367  0.7618343320746703  0.6410800017437239
  0.3427562801419768  0.8549380308130381  0.5267011377734931
  0.8344148098640431  0.0871597616430506  0.5424667024047380
  0.6299238009592329  0.3551651855308364  0.5270975496653350
  0.1229899537119223  0.5873327850729524  0.5416639271468568
  0.8553079411075188  0.2753607170511216  0.7005206080121837
  0.3674204710563700  0.5087617741127133  0.6934888687540450
  0.9438041619196156  0.7759353309554626  0.6990164594430368
  0.4385063631964599  0.0096379459673912  0.6913314503953316
 
  0.00000000E+00  0.00000000E+00  0.00000000E+00
  0.00000000E+00  0.00000000E+00  0.00000000E+00
  0.00000000E+00  0.00000000E+00  0.00000000E+00
  0.00000000E+00  0.00000000E+00  0.00000000E+00
  0.00000000E+00  0.00000000E+00  0.00000000E+00
  0.00000000E+00  0.00000000E+00  0.00000000E+00
  0.00000000E+00  0.00000000E+00  0.00000000E+00
  0.00000000E+00  0.00000000E+00  0.00000000E+00
  0.00000000E+00  0.00000000E+00  0.00000000E+00
  0.00000000E+00  0.00000000E+00  0.00000000E+00
  0.00000000E+00  0.00000000E+00  0.00000000E+00
  0.00000000E+00  0.00000000E+00  0.00000000E+00
  0.00000000E+00  0.00000000E+00  0.00000000E+00
  0.00000000E+00  0.00000000E+00  0.00000000E+00
  0.00000000E+00  0.00000000E+00  0.00000000E+00
  0.00000000E+00  0.00000000E+00  0.00000000E+00
