Mg5In                                   
   1.00000000000000     
     0.0000000000000000    0.0000000000000000    5.0942836403560552
     4.8228814506888078    2.7890761519560954    0.0000000000000000
     0.0038385721458114    5.5715040156059317    0.0000000000000000
   In   Mg
     1     5
Direct
  0.5000000000000000  0.6670298206830765  0.3329728513596137
  0.0000000000000000  0.9996747758017435  0.0003326127331178
  0.5000000000000000  0.3332648508658806  0.0000954677559335
  0.0000000000000000  0.3336399256143707  0.3334988260043019
  0.5000000000000000  0.9999055873458218  0.6667445582914695
  0.0000000000000000  0.6665080396891057  0.6663557814555574
 
  0.00000000E+00  0.00000000E+00  0.00000000E+00
  0.00000000E+00  0.00000000E+00  0.00000000E+00
  0.00000000E+00  0.00000000E+00  0.00000000E+00
  0.00000000E+00  0.00000000E+00  0.00000000E+00
  0.00000000E+00  0.00000000E+00  0.00000000E+00
  0.00000000E+00  0.00000000E+00  0.00000000E+00
