Ca8 In4 Cl28                            
   1.0000000000000000     
     9.9572899704751876    0.0000978914576897   -0.0045433396288105
     0.0003942009381389    8.9796927602515453   -0.0007170160463432
     0.0012317564545807   -0.0009802767356701   12.2410015215246695
   In   Ca   Cl
     4     8    28
Direct
  0.3259777562998423  0.2511258050819336  0.0560350921438442
  0.8258652321150493  0.2484936215004083  0.4439519250762416
  0.1740738007643827  0.7490293927807343  0.5560919876322146
  0.6737779796828036  0.7512923796698630  0.9439694522288491
  0.8251388375589102  0.2503300614628046  0.0942396144916273
  0.3537946986752232  0.7498111083390526  0.2450490570655930
  0.8537615484716596  0.7500205858168840  0.2549690655942740
  0.3250041251789284  0.2497031214042025  0.4056745791183474
  0.6750450076205823  0.7495980678470673  0.5942891097877236
  0.1466136273954177  0.2501470747997132  0.7449290727975821
  0.6465114649697554  0.2499520747828115  0.7551050369964258
  0.1747111207591061  0.7502391939276407  0.9056348130971585
  0.4313552348025951  0.7501770299167561  0.0192966359778950
  0.7435908820922492  0.5613597511258348  0.0882095049183391
  0.7415050529473319  0.9401682190853151  0.0897353378020824
  0.1061174484497016  0.7495536062259731  0.1347264974418678
  0.0926537472812825  0.2543739144597623  0.1307587309653044
  0.3876633844463413  0.0612354030279008  0.1999995788976747
  0.3917495798692130  0.4391590137758641  0.2003452749163941
  0.8918189065065789  0.0604743561996841  0.2997985556892715
  0.8872193065021321  0.4383303606958577  0.2998075361901300
  0.5924224096242909  0.2447539330395543  0.3694171712603804
  0.6063388635068847  0.7499147568466213  0.3652714232031329
  0.2418098080227296  0.5599803330073243  0.4104547330403889
  0.2431522414761531  0.9388098987463209  0.4114878461912781
  0.9317450268881657  0.7493702870914447  0.4805534225933812
  0.0683519769264933  0.2502410989026416  0.5193410720978733
  0.7586890978471672  0.0598186345216760  0.5897982081634012
  0.7560347293436038  0.4385688764684303  0.5881418129181810
  0.3941466564878269  0.2502976839347966  0.6345974123463307
  0.4075876885056502  0.7465464761421714  0.6304443465113891
  0.1087134464224206  0.5609574631331284  0.7004109513086263
  0.1121526538152793  0.9388091359995983  0.7000373690984247
  0.6122352566171614  0.5615125490649859  0.7998198019133085
  0.6084136360712122  0.9394967560717902  0.7997937155095585
  0.9072373090315367  0.7545207262007096  0.8694110164154125
  0.8941776459978783  0.2499357462588065  0.8652648078806209
  0.2565106919202265  0.0612803217278852  0.9116355039557646
  0.2583875521050700  0.4400288928860405  0.9103978197284519
  0.5684445670011513  0.2503822880299822  0.9805051070352206

  0.00000000E+00  0.00000000E+00  0.00000000E+00
  0.00000000E+00  0.00000000E+00  0.00000000E+00
  0.00000000E+00  0.00000000E+00  0.00000000E+00
  0.00000000E+00  0.00000000E+00  0.00000000E+00
  0.00000000E+00  0.00000000E+00  0.00000000E+00
  0.00000000E+00  0.00000000E+00  0.00000000E+00
  0.00000000E+00  0.00000000E+00  0.00000000E+00
  0.00000000E+00  0.00000000E+00  0.00000000E+00
  0.00000000E+00  0.00000000E+00  0.00000000E+00
  0.00000000E+00  0.00000000E+00  0.00000000E+00
  0.00000000E+00  0.00000000E+00  0.00000000E+00
  0.00000000E+00  0.00000000E+00  0.00000000E+00
  0.00000000E+00  0.00000000E+00  0.00000000E+00
  0.00000000E+00  0.00000000E+00  0.00000000E+00
  0.00000000E+00  0.00000000E+00  0.00000000E+00
  0.00000000E+00  0.00000000E+00  0.00000000E+00
  0.00000000E+00  0.00000000E+00  0.00000000E+00
  0.00000000E+00  0.00000000E+00  0.00000000E+00
  0.00000000E+00  0.00000000E+00  0.00000000E+00
  0.00000000E+00  0.00000000E+00  0.00000000E+00
  0.00000000E+00  0.00000000E+00  0.00000000E+00
  0.00000000E+00  0.00000000E+00  0.00000000E+00
  0.00000000E+00  0.00000000E+00  0.00000000E+00
  0.00000000E+00  0.00000000E+00  0.00000000E+00
  0.00000000E+00  0.00000000E+00  0.00000000E+00
  0.00000000E+00  0.00000000E+00  0.00000000E+00
  0.00000000E+00  0.00000000E+00  0.00000000E+00
  0.00000000E+00  0.00000000E+00  0.00000000E+00
  0.00000000E+00  0.00000000E+00  0.00000000E+00
  0.00000000E+00  0.00000000E+00  0.00000000E+00
  0.00000000E+00  0.00000000E+00  0.00000000E+00
  0.00000000E+00  0.00000000E+00  0.00000000E+00
  0.00000000E+00  0.00000000E+00  0.00000000E+00
  0.00000000E+00  0.00000000E+00  0.00000000E+00
  0.00000000E+00  0.00000000E+00  0.00000000E+00
  0.00000000E+00  0.00000000E+00  0.00000000E+00
  0.00000000E+00  0.00000000E+00  0.00000000E+00
  0.00000000E+00  0.00000000E+00  0.00000000E+00
  0.00000000E+00  0.00000000E+00  0.00000000E+00
  0.00000000E+00  0.00000000E+00  0.00000000E+00
