MgCl4                                   
   1.00000000000000     
     3.1661733627000572   -7.7824187856384430    0.0000000000000000
     3.1661733627000572    7.7824187856384430    0.0000000000000000
     0.0000000000000000    0.0000000000000000    6.6275911703075305
   Cl   Mg
     8     2
Direct
  0.5669746989728495  0.1578652044399433  0.0000000000000000
  0.1280323749557724  0.2752138958309800  0.0000000000000000
  0.8719676250442276  0.7247861041690200  0.0000000000000000
  0.4330253010271505  0.8421347955600567  0.0000000000000000
  0.2752138958309800  0.1280323749557724  0.5000000000000000
  0.8421347955600567  0.4330253010271505  0.5000000000000000
  0.1578652044399433  0.5669746989728495  0.5000000000000000
  0.7247861041690200  0.8719676250442276  0.5000000000000000
  0.0000000000000000  0.0000000000000000  0.2500000000000000
  0.0000000000000000  0.0000000000000000  0.7500000000000000
 
  0.00000000E+00  0.00000000E+00  0.00000000E+00
  0.00000000E+00  0.00000000E+00  0.00000000E+00
  0.00000000E+00  0.00000000E+00  0.00000000E+00
  0.00000000E+00  0.00000000E+00  0.00000000E+00
  0.00000000E+00  0.00000000E+00  0.00000000E+00
  0.00000000E+00  0.00000000E+00  0.00000000E+00
  0.00000000E+00  0.00000000E+00  0.00000000E+00
  0.00000000E+00  0.00000000E+00  0.00000000E+00
  0.00000000E+00  0.00000000E+00  0.00000000E+00
  0.00000000E+00  0.00000000E+00  0.00000000E+00
