Sr22 Tl14                               
   1.0000000000000000     
     0.0000000000000000    8.9676259566667564    8.9676259566667564
     8.9676259566667564   -0.0000000000000000    8.9676259566667564
     8.9676259566667564    8.9676259566667564    0.0000000000000000
   Sr   Tl
    22    14
Direct
  0.0000000000000000  0.0000000000000000  0.0000000000000000
  0.5000000000000000  0.5000000000000000  0.5000000000000000
  0.1295849493380672  0.1295849493380672  0.1295849493380672
  0.3887538480142041  0.8704150506619328  0.8704150506619328
  0.8704150506619328  0.3887538480142041  0.8704150506619328
  0.8704150506619328  0.8704150506619328  0.3887538480142041
  0.1295849493380672  0.6112461519857959  0.1295849493380672
  0.1295849493380672  0.1295849493380672  0.6112461519857959
  0.6112461519857959  0.1295849493380672  0.1295849493380672
  0.8704150506619328  0.8704150506619328  0.8704150506619328
  0.5000000000000000  0.8339694072045347  0.5000000000000000
  0.8339694072045347  0.5000000000000000  0.5000000000000000
  0.5000000000000000  0.8339694072045347  0.1660305927954653
  0.1660305927954653  0.5000000000000000  0.8339694072045347
  0.8339694072045347  0.5000000000000000  0.1660305927954653
  0.5000000000000000  0.5000000000000000  0.8339694072045347
  0.1660305927954653  0.8339694072045347  0.5000000000000000
  0.5000000000000000  0.1660305927954653  0.8339694072045347
  0.5000000000000000  0.5000000000000000  0.1660305927954653
  0.8339694072045347  0.1660305927954653  0.5000000000000000
  0.1660305927954653  0.5000000000000000  0.5000000000000000
  0.5000000000000000  0.1660305927954653  0.5000000000000000
  0.2191447182639834  0.7808552817360166  0.2191447182639834
  0.2191447182639834  0.7808552817360166  0.7808552817360166
  0.7808552817360166  0.2191447182639834  0.2191447182639834
  0.7808552817360166  0.7808552817360166  0.2191447182639834
  0.2191447182639834  0.2191447182639834  0.7808552817360166
  0.7808552817360166  0.2191447182639834  0.7808552817360166
  0.3130132494252607  0.3130122494252632  0.3130122494252632
  0.9390377482757870  0.6869877505747368  0.6869877505747368
  0.6869877505747368  0.9390377482757870  0.6869877505747368
  0.6869877505747368  0.6869877505747368  0.9390377482757870
  0.3130122494252632  0.0609622517242130  0.3130122494252632
  0.3130122494252632  0.3130122494252632  0.0609622517242130
  0.0609622517242130  0.3130122494252632  0.3130122494252632
  0.6869877505747368  0.6869877505747368  0.6869867505747393

  0.00000000E+00  0.00000000E+00  0.00000000E+00
  0.00000000E+00  0.00000000E+00  0.00000000E+00
  0.00000000E+00  0.00000000E+00  0.00000000E+00
  0.00000000E+00  0.00000000E+00  0.00000000E+00
  0.00000000E+00  0.00000000E+00  0.00000000E+00
  0.00000000E+00  0.00000000E+00  0.00000000E+00
  0.00000000E+00  0.00000000E+00  0.00000000E+00
  0.00000000E+00  0.00000000E+00  0.00000000E+00
  0.00000000E+00  0.00000000E+00  0.00000000E+00
  0.00000000E+00  0.00000000E+00  0.00000000E+00
  0.00000000E+00  0.00000000E+00  0.00000000E+00
  0.00000000E+00  0.00000000E+00  0.00000000E+00
  0.00000000E+00  0.00000000E+00  0.00000000E+00
  0.00000000E+00  0.00000000E+00  0.00000000E+00
  0.00000000E+00  0.00000000E+00  0.00000000E+00
  0.00000000E+00  0.00000000E+00  0.00000000E+00
  0.00000000E+00  0.00000000E+00  0.00000000E+00
  0.00000000E+00  0.00000000E+00  0.00000000E+00
  0.00000000E+00  0.00000000E+00  0.00000000E+00
  0.00000000E+00  0.00000000E+00  0.00000000E+00
  0.00000000E+00  0.00000000E+00  0.00000000E+00
  0.00000000E+00  0.00000000E+00  0.00000000E+00
  0.00000000E+00  0.00000000E+00  0.00000000E+00
  0.00000000E+00  0.00000000E+00  0.00000000E+00
  0.00000000E+00  0.00000000E+00  0.00000000E+00
  0.00000000E+00  0.00000000E+00  0.00000000E+00
  0.00000000E+00  0.00000000E+00  0.00000000E+00
  0.00000000E+00  0.00000000E+00  0.00000000E+00
  0.00000000E+00  0.00000000E+00  0.00000000E+00
  0.00000000E+00  0.00000000E+00  0.00000000E+00
  0.00000000E+00  0.00000000E+00  0.00000000E+00
  0.00000000E+00  0.00000000E+00  0.00000000E+00
  0.00000000E+00  0.00000000E+00  0.00000000E+00
  0.00000000E+00  0.00000000E+00  0.00000000E+00
  0.00000000E+00  0.00000000E+00  0.00000000E+00
  0.00000000E+00  0.00000000E+00  0.00000000E+00
