Sr16 B12 Cl1                            
   1.00000000000000     
     9.6153174172985310   -5.5559800743875964    4.1132247616679116
    -0.1032565913236045   10.0578612515323940    2.8607688703713499
    -8.7404407025807007   -4.9434363983034402    2.8512173286738962
   B    Cl   Sr
    12     1    16
Direct
  0.8043903875861176  0.6832905579298370  0.0082557242911321
  0.7084689413732761  0.7561522824042655  0.9995756062918062
  0.2784692569226408  0.4839715221473355  0.3921512275826302
  0.8153992734133695  0.5245614121898967  0.0129596999033765
  0.9441419514631662  0.2812988923171531  0.2796903021874400
  0.2782913322093634  0.3917796177149100  0.4846530053036275
  0.1177829877843592  0.3734904067696050  0.3742347611987995
  0.8037472704682216  0.0081761833530578  0.6829593151438900
  0.9485065012685112  0.0383220485348161  0.6738241846997184
  0.7076108729391919  0.9998496395562526  0.7557855274032121
  0.9489651382787656  0.6737382700559849  0.0387467439672164
  0.8155939890067430  0.0131488222294891  0.5244082065173359
  0.4345281428421686  0.9713983354925233  0.9717876904799283
  0.0621473691396304  0.2514578289387401  0.0281727623829724
  0.6974267549772435  0.2236349349476896  0.0052265166402705
  0.2009669918358483  0.7811161035426863  0.0283764759053540
  0.9160407382799463  0.5002515886177576  0.5005302307514512
  0.7810711388764702  0.7122515844358830  0.2842298729863444
  0.6991981232068412  0.0061985098839514  0.2235651642642082
  0.1069590357227028  0.6375623045631258  0.3009230790524313
  0.0636439771888888  0.0278172805776293  0.2530088546671578
  0.4468571616463564  0.3411247773459536  0.3402512035763223
  0.5039575596536778  0.7700562396761654  0.3990023666877178
  0.1081031594748296  0.3020104640680756  0.6400274001459820
  0.2001583717416651  0.0276059799370856  0.7799426872549091
  0.8324910411595212  0.7891025901156965  0.7887676729872268
  0.7813483349942345  0.2842435421582579  0.7123745960728058
  0.4825027709851000  0.7467058484860161  0.7467745128882370
  0.5044314255611582  0.3996834320101783  0.7697956087664863
 
  0.00000000E+00  0.00000000E+00  0.00000000E+00
  0.00000000E+00  0.00000000E+00  0.00000000E+00
  0.00000000E+00  0.00000000E+00  0.00000000E+00
  0.00000000E+00  0.00000000E+00  0.00000000E+00
  0.00000000E+00  0.00000000E+00  0.00000000E+00
  0.00000000E+00  0.00000000E+00  0.00000000E+00
  0.00000000E+00  0.00000000E+00  0.00000000E+00
  0.00000000E+00  0.00000000E+00  0.00000000E+00
  0.00000000E+00  0.00000000E+00  0.00000000E+00
  0.00000000E+00  0.00000000E+00  0.00000000E+00
  0.00000000E+00  0.00000000E+00  0.00000000E+00
  0.00000000E+00  0.00000000E+00  0.00000000E+00
  0.00000000E+00  0.00000000E+00  0.00000000E+00
  0.00000000E+00  0.00000000E+00  0.00000000E+00
  0.00000000E+00  0.00000000E+00  0.00000000E+00
  0.00000000E+00  0.00000000E+00  0.00000000E+00
  0.00000000E+00  0.00000000E+00  0.00000000E+00
  0.00000000E+00  0.00000000E+00  0.00000000E+00
  0.00000000E+00  0.00000000E+00  0.00000000E+00
  0.00000000E+00  0.00000000E+00  0.00000000E+00
  0.00000000E+00  0.00000000E+00  0.00000000E+00
  0.00000000E+00  0.00000000E+00  0.00000000E+00
  0.00000000E+00  0.00000000E+00  0.00000000E+00
  0.00000000E+00  0.00000000E+00  0.00000000E+00
  0.00000000E+00  0.00000000E+00  0.00000000E+00
  0.00000000E+00  0.00000000E+00  0.00000000E+00
  0.00000000E+00  0.00000000E+00  0.00000000E+00
  0.00000000E+00  0.00000000E+00  0.00000000E+00
  0.00000000E+00  0.00000000E+00  0.00000000E+00
