Sr1 B2 F10                              
   1.00000000000000     
     3.9780896362937690    3.1498197342372785    0.5909857121152862
    -3.9780896362937690    3.1498197342372785    0.5909857121152862
    -0.0000000000000001    3.2096110694296840    6.7541804885073082
   Sr   B    F 
     1     2    10
Direct
  0.4463168103251220  0.5536831896748851  0.0000000000000000
  0.2720724125092389  0.0613401074064512  0.5627651747280424
  0.9386598925935488  0.7279275874907611  0.4372348252719576
  0.4286109046564377  0.3356169209815221  0.3657524909350442
  0.6643830790184779  0.5713890953435623  0.6342475090649558
  0.9893073620309636  0.0341482790376233  0.7027324284445911
  0.9658517209623838  0.0106926379690364  0.2972675715554161
  0.7525700038290424  0.2474299961709576  0.0000000000000000
  0.1979858571964641  0.8020141428035359  0.5000000000000000
  0.4570890326265413  0.0243137360480432  0.9964358706852892
  0.9756862639519568  0.5429109673734587  0.0035641293147108
  0.4521509423631969  0.9966852820633179  0.6536576849004163
  0.0033147179366750  0.5478490576368031  0.3463423150995837
 
  0.00000000E+00  0.00000000E+00  0.00000000E+00
  0.00000000E+00  0.00000000E+00  0.00000000E+00
  0.00000000E+00  0.00000000E+00  0.00000000E+00
  0.00000000E+00  0.00000000E+00  0.00000000E+00
  0.00000000E+00  0.00000000E+00  0.00000000E+00
  0.00000000E+00  0.00000000E+00  0.00000000E+00
  0.00000000E+00  0.00000000E+00  0.00000000E+00
  0.00000000E+00  0.00000000E+00  0.00000000E+00
  0.00000000E+00  0.00000000E+00  0.00000000E+00
  0.00000000E+00  0.00000000E+00  0.00000000E+00
  0.00000000E+00  0.00000000E+00  0.00000000E+00
  0.00000000E+00  0.00000000E+00  0.00000000E+00
  0.00000000E+00  0.00000000E+00  0.00000000E+00
