Be22 In14                               
   1.00000000000000     
    -0.0000000000000001    6.9013756833294160    6.9013756833294160
     6.9013756833294160    0.0000000000000002    6.9013756833294160
     6.9013756833294160    6.9013756833294160    0.0000000000000001
   Be   In
    22    14
Direct
  0.0000000000000000  0.0000000000000000  0.0000000000000000
  0.5000000000000000  0.5000000000000000  0.5000000000000000
  0.0885542987215544  0.0885542987215544  0.0885542987215544
  0.2656618961646657  0.9114457012784456  0.9114457012784456
  0.9114457012784456  0.2656618961646657  0.9114457012784456
  0.9114457012784456  0.9114457012784456  0.2656618961646657
  0.0885542987215544  0.7343381038353343  0.0885542987215544
  0.0885542987215544  0.0885542987215544  0.7343381038353343
  0.7343381038353343  0.0885542987215544  0.0885542987215544
  0.9114457012784456  0.9114457012784456  0.9114457012784456
  0.5000000000000000  0.7220191466478738  0.5000000000000000
  0.7220191466478738  0.5000000000000000  0.5000000000000000
  0.5000000000000000  0.7220191466478738  0.2779808533521262
  0.2779808533521262  0.5000000000000000  0.7220191466478738
  0.7220191466478738  0.5000000000000000  0.2779808533521262
  0.5000000000000000  0.5000000000000000  0.7220191466478738
  0.2779808533521262  0.7220191466478738  0.5000000000000000
  0.5000000000000000  0.2779808533521262  0.7220191466478738
  0.5000000000000000  0.5000000000000000  0.2779808533521262
  0.7220191466478738  0.2779808533521262  0.5000000000000000
  0.2779808533521262  0.5000000000000000  0.5000000000000000
  0.5000000000000000  0.2779808533521262  0.5000000000000000
  0.2313926695250217  0.7686073304749783  0.2313926695250217
  0.2313926695250217  0.7686073304749783  0.7686073304749783
  0.7686073304749783  0.2313926695250217  0.2313926695250217
  0.7686073304749783  0.7686073304749783  0.2313926695250217
  0.2313926695250217  0.2313926695250217  0.7686073304749783
  0.7686073304749783  0.2313926695250217  0.7686073304749783
  0.3281024545162339  0.3281014545162364  0.3281014545162364
  0.9843053635486925  0.6718985454837636  0.6718985454837636
  0.6718985454837636  0.9843053635486925  0.6718985454837636
  0.6718985454837636  0.6718985454837636  0.9843053635486925
  0.3281014545162364  0.0156946364513075  0.3281014545162364
  0.3281014545162364  0.3281014545162364  0.0156946364513075
  0.0156946364513075  0.3281014545162364  0.3281014545162364
  0.6718985454837636  0.6718985454837636  0.6718975454837661
 
  0.00000000E+00  0.00000000E+00  0.00000000E+00
  0.00000000E+00  0.00000000E+00  0.00000000E+00
  0.00000000E+00  0.00000000E+00  0.00000000E+00
  0.00000000E+00  0.00000000E+00  0.00000000E+00
  0.00000000E+00  0.00000000E+00  0.00000000E+00
  0.00000000E+00  0.00000000E+00  0.00000000E+00
  0.00000000E+00  0.00000000E+00  0.00000000E+00
  0.00000000E+00  0.00000000E+00  0.00000000E+00
  0.00000000E+00  0.00000000E+00  0.00000000E+00
  0.00000000E+00  0.00000000E+00  0.00000000E+00
  0.00000000E+00  0.00000000E+00  0.00000000E+00
  0.00000000E+00  0.00000000E+00  0.00000000E+00
  0.00000000E+00  0.00000000E+00  0.00000000E+00
  0.00000000E+00  0.00000000E+00  0.00000000E+00
  0.00000000E+00  0.00000000E+00  0.00000000E+00
  0.00000000E+00  0.00000000E+00  0.00000000E+00
  0.00000000E+00  0.00000000E+00  0.00000000E+00
  0.00000000E+00  0.00000000E+00  0.00000000E+00
  0.00000000E+00  0.00000000E+00  0.00000000E+00
  0.00000000E+00  0.00000000E+00  0.00000000E+00
  0.00000000E+00  0.00000000E+00  0.00000000E+00
  0.00000000E+00  0.00000000E+00  0.00000000E+00
  0.00000000E+00  0.00000000E+00  0.00000000E+00
  0.00000000E+00  0.00000000E+00  0.00000000E+00
  0.00000000E+00  0.00000000E+00  0.00000000E+00
  0.00000000E+00  0.00000000E+00  0.00000000E+00
  0.00000000E+00  0.00000000E+00  0.00000000E+00
  0.00000000E+00  0.00000000E+00  0.00000000E+00
  0.00000000E+00  0.00000000E+00  0.00000000E+00
  0.00000000E+00  0.00000000E+00  0.00000000E+00
  0.00000000E+00  0.00000000E+00  0.00000000E+00
  0.00000000E+00  0.00000000E+00  0.00000000E+00
  0.00000000E+00  0.00000000E+00  0.00000000E+00
  0.00000000E+00  0.00000000E+00  0.00000000E+00
  0.00000000E+00  0.00000000E+00  0.00000000E+00
  0.00000000E+00  0.00000000E+00  0.00000000E+00
