Tl3                                     
   1.00000000000000     
    -1.8248935396483312    3.1608123792929650   -0.0000000083986622
     3.6497892530870422    0.0000000509962725    0.0000000088859065
     1.8248935595017099   -1.0536034015270466   -8.2073790270047233
   Tl
     3
Direct
  0.0000000000000000  0.0000000000000000  0.0000000000000000
  0.7792983205698647  0.2207026794300901  0.3378929617098549
  0.2207026794301399  0.7792973205699099  0.6621070382901451
 
  0.00000000E+00  0.00000000E+00  0.00000000E+00
  0.00000000E+00  0.00000000E+00  0.00000000E+00
  0.00000000E+00  0.00000000E+00  0.00000000E+00
