Ca4 Tl4 Cl20                            
   1.0000000000000000     
     4.4465008197583495   -0.0000000000000002    0.0000000000000004
    -0.0000000000000004   10.8580937470934007    0.0000000000000007
    -0.0000000000000003    0.0000000000000008   18.4310692162038663
   Ca   Tl   Cl
     4     4    20
Direct
  0.0014620105012213  0.2778635116677393  0.3271012361849586
  0.5014620105012213  0.2221364883322607  0.6728987638150414
  0.9985379894987716  0.7778635116677393  0.1728987638150414
  0.4985379894987716  0.7221364883322607  0.8271012361849586
  0.5002545195940229  0.6821817466357487  0.4025805599067951
  0.0002545195940229  0.8178182533642513  0.5974194400931978
  0.4997454804059771  0.1821817466357416  0.0974194400931978
  0.9997454804059771  0.3178182533642584  0.9025805599067951
  0.0003472284783470  0.6144052069223989  0.4903259310637864
  0.5003472284783328  0.8855947930776011  0.5096740689362136
  0.9996527715216530  0.1144052069223918  0.0096740689362136
  0.4996527715216530  0.3855947930776082  0.9903259310637864
  0.9998623544204079  0.7790513946556672  0.3250618266064080
  0.4998623544204079  0.7209486053443328  0.6749381733935920
  0.0001376455795921  0.2790513946556672  0.1749381733935920
  0.5001376455795921  0.2209486053443328  0.8250618266064080
  0.9975959557189285  0.7411282017579381  0.0115031480763506
  0.4975959557189285  0.7588717982420619  0.9884968519236494
  0.0024040442810715  0.2411282017579381  0.4884968519236494
  0.5024040442810715  0.2588717982420619  0.5115031480763506
  0.4985428984300100  0.6376759336271220  0.1755779706373417
  0.9985428984300100  0.8623240663728780  0.8244220293626583
  0.5014571015699900  0.1376759336271220  0.3244220293626583
  0.0014571015699900  0.3623240663728780  0.6755779706373417
  0.9986780199440588  0.5537631850251472  0.8428586344005424
  0.4986780199440588  0.9462368149748528  0.1571413655994505
  0.0013219800559412  0.0537631850251472  0.6571413655994576
  0.5013219800559412  0.4462368149748528  0.3428586344005495

  0.00000000E+00  0.00000000E+00  0.00000000E+00
  0.00000000E+00  0.00000000E+00  0.00000000E+00
  0.00000000E+00  0.00000000E+00  0.00000000E+00
  0.00000000E+00  0.00000000E+00  0.00000000E+00
  0.00000000E+00  0.00000000E+00  0.00000000E+00
  0.00000000E+00  0.00000000E+00  0.00000000E+00
  0.00000000E+00  0.00000000E+00  0.00000000E+00
  0.00000000E+00  0.00000000E+00  0.00000000E+00
  0.00000000E+00  0.00000000E+00  0.00000000E+00
  0.00000000E+00  0.00000000E+00  0.00000000E+00
  0.00000000E+00  0.00000000E+00  0.00000000E+00
  0.00000000E+00  0.00000000E+00  0.00000000E+00
  0.00000000E+00  0.00000000E+00  0.00000000E+00
  0.00000000E+00  0.00000000E+00  0.00000000E+00
  0.00000000E+00  0.00000000E+00  0.00000000E+00
  0.00000000E+00  0.00000000E+00  0.00000000E+00
  0.00000000E+00  0.00000000E+00  0.00000000E+00
  0.00000000E+00  0.00000000E+00  0.00000000E+00
  0.00000000E+00  0.00000000E+00  0.00000000E+00
  0.00000000E+00  0.00000000E+00  0.00000000E+00
  0.00000000E+00  0.00000000E+00  0.00000000E+00
  0.00000000E+00  0.00000000E+00  0.00000000E+00
  0.00000000E+00  0.00000000E+00  0.00000000E+00
  0.00000000E+00  0.00000000E+00  0.00000000E+00
  0.00000000E+00  0.00000000E+00  0.00000000E+00
  0.00000000E+00  0.00000000E+00  0.00000000E+00
  0.00000000E+00  0.00000000E+00  0.00000000E+00
  0.00000000E+00  0.00000000E+00  0.00000000E+00
