Ba4 Al4 Br20                            
   1.0000000000000000     
     6.8592949254751234    0.0000000000000000    0.0000000000000005
    -0.0000000000000004    7.3527034318740112    0.0000000000000004
     0.0000000000000002    0.0000000000000001   18.3798351975464804
   Ba   Al   Br
     4     4    20
Direct
  0.7878470903084960  0.4247014572299364  0.3534551657266576
  0.2878470903084960  0.0752985427700636  0.6465448342733424
  0.2121529096914969  0.9247014572299364  0.1465448342733424
  0.7121529096914969  0.5752985427700636  0.8534551657266576
  0.2297521580650965  0.8915979168957264  0.3925304472912714
  0.7297521580650965  0.6084020831042736  0.6074695527087215
  0.7702478419349035  0.3915979168957264  0.1074695527087215
  0.2702478419349035  0.1084020831042736  0.8925304472912714
  0.9524541069417154  0.6122643270461126  0.5032102985767679
  0.4524541069417012  0.8877356729538874  0.4967897014232321
  0.0475458930582846  0.1122643270461126  0.9967897014232321
  0.5475458930582846  0.3877356729538874  0.0032102985767679
  0.9523244661815440  0.8459644868347596  0.3023457583967044
  0.4523244661815440  0.6540355131652404  0.6976542416032956
  0.0476755338184560  0.3459644868347596  0.1976542416032956
  0.5476755338184560  0.1540355131652404  0.8023457583967044
  0.9667373697743713  0.6207999906907489  0.0463887675020018
  0.4667373697743713  0.8792000093092511  0.9536112324979982
  0.0332626302256287  0.1207999906907489  0.4536112324979982
  0.5332626302256287  0.3792000093092511  0.5463887675020018
  0.5711653373325234  0.5615244186460018  0.1906031241692077
  0.0711653373325234  0.9384755813539982  0.8093968758307923
  0.4288346626674766  0.0615244186460018  0.3093968758307923
  0.9288346626674766  0.4384755813539982  0.6906031241692077
  0.1839141367384229  0.4268574687083202  0.8655678227458594
  0.6839141367384229  0.0731425312916798  0.1344321772541335
  0.8160858632615771  0.9268574687083202  0.6344321772541406
  0.3160858632615771  0.5731425312916798  0.3655678227458665

  0.00000000E+00  0.00000000E+00  0.00000000E+00
  0.00000000E+00  0.00000000E+00  0.00000000E+00
  0.00000000E+00  0.00000000E+00  0.00000000E+00
  0.00000000E+00  0.00000000E+00  0.00000000E+00
  0.00000000E+00  0.00000000E+00  0.00000000E+00
  0.00000000E+00  0.00000000E+00  0.00000000E+00
  0.00000000E+00  0.00000000E+00  0.00000000E+00
  0.00000000E+00  0.00000000E+00  0.00000000E+00
  0.00000000E+00  0.00000000E+00  0.00000000E+00
  0.00000000E+00  0.00000000E+00  0.00000000E+00
  0.00000000E+00  0.00000000E+00  0.00000000E+00
  0.00000000E+00  0.00000000E+00  0.00000000E+00
  0.00000000E+00  0.00000000E+00  0.00000000E+00
  0.00000000E+00  0.00000000E+00  0.00000000E+00
  0.00000000E+00  0.00000000E+00  0.00000000E+00
  0.00000000E+00  0.00000000E+00  0.00000000E+00
  0.00000000E+00  0.00000000E+00  0.00000000E+00
  0.00000000E+00  0.00000000E+00  0.00000000E+00
  0.00000000E+00  0.00000000E+00  0.00000000E+00
  0.00000000E+00  0.00000000E+00  0.00000000E+00
  0.00000000E+00  0.00000000E+00  0.00000000E+00
  0.00000000E+00  0.00000000E+00  0.00000000E+00
  0.00000000E+00  0.00000000E+00  0.00000000E+00
  0.00000000E+00  0.00000000E+00  0.00000000E+00
  0.00000000E+00  0.00000000E+00  0.00000000E+00
  0.00000000E+00  0.00000000E+00  0.00000000E+00
  0.00000000E+00  0.00000000E+00  0.00000000E+00
  0.00000000E+00  0.00000000E+00  0.00000000E+00
