Ca4 Al4 F20                             
   1.0000000000000000     
     0.0000000000000000    5.1756067682381026   -0.2714548781378499
     9.5493581278739050    0.0000000000000000    0.0000000000000000
     0.0000000000000000    0.2466397564435838   -6.6332525968701077
   Ca   Al   F 
     4     4    20
Direct
  0.5835459325477075  0.3829469475847276  0.3851289200565091
  0.4164540674522925  0.8829469475847276  0.6148710799434909
  0.9096996595880853  0.0494468737875309  0.1241635219050394
  0.0903003404119218  0.5494468737875309  0.8758364780949535
  0.5493337082164231  0.7309899072371735  0.1283773124209588
  0.4506662917835769  0.2309899072371806  0.8716226875790412
  0.0114854992997024  0.6283192370604311  0.4297413655326423
  0.9885145007002976  0.1283192370604311  0.5702586344673577
  0.1839048543883450  0.0177210637267322  0.3975175910625168
  0.2833474382938874  0.5359129244356922  0.5203892880434680
  0.7166525617061126  0.0359129244356922  0.4796107119565249
  0.8632012005616190  0.7328075878010765  0.0039036374072197
  0.9806609249133302  0.5096085149963017  0.2256981043935795
  0.5627573549745222  0.9123521502724827  0.1635464574519006
  0.7761405116358659  0.2443525018390815  0.7269788148905292
  0.7045305553453005  0.7229179698442891  0.3831178571418548
  0.0193390750866698  0.0096085149963088  0.7743018956064276
  0.0445470035114823  0.7492807594349244  0.6300801643258396
  0.4372426450254778  0.4123521502724827  0.8364535425480994
  0.8160951456116550  0.5177210637267393  0.6024824089374832
  0.4879177526324199  0.0472721644003968  0.8555426910147474
  0.5983341000230880  0.2336703775791449  0.1088527237809842
  0.9554529964885177  0.2492807594349244  0.3699198356741604
  0.2238594883641341  0.7443525018390815  0.2730211851094708
  0.1367987994383668  0.2328075878010765  0.9960963625927732
  0.4016658999769120  0.7336703775791449  0.8911472762190158
  0.2954694446546924  0.2229179698442891  0.6168821428581452
  0.5120822473675801  0.5472721644003968  0.1444573089852526

  0.00000000E+00  0.00000000E+00  0.00000000E+00
  0.00000000E+00  0.00000000E+00  0.00000000E+00
  0.00000000E+00  0.00000000E+00  0.00000000E+00
  0.00000000E+00  0.00000000E+00  0.00000000E+00
  0.00000000E+00  0.00000000E+00  0.00000000E+00
  0.00000000E+00  0.00000000E+00  0.00000000E+00
  0.00000000E+00  0.00000000E+00  0.00000000E+00
  0.00000000E+00  0.00000000E+00  0.00000000E+00
  0.00000000E+00  0.00000000E+00  0.00000000E+00
  0.00000000E+00  0.00000000E+00  0.00000000E+00
  0.00000000E+00  0.00000000E+00  0.00000000E+00
  0.00000000E+00  0.00000000E+00  0.00000000E+00
  0.00000000E+00  0.00000000E+00  0.00000000E+00
  0.00000000E+00  0.00000000E+00  0.00000000E+00
  0.00000000E+00  0.00000000E+00  0.00000000E+00
  0.00000000E+00  0.00000000E+00  0.00000000E+00
  0.00000000E+00  0.00000000E+00  0.00000000E+00
  0.00000000E+00  0.00000000E+00  0.00000000E+00
  0.00000000E+00  0.00000000E+00  0.00000000E+00
  0.00000000E+00  0.00000000E+00  0.00000000E+00
  0.00000000E+00  0.00000000E+00  0.00000000E+00
  0.00000000E+00  0.00000000E+00  0.00000000E+00
  0.00000000E+00  0.00000000E+00  0.00000000E+00
  0.00000000E+00  0.00000000E+00  0.00000000E+00
  0.00000000E+00  0.00000000E+00  0.00000000E+00
  0.00000000E+00  0.00000000E+00  0.00000000E+00
  0.00000000E+00  0.00000000E+00  0.00000000E+00
  0.00000000E+00  0.00000000E+00  0.00000000E+00
