Be4 B4 I20                              
   1.0000000000000000     
     6.6315261019958776   -0.0000000000000002    0.0000000000000005
    -0.0000000000000006   11.7825924953824668    0.0000000000000008
     0.0000000000000002    0.0000000000000010   18.9763125546732283
   Be   B    I 
     4     4    20
Direct
  0.1574668407227406  0.7397989265367357  0.5645218659633784
  0.6574668407227406  0.7602010734632643  0.4354781340366216
  0.8425331592772594  0.2397989265367286  0.9354781340366216
  0.3425331592772594  0.2602010734632714  0.0645218659633784
  0.3886088254989133  0.4012481610348146  0.5934909874025820
  0.8886088254989133  0.0987518389651854  0.4065090125974180
  0.6113911745010867  0.9012481610348146  0.9065090125974180
  0.1113911745010867  0.5987518389651854  0.0934909874025820
  0.9717371830005916  0.6660588174273343  0.4661099468549779
  0.4717371830005916  0.8339411825726657  0.5338900531450221
  0.0282628169994084  0.1660588174273343  0.0338900531450221
  0.5282628169994084  0.3339411825726657  0.9661099468549779
  0.5125657891808117  0.6731014552793368  0.3397946660850337
  0.0125657891808117  0.8268985447206632  0.6602053339149592
  0.4874342108191883  0.1731014552793368  0.1602053339149592
  0.9874342108191883  0.3268985447206632  0.8397946660850337
  0.2582263700039391  0.5507332057238727  0.6419486301009485
  0.7582263700039391  0.9492667942761273  0.3580513698990515
  0.7417736299960609  0.0507332057238798  0.8580513698990515
  0.2417736299960609  0.4492667942761202  0.1419486301009485
  0.4557096166859438  0.2626257008024879  0.6604323901062372
  0.9557096166859438  0.2373742991975121  0.3395676098937628
  0.5442903833140562  0.7626257008024879  0.8395676098937628
  0.0442903833140562  0.7373742991975050  0.1604323901062372
  0.4414607986199286  0.3981836377819690  0.4839458387217945
  0.9414607986199357  0.1018163622180310  0.5160541612782055
  0.5585392013800643  0.8981836377819690  0.0160541612782055
  0.0585392013800643  0.6018163622180310  0.9839458387218016

  0.00000000E+00  0.00000000E+00  0.00000000E+00
  0.00000000E+00  0.00000000E+00  0.00000000E+00
  0.00000000E+00  0.00000000E+00  0.00000000E+00
  0.00000000E+00  0.00000000E+00  0.00000000E+00
  0.00000000E+00  0.00000000E+00  0.00000000E+00
  0.00000000E+00  0.00000000E+00  0.00000000E+00
  0.00000000E+00  0.00000000E+00  0.00000000E+00
  0.00000000E+00  0.00000000E+00  0.00000000E+00
  0.00000000E+00  0.00000000E+00  0.00000000E+00
  0.00000000E+00  0.00000000E+00  0.00000000E+00
  0.00000000E+00  0.00000000E+00  0.00000000E+00
  0.00000000E+00  0.00000000E+00  0.00000000E+00
  0.00000000E+00  0.00000000E+00  0.00000000E+00
  0.00000000E+00  0.00000000E+00  0.00000000E+00
  0.00000000E+00  0.00000000E+00  0.00000000E+00
  0.00000000E+00  0.00000000E+00  0.00000000E+00
  0.00000000E+00  0.00000000E+00  0.00000000E+00
  0.00000000E+00  0.00000000E+00  0.00000000E+00
  0.00000000E+00  0.00000000E+00  0.00000000E+00
  0.00000000E+00  0.00000000E+00  0.00000000E+00
  0.00000000E+00  0.00000000E+00  0.00000000E+00
  0.00000000E+00  0.00000000E+00  0.00000000E+00
  0.00000000E+00  0.00000000E+00  0.00000000E+00
  0.00000000E+00  0.00000000E+00  0.00000000E+00
  0.00000000E+00  0.00000000E+00  0.00000000E+00
  0.00000000E+00  0.00000000E+00  0.00000000E+00
  0.00000000E+00  0.00000000E+00  0.00000000E+00
  0.00000000E+00  0.00000000E+00  0.00000000E+00
