In4 I12                                 
   1.00000000000000     
     6.8868706286476939    0.0000000000000000    0.0000000000000000
     0.0000000000000000   10.5589505885835351   -0.0249628201416006
     0.0000000000000000    3.9601561959578127   12.5028012199169289
   In   I 
     4    12
Direct
  0.9985449394838852  0.1968069409468853  0.9523076313265264
  0.0014550605161148  0.8031930590531147  0.0476923686734736
  0.5014550605161148  0.1968069409468853  0.4523076313265264
  0.4985449394838852  0.8031930590531147  0.5476923686734736
  0.7364895058641210  0.6750248290072349  0.7079323202072061
  0.2824448331215876  0.0011360757853893  0.6126924304525971
  0.7425116552643445  0.3234354209013759  0.5503069202891169
  0.2364895058641210  0.3249751709927651  0.7920676797927939
  0.7635104941358790  0.6750248290072349  0.2079323202072061
  0.7175551668784124  0.9988639242146107  0.3873075695474029
  0.2425116552643445  0.6765645790986241  0.9496930797108831
  0.7824448331215876  0.9988639242146107  0.8873075695474029
  0.7574883447356555  0.3234354209013759  0.0503069202891169
  0.2635104941358790  0.3249751709927651  0.2920676797927939
  0.2574883447356555  0.6765645790986241  0.4496930797108831
  0.2175551668784124  0.0011360757853893  0.1126924304525971
 
  0.00000000E+00  0.00000000E+00  0.00000000E+00
  0.00000000E+00  0.00000000E+00  0.00000000E+00
  0.00000000E+00  0.00000000E+00  0.00000000E+00
  0.00000000E+00  0.00000000E+00  0.00000000E+00
  0.00000000E+00  0.00000000E+00  0.00000000E+00
  0.00000000E+00  0.00000000E+00  0.00000000E+00
  0.00000000E+00  0.00000000E+00  0.00000000E+00
  0.00000000E+00  0.00000000E+00  0.00000000E+00
  0.00000000E+00  0.00000000E+00  0.00000000E+00
  0.00000000E+00  0.00000000E+00  0.00000000E+00
  0.00000000E+00  0.00000000E+00  0.00000000E+00
  0.00000000E+00  0.00000000E+00  0.00000000E+00
  0.00000000E+00  0.00000000E+00  0.00000000E+00
  0.00000000E+00  0.00000000E+00  0.00000000E+00
  0.00000000E+00  0.00000000E+00  0.00000000E+00
  0.00000000E+00  0.00000000E+00  0.00000000E+00
