Ca2I                                    
   1.00000000000000     
     7.6407711798426385    0.0000000000000000    0.0000000000000000
     0.0000000000000000    7.6407711798426385    0.0000000000000000
     0.0000000000000000    0.0000000000000000    4.2725798304089260
   Ca   I 
     4     2
Direct
  0.2834211767233938  0.2834211767233938  0.0000000000000000
  0.7165788232766062  0.7165788232766062  0.0000000000000000
  0.7834211767233938  0.2165788232766062  0.5000000000000000
  0.2165788232766062  0.7834211767233938  0.5000000000000000
  0.0000000000000000  0.0000000000000000  0.0000000000000000
  0.5000000000000000  0.5000000000000000  0.5000000000000000
 
  0.00000000E+00  0.00000000E+00  0.00000000E+00
  0.00000000E+00  0.00000000E+00  0.00000000E+00
  0.00000000E+00  0.00000000E+00  0.00000000E+00
  0.00000000E+00  0.00000000E+00  0.00000000E+00
  0.00000000E+00  0.00000000E+00  0.00000000E+00
  0.00000000E+00  0.00000000E+00  0.00000000E+00
