Mg4 Al8 Br32                            
   1.00000000000000     
    -6.1499642755183759    6.1499642755183759   10.2569355220966347
     6.1499642755183759   -6.1499642755183759   10.2569355220966347
     6.1499642755183759    6.1499642755183759  -10.2569355220966347
   Mg   Al   Br
     4     8    32
Direct
  0.0000000000000000  0.0000000000000000  0.0000000000000000
  0.7500000000000000  0.2500000000000000  0.5000000000000000
  0.2500000000000000  0.7500000000000000  0.5000000000000000
  0.5000000000000000  0.5000000000000000  0.0000000000000000
  0.5872254762332147  0.8750000000000000  0.2122254762332147
  0.1250000000000000  0.8372254762332147  0.2122254762332147
  0.1250000000000000  0.3372254762332147  0.7122254762332147
  0.6627745237667853  0.3750000000000000  0.7877745237667853
  0.6250000000000000  0.9127745237667853  0.7877745237667853
  0.0872254762332147  0.8750000000000000  0.7122254762332147
  0.1627745237667853  0.3750000000000000  0.2877745237667853
  0.6250000000000000  0.4127745237667853  0.2877745237667853
  0.5968418813403176  0.2104177262668898  0.2315776356851345
  0.1152642456551760  0.8468418813403176  0.8864241550734349
  0.7711599094182588  0.8847357543448240  0.7315776356851345
  0.2836451429797862  0.2471999266797624  0.2296375486728479
  0.7836451429797862  0.5540075943069382  0.0364462163000283
  0.8040075943069382  0.5336451429797862  0.5364462163000283
  0.1531581186596824  0.0395822737331102  0.2684223643148655
  0.9604177262668898  0.2288400905817412  0.1135758449265651
  0.4788400905817412  0.7104177262668898  0.6135758449265651
  0.2528000733202376  0.2163548570202138  0.7703624513271521
  0.0175613780069099  0.0540075943069382  0.7703624513271521
  0.9663548570202138  0.6959924056930618  0.4635537836999717
  0.9459924056930618  0.7163548570202138  0.9635537836999717
  0.1347357543448240  0.5211599094182588  0.2315776356851345
  0.2711599094182588  0.5395822737331102  0.8864241550734349
  0.6152642456551760  0.7288400905817412  0.2684223643148655
  0.7324386219930901  0.1959924056930618  0.7296375486728479
  0.2895822737331102  0.9031581186596824  0.7684223643148655
  0.4604177262668898  0.3468418813403176  0.7315776356851345
  0.9788400905817412  0.3652642456551760  0.7684223643148655
  0.3040075943069382  0.7675613780069099  0.2703624513271521
  0.4459924056930618  0.4824386219930901  0.2296375486728479
  0.6347357543448240  0.4031581186596824  0.6135758449265651
  0.6531581186596824  0.3847357543448240  0.1135758449265651
  0.2324386219930901  0.5028000733202376  0.5364462163000283
  0.4663548570202138  0.0028000733202376  0.2703624513271521
  0.0968418813403176  0.8652642456551760  0.3864241550734349
  0.4971999266797624  0.0336451429797862  0.7296375486728479
  0.5175613780069099  0.7471999266797624  0.9635537836999717
  0.9971999266797624  0.2675613780069099  0.4635537836999717
  0.7895822737331102  0.0211599094182588  0.3864241550734349
  0.7528000733202376  0.9824386219930901  0.0364462163000283
 
  0.00000000E+00  0.00000000E+00  0.00000000E+00
  0.00000000E+00  0.00000000E+00  0.00000000E+00
  0.00000000E+00  0.00000000E+00  0.00000000E+00
  0.00000000E+00  0.00000000E+00  0.00000000E+00
  0.00000000E+00  0.00000000E+00  0.00000000E+00
  0.00000000E+00  0.00000000E+00  0.00000000E+00
  0.00000000E+00  0.00000000E+00  0.00000000E+00
  0.00000000E+00  0.00000000E+00  0.00000000E+00
  0.00000000E+00  0.00000000E+00  0.00000000E+00
  0.00000000E+00  0.00000000E+00  0.00000000E+00
  0.00000000E+00  0.00000000E+00  0.00000000E+00
  0.00000000E+00  0.00000000E+00  0.00000000E+00
  0.00000000E+00  0.00000000E+00  0.00000000E+00
  0.00000000E+00  0.00000000E+00  0.00000000E+00
  0.00000000E+00  0.00000000E+00  0.00000000E+00
  0.00000000E+00  0.00000000E+00  0.00000000E+00
  0.00000000E+00  0.00000000E+00  0.00000000E+00
  0.00000000E+00  0.00000000E+00  0.00000000E+00
  0.00000000E+00  0.00000000E+00  0.00000000E+00
  0.00000000E+00  0.00000000E+00  0.00000000E+00
  0.00000000E+00  0.00000000E+00  0.00000000E+00
  0.00000000E+00  0.00000000E+00  0.00000000E+00
  0.00000000E+00  0.00000000E+00  0.00000000E+00
  0.00000000E+00  0.00000000E+00  0.00000000E+00
  0.00000000E+00  0.00000000E+00  0.00000000E+00
  0.00000000E+00  0.00000000E+00  0.00000000E+00
  0.00000000E+00  0.00000000E+00  0.00000000E+00
  0.00000000E+00  0.00000000E+00  0.00000000E+00
  0.00000000E+00  0.00000000E+00  0.00000000E+00
  0.00000000E+00  0.00000000E+00  0.00000000E+00
  0.00000000E+00  0.00000000E+00  0.00000000E+00
  0.00000000E+00  0.00000000E+00  0.00000000E+00
  0.00000000E+00  0.00000000E+00  0.00000000E+00
  0.00000000E+00  0.00000000E+00  0.00000000E+00
  0.00000000E+00  0.00000000E+00  0.00000000E+00
  0.00000000E+00  0.00000000E+00  0.00000000E+00
  0.00000000E+00  0.00000000E+00  0.00000000E+00
  0.00000000E+00  0.00000000E+00  0.00000000E+00
  0.00000000E+00  0.00000000E+00  0.00000000E+00
  0.00000000E+00  0.00000000E+00  0.00000000E+00
  0.00000000E+00  0.00000000E+00  0.00000000E+00
  0.00000000E+00  0.00000000E+00  0.00000000E+00
  0.00000000E+00  0.00000000E+00  0.00000000E+00
  0.00000000E+00  0.00000000E+00  0.00000000E+00
