Ba41 Al67                               
   1.00000000000000     
    15.1931208596097509    0.0000000000000000    0.0000000000000000
     0.0000000000000000   15.1931208596097509    0.0000000000000000
     0.0000000000000000    0.0000000000000000   15.1931208596097509
   Ba   Al
    41    67
Direct
  0.6361317390063377  0.3638682609936623  0.1461434779733892
  0.6361317390063377  0.8538565220266108  0.3638682609936623
  0.1461434779733892  0.6361317390063377  0.6361317390063377
  0.3638682609936623  0.8538565220266108  0.6361317390063377
  0.0000000000000000  0.8105893981723113  0.0000000000000000
  0.8538565220266108  0.6361317390063377  0.6361317390063377
  0.1461434779733892  0.3638682609936623  0.3638682609936623
  0.6361317390063377  0.1461434779733892  0.3638682609936623
  0.8211812975136397  0.1788187024863603  0.1788187024863603
  0.8538565220266108  0.6361317390063377  0.3638682609936623
  0.0000000000000000  0.0000000000000000  0.1894106018276887
  0.6361317390063377  0.6361317390063377  0.1461434779733892
  0.3638682609936623  0.6361317390063377  0.8538565220266108
  0.1788187024863603  0.1788187024863603  0.8211812975136397
  0.6361317390063377  0.3638682609936623  0.8538565220266108
  0.0000000000000000  0.5000000000000000  0.0000000000000000
  0.6361317390063377  0.1461434779733892  0.6361317390063377
  0.1461434779733892  0.6361317390063377  0.3638682609936623
  0.8211812975136397  0.1788187024863603  0.8211812975136397
  0.1461434779733892  0.3638682609936623  0.6361317390063377
  0.1788187024863603  0.1788187024863603  0.1788187024863603
  0.6361317390063377  0.6361317390063377  0.8538565220266108
  0.6361317390063377  0.8538565220266108  0.6361317390063377
  0.8211812975136397  0.8211812975136397  0.1788187024863603
  0.1894106018276887  0.0000000000000000  0.0000000000000000
  0.3638682609936623  0.1461434779733892  0.6361317390063377
  0.8538565220266108  0.3638682609936623  0.6361317390063377
  0.0000000000000000  0.0000000000000000  0.5000000000000000
  0.1788187024863603  0.8211812975136397  0.1788187024863603
  0.3638682609936623  0.6361317390063377  0.1461434779733892
  0.0000000000000000  0.1894106018276887  0.0000000000000000
  0.1788187024863603  0.8211812975136397  0.8211812975136397
  0.8105893981723113  0.0000000000000000  0.0000000000000000
  0.3638682609936623  0.3638682609936623  0.8538565220266108
  0.3638682609936623  0.3638682609936623  0.1461434779733892
  0.3638682609936623  0.1461434779733892  0.3638682609936623
  0.5000000000000000  0.0000000000000000  0.0000000000000000
  0.8538565220266108  0.3638682609936623  0.3638682609936623
  0.3638682609936623  0.8538565220266108  0.3638682609936623
  0.0000000000000000  0.0000000000000000  0.8105893981723113
  0.8211812975136397  0.8211812975136397  0.8211812975136397
  0.5000000000000000  0.3644833228648210  0.3644833228648210
  0.8406554480366779  0.1593445519633221  0.5000000000000000
  0.3644833228648210  0.5000000000000000  0.6355166771351790
  0.7595488102934738  0.0000000000000000  0.5000000000000000
  0.6537837708343375  0.0000000000000000  0.8461609411982849
  0.8461609411982849  0.0000000000000000  0.6537837708343375
  0.5000000000000000  0.0000000000000000  0.2404511897065262
  0.3462162291656625  0.8461609411982849  0.0000000000000000
  0.0000000000000000  0.7595488102934738  0.5000000000000000
  0.2404511897065262  0.0000000000000000  0.5000000000000000
  0.6537837708343375  0.0000000000000000  0.1538390588017151
  0.5000000000000000  0.8406554480366779  0.1593445519633221
  0.7595488102934738  0.5000000000000000  0.0000000000000000
  0.1538390588017151  0.6537837708343375  0.0000000000000000
  0.8406554480366779  0.5000000000000000  0.1593445519633221
  0.2523323496267764  0.5000000000000000  0.5000000000000000
  0.1538390588017151  0.3462162291656625  0.0000000000000000
  0.5000000000000000  0.5000000000000000  0.2523323496267764
  0.5000000000000000  0.8406554480366779  0.8406554480366779
  0.5000000000000000  0.0000000000000000  0.7595488102934738
  0.3644833228648210  0.3644833228648210  0.5000000000000000
  0.5000000000000000  0.1593445519633221  0.1593445519633221
  0.5000000000000000  0.6355166771351790  0.3644833228648210
  0.3462162291656625  0.0000000000000000  0.1538390588017151
  0.1538390588017151  0.0000000000000000  0.6537837708343375
  0.8461609411982849  0.0000000000000000  0.3462162291656625
  0.1593445519633221  0.5000000000000000  0.1593445519633221
  0.0000000000000000  0.1538390588017151  0.6537837708343375
  0.3462162291656625  0.0000000000000000  0.8461609411982849
  0.0000000000000000  0.8461609411982849  0.3462162291656625
  0.1593445519633221  0.1593445519633221  0.5000000000000000
  0.5000000000000000  0.5000000000000000  0.5000000000000000
  0.5000000000000000  0.2404511897065262  0.0000000000000000
  0.5000000000000000  0.6355166771351790  0.6355166771351790
  0.6355166771351790  0.3644833228648210  0.5000000000000000
  0.1538390588017151  0.0000000000000000  0.3462162291656625
  0.6355166771351790  0.5000000000000000  0.6355166771351790
  0.5000000000000000  0.7595488102934738  0.0000000000000000
  0.0000000000000000  0.3462162291656625  0.8461609411982849
  0.0000000000000000  0.6537837708343375  0.8461609411982849
  0.5000000000000000  0.2523323496267764  0.5000000000000000
  0.5000000000000000  0.7476676503732236  0.5000000000000000
  0.8406554480366779  0.8406554480366779  0.5000000000000000
  0.0000000000000000  0.1538390588017151  0.3462162291656625
  0.1593445519633221  0.8406554480366779  0.5000000000000000
  0.0000000000000000  0.3462162291656625  0.1538390588017151
  0.0000000000000000  0.6537837708343375  0.1538390588017151
  0.0000000000000000  0.8461609411982849  0.6537837708343375
  0.3644833228648210  0.6355166771351790  0.5000000000000000
  0.6537837708343375  0.1538390588017151  0.0000000000000000
  0.8461609411982849  0.6537837708343375  0.0000000000000000
  0.2404511897065262  0.5000000000000000  0.0000000000000000
  0.3462162291656625  0.1538390588017151  0.0000000000000000
  0.6537837708343375  0.8461609411982849  0.0000000000000000
  0.8406554480366779  0.5000000000000000  0.8406554480366779
  0.7476676503732236  0.5000000000000000  0.5000000000000000
  0.0000000000000000  0.5000000000000000  0.2404511897065262
  0.5000000000000000  0.1593445519633221  0.8406554480366779
  0.5000000000000000  0.3644833228648210  0.6355166771351790
  0.3644833228648210  0.5000000000000000  0.3644833228648210
  0.0000000000000000  0.2404511897065262  0.5000000000000000
  0.8461609411982849  0.3462162291656625  0.0000000000000000
  0.1593445519633221  0.5000000000000000  0.8406554480366779
  0.6355166771351790  0.5000000000000000  0.3644833228648210
  0.6355166771351790  0.6355166771351790  0.5000000000000000
  0.5000000000000000  0.5000000000000000  0.7476676503732236
  0.0000000000000000  0.5000000000000000  0.7595488102934738
 
  0.00000000E+00  0.00000000E+00  0.00000000E+00
  0.00000000E+00  0.00000000E+00  0.00000000E+00
  0.00000000E+00  0.00000000E+00  0.00000000E+00
  0.00000000E+00  0.00000000E+00  0.00000000E+00
  0.00000000E+00  0.00000000E+00  0.00000000E+00
  0.00000000E+00  0.00000000E+00  0.00000000E+00
  0.00000000E+00  0.00000000E+00  0.00000000E+00
  0.00000000E+00  0.00000000E+00  0.00000000E+00
  0.00000000E+00  0.00000000E+00  0.00000000E+00
  0.00000000E+00  0.00000000E+00  0.00000000E+00
  0.00000000E+00  0.00000000E+00  0.00000000E+00
  0.00000000E+00  0.00000000E+00  0.00000000E+00
  0.00000000E+00  0.00000000E+00  0.00000000E+00
  0.00000000E+00  0.00000000E+00  0.00000000E+00
  0.00000000E+00  0.00000000E+00  0.00000000E+00
  0.00000000E+00  0.00000000E+00  0.00000000E+00
  0.00000000E+00  0.00000000E+00  0.00000000E+00
  0.00000000E+00  0.00000000E+00  0.00000000E+00
  0.00000000E+00  0.00000000E+00  0.00000000E+00
  0.00000000E+00  0.00000000E+00  0.00000000E+00
  0.00000000E+00  0.00000000E+00  0.00000000E+00
  0.00000000E+00  0.00000000E+00  0.00000000E+00
  0.00000000E+00  0.00000000E+00  0.00000000E+00
  0.00000000E+00  0.00000000E+00  0.00000000E+00
  0.00000000E+00  0.00000000E+00  0.00000000E+00
  0.00000000E+00  0.00000000E+00  0.00000000E+00
  0.00000000E+00  0.00000000E+00  0.00000000E+00
  0.00000000E+00  0.00000000E+00  0.00000000E+00
  0.00000000E+00  0.00000000E+00  0.00000000E+00
  0.00000000E+00  0.00000000E+00  0.00000000E+00
  0.00000000E+00  0.00000000E+00  0.00000000E+00
  0.00000000E+00  0.00000000E+00  0.00000000E+00
  0.00000000E+00  0.00000000E+00  0.00000000E+00
  0.00000000E+00  0.00000000E+00  0.00000000E+00
  0.00000000E+00  0.00000000E+00  0.00000000E+00
  0.00000000E+00  0.00000000E+00  0.00000000E+00
  0.00000000E+00  0.00000000E+00  0.00000000E+00
  0.00000000E+00  0.00000000E+00  0.00000000E+00
  0.00000000E+00  0.00000000E+00  0.00000000E+00
  0.00000000E+00  0.00000000E+00  0.00000000E+00
  0.00000000E+00  0.00000000E+00  0.00000000E+00
  0.00000000E+00  0.00000000E+00  0.00000000E+00
  0.00000000E+00  0.00000000E+00  0.00000000E+00
  0.00000000E+00  0.00000000E+00  0.00000000E+00
  0.00000000E+00  0.00000000E+00  0.00000000E+00
  0.00000000E+00  0.00000000E+00  0.00000000E+00
  0.00000000E+00  0.00000000E+00  0.00000000E+00
  0.00000000E+00  0.00000000E+00  0.00000000E+00
  0.00000000E+00  0.00000000E+00  0.00000000E+00
  0.00000000E+00  0.00000000E+00  0.00000000E+00
  0.00000000E+00  0.00000000E+00  0.00000000E+00
  0.00000000E+00  0.00000000E+00  0.00000000E+00
  0.00000000E+00  0.00000000E+00  0.00000000E+00
  0.00000000E+00  0.00000000E+00  0.00000000E+00
  0.00000000E+00  0.00000000E+00  0.00000000E+00
  0.00000000E+00  0.00000000E+00  0.00000000E+00
  0.00000000E+00  0.00000000E+00  0.00000000E+00
  0.00000000E+00  0.00000000E+00  0.00000000E+00
  0.00000000E+00  0.00000000E+00  0.00000000E+00
  0.00000000E+00  0.00000000E+00  0.00000000E+00
  0.00000000E+00  0.00000000E+00  0.00000000E+00
  0.00000000E+00  0.00000000E+00  0.00000000E+00
  0.00000000E+00  0.00000000E+00  0.00000000E+00
  0.00000000E+00  0.00000000E+00  0.00000000E+00
  0.00000000E+00  0.00000000E+00  0.00000000E+00
  0.00000000E+00  0.00000000E+00  0.00000000E+00
  0.00000000E+00  0.00000000E+00  0.00000000E+00
  0.00000000E+00  0.00000000E+00  0.00000000E+00
  0.00000000E+00  0.00000000E+00  0.00000000E+00
  0.00000000E+00  0.00000000E+00  0.00000000E+00
  0.00000000E+00  0.00000000E+00  0.00000000E+00
  0.00000000E+00  0.00000000E+00  0.00000000E+00
  0.00000000E+00  0.00000000E+00  0.00000000E+00
  0.00000000E+00  0.00000000E+00  0.00000000E+00
  0.00000000E+00  0.00000000E+00  0.00000000E+00
  0.00000000E+00  0.00000000E+00  0.00000000E+00
  0.00000000E+00  0.00000000E+00  0.00000000E+00
  0.00000000E+00  0.00000000E+00  0.00000000E+00
  0.00000000E+00  0.00000000E+00  0.00000000E+00
  0.00000000E+00  0.00000000E+00  0.00000000E+00
  0.00000000E+00  0.00000000E+00  0.00000000E+00
  0.00000000E+00  0.00000000E+00  0.00000000E+00
  0.00000000E+00  0.00000000E+00  0.00000000E+00
  0.00000000E+00  0.00000000E+00  0.00000000E+00
  0.00000000E+00  0.00000000E+00  0.00000000E+00
  0.00000000E+00  0.00000000E+00  0.00000000E+00
  0.00000000E+00  0.00000000E+00  0.00000000E+00
  0.00000000E+00  0.00000000E+00  0.00000000E+00
  0.00000000E+00  0.00000000E+00  0.00000000E+00
  0.00000000E+00  0.00000000E+00  0.00000000E+00
  0.00000000E+00  0.00000000E+00  0.00000000E+00
  0.00000000E+00  0.00000000E+00  0.00000000E+00
  0.00000000E+00  0.00000000E+00  0.00000000E+00
  0.00000000E+00  0.00000000E+00  0.00000000E+00
  0.00000000E+00  0.00000000E+00  0.00000000E+00
  0.00000000E+00  0.00000000E+00  0.00000000E+00
  0.00000000E+00  0.00000000E+00  0.00000000E+00
  0.00000000E+00  0.00000000E+00  0.00000000E+00
  0.00000000E+00  0.00000000E+00  0.00000000E+00
  0.00000000E+00  0.00000000E+00  0.00000000E+00
  0.00000000E+00  0.00000000E+00  0.00000000E+00
  0.00000000E+00  0.00000000E+00  0.00000000E+00
  0.00000000E+00  0.00000000E+00  0.00000000E+00
  0.00000000E+00  0.00000000E+00  0.00000000E+00
  0.00000000E+00  0.00000000E+00  0.00000000E+00
  0.00000000E+00  0.00000000E+00  0.00000000E+00
  0.00000000E+00  0.00000000E+00  0.00000000E+00
  0.00000000E+00  0.00000000E+00  0.00000000E+00
