Mg2 Tl2 I10                             
   1.00000000000000     
     6.7478850744861676   -0.4959064583882583    3.3404441454381759
     0.9948932505817142    6.6925378380187786    3.3404450873716867
    -0.0769010851423199   -0.0615416985885371   13.4240314605881501
   Mg   Tl   I 
     2     2    10
Direct
  0.6783960637197950  0.3216039389670584  0.2499999987404635
  0.3216039362802050  0.6783960610329558  0.7500000012595365
  0.0000000000000000  0.0000000000000000  0.5000000000000000
  0.0000000000000000  0.0000000000000000  0.0000000000000000
  0.3519794027537841  0.2598272898028711  0.8458870729344810
  0.7401727430819633  0.6480195677399649  0.6541129262209040
  0.6480195972462184  0.7401727101971289  0.1541139270655236
  0.2598272569180367  0.3519794322600376  0.3458870737790960
  0.0179302727792887  0.9820697312760984  0.7499999982725285
  0.9820697272207113  0.0179302687239016  0.2500000017274786
  0.2849932638057950  0.6560173292846159  0.9868053134907342
  0.3439826553049912  0.7150067144385019  0.5131947147899822
  0.7150067361941979  0.3439826707153841  0.0131946865092658
  0.6560173446950088  0.2849932855614909  0.4868052852100178
 
  0.00000000E+00  0.00000000E+00  0.00000000E+00
  0.00000000E+00  0.00000000E+00  0.00000000E+00
  0.00000000E+00  0.00000000E+00  0.00000000E+00
  0.00000000E+00  0.00000000E+00  0.00000000E+00
  0.00000000E+00  0.00000000E+00  0.00000000E+00
  0.00000000E+00  0.00000000E+00  0.00000000E+00
  0.00000000E+00  0.00000000E+00  0.00000000E+00
  0.00000000E+00  0.00000000E+00  0.00000000E+00
  0.00000000E+00  0.00000000E+00  0.00000000E+00
  0.00000000E+00  0.00000000E+00  0.00000000E+00
  0.00000000E+00  0.00000000E+00  0.00000000E+00
  0.00000000E+00  0.00000000E+00  0.00000000E+00
  0.00000000E+00  0.00000000E+00  0.00000000E+00
  0.00000000E+00  0.00000000E+00  0.00000000E+00
