Ba40 B4                                 
   1.00000000000000     
     0.0000000000000000   10.7254097446752361   10.7254097446752361
    10.7254097446752361    0.0000000000000000   10.7254097446752361
    10.7254097446752361   10.7254097446752361    0.0000000000000000
   Ba   B 
    40     4
Direct
  0.6180011853331635  0.6180011853331635  0.8819988146668365
  0.3680011853331635  0.6319988146668365  0.6319988146668365
  0.6319988146668365  0.3680011853331635  0.3680011853331635
  0.3680011853331635  0.3680011853331635  0.6319988146668365
  0.3680011853331635  0.6319988146668365  0.3680011853331635
  0.6319988146668365  0.3680011853331635  0.6319988146668365
  0.8819988146668365  0.6180011853331635  0.8819988146668365
  0.8819988146668365  0.6180011853331635  0.6180011853331635
  0.6180011853331635  0.8819988146668365  0.8819988146668365
  0.6180011853331635  0.8819988146668365  0.6180011853331635
  0.6319988146668365  0.6319988146668365  0.3680011853331635
  0.8819988146668365  0.8819988146668365  0.6180011853331635
  0.7905612053493556  0.0703399505535245  0.3485366387477669
  0.4594387946506444  0.4594387946506444  0.1796600494464755
  0.1796600494464755  0.9014633612522331  0.4594387946506444
  0.4594387946506444  0.9014633612522331  0.4594387946506444
  0.9014633612522331  0.4594387946506444  0.1796600494464755
  0.9014633612522331  0.4594387946506444  0.4594387946506444
  0.1796600494464755  0.4594387946506444  0.4594387946506444
  0.3485366387477669  0.0703399505535245  0.7905612053493556
  0.7905612053493556  0.0703399505535245  0.7905612053493556
  0.0703399505535245  0.7905612053493556  0.3485366387477669
  0.7905612053493556  0.7905612053493556  0.3485366387477669
  0.0703399505535245  0.3485366387477669  0.7905612053493556
  0.3485366387477669  0.7905612053493556  0.0703399505535245
  0.7905612053493556  0.7905612053493556  0.0703399505535245
  0.7905612053493556  0.3485366387477669  0.7905612053493556
  0.1796600494464755  0.4594387946506444  0.9014633612522331
  0.4594387946506444  0.4594387946506444  0.9014633612522331
  0.4594387946506444  0.9014633612522331  0.1796600494464755
  0.4594387946506444  0.1796600494464755  0.9014633612522331
  0.9014633612522331  0.1796600494464755  0.4594387946506444
  0.4594387946506444  0.1796600494464755  0.4594387946506444
  0.3485366387477669  0.7905612053493556  0.7905612053493556
  0.0703399505535245  0.7905612053493556  0.7905612053493556
  0.7905612053493556  0.3485366387477669  0.0703399505535245
  0.1250000000000000  0.1250000000000000  0.1250000000000000
  0.6250000000000000  0.1250000000000000  0.1250000000000000
  0.1250000000000000  0.1250000000000000  0.6250000000000000
  0.1250000000000000  0.6250000000000000  0.1250000000000000
  0.6250000000000000  0.6250000000000000  0.6250000000000000
  0.1250000000000000  0.6250000000000000  0.6250000000000000
  0.6250000000000000  0.6250000000000000  0.1250000000000000
  0.6250000000000000  0.1250000000000000  0.6250000000000000
 
  0.00000000E+00  0.00000000E+00  0.00000000E+00
  0.00000000E+00  0.00000000E+00  0.00000000E+00
  0.00000000E+00  0.00000000E+00  0.00000000E+00
  0.00000000E+00  0.00000000E+00  0.00000000E+00
  0.00000000E+00  0.00000000E+00  0.00000000E+00
  0.00000000E+00  0.00000000E+00  0.00000000E+00
  0.00000000E+00  0.00000000E+00  0.00000000E+00
  0.00000000E+00  0.00000000E+00  0.00000000E+00
  0.00000000E+00  0.00000000E+00  0.00000000E+00
  0.00000000E+00  0.00000000E+00  0.00000000E+00
  0.00000000E+00  0.00000000E+00  0.00000000E+00
  0.00000000E+00  0.00000000E+00  0.00000000E+00
  0.00000000E+00  0.00000000E+00  0.00000000E+00
  0.00000000E+00  0.00000000E+00  0.00000000E+00
  0.00000000E+00  0.00000000E+00  0.00000000E+00
  0.00000000E+00  0.00000000E+00  0.00000000E+00
  0.00000000E+00  0.00000000E+00  0.00000000E+00
  0.00000000E+00  0.00000000E+00  0.00000000E+00
  0.00000000E+00  0.00000000E+00  0.00000000E+00
  0.00000000E+00  0.00000000E+00  0.00000000E+00
  0.00000000E+00  0.00000000E+00  0.00000000E+00
  0.00000000E+00  0.00000000E+00  0.00000000E+00
  0.00000000E+00  0.00000000E+00  0.00000000E+00
  0.00000000E+00  0.00000000E+00  0.00000000E+00
  0.00000000E+00  0.00000000E+00  0.00000000E+00
  0.00000000E+00  0.00000000E+00  0.00000000E+00
  0.00000000E+00  0.00000000E+00  0.00000000E+00
  0.00000000E+00  0.00000000E+00  0.00000000E+00
  0.00000000E+00  0.00000000E+00  0.00000000E+00
  0.00000000E+00  0.00000000E+00  0.00000000E+00
  0.00000000E+00  0.00000000E+00  0.00000000E+00
  0.00000000E+00  0.00000000E+00  0.00000000E+00
  0.00000000E+00  0.00000000E+00  0.00000000E+00
  0.00000000E+00  0.00000000E+00  0.00000000E+00
  0.00000000E+00  0.00000000E+00  0.00000000E+00
  0.00000000E+00  0.00000000E+00  0.00000000E+00
  0.00000000E+00  0.00000000E+00  0.00000000E+00
  0.00000000E+00  0.00000000E+00  0.00000000E+00
  0.00000000E+00  0.00000000E+00  0.00000000E+00
  0.00000000E+00  0.00000000E+00  0.00000000E+00
  0.00000000E+00  0.00000000E+00  0.00000000E+00
  0.00000000E+00  0.00000000E+00  0.00000000E+00
  0.00000000E+00  0.00000000E+00  0.00000000E+00
  0.00000000E+00  0.00000000E+00  0.00000000E+00
