MgB12                                   
   1.00000000000000     
     0.0000000000000000    3.7143187212001312    3.7143187212001312
     3.7143187212001312    0.0000000000000000    3.7143187212001312
     3.7143187212001312    3.7143187212001312    0.0000000000000000
   B    Mg
    12     1
Direct
  0.5000000000000000  0.5000000000000000  0.1627424947784846
  0.8372575052215154  0.5000000000000000  0.1627424947784846
  0.5000000000000000  0.8372575052215154  0.1627424947784846
  0.5000000000000000  0.1627424947784846  0.5000000000000000
  0.8372575052215154  0.1627424947784846  0.5000000000000000
  0.1627424947784846  0.5000000000000000  0.5000000000000000
  0.8372575052215154  0.5000000000000000  0.5000000000000000
  0.1627424947784846  0.8372575052215154  0.5000000000000000
  0.5000000000000000  0.8372575052215154  0.5000000000000000
  0.5000000000000000  0.1627424947784846  0.8372575052215154
  0.1627424947784846  0.5000000000000000  0.8372575052215154
  0.5000000000000000  0.5000000000000000  0.8372575052215154
  0.0000000000000000  0.0000000000000000  0.0000000000000000
 
  0.00000000E+00  0.00000000E+00  0.00000000E+00
  0.00000000E+00  0.00000000E+00  0.00000000E+00
  0.00000000E+00  0.00000000E+00  0.00000000E+00
  0.00000000E+00  0.00000000E+00  0.00000000E+00
  0.00000000E+00  0.00000000E+00  0.00000000E+00
  0.00000000E+00  0.00000000E+00  0.00000000E+00
  0.00000000E+00  0.00000000E+00  0.00000000E+00
  0.00000000E+00  0.00000000E+00  0.00000000E+00
  0.00000000E+00  0.00000000E+00  0.00000000E+00
  0.00000000E+00  0.00000000E+00  0.00000000E+00
  0.00000000E+00  0.00000000E+00  0.00000000E+00
  0.00000000E+00  0.00000000E+00  0.00000000E+00
  0.00000000E+00  0.00000000E+00  0.00000000E+00
