B12                                     
   1.00000000000000     
     6.3964084861688413    1.5536193714190520    7.3851411661359769
    -1.0465487646271527    1.3980255469612719    2.3186009083468582
    -4.2420644569385635   -3.6457057486952489   -1.5160569281581262
   B 
    12
Direct
  0.5914705913802152  0.0528430720673327  0.2085901386279829
  0.0120387279731702  0.8608541709180173  0.0940876812535478
  0.9826213569257192  0.3079081751700201  0.8999070177347832
  0.3839697998559402  0.1305248089171727  0.7410486559491076
  0.1853912924265089  0.5736875321190595  0.0523471758453127
  0.7541684736114149  0.4079784801343962  0.4102390729844458
  0.7430513965247840  0.0282357745457489  0.6366219952505787
  0.4714933724700145  0.3375674287143653  0.4084812847186328
  0.0488316236386908  0.1001838024901076  0.6763422000621091
  0.1643291534239850  0.8559450679838605  0.5357778900377852
  0.4460816115127670  0.9320277953064604  0.5238645579639680
  0.2325596202567652  0.3891839016334373  0.8065543195717311
 
  0.00000000E+00  0.00000000E+00  0.00000000E+00
  0.00000000E+00  0.00000000E+00  0.00000000E+00
  0.00000000E+00  0.00000000E+00  0.00000000E+00
  0.00000000E+00  0.00000000E+00  0.00000000E+00
  0.00000000E+00  0.00000000E+00  0.00000000E+00
  0.00000000E+00  0.00000000E+00  0.00000000E+00
  0.00000000E+00  0.00000000E+00  0.00000000E+00
  0.00000000E+00  0.00000000E+00  0.00000000E+00
  0.00000000E+00  0.00000000E+00  0.00000000E+00
  0.00000000E+00  0.00000000E+00  0.00000000E+00
  0.00000000E+00  0.00000000E+00  0.00000000E+00
  0.00000000E+00  0.00000000E+00  0.00000000E+00
