BaIn3                                   
   1.0000000000000000     
     7.7865903795991054   -0.0010626600500632    0.0000000000000000
    -3.8947563757711361    6.7425145554576495    0.0000000000000000
     0.0000000000000000    0.0000000000000000    5.0272720677736160
   Ba   In
     2     6
Direct
  0.3332626688927505  0.6667392087749775  0.7500000000000000
  0.6667373311072495  0.3332607912250225  0.2500000000000000
  0.1416544290186437  0.2832333553035795  0.2500000000000000
  0.7167667279239751  0.8583453122465130  0.2500000000000000
  0.1414635315197188  0.8585358919887014  0.2500000000000000
  0.8583455709813563  0.7167666446964205  0.7500000000000000
  0.2832332720760249  0.1416546877534870  0.7500000000000000
  0.8585364684802812  0.1414641080112986  0.7500000000000000

  0.00000000E+00  0.00000000E+00  0.00000000E+00
  0.00000000E+00  0.00000000E+00  0.00000000E+00
  0.00000000E+00  0.00000000E+00  0.00000000E+00
  0.00000000E+00  0.00000000E+00  0.00000000E+00
  0.00000000E+00  0.00000000E+00  0.00000000E+00
  0.00000000E+00  0.00000000E+00  0.00000000E+00
  0.00000000E+00  0.00000000E+00  0.00000000E+00
  0.00000000E+00  0.00000000E+00  0.00000000E+00
