Ba3 Tl1 Br1                             
   1.0000000000000000     
     6.2642971745629037   -0.0000000000000000    0.0000000000000000
     0.0000000000000000    6.2642971745629037   -0.0000000000000000
    -0.0000000000000000    0.0000000000000000    6.2642971745629037
   Br   Tl   Ba
     1     1     3
Direct
  0.0000000000000000  0.0000000000000000  0.0000000000000000
  0.5000000000000000  0.5000000000000000  0.5000000000000000
  0.5000000000000000  0.0000000000000000  0.0000000000000000
  0.0000000000000000  0.5000000000000000  0.0000000000000000
  0.0000000000000000  0.0000000000000000  0.5000000000000000

  0.00000000E+00  0.00000000E+00  0.00000000E+00
  0.00000000E+00  0.00000000E+00  0.00000000E+00
  0.00000000E+00  0.00000000E+00  0.00000000E+00
  0.00000000E+00  0.00000000E+00  0.00000000E+00
  0.00000000E+00  0.00000000E+00  0.00000000E+00
