Be2 Al2 Br6                             
   1.00000000000000     
    -4.3782721404962759    0.5538747162927069   -0.1634709746417554
    -3.9426358206410157    7.0439332214615460    0.6687725843568724
    -0.7562741133962452   -1.4901912889101510  -13.2956762429742987
   Br   Be   Al
     6     2     2
Direct
  0.0408632773068689  0.7215786145272105  0.9409616512803396
  0.6619263615270654  0.9711860872796905  0.2162310554442257
  0.9518851106611592  0.8056352343539004  0.4881010346048100
  0.0230745489033666  0.3140890847523323  0.5266588008908286
  0.2704591727768886  0.0035758783241704  0.7207554420064639
  0.0676576166709708  0.2242976301416704  0.0456504028047249
  0.6119036243081766  0.9626971709544776  0.0574779362440481
  0.3957618391891273  0.0429060975135371  0.5757448546525765
  0.8803856958617686  0.3043244524520716  0.2556235433766005
  0.0960827527946293  0.6497097497009392  0.6730952786953779
 
  0.00000000E+00  0.00000000E+00  0.00000000E+00
  0.00000000E+00  0.00000000E+00  0.00000000E+00
  0.00000000E+00  0.00000000E+00  0.00000000E+00
  0.00000000E+00  0.00000000E+00  0.00000000E+00
  0.00000000E+00  0.00000000E+00  0.00000000E+00
  0.00000000E+00  0.00000000E+00  0.00000000E+00
  0.00000000E+00  0.00000000E+00  0.00000000E+00
  0.00000000E+00  0.00000000E+00  0.00000000E+00
  0.00000000E+00  0.00000000E+00  0.00000000E+00
  0.00000000E+00  0.00000000E+00  0.00000000E+00
