CaGa11                                  
   1.00000000000000     
     8.9657111973789618    0.0000000000000000    0.0000000000000000
     0.0000000000000000    8.9657111973789618    0.0000000000000000
     0.0000000000000000    0.0000000000000000    8.9657111973789618
   Ca   Ga
     3    33
Direct
  0.5000000000000000  0.0000000000000000  0.0000000000000000
  0.0000000000000000  0.5000000000000000  0.0000000000000000
  0.0000000000000000  0.0000000000000000  0.5000000000000000
  0.3449985247434597  0.3449985247434597  0.0000000000000000
  0.6550014752565403  0.3449985247434597  0.0000000000000000
  0.3449985247434597  0.6550014752565403  0.0000000000000000
  0.6550014752565403  0.6550014752565403  0.0000000000000000
  0.1577068763354177  0.1577068763354177  0.1577068763354177
  0.8422931236645823  0.1577068763354177  0.1577068763354177
  0.1577068763354177  0.8422931236645823  0.1577068763354177
  0.8422931236645823  0.8422931236645823  0.1577068763354177
  0.5000000000000000  0.2680194067654966  0.2680194067654966
  0.2680194067654966  0.5000000000000000  0.2680194067654966
  0.7319805932345034  0.5000000000000000  0.2680194067654966
  0.5000000000000000  0.7319805932345034  0.2680194067654966
  0.3449985247434597  0.0000000000000000  0.3449985247434597
  0.6550014752565403  0.0000000000000000  0.3449985247434597
  0.0000000000000000  0.3449985247434597  0.3449985247434597
  0.0000000000000000  0.6550014752565403  0.3449985247434597
  0.2680194067654966  0.2680194067654966  0.5000000000000000
  0.7319805932345034  0.2680194067654966  0.5000000000000000
  0.5000000000000000  0.5000000000000000  0.5000000000000000
  0.2680194067654966  0.7319805932345034  0.5000000000000000
  0.7319805932345034  0.7319805932345034  0.5000000000000000
  0.3449985247434597  0.0000000000000000  0.6550014752565403
  0.6550014752565403  0.0000000000000000  0.6550014752565403
  0.0000000000000000  0.3449985247434597  0.6550014752565403
  0.0000000000000000  0.6550014752565403  0.6550014752565403
  0.5000000000000000  0.2680194067654966  0.7319805932345034
  0.2680194067654966  0.5000000000000000  0.7319805932345034
  0.7319805932345034  0.5000000000000000  0.7319805932345034
  0.5000000000000000  0.7319805932345034  0.7319805932345034
  0.1577068763354177  0.1577068763354177  0.8422931236645823
  0.8422931236645823  0.1577068763354177  0.8422931236645823
  0.1577068763354177  0.8422931236645823  0.8422931236645823
  0.8422931236645823  0.8422931236645823  0.8422931236645823
 
  0.00000000E+00  0.00000000E+00  0.00000000E+00
  0.00000000E+00  0.00000000E+00  0.00000000E+00
  0.00000000E+00  0.00000000E+00  0.00000000E+00
  0.00000000E+00  0.00000000E+00  0.00000000E+00
  0.00000000E+00  0.00000000E+00  0.00000000E+00
  0.00000000E+00  0.00000000E+00  0.00000000E+00
  0.00000000E+00  0.00000000E+00  0.00000000E+00
  0.00000000E+00  0.00000000E+00  0.00000000E+00
  0.00000000E+00  0.00000000E+00  0.00000000E+00
  0.00000000E+00  0.00000000E+00  0.00000000E+00
  0.00000000E+00  0.00000000E+00  0.00000000E+00
  0.00000000E+00  0.00000000E+00  0.00000000E+00
  0.00000000E+00  0.00000000E+00  0.00000000E+00
  0.00000000E+00  0.00000000E+00  0.00000000E+00
  0.00000000E+00  0.00000000E+00  0.00000000E+00
  0.00000000E+00  0.00000000E+00  0.00000000E+00
  0.00000000E+00  0.00000000E+00  0.00000000E+00
  0.00000000E+00  0.00000000E+00  0.00000000E+00
  0.00000000E+00  0.00000000E+00  0.00000000E+00
  0.00000000E+00  0.00000000E+00  0.00000000E+00
  0.00000000E+00  0.00000000E+00  0.00000000E+00
  0.00000000E+00  0.00000000E+00  0.00000000E+00
  0.00000000E+00  0.00000000E+00  0.00000000E+00
  0.00000000E+00  0.00000000E+00  0.00000000E+00
  0.00000000E+00  0.00000000E+00  0.00000000E+00
  0.00000000E+00  0.00000000E+00  0.00000000E+00
  0.00000000E+00  0.00000000E+00  0.00000000E+00
  0.00000000E+00  0.00000000E+00  0.00000000E+00
  0.00000000E+00  0.00000000E+00  0.00000000E+00
  0.00000000E+00  0.00000000E+00  0.00000000E+00
  0.00000000E+00  0.00000000E+00  0.00000000E+00
  0.00000000E+00  0.00000000E+00  0.00000000E+00
  0.00000000E+00  0.00000000E+00  0.00000000E+00
  0.00000000E+00  0.00000000E+00  0.00000000E+00
  0.00000000E+00  0.00000000E+00  0.00000000E+00
  0.00000000E+00  0.00000000E+00  0.00000000E+00
