Al6 Cl4                                 
   1.00000000000000     
    -4.6144001530734116    0.0170985584529448   -0.0760780388864849
     2.2662111748748832   -3.9663554954302680    0.5056070098793317
    -2.8620899306416807    0.3598838087492454   16.3433266538971935
   Cl   Al
     4     6
Direct
  0.1464861705940166  0.3336362315635597  0.1017635376721771
  0.2799936253807545  0.8955780062952954  0.3923554677890237
  0.7203320850235357  0.1045506287927580  0.6075691657099824
  0.8535277571367743  0.6664091531378702  0.8982131666341715
  0.0721471745217457  0.7932328349702615  0.2778677799333877
  0.7534324524493101  0.1348266899813879  0.2347173585809728
  0.4148337010866427  0.4656754259436013  0.2163872692943229
  0.5850530784072490  0.5342613134696634  0.7835849400479589
  0.2464048466478772  0.8651005345015648  0.7653038680148327
  0.9277891087520729  0.2067291813440164  0.7221374463231953
 
  0.00000000E+00  0.00000000E+00  0.00000000E+00
  0.00000000E+00  0.00000000E+00  0.00000000E+00
  0.00000000E+00  0.00000000E+00  0.00000000E+00
  0.00000000E+00  0.00000000E+00  0.00000000E+00
  0.00000000E+00  0.00000000E+00  0.00000000E+00
  0.00000000E+00  0.00000000E+00  0.00000000E+00
  0.00000000E+00  0.00000000E+00  0.00000000E+00
  0.00000000E+00  0.00000000E+00  0.00000000E+00
  0.00000000E+00  0.00000000E+00  0.00000000E+00
  0.00000000E+00  0.00000000E+00  0.00000000E+00
