Br1                                     
   1.00000000000000     
    -0.0000000000000114   -2.7200920040434418    0.0000001015379082
    -3.0643353008978664   -0.0000000000000140    0.0000001015725348
     1.5321681940536842    1.3600466658322372   -4.3621523849381756
   Br
     1
Direct
  0.0000000000000000  0.0000000000000000  0.0000000000000000
 
  0.00000000E+00  0.00000000E+00  0.00000000E+00
