Be3Br                                   
   1.00000000000000     
     6.3117897307435991   -0.6600804716098793    0.0000000000000000
    -3.2751141986081058    8.7397939733252237    0.0000000000000000
     0.0000000000000000    0.0000000000000000    3.4149862286458212
   Be   Br
     6     2
Direct
  0.1421108444149795  0.1871741177361486  0.2500000000000000
  0.6938663732523196  0.8526135833789468  0.2500000000000000
  0.0363680048416128  0.9487172502664052  0.2500000000000000
  0.8578891555850205  0.8128258822638514  0.7500000000000000
  0.3061336267476804  0.1473864166210532  0.7500000000000000
  0.9636319951583872  0.0512827497335948  0.7500000000000000
  0.4399307406002961  0.6967355149957726  0.7500000000000000
  0.5600692593997039  0.3032644850042274  0.2500000000000000
 
  0.00000000E+00  0.00000000E+00  0.00000000E+00
  0.00000000E+00  0.00000000E+00  0.00000000E+00
  0.00000000E+00  0.00000000E+00  0.00000000E+00
  0.00000000E+00  0.00000000E+00  0.00000000E+00
  0.00000000E+00  0.00000000E+00  0.00000000E+00
  0.00000000E+00  0.00000000E+00  0.00000000E+00
  0.00000000E+00  0.00000000E+00  0.00000000E+00
  0.00000000E+00  0.00000000E+00  0.00000000E+00
