Mg4 Al4 Cl20                            
   1.0000000000000000     
     0.0000000000000000    7.3317668121779729   -0.0054863101193564
    13.3684984198335588    0.0000000000000000    0.0000000000000000
     0.0000000000000000   -0.1191375740219905   -9.7660617686949784
   Mg   Al   Cl
     4     4    20
Direct
  0.5011307800257043  0.5599397722186481  0.4117617871634707
  0.4988692199742957  0.0599397722186481  0.5882382128365293
  0.9956142665228285  0.1569598802731633  0.8847321673239534
  0.0043857334771715  0.6569598802731704  0.1152678326760466
  0.4793517065045307  0.7140801016249654  0.1273467026300423
  0.5206482934954693  0.2140801016249583  0.8726532973699577
  0.9797835964062998  0.5976614901903190  0.4599233878773887
  0.0202164035937002  0.0976614901903190  0.5400766121226113
  0.2519262310910690  0.9890361120533058  0.4658453926995065
  0.2310248237961261  0.5132457989869366  0.5309650966941604
  0.7689751762038739  0.0132457989869366  0.4690349033058325
  0.7284211662127333  0.6995769241783023  0.9948341280162296
  0.9365708646257431  0.5138997697606129  0.2488402850605169
  0.4285201030720671  0.8723127017402064  0.1303375639977489
  0.8941525167680240  0.2280417701971729  0.6731983541173534
  0.6079119851949457  0.7222905293251927  0.3515104533881299
  0.0634291353742569  0.0138997697606129  0.7511597149394831
  0.9330457774262371  0.7002882572256013  0.6257200563753500
  0.5714798969279329  0.3723127017402064  0.8696624360022511
  0.7480737689089310  0.4890361120533129  0.5341546073004935
  0.5654459328120254  0.0432544513767894  0.8253105563824406
  0.7545809187907579  0.1870114208487905  0.0376941570226990
  0.0669542225737629  0.2002882572255942  0.3742799436246500
  0.1058474832319760  0.7280417701971729  0.3268016458826466
  0.2715788337872596  0.1995769241783023  0.0051658719837633
  0.2454190812092421  0.6870114208487905  0.9623058429773010
  0.3920880148050543  0.2222905293251927  0.6484895466118701
  0.4345540671879746  0.5432544513767965  0.1746894436175523

  0.00000000E+00  0.00000000E+00  0.00000000E+00
  0.00000000E+00  0.00000000E+00  0.00000000E+00
  0.00000000E+00  0.00000000E+00  0.00000000E+00
  0.00000000E+00  0.00000000E+00  0.00000000E+00
  0.00000000E+00  0.00000000E+00  0.00000000E+00
  0.00000000E+00  0.00000000E+00  0.00000000E+00
  0.00000000E+00  0.00000000E+00  0.00000000E+00
  0.00000000E+00  0.00000000E+00  0.00000000E+00
  0.00000000E+00  0.00000000E+00  0.00000000E+00
  0.00000000E+00  0.00000000E+00  0.00000000E+00
  0.00000000E+00  0.00000000E+00  0.00000000E+00
  0.00000000E+00  0.00000000E+00  0.00000000E+00
  0.00000000E+00  0.00000000E+00  0.00000000E+00
  0.00000000E+00  0.00000000E+00  0.00000000E+00
  0.00000000E+00  0.00000000E+00  0.00000000E+00
  0.00000000E+00  0.00000000E+00  0.00000000E+00
  0.00000000E+00  0.00000000E+00  0.00000000E+00
  0.00000000E+00  0.00000000E+00  0.00000000E+00
  0.00000000E+00  0.00000000E+00  0.00000000E+00
  0.00000000E+00  0.00000000E+00  0.00000000E+00
  0.00000000E+00  0.00000000E+00  0.00000000E+00
  0.00000000E+00  0.00000000E+00  0.00000000E+00
  0.00000000E+00  0.00000000E+00  0.00000000E+00
  0.00000000E+00  0.00000000E+00  0.00000000E+00
  0.00000000E+00  0.00000000E+00  0.00000000E+00
  0.00000000E+00  0.00000000E+00  0.00000000E+00
  0.00000000E+00  0.00000000E+00  0.00000000E+00
  0.00000000E+00  0.00000000E+00  0.00000000E+00
