Be18 Al11                               
   1.00000000000000     
     7.4284868554154651    4.2657655804255015   -0.4206018363047933
    -7.4284868554154651    4.2657655804255015   -0.4206018363047933
     0.0000000000000000    3.6632697353982748    4.9982291651306143
   Be   Al
    18    11
Direct
  0.9820078257783038  0.9820078257783038  0.0408709182436695
  0.3638592385841193  0.6135170630358928  0.0120118791002781
  0.8597078854537301  0.3799659590314235  0.0591546538586201
  0.3799659590314235  0.8597078854537301  0.0591546538586201
  0.6135170630358928  0.3638592385841193  0.0120118791002781
  0.3482448011810817  0.3482448011810817  0.5706231337347418
  0.7255807406049684  0.7255807406049684  0.6955668058215210
  0.5317780107261569  0.8877244862301268  0.6831177568485884
  0.8877244862301268  0.5317780107261569  0.6831177568485884
  0.0247150376608474  0.0247150376608474  0.6440453055332682
  0.4384328389641396  0.5922096764303646  0.6699847679757838
  0.5922096764303646  0.4384328389641396  0.6699847679757838
  0.1835439519145723  0.3332225351740803  0.3568399501690038
  0.3332225351740803  0.1835439519145723  0.3568399501690038
  0.6920578106891213  0.6920578106891213  0.3481945988523165
  0.3665985558232521  0.6233776668823978  0.3557816422725537
  0.6233776668823978  0.3665985558232521  0.3557816422725537
  0.5124085640522651  0.5124085640522651  0.1597761030114100
  0.6898432942837402  0.8896242873702676  0.9752432871934857
  0.8896242873702676  0.6898432942837402  0.9752432871934857
  0.6693266478452671  0.1995145579916979  0.7397491252516986
  0.1995145579916979  0.6693266478452671  0.7397491252516986
  0.0173959754693271  0.2908561490209891  0.7764964284462081
  0.2908561490209891  0.0173959754693271  0.7764964284462081
  0.8695890881341199  0.1026017438257369  0.3331315168821760
  0.1026017438257369  0.8695890881341199  0.3331315168821760
  0.5157315977814463  0.0290296290514647  0.3008355925828141
  0.0290296290514647  0.5157315977814463  0.3008355925828141
  0.2675343810090567  0.2675343810090567  0.0162309336406565
 
  0.00000000E+00  0.00000000E+00  0.00000000E+00
  0.00000000E+00  0.00000000E+00  0.00000000E+00
  0.00000000E+00  0.00000000E+00  0.00000000E+00
  0.00000000E+00  0.00000000E+00  0.00000000E+00
  0.00000000E+00  0.00000000E+00  0.00000000E+00
  0.00000000E+00  0.00000000E+00  0.00000000E+00
  0.00000000E+00  0.00000000E+00  0.00000000E+00
  0.00000000E+00  0.00000000E+00  0.00000000E+00
  0.00000000E+00  0.00000000E+00  0.00000000E+00
  0.00000000E+00  0.00000000E+00  0.00000000E+00
  0.00000000E+00  0.00000000E+00  0.00000000E+00
  0.00000000E+00  0.00000000E+00  0.00000000E+00
  0.00000000E+00  0.00000000E+00  0.00000000E+00
  0.00000000E+00  0.00000000E+00  0.00000000E+00
  0.00000000E+00  0.00000000E+00  0.00000000E+00
  0.00000000E+00  0.00000000E+00  0.00000000E+00
  0.00000000E+00  0.00000000E+00  0.00000000E+00
  0.00000000E+00  0.00000000E+00  0.00000000E+00
  0.00000000E+00  0.00000000E+00  0.00000000E+00
  0.00000000E+00  0.00000000E+00  0.00000000E+00
  0.00000000E+00  0.00000000E+00  0.00000000E+00
  0.00000000E+00  0.00000000E+00  0.00000000E+00
  0.00000000E+00  0.00000000E+00  0.00000000E+00
  0.00000000E+00  0.00000000E+00  0.00000000E+00
  0.00000000E+00  0.00000000E+00  0.00000000E+00
  0.00000000E+00  0.00000000E+00  0.00000000E+00
  0.00000000E+00  0.00000000E+00  0.00000000E+00
  0.00000000E+00  0.00000000E+00  0.00000000E+00
  0.00000000E+00  0.00000000E+00  0.00000000E+00
