Be2 B2 Br10                             
   1.00000000000000     
     7.5812359381975991   -4.7352389631116685   -1.3395199377671307
     7.5812359381975991    4.7352389631116685   -1.3395199377671307
    -7.2524905346374968    0.0000000000000000    9.9268879515718922
   Be   Br   B 
     2    10     2
Direct
  0.4385750178672581  0.6480843225548298  0.2456255304924468
  0.6480843225548298  0.4385750178672581  0.7456255304924468
  0.2181651579125585  0.6565931390870077  0.0478390539992546
  0.2403727287067170  0.2170616194267225  0.1629217240234055
  0.9477025436169697  0.9722364921278697  0.2830572248298324
  0.7063978758357905  0.5221009503380785  0.3186695621339197
  0.4048157358310931  0.8287010129797210  0.4731182438540529
  0.6565931390870077  0.2181651579125585  0.5478390539992546
  0.2170616194267225  0.2403727287067170  0.6629217240234055
  0.9722364921278697  0.9477025436169697  0.7830572248298253
  0.5221009503380785  0.7063978758357905  0.8186695621339197
  0.8287010129797139  0.4048157358310931  0.9731182438540600
  0.0185118264182194  0.1802815772971655  0.9687686606670809
  0.1802815772971655  0.0185118264182194  0.4687686606670809
 
  0.00000000E+00  0.00000000E+00  0.00000000E+00
  0.00000000E+00  0.00000000E+00  0.00000000E+00
  0.00000000E+00  0.00000000E+00  0.00000000E+00
  0.00000000E+00  0.00000000E+00  0.00000000E+00
  0.00000000E+00  0.00000000E+00  0.00000000E+00
  0.00000000E+00  0.00000000E+00  0.00000000E+00
  0.00000000E+00  0.00000000E+00  0.00000000E+00
  0.00000000E+00  0.00000000E+00  0.00000000E+00
  0.00000000E+00  0.00000000E+00  0.00000000E+00
  0.00000000E+00  0.00000000E+00  0.00000000E+00
  0.00000000E+00  0.00000000E+00  0.00000000E+00
  0.00000000E+00  0.00000000E+00  0.00000000E+00
  0.00000000E+00  0.00000000E+00  0.00000000E+00
  0.00000000E+00  0.00000000E+00  0.00000000E+00
