Ca4 B4 F20                              
   1.0000000000000000     
     0.0000000000000000    4.0900101748503710   -0.0486857350671192
     8.7324234490096035    0.0000000000000000    0.0000000000000000
     0.0000000000000000   -0.2103277861923858   -8.2921611687172287
   Ca   B    F 
     4     4    20
Direct
  0.4757429497938688  0.2930078064353410  0.4475597253213408
  0.5242570502061312  0.7930078064353410  0.5524402746786734
  0.9981660904019307  0.9973436881772315  0.2011035836878534
  0.0018339095980693  0.4973436881772386  0.7988964163121466
  0.4223569286746027  0.7890204059090280  0.9489655911000270
  0.5776430713254044  0.2890204059090280  0.0510344088999730
  0.0782649484040121  0.6102139785999796  0.3006359935463507
  0.9217350515959808  0.1102139785999796  0.6993640064536564
  0.4848573483032084  0.9862197323250044  0.3616571247416758
  0.4156415143538794  0.6253699597529447  0.3305124688861696
  0.5843584856461206  0.1253699597529447  0.6694875311138233
  0.5358885111723524  0.8718921874614267  0.8175144909319840
  0.9648458087409253  0.4966347141113303  0.4057371411316026
  0.0871035972091150  0.8070846027952996  0.9625974943554354
  0.0026539177296812  0.0816885469229476  0.8558181390760353
  0.5580071526577655  0.8404220213200944  0.0952318229257045
  0.0351541912590676  0.9966347141113303  0.5942628588683974
  0.9540506814044463  0.7619629326370827  0.3461092792717295
  0.9128964027908850  0.3070846027952996  0.0374025056445646
  0.5151426516967916  0.4862197323250044  0.6383428752583242
  0.5021432173436509  0.1319117310616988  0.0772236562762316
  0.9732277599913388  0.2048266724905972  0.3479510589049539
  0.0459493185955466  0.2619629326370756  0.6538907207282705
  0.9973460822703188  0.5816885469229547  0.1441818609239647
  0.4641114888276476  0.3718921874614267  0.1824855090679947
  0.0267722400086541  0.7048266724905901  0.6520489410950461
  0.4419928473422274  0.3404220213200944  0.9047681770742955
  0.4978567826563420  0.6319117310616988  0.9227763437237684

  0.00000000E+00  0.00000000E+00  0.00000000E+00
  0.00000000E+00  0.00000000E+00  0.00000000E+00
  0.00000000E+00  0.00000000E+00  0.00000000E+00
  0.00000000E+00  0.00000000E+00  0.00000000E+00
  0.00000000E+00  0.00000000E+00  0.00000000E+00
  0.00000000E+00  0.00000000E+00  0.00000000E+00
  0.00000000E+00  0.00000000E+00  0.00000000E+00
  0.00000000E+00  0.00000000E+00  0.00000000E+00
  0.00000000E+00  0.00000000E+00  0.00000000E+00
  0.00000000E+00  0.00000000E+00  0.00000000E+00
  0.00000000E+00  0.00000000E+00  0.00000000E+00
  0.00000000E+00  0.00000000E+00  0.00000000E+00
  0.00000000E+00  0.00000000E+00  0.00000000E+00
  0.00000000E+00  0.00000000E+00  0.00000000E+00
  0.00000000E+00  0.00000000E+00  0.00000000E+00
  0.00000000E+00  0.00000000E+00  0.00000000E+00
  0.00000000E+00  0.00000000E+00  0.00000000E+00
  0.00000000E+00  0.00000000E+00  0.00000000E+00
  0.00000000E+00  0.00000000E+00  0.00000000E+00
  0.00000000E+00  0.00000000E+00  0.00000000E+00
  0.00000000E+00  0.00000000E+00  0.00000000E+00
  0.00000000E+00  0.00000000E+00  0.00000000E+00
  0.00000000E+00  0.00000000E+00  0.00000000E+00
  0.00000000E+00  0.00000000E+00  0.00000000E+00
  0.00000000E+00  0.00000000E+00  0.00000000E+00
  0.00000000E+00  0.00000000E+00  0.00000000E+00
  0.00000000E+00  0.00000000E+00  0.00000000E+00
  0.00000000E+00  0.00000000E+00  0.00000000E+00
