Mg8 Al20                                
   1.00000000000000     
     7.8032851116869200   -4.8851937856630645   -1.6230725900731091
     7.8020015138789516    4.8837008634653527   -1.6232545149983688
    -5.7818778129403254    0.0004218901927202    8.7318626363686160
   Al   Mg
    20     8
Direct
  0.2505931862583282  0.2509289243236594  0.0011555107750709
  0.5255765443098142  0.0255486287414399  0.1525847424877256
  0.3977457213107556  0.6055231008971234  0.2503920134119397
  0.2363395431590476  0.7363534884400593  0.0082018038675002
  0.0064081045445334  0.5064113335255982  0.1339465680861949
  0.4939139275467710  0.9939101324595327  0.3681703298279331
  0.2625689678700525  0.7625532285452508  0.4875828504471826
  0.1054739598556438  0.8976890849395716  0.2503648397034013
  0.9711114835953794  0.4711437469804096  0.3455226317442950
  0.7506474367314411  0.7510494236996550  0.5012456187271113
  0.2509307155273888  0.2505388616195177  0.5011443622061194
  0.0248798063198379  0.5248511984889106  0.6520001753996425
  0.6054204236628351  0.3976820387430706  0.7501230697640793
  0.7370901817358657  0.2371140437102710  0.5085674915025322
  0.5059564576470947  0.0059631726185359  0.6335150570937103
  0.9935876249968700  0.4935775493910768  0.8678868578530938
  0.7632219921677290  0.2631981925220686  0.9878250417988639
  0.8977435183139733  0.1054943220675497  0.7501595093663695
  0.4705531216866348  0.9705711869717391  0.8450958479633783
  0.7508262580614655  0.7504821755566837  0.0010766003606903
  0.6107381596952521  0.6392979438256177  0.1094687387421160
  0.1392875619161913  0.1107384654546735  0.1093977555212788
  0.8893949955766445  0.8604128774205577  0.3910852352738985
  0.3604171230120485  0.3893827637536162  0.3911342097276886
  0.6388806311447084  0.6113936975517120  0.6096912102752725
  0.1113811000156915  0.1389013537453536  0.6097428720052775
  0.8599486546329160  0.8900523284230317  0.8914943132045678
  0.3900627987050882  0.3599367355837231  0.8914247428630659
 
  0.00000000E+00  0.00000000E+00  0.00000000E+00
  0.00000000E+00  0.00000000E+00  0.00000000E+00
  0.00000000E+00  0.00000000E+00  0.00000000E+00
  0.00000000E+00  0.00000000E+00  0.00000000E+00
  0.00000000E+00  0.00000000E+00  0.00000000E+00
  0.00000000E+00  0.00000000E+00  0.00000000E+00
  0.00000000E+00  0.00000000E+00  0.00000000E+00
  0.00000000E+00  0.00000000E+00  0.00000000E+00
  0.00000000E+00  0.00000000E+00  0.00000000E+00
  0.00000000E+00  0.00000000E+00  0.00000000E+00
  0.00000000E+00  0.00000000E+00  0.00000000E+00
  0.00000000E+00  0.00000000E+00  0.00000000E+00
  0.00000000E+00  0.00000000E+00  0.00000000E+00
  0.00000000E+00  0.00000000E+00  0.00000000E+00
  0.00000000E+00  0.00000000E+00  0.00000000E+00
  0.00000000E+00  0.00000000E+00  0.00000000E+00
  0.00000000E+00  0.00000000E+00  0.00000000E+00
  0.00000000E+00  0.00000000E+00  0.00000000E+00
  0.00000000E+00  0.00000000E+00  0.00000000E+00
  0.00000000E+00  0.00000000E+00  0.00000000E+00
  0.00000000E+00  0.00000000E+00  0.00000000E+00
  0.00000000E+00  0.00000000E+00  0.00000000E+00
  0.00000000E+00  0.00000000E+00  0.00000000E+00
  0.00000000E+00  0.00000000E+00  0.00000000E+00
  0.00000000E+00  0.00000000E+00  0.00000000E+00
  0.00000000E+00  0.00000000E+00  0.00000000E+00
  0.00000000E+00  0.00000000E+00  0.00000000E+00
  0.00000000E+00  0.00000000E+00  0.00000000E+00
