Ba2In3                                  
   1.0000000000000000     
     3.2693755117090597   -6.2145119047043522    0.0000000000000000
     3.2693755117090597    6.2145119047043522   -0.0000000000000000
     0.0000000000000000    0.0000000000000000    9.1110330315358290
   Ba   In
     4     6
Direct
  0.1559226978593387  0.8440773021406613  0.1037572700220437
  0.6559226978593387  0.3440773021406613  0.3962427299779563
  0.3440773021406613  0.6559226978593387  0.6037572700220437
  0.8440773021406613  0.1559226978593387  0.8962427299779563
  0.5000000000000000  0.5000000000000000  0.0000000000000000
  0.1467972256089141  0.3532027743910859  0.2500000000000000
  0.6467972256089141  0.8532027743910859  0.2500000000000000
  0.0000000000000000  0.0000000000000000  0.5000000000000000
  0.3532027743910859  0.1467972256089141  0.7500000000000000
  0.8532027743910859  0.6467972256089141  0.7500000000000000

  0.00000000E+00  0.00000000E+00  0.00000000E+00
  0.00000000E+00  0.00000000E+00  0.00000000E+00
  0.00000000E+00  0.00000000E+00  0.00000000E+00
  0.00000000E+00  0.00000000E+00  0.00000000E+00
  0.00000000E+00  0.00000000E+00  0.00000000E+00
  0.00000000E+00  0.00000000E+00  0.00000000E+00
  0.00000000E+00  0.00000000E+00  0.00000000E+00
  0.00000000E+00  0.00000000E+00  0.00000000E+00
  0.00000000E+00  0.00000000E+00  0.00000000E+00
  0.00000000E+00  0.00000000E+00  0.00000000E+00
