Ba1 Ga3 Br6                             
   1.00000000000000     
     8.3881392742190322    0.0779517610950804    0.4679850869665911
     0.0779517610950804    8.3881392742190322    0.4679850869665911
     4.5533361844478035    4.5533361844478026    6.4558563256031594
   Br   Ba   Ga
     6     1     3
Direct
  0.7313015054620280  0.2686984945379720  0.0000000000000000
  0.2283775826721381  0.2283775826721381  0.0720286507695604
  0.2686984945379720  0.7313015054620280  0.0000000000000000
  0.7716224173278619  0.7716224173278619  0.9279713492304396
  0.7712456178272049  0.7712456178272049  0.5291754746076833
  0.2287543821727951  0.2287543821727951  0.4708245253923167
  0.0000000000000000  0.0000000000000000  0.0000000000000000
  0.5000000000000000  0.5000000000000000  0.0000000000000000
  0.1484545772987360  0.8515454227012640  0.5000000000000000
  0.8515454227012640  0.1484545772987360  0.5000000000000000
 
  0.00000000E+00  0.00000000E+00  0.00000000E+00
  0.00000000E+00  0.00000000E+00  0.00000000E+00
  0.00000000E+00  0.00000000E+00  0.00000000E+00
  0.00000000E+00  0.00000000E+00  0.00000000E+00
  0.00000000E+00  0.00000000E+00  0.00000000E+00
  0.00000000E+00  0.00000000E+00  0.00000000E+00
  0.00000000E+00  0.00000000E+00  0.00000000E+00
  0.00000000E+00  0.00000000E+00  0.00000000E+00
  0.00000000E+00  0.00000000E+00  0.00000000E+00
  0.00000000E+00  0.00000000E+00  0.00000000E+00
