Sr16 Tl12 Cl1                           
   1.0000000000000000     
     9.3504862903275878   -5.3985594358684352    3.8182448165195306
    -0.0659534159629969   10.6064570643700602    3.7099822704209138
    -9.2183654124264187   -5.2456777839285351    3.7099840575965146
   Tl   Cl   Sr
    12     1    16
Direct
  0.7948436485708967  0.6039046423243306  0.0000060614587127
  0.6081906263159453  0.8041104617682535  0.0000891921329682
  0.3765889409645524  0.3929363414174176  0.2109648785052514
  0.1654871954553201  0.7888299565641930  0.1818500697077212
  0.8040296394503414  0.1958616220869160  0.1958616249142935
  0.3765889374131604  0.2109648673808309  0.3929363428637913
  0.1908844916846135  0.3959655889966172  0.3959655921653678
  0.7948436440120901  0.0000060581644306  0.6039046321148973
  0.9837094568446858  0.8178896184918401  0.6070672427986352
  0.6081906236476229  0.0000891892775243  0.8041104597557691
  0.9837094642388351  0.6070672542206523  0.8178896313394262
  0.1654871932842141  0.1818500699846197  0.7888299483523085
  0.4216683390759428  0.9999021189215185  0.9999021172990865
  0.9851343324701745  0.2256096915382599  0.0000025299616553
  0.5388945525715130  0.2741023897028825  0.0000280681954905
  0.2621434403285861  0.5466990871959254  0.0000663198340405
  0.1795695021370136  0.0000680469738583  0.0000690522896249
  0.7041945155516487  0.7210107571095108  0.2780567682087280
  0.5388945502908911  0.0000290725370391  0.2741023972438512
  0.9832168450943612  0.5569997977382499  0.2791930290582272
  0.9851343222030664  0.0000025189008994  0.2256096728984218
  0.7153984941519411  0.4532689137900476  0.4532689469527753
  0.4261907601893498  0.7220452023277275  0.4430966077253444
  0.9832168362271574  0.2791930247571273  0.5569997724318725
  0.2621434124965560  0.0000662882475098  0.5466990129687446
  0.7596643428456673  0.7745078681868378  0.7745078798711234
  0.7041945296731384  0.2780567935504266  0.7210107771568062
  0.2647966080624897  0.7258671705877333  0.7258671651077080
  0.4261907547482195  0.4430965872568038  0.7220452066873833

  0.00000000E+00  0.00000000E+00  0.00000000E+00
  0.00000000E+00  0.00000000E+00  0.00000000E+00
  0.00000000E+00  0.00000000E+00  0.00000000E+00
  0.00000000E+00  0.00000000E+00  0.00000000E+00
  0.00000000E+00  0.00000000E+00  0.00000000E+00
  0.00000000E+00  0.00000000E+00  0.00000000E+00
  0.00000000E+00  0.00000000E+00  0.00000000E+00
  0.00000000E+00  0.00000000E+00  0.00000000E+00
  0.00000000E+00  0.00000000E+00  0.00000000E+00
  0.00000000E+00  0.00000000E+00  0.00000000E+00
  0.00000000E+00  0.00000000E+00  0.00000000E+00
  0.00000000E+00  0.00000000E+00  0.00000000E+00
  0.00000000E+00  0.00000000E+00  0.00000000E+00
  0.00000000E+00  0.00000000E+00  0.00000000E+00
  0.00000000E+00  0.00000000E+00  0.00000000E+00
  0.00000000E+00  0.00000000E+00  0.00000000E+00
  0.00000000E+00  0.00000000E+00  0.00000000E+00
  0.00000000E+00  0.00000000E+00  0.00000000E+00
  0.00000000E+00  0.00000000E+00  0.00000000E+00
  0.00000000E+00  0.00000000E+00  0.00000000E+00
  0.00000000E+00  0.00000000E+00  0.00000000E+00
  0.00000000E+00  0.00000000E+00  0.00000000E+00
  0.00000000E+00  0.00000000E+00  0.00000000E+00
  0.00000000E+00  0.00000000E+00  0.00000000E+00
  0.00000000E+00  0.00000000E+00  0.00000000E+00
  0.00000000E+00  0.00000000E+00  0.00000000E+00
  0.00000000E+00  0.00000000E+00  0.00000000E+00
  0.00000000E+00  0.00000000E+00  0.00000000E+00
  0.00000000E+00  0.00000000E+00  0.00000000E+00
