Sr6 In10                                
   1.0000000000000000     
     6.1555283580255162    0.0000723852208681   -0.0000000000000000
    -3.0782094729042755    5.3305799475052362    0.0000000000000000
     0.0000000000000000    0.0000000000000000   15.6765742475468919
   In   Sr
    10     6
Direct
  0.3332887109948501  0.6667107738915945  0.0845608228570853
  0.1636798256972654  0.3273785124166082  0.2500000000000000
  0.1636675106172873  0.8363313161091313  0.2500000000000000
  0.6726212434811956  0.8363194571371579  0.2500000000000000
  0.3332887109948501  0.6667107738915945  0.4154391771429147
  0.6667112890051499  0.3332892261084055  0.5845608228570853
  0.3273787565188044  0.1636805428628421  0.7500000000000000
  0.8363324893827127  0.1636686838908687  0.7500000000000000
  0.8363201743027346  0.6726214875833918  0.7500000000000000
  0.6667112890051499  0.3332892261084055  0.9154391771429147
  0.0000000000000000  0.0000000000000000  0.0000000000000000
  0.6666301037826230  0.3333635622507956  0.1268352023581940
  0.6666301037826230  0.3333635622507956  0.3731647976418060
  0.0000000000000000  0.0000000000000000  0.5000000000000000
  0.3333698962173770  0.6666364377492044  0.6268352023581940
  0.3333698962173770  0.6666364377492044  0.8731647976418060

  0.00000000E+00  0.00000000E+00  0.00000000E+00
  0.00000000E+00  0.00000000E+00  0.00000000E+00
  0.00000000E+00  0.00000000E+00  0.00000000E+00
  0.00000000E+00  0.00000000E+00  0.00000000E+00
  0.00000000E+00  0.00000000E+00  0.00000000E+00
  0.00000000E+00  0.00000000E+00  0.00000000E+00
  0.00000000E+00  0.00000000E+00  0.00000000E+00
  0.00000000E+00  0.00000000E+00  0.00000000E+00
  0.00000000E+00  0.00000000E+00  0.00000000E+00
  0.00000000E+00  0.00000000E+00  0.00000000E+00
  0.00000000E+00  0.00000000E+00  0.00000000E+00
  0.00000000E+00  0.00000000E+00  0.00000000E+00
  0.00000000E+00  0.00000000E+00  0.00000000E+00
  0.00000000E+00  0.00000000E+00  0.00000000E+00
  0.00000000E+00  0.00000000E+00  0.00000000E+00
  0.00000000E+00  0.00000000E+00  0.00000000E+00
