Be3 Tl33                                
   1.0000000000000000     
    10.5351777814124645    0.0000000000000000    0.0000000000000000
    -0.0000000000000000   10.5351777814124645   -0.0000000000000000
     0.0000000000000000    0.0000000000000000   10.5351777814124645
   Be   Tl
     3    33
Direct
  0.5000000000000000  0.0000000000000000  0.0000000000000000
  0.0000000000000000  0.5000000000000000  0.0000000000000000
  0.0000000000000000  0.0000000000000000  0.5000000000000000
  0.3446339528074773  0.3446339528074773  0.0000000000000000
  0.6553660471925227  0.3446339528074773  0.0000000000000000
  0.3446339528074773  0.6553660471925227  0.0000000000000000
  0.6553660471925227  0.6553660471925227  0.0000000000000000
  0.1568637330991081  0.1568637330991081  0.1568637330991081
  0.8431362669008919  0.1568637330991081  0.1568637330991081
  0.1568637330991081  0.8431362669008919  0.1568637330991081
  0.8431362669008919  0.8431362669008919  0.1568637330991081
  0.5000000000000000  0.2573525503775755  0.2573525503775755
  0.2573525503775755  0.5000000000000000  0.2573525503775755
  0.7426474496224245  0.5000000000000000  0.2573525503775755
  0.5000000000000000  0.7426474496224245  0.2573525503775755
  0.3446339528074773  0.0000000000000000  0.3446339528074773
  0.6553660471925227  0.0000000000000000  0.3446339528074773
  0.0000000000000000  0.3446339528074773  0.3446339528074773
  0.0000000000000000  0.6553660471925227  0.3446339528074773
  0.2573525503775755  0.2573525503775755  0.5000000000000000
  0.7426474496224245  0.2573525503775755  0.5000000000000000
  0.5000000000000000  0.5000000000000000  0.5000000000000000
  0.2573525503775755  0.7426474496224245  0.5000000000000000
  0.7426474496224245  0.7426474496224245  0.5000000000000000
  0.3446339528074773  0.0000000000000000  0.6553660471925227
  0.6553660471925227  0.0000000000000000  0.6553660471925227
  0.0000000000000000  0.3446339528074773  0.6553660471925227
  0.0000000000000000  0.6553660471925227  0.6553660471925227
  0.5000000000000000  0.2573525503775755  0.7426474496224245
  0.2573525503775755  0.5000000000000000  0.7426474496224245
  0.7426474496224245  0.5000000000000000  0.7426474496224245
  0.5000000000000000  0.7426474496224245  0.7426474496224245
  0.1568637330991081  0.1568637330991081  0.8431362669008919
  0.8431362669008919  0.1568637330991081  0.8431362669008919
  0.1568637330991081  0.8431362669008919  0.8431362669008919
  0.8431362669008919  0.8431362669008919  0.8431362669008919

  0.00000000E+00  0.00000000E+00  0.00000000E+00
  0.00000000E+00  0.00000000E+00  0.00000000E+00
  0.00000000E+00  0.00000000E+00  0.00000000E+00
  0.00000000E+00  0.00000000E+00  0.00000000E+00
  0.00000000E+00  0.00000000E+00  0.00000000E+00
  0.00000000E+00  0.00000000E+00  0.00000000E+00
  0.00000000E+00  0.00000000E+00  0.00000000E+00
  0.00000000E+00  0.00000000E+00  0.00000000E+00
  0.00000000E+00  0.00000000E+00  0.00000000E+00
  0.00000000E+00  0.00000000E+00  0.00000000E+00
  0.00000000E+00  0.00000000E+00  0.00000000E+00
  0.00000000E+00  0.00000000E+00  0.00000000E+00
  0.00000000E+00  0.00000000E+00  0.00000000E+00
  0.00000000E+00  0.00000000E+00  0.00000000E+00
  0.00000000E+00  0.00000000E+00  0.00000000E+00
  0.00000000E+00  0.00000000E+00  0.00000000E+00
  0.00000000E+00  0.00000000E+00  0.00000000E+00
  0.00000000E+00  0.00000000E+00  0.00000000E+00
  0.00000000E+00  0.00000000E+00  0.00000000E+00
  0.00000000E+00  0.00000000E+00  0.00000000E+00
  0.00000000E+00  0.00000000E+00  0.00000000E+00
  0.00000000E+00  0.00000000E+00  0.00000000E+00
  0.00000000E+00  0.00000000E+00  0.00000000E+00
  0.00000000E+00  0.00000000E+00  0.00000000E+00
  0.00000000E+00  0.00000000E+00  0.00000000E+00
  0.00000000E+00  0.00000000E+00  0.00000000E+00
  0.00000000E+00  0.00000000E+00  0.00000000E+00
  0.00000000E+00  0.00000000E+00  0.00000000E+00
  0.00000000E+00  0.00000000E+00  0.00000000E+00
  0.00000000E+00  0.00000000E+00  0.00000000E+00
  0.00000000E+00  0.00000000E+00  0.00000000E+00
  0.00000000E+00  0.00000000E+00  0.00000000E+00
  0.00000000E+00  0.00000000E+00  0.00000000E+00
  0.00000000E+00  0.00000000E+00  0.00000000E+00
  0.00000000E+00  0.00000000E+00  0.00000000E+00
  0.00000000E+00  0.00000000E+00  0.00000000E+00
