MgAl4                                   
   1.00000000000000     
     4.9981910404182335   -0.4526667219534670    0.0207873515800915
    -0.4321950685872689    4.9756574815993728   -0.6660326283636978
    -2.5959739672502602   -0.6787916795294846    7.2244384251750837
   Al   Mg
     8     2
Direct
  0.7921481124435132  0.9959342520349423  0.0990000548495900
  0.6043927420349320  0.4951799620945252  0.2043915533555705
  0.3956017283052518  0.0048323306548994  0.2956249190468512
  0.2078371176088325  0.5041072428294626  0.4009877220868105
  0.7924494275271527  0.4962050571497230  0.5992480587587536
  0.6042459600067644  0.9952907029243505  0.7042208841302298
  0.3957539170558491  0.5048115156896102  0.7957703551950388
  0.2075606086583761  0.0039070001859116  0.9007476464755797
  0.0000788358344295  0.4999612973304224  0.0000951800443971
  0.9999315505248916  0.0000726391061647  0.4999136260571646
 
  0.00000000E+00  0.00000000E+00  0.00000000E+00
  0.00000000E+00  0.00000000E+00  0.00000000E+00
  0.00000000E+00  0.00000000E+00  0.00000000E+00
  0.00000000E+00  0.00000000E+00  0.00000000E+00
  0.00000000E+00  0.00000000E+00  0.00000000E+00
  0.00000000E+00  0.00000000E+00  0.00000000E+00
  0.00000000E+00  0.00000000E+00  0.00000000E+00
  0.00000000E+00  0.00000000E+00  0.00000000E+00
  0.00000000E+00  0.00000000E+00  0.00000000E+00
  0.00000000E+00  0.00000000E+00  0.00000000E+00
