Mg18 Al11                               
   1.00000000000000     
     7.4377407885511273    5.2900157760015993    0.0025823413054635
    -7.4377407885511273    5.2900157760015993    0.0025823413054635
     0.0000000000000000    5.2695033287846700    7.4623947912880642
   Mg   Al
    18    11
Direct
  0.9983060063202771  0.9983060063202771  0.0014024335652181
  0.3143284008357057  0.6048340364931803  0.9998057906189715
  0.9967838442573154  0.3425214580841995  0.0020260285718763
  0.3425214580841995  0.9967838442573154  0.0020260285718763
  0.6048340364931803  0.3143284008357057  0.9998057906189715
  0.3677874991796060  0.3677874991796060  0.8190815523109336
  0.6895111342724505  0.6895111342724505  0.7159135787895963
  0.6013038890363873  0.0016331142120336  0.6841654495152554
  0.0016331142120336  0.6013038890363873  0.6841654495152554
  0.0006525696495601  0.0006525696495601  0.6546318243848788
  0.4004440053529663  0.7203529568948355  0.5975371637893190
  0.7203529568948355  0.4004440053529663  0.5975371637893190
  0.0007398020087592  0.3166163940733782  0.3990935416643282
  0.3166163940733782  0.0007398020087592  0.3990935416643282
  0.6550622096006435  0.6550622096006435  0.3458653539710852
  0.2857585145118051  0.6848968569593694  0.3150661953902940
  0.6848968569593694  0.2857585145118051  0.3150661953902940
  0.4015048883307415  0.4015048883307415  0.2800850429715638
  0.6327724374074677  0.8139346071319338  0.0018005492451536
  0.8139346071319338  0.6327724374074677  0.0018005492451536
  0.8193830749396156  0.1821265275572230  0.8149353466899640
  0.1821265275572230  0.8193830749396156  0.8149353466899640
  0.1789123624787692  0.3657620524994343  0.6284984856744344
  0.3657620524994343  0.1789123624787692  0.6284984856744344
  0.8130753419254333  0.9996313984980461  0.3673633197241557
  0.9996313984980461  0.8130753419254333  0.3673633197241557
  0.6343456548509536  0.9984049004233668  0.1851740688071573
  0.9984049004233668  0.6343456548509536  0.1851740688071573
  0.1786140622145140  0.1786140622145140  0.1920893346249031
 
  0.00000000E+00  0.00000000E+00  0.00000000E+00
  0.00000000E+00  0.00000000E+00  0.00000000E+00
  0.00000000E+00  0.00000000E+00  0.00000000E+00
  0.00000000E+00  0.00000000E+00  0.00000000E+00
  0.00000000E+00  0.00000000E+00  0.00000000E+00
  0.00000000E+00  0.00000000E+00  0.00000000E+00
  0.00000000E+00  0.00000000E+00  0.00000000E+00
  0.00000000E+00  0.00000000E+00  0.00000000E+00
  0.00000000E+00  0.00000000E+00  0.00000000E+00
  0.00000000E+00  0.00000000E+00  0.00000000E+00
  0.00000000E+00  0.00000000E+00  0.00000000E+00
  0.00000000E+00  0.00000000E+00  0.00000000E+00
  0.00000000E+00  0.00000000E+00  0.00000000E+00
  0.00000000E+00  0.00000000E+00  0.00000000E+00
  0.00000000E+00  0.00000000E+00  0.00000000E+00
  0.00000000E+00  0.00000000E+00  0.00000000E+00
  0.00000000E+00  0.00000000E+00  0.00000000E+00
  0.00000000E+00  0.00000000E+00  0.00000000E+00
  0.00000000E+00  0.00000000E+00  0.00000000E+00
  0.00000000E+00  0.00000000E+00  0.00000000E+00
  0.00000000E+00  0.00000000E+00  0.00000000E+00
  0.00000000E+00  0.00000000E+00  0.00000000E+00
  0.00000000E+00  0.00000000E+00  0.00000000E+00
  0.00000000E+00  0.00000000E+00  0.00000000E+00
  0.00000000E+00  0.00000000E+00  0.00000000E+00
  0.00000000E+00  0.00000000E+00  0.00000000E+00
  0.00000000E+00  0.00000000E+00  0.00000000E+00
  0.00000000E+00  0.00000000E+00  0.00000000E+00
  0.00000000E+00  0.00000000E+00  0.00000000E+00
