SrAl2Cl8                                
   1.00000000000000     
    12.8115153203554044    0.0032791471575133   -0.1180646267391260
     0.0017801392261622    7.0899240316640784    0.0026521421064039
    -0.5986476169081872    0.0026935152926066    7.8166944178133342
   Al   Cl   Sr
     4    16     2
Direct
  0.0771912200476663  0.7361363374406764  0.3231895995621770
  0.5771896612857148  0.2641827070385290  0.3232385083447937
  0.4228238707308094  0.7358803902526247  0.6767200968342664
  0.9227848821025262  0.2638381485947363  0.6768152228991227
  0.6391951277067776  0.0350660922486909  0.1800349184853758
  0.1388875465091104  0.9656600236345980  0.1800602968018055
  0.1494217807742189  0.4705322240652734  0.2658266493069945
  0.6493146036591071  0.5299681971266352  0.2663857395182490
  0.4101979283235480  0.2974349772457359  0.2614337442207031
  0.9101786404963619  0.7028754956336911  0.2617352267472413
  0.8877421051727907  0.1848257753182168  0.4118710180004399
  0.3878900701567716  0.8156263478102730  0.4117588362143749
  0.6121375658344590  0.1843893403665220  0.5882376557479745
  0.1122921969034891  0.8152170080815537  0.5881844306551258
  0.0897498734575208  0.2972144745077117  0.7382830965077574
  0.5897874801649579  0.7026208429901075  0.7385610812932697
  0.3506830640884004  0.4700384517539717  0.7335702421669907
  0.8503630249156657  0.5291994761819296  0.7342682600638852
  0.8611558879989687  0.0341814368934479  0.8198897251804951
  0.3607986495574380  0.9649024405723878  0.8199108238263122
  0.7500340246812129  0.8455264030050529  0.5001537135150258
  0.2499807954324851  0.1544834092375922  0.4998711141076413
 
  0.00000000E+00  0.00000000E+00  0.00000000E+00
  0.00000000E+00  0.00000000E+00  0.00000000E+00
  0.00000000E+00  0.00000000E+00  0.00000000E+00
  0.00000000E+00  0.00000000E+00  0.00000000E+00
  0.00000000E+00  0.00000000E+00  0.00000000E+00
  0.00000000E+00  0.00000000E+00  0.00000000E+00
  0.00000000E+00  0.00000000E+00  0.00000000E+00
  0.00000000E+00  0.00000000E+00  0.00000000E+00
  0.00000000E+00  0.00000000E+00  0.00000000E+00
  0.00000000E+00  0.00000000E+00  0.00000000E+00
  0.00000000E+00  0.00000000E+00  0.00000000E+00
  0.00000000E+00  0.00000000E+00  0.00000000E+00
  0.00000000E+00  0.00000000E+00  0.00000000E+00
  0.00000000E+00  0.00000000E+00  0.00000000E+00
  0.00000000E+00  0.00000000E+00  0.00000000E+00
  0.00000000E+00  0.00000000E+00  0.00000000E+00
  0.00000000E+00  0.00000000E+00  0.00000000E+00
  0.00000000E+00  0.00000000E+00  0.00000000E+00
  0.00000000E+00  0.00000000E+00  0.00000000E+00
  0.00000000E+00  0.00000000E+00  0.00000000E+00
  0.00000000E+00  0.00000000E+00  0.00000000E+00
  0.00000000E+00  0.00000000E+00  0.00000000E+00
