MgTl2                                   
   1.0000000000000000     
     4.6608797128685469    2.6904409158961555    7.6112500232954048
    -4.6608797128685469    2.6904409158961555    7.6112500232954048
     0.0000000000000000   -5.3820138765039855    7.6112841289250541
   Mg   Tl
     2     4
Direct
  0.2500001557508043  0.2500001557508043  0.2500059931927225
  0.4999998442491957  0.4999998442491957  0.4999940068072775
  0.3750000000000000  0.3750000000000000  0.3750000000000000
  0.8750000000000000  0.3750000000000000  0.3750000000000000
  0.3750000000000000  0.8750000000000000  0.3750000000000000
  0.3750000000000000  0.3750000000000000  0.8750000000000000

  0.00000000E+00  0.00000000E+00  0.00000000E+00
  0.00000000E+00  0.00000000E+00  0.00000000E+00
  0.00000000E+00  0.00000000E+00  0.00000000E+00
  0.00000000E+00  0.00000000E+00  0.00000000E+00
  0.00000000E+00  0.00000000E+00  0.00000000E+00
  0.00000000E+00  0.00000000E+00  0.00000000E+00
