Sr4 B4 F20                              
   1.0000000000000000     
     0.0000000000000000    6.6125870617302143    0.2851121891599170
     7.2617997329473427    0.0000000000000000    0.0000000000000000
     0.0000000000000000   -0.4830121039359451   -7.1743523667192868
   Sr   B    F 
     4     4    20
Direct
  0.5867431193312385  0.3342712590092276  0.3327465634620879
  0.4132568806687615  0.8342712590092276  0.6672534365379192
  0.1047944634387434  0.0125619278516851  0.1875401757794819
  0.8952055365612495  0.5125619278516851  0.8124598242205181
  0.6075424152834614  0.8095787198985036  0.1274684400463642
  0.3924575847165315  0.3095787198984965  0.8725315599536358
  0.0853649316743912  0.5546461188055929  0.3351231243240207
  0.9146350683256230  0.0546461188055929  0.6648768756759864
  0.4115739564624548  0.0562701092611562  0.4046437335668429
  0.2149553416996781  0.4040431499297057  0.3539320275287565
  0.7850446583003219  0.9040431499297057  0.6460679724712435
  0.6953526844150844  0.7631445722202130  0.9603397304285011
  0.0099107909188803  0.5888991498104659  0.1489358275668877
  0.4452279507241812  0.9268454219069682  0.0682940904022118
  0.8060581328112164  0.2183259232561667  0.6053492993250060
  0.7571740098115711  0.8945031265946426  0.2505220658129232
  0.9900892090811197  0.0888991498104659  0.8510641724331194
  0.9274239101629007  0.5328451649977097  0.4476819993671768
  0.5547720492758188  0.4268454219069753  0.9317059095977953
  0.5884260435375381  0.5562701092611633  0.5953562664331571
  0.4661963148994985  0.1540322264891785  0.7893598406901958
  0.8585475056992919  0.2476321099687553  0.1640041175607294
  0.0725760898370993  0.0328451649977097  0.5523180006328232
  0.1939418671887836  0.7183259232561596  0.3946507006749940
  0.3046473155849156  0.2631445722202130  0.0396602695714918
  0.1414524943007152  0.7476321099687624  0.8359958824392706
  0.2428259901884431  0.3945031265946497  0.7494779341870839
  0.5338036851005015  0.6540322264891785  0.2106401593098042

  0.00000000E+00  0.00000000E+00  0.00000000E+00
  0.00000000E+00  0.00000000E+00  0.00000000E+00
  0.00000000E+00  0.00000000E+00  0.00000000E+00
  0.00000000E+00  0.00000000E+00  0.00000000E+00
  0.00000000E+00  0.00000000E+00  0.00000000E+00
  0.00000000E+00  0.00000000E+00  0.00000000E+00
  0.00000000E+00  0.00000000E+00  0.00000000E+00
  0.00000000E+00  0.00000000E+00  0.00000000E+00
  0.00000000E+00  0.00000000E+00  0.00000000E+00
  0.00000000E+00  0.00000000E+00  0.00000000E+00
  0.00000000E+00  0.00000000E+00  0.00000000E+00
  0.00000000E+00  0.00000000E+00  0.00000000E+00
  0.00000000E+00  0.00000000E+00  0.00000000E+00
  0.00000000E+00  0.00000000E+00  0.00000000E+00
  0.00000000E+00  0.00000000E+00  0.00000000E+00
  0.00000000E+00  0.00000000E+00  0.00000000E+00
  0.00000000E+00  0.00000000E+00  0.00000000E+00
  0.00000000E+00  0.00000000E+00  0.00000000E+00
  0.00000000E+00  0.00000000E+00  0.00000000E+00
  0.00000000E+00  0.00000000E+00  0.00000000E+00
  0.00000000E+00  0.00000000E+00  0.00000000E+00
  0.00000000E+00  0.00000000E+00  0.00000000E+00
  0.00000000E+00  0.00000000E+00  0.00000000E+00
  0.00000000E+00  0.00000000E+00  0.00000000E+00
  0.00000000E+00  0.00000000E+00  0.00000000E+00
  0.00000000E+00  0.00000000E+00  0.00000000E+00
  0.00000000E+00  0.00000000E+00  0.00000000E+00
  0.00000000E+00  0.00000000E+00  0.00000000E+00
