Tl1 I6                                  
   1.0000000000000000     
     3.4856311129347826    1.7739605210460687    8.3196211191315719
    -2.9173405266929362    3.1885024665465984    7.8172747135849221
     1.6032405351396750   -4.4814734956290820    7.9939037509406061
   I    Tl
     6     1
Direct
  0.4090139508745096  0.7635525092846933  0.0923057248018750
  0.9852267646418440  0.5394298337720755  0.2238036392493044
  0.6229280762574305  0.1605206250670861  0.4887189235220575
  0.3773718889016848  0.8393191187444486  0.5117231688436803
  0.0149975550666284  0.4606155351915291  0.7762309610160898
  0.5913183441783403  0.2367353504378329  0.9072293740355235
  0.9995434200795756  0.0002270275023406  0.0003882085314757

  0.00000000E+00  0.00000000E+00  0.00000000E+00
  0.00000000E+00  0.00000000E+00  0.00000000E+00
  0.00000000E+00  0.00000000E+00  0.00000000E+00
  0.00000000E+00  0.00000000E+00  0.00000000E+00
  0.00000000E+00  0.00000000E+00  0.00000000E+00
  0.00000000E+00  0.00000000E+00  0.00000000E+00
  0.00000000E+00  0.00000000E+00  0.00000000E+00
