Ca2Tl                                   
   1.0000000000000000     
     7.2940441756315062    0.0000000000000000   -0.0002281028202660
     0.0000000000000000    5.4058658215497388    0.0000000000000000
    -0.0003052262989282    0.0000000000000000    9.9498012650248633
   Ca   Tl
     8     4
Direct
  0.3326534354626105  0.7500000000000000  0.0669026395540442
  0.0316382493998262  0.2500000000000000  0.1972458199664970
  0.5316503966079864  0.2500000000000000  0.3028501002560873
  0.8326458815900963  0.7500000000000000  0.4332052324640117
  0.1673208301702473  0.2500000000000000  0.5668781049488416
  0.4683154281758348  0.7500000000000000  0.6972564176133460
  0.9683265530485201  0.7500000000000000  0.8028153243622782
  0.6673012234534212  0.2500000000000000  0.9331862392040406
  0.7736438247587358  0.7500000000000000  0.1106083983516228
  0.2736396776016718  0.7500000000000000  0.3894775895820857
  0.7263445892450164  0.2500000000000000  0.6106187952093975
  0.2263199104860334  0.2500000000000000  0.8894553384877426

  0.00000000E+00  0.00000000E+00  0.00000000E+00
  0.00000000E+00  0.00000000E+00  0.00000000E+00
  0.00000000E+00  0.00000000E+00  0.00000000E+00
  0.00000000E+00  0.00000000E+00  0.00000000E+00
  0.00000000E+00  0.00000000E+00  0.00000000E+00
  0.00000000E+00  0.00000000E+00  0.00000000E+00
  0.00000000E+00  0.00000000E+00  0.00000000E+00
  0.00000000E+00  0.00000000E+00  0.00000000E+00
  0.00000000E+00  0.00000000E+00  0.00000000E+00
  0.00000000E+00  0.00000000E+00  0.00000000E+00
  0.00000000E+00  0.00000000E+00  0.00000000E+00
  0.00000000E+00  0.00000000E+00  0.00000000E+00
