Ca2 Al2 Cl10                            
   1.0000000000000000     
     6.3149301371152662    0.0533575883715915    2.3528787066164463
     1.4359279038077271    6.1497390895268644    2.3528790110515549
    -0.0145045174737167   -0.0116058857229715    9.4123697733418421
   Ca   Al   Cl
     2     2    10
Direct
  0.4407890545752764  0.5592109448943887  0.2500000003736105
  0.5592109454247236  0.4407890551056113  0.7499999996263895
  0.0000000000000000  0.0000000000000000  0.5000000000000000
  0.0000000000000000  0.0000000000000000  0.0000000000000000
  0.7973676663045950  0.7454813356618715  0.6178688291935472
  0.2545186688148249  0.2026313296450439  0.8821311705061916
  0.2026313336954075  0.2545186643381285  0.3821321708064573
  0.7454813311851751  0.7973676703549586  0.1178688294938084
  0.9247638900584860  0.0752361091081042  0.7500000005975522
  0.0752361099415140  0.9247638908918958  0.2499999994024478
  0.7254845021779701  0.3148946388383038  0.0269245162414151
  0.6851053587886540  0.2745154941682060  0.4730754881549188
  0.2745154978220299  0.6851053611616962  0.9730754837585849
  0.3148946412113389  0.7254845058317940  0.5269245118450812

  0.00000000E+00  0.00000000E+00  0.00000000E+00
  0.00000000E+00  0.00000000E+00  0.00000000E+00
  0.00000000E+00  0.00000000E+00  0.00000000E+00
  0.00000000E+00  0.00000000E+00  0.00000000E+00
  0.00000000E+00  0.00000000E+00  0.00000000E+00
  0.00000000E+00  0.00000000E+00  0.00000000E+00
  0.00000000E+00  0.00000000E+00  0.00000000E+00
  0.00000000E+00  0.00000000E+00  0.00000000E+00
  0.00000000E+00  0.00000000E+00  0.00000000E+00
  0.00000000E+00  0.00000000E+00  0.00000000E+00
  0.00000000E+00  0.00000000E+00  0.00000000E+00
  0.00000000E+00  0.00000000E+00  0.00000000E+00
  0.00000000E+00  0.00000000E+00  0.00000000E+00
  0.00000000E+00  0.00000000E+00  0.00000000E+00
