Ca2 B7                                  
   1.00000000000000     
     5.2760943468067945   -0.0005834995243622   -0.0003929957712492
    -2.6389427293411938    4.5687426849514523    0.0003953076993707
     0.0009417618997102   -0.0005276471722042    4.2191344843335816
   B    Ca
     7     2
Direct
  0.1183488488557458  0.2366151231378169  0.1584556113307514
  0.1182569741205199  0.8817444201927955  0.1583783198134796
  0.7633825454734762  0.8816505672390349  0.1584581640300868
  0.0000000000000000  0.0000000000000000  0.5000000000000000
  0.2366174545265238  0.1183494327609722  0.8415418359699132
  0.8817430258794801  0.1182555798072045  0.8416216801865204
  0.8816511511442542  0.7633848768621831  0.8415443886692486
  0.6666769921563187  0.3333239128080692  0.3169268807185333
  0.3333230078436813  0.6666760871919308  0.6830731192814667
 
  0.00000000E+00  0.00000000E+00  0.00000000E+00
  0.00000000E+00  0.00000000E+00  0.00000000E+00
  0.00000000E+00  0.00000000E+00  0.00000000E+00
  0.00000000E+00  0.00000000E+00  0.00000000E+00
  0.00000000E+00  0.00000000E+00  0.00000000E+00
  0.00000000E+00  0.00000000E+00  0.00000000E+00
  0.00000000E+00  0.00000000E+00  0.00000000E+00
  0.00000000E+00  0.00000000E+00  0.00000000E+00
  0.00000000E+00  0.00000000E+00  0.00000000E+00
