Ga3F                                    
   1.00000000000000     
     0.0000000000000000    3.1854394265978319    3.1854394265978319
     3.1854394265978314    0.0000000000000000    3.1854394265978319
     3.1854394265978314    3.1854394265978319    0.0000000000000000
   F    Ga
     1     3
Direct
  0.7500000000000000  0.7500000000000000  0.7500000000000000
  0.0000000000000000  0.0000000000000000  0.0000000000000000
  0.2500000000000000  0.2500000000000000  0.2500000000000000
  0.5000000000000000  0.5000000000000000  0.5000000000000000
 
  0.00000000E+00  0.00000000E+00  0.00000000E+00
  0.00000000E+00  0.00000000E+00  0.00000000E+00
  0.00000000E+00  0.00000000E+00  0.00000000E+00
  0.00000000E+00  0.00000000E+00  0.00000000E+00
