Be3 In33                                
   1.00000000000000     
    10.0449350719850070    0.0000000000000000    0.0000000000000000
     0.0000000000000000   10.0449350719850088    0.0000000000000000
     0.0000000000000000    0.0000000000000000   10.0449350719850088
   Be   In
     3    33
Direct
  0.5000000000000000  0.0000000000000000  0.0000000000000000
  0.0000000000000000  0.5000000000000000  0.0000000000000000
  0.0000000000000000  0.0000000000000000  0.5000000000000000
  0.3440314346548377  0.3440314346548377  0.0000000000000000
  0.6559685653451623  0.3440314346548377  0.0000000000000000
  0.3440314346548377  0.6559685653451623  0.0000000000000000
  0.6559685653451623  0.6559685653451623  0.0000000000000000
  0.1559958671347275  0.1559958671347275  0.1559958671347275
  0.8440041328652725  0.1559958671347275  0.1559958671347275
  0.1559958671347275  0.8440041328652725  0.1559958671347275
  0.8440041328652725  0.8440041328652725  0.1559958671347275
  0.5000000000000000  0.2603285836722264  0.2603285836722264
  0.2603285836722264  0.5000000000000000  0.2603285836722264
  0.7396714163277736  0.5000000000000000  0.2603285836722264
  0.5000000000000000  0.7396714163277736  0.2603285836722264
  0.3440314346548377  0.0000000000000000  0.3440314346548377
  0.6559685653451623  0.0000000000000000  0.3440314346548377
  0.0000000000000000  0.3440314346548377  0.3440314346548377
  0.0000000000000000  0.6559685653451623  0.3440314346548377
  0.2603285836722264  0.2603285836722264  0.5000000000000000
  0.7396714163277736  0.2603285836722264  0.5000000000000000
  0.5000000000000000  0.5000000000000000  0.5000000000000000
  0.2603285836722264  0.7396714163277736  0.5000000000000000
  0.7396714163277736  0.7396714163277736  0.5000000000000000
  0.3440314346548377  0.0000000000000000  0.6559685653451623
  0.6559685653451623  0.0000000000000000  0.6559685653451623
  0.0000000000000000  0.3440314346548377  0.6559685653451623
  0.0000000000000000  0.6559685653451623  0.6559685653451623
  0.5000000000000000  0.2603285836722264  0.7396714163277736
  0.2603285836722264  0.5000000000000000  0.7396714163277736
  0.7396714163277736  0.5000000000000000  0.7396714163277736
  0.5000000000000000  0.7396714163277736  0.7396714163277736
  0.1559958671347275  0.1559958671347275  0.8440041328652725
  0.8440041328652725  0.1559958671347275  0.8440041328652725
  0.1559958671347275  0.8440041328652725  0.8440041328652725
  0.8440041328652725  0.8440041328652725  0.8440041328652725
 
  0.00000000E+00  0.00000000E+00  0.00000000E+00
  0.00000000E+00  0.00000000E+00  0.00000000E+00
  0.00000000E+00  0.00000000E+00  0.00000000E+00
  0.00000000E+00  0.00000000E+00  0.00000000E+00
  0.00000000E+00  0.00000000E+00  0.00000000E+00
  0.00000000E+00  0.00000000E+00  0.00000000E+00
  0.00000000E+00  0.00000000E+00  0.00000000E+00
  0.00000000E+00  0.00000000E+00  0.00000000E+00
  0.00000000E+00  0.00000000E+00  0.00000000E+00
  0.00000000E+00  0.00000000E+00  0.00000000E+00
  0.00000000E+00  0.00000000E+00  0.00000000E+00
  0.00000000E+00  0.00000000E+00  0.00000000E+00
  0.00000000E+00  0.00000000E+00  0.00000000E+00
  0.00000000E+00  0.00000000E+00  0.00000000E+00
  0.00000000E+00  0.00000000E+00  0.00000000E+00
  0.00000000E+00  0.00000000E+00  0.00000000E+00
  0.00000000E+00  0.00000000E+00  0.00000000E+00
  0.00000000E+00  0.00000000E+00  0.00000000E+00
  0.00000000E+00  0.00000000E+00  0.00000000E+00
  0.00000000E+00  0.00000000E+00  0.00000000E+00
  0.00000000E+00  0.00000000E+00  0.00000000E+00
  0.00000000E+00  0.00000000E+00  0.00000000E+00
  0.00000000E+00  0.00000000E+00  0.00000000E+00
  0.00000000E+00  0.00000000E+00  0.00000000E+00
  0.00000000E+00  0.00000000E+00  0.00000000E+00
  0.00000000E+00  0.00000000E+00  0.00000000E+00
  0.00000000E+00  0.00000000E+00  0.00000000E+00
  0.00000000E+00  0.00000000E+00  0.00000000E+00
  0.00000000E+00  0.00000000E+00  0.00000000E+00
  0.00000000E+00  0.00000000E+00  0.00000000E+00
  0.00000000E+00  0.00000000E+00  0.00000000E+00
  0.00000000E+00  0.00000000E+00  0.00000000E+00
  0.00000000E+00  0.00000000E+00  0.00000000E+00
  0.00000000E+00  0.00000000E+00  0.00000000E+00
  0.00000000E+00  0.00000000E+00  0.00000000E+00
  0.00000000E+00  0.00000000E+00  0.00000000E+00
