Ba4 B10 I2                              
   1.00000000000000     
    10.4174969600206353    0.7944705559158955    2.2570909021551580
    -3.8172905866562461    6.5805589328788638   -0.0862535755760605
    -4.0482696561429981   -2.2987861927991591    3.7293390688484824
   I    Ba   B 
     2     4    10
Direct
  0.9458572689195393  0.3245909580583017  0.1501257243091132
  0.0541660644863953  0.7379691845426635  0.7583856062159313
  0.8414567593055935  0.7997559217769208  0.0589048054524000
  0.6140851971806569  0.2622021958482961  0.4039512344027401
  0.3859070350619689  0.8002441947728371  0.6757382682146797
  0.1585514853009897  0.2627760872873353  0.8760000616168995
  0.1980633042824920  0.9290282766816205  0.1965689026259554
  0.5612399113572266  0.6396801015965536  0.2074962244756549
  0.5848217744646931  0.8120796762132372  0.4263244235778458
  0.5016339959422851  0.5860312320735659  0.4389456216469085
  0.6909518407216027  0.9223583231940466  0.3055795159208827
  0.8019796452054138  0.1335429664514365  0.3006794680470790
  0.3090493081888610  0.1400475556863938  0.4237138582655717
  0.4983517895168532  0.4764054238092115  0.9356622511836719
  0.4387723599857409  0.4227692343469229  0.5850692018375057
  0.4151122600797024  0.2503186676606646  0.7566548322071682
 
  0.00000000E+00  0.00000000E+00  0.00000000E+00
  0.00000000E+00  0.00000000E+00  0.00000000E+00
  0.00000000E+00  0.00000000E+00  0.00000000E+00
  0.00000000E+00  0.00000000E+00  0.00000000E+00
  0.00000000E+00  0.00000000E+00  0.00000000E+00
  0.00000000E+00  0.00000000E+00  0.00000000E+00
  0.00000000E+00  0.00000000E+00  0.00000000E+00
  0.00000000E+00  0.00000000E+00  0.00000000E+00
  0.00000000E+00  0.00000000E+00  0.00000000E+00
  0.00000000E+00  0.00000000E+00  0.00000000E+00
  0.00000000E+00  0.00000000E+00  0.00000000E+00
  0.00000000E+00  0.00000000E+00  0.00000000E+00
  0.00000000E+00  0.00000000E+00  0.00000000E+00
  0.00000000E+00  0.00000000E+00  0.00000000E+00
  0.00000000E+00  0.00000000E+00  0.00000000E+00
  0.00000000E+00  0.00000000E+00  0.00000000E+00
