Mg5Ga3                                  
   1.00000000000000     
     7.0748199265298961    0.0000000065756097    0.0000000000000000
    -0.0000000065756097    7.0748199265298961    0.0000000000000000
     0.0000000000000000    0.0000000000000000   13.0995219274834955
   Ga   Mg
    12    20
Direct
  0.5000000000000000  0.0000000000000000  0.9995629313396179
  0.0000000000000000  0.5000000000000000  0.0004422196799609
  0.1297126693727222  0.1297175564869093  0.2499669619213591
  0.6297175564869093  0.3702873306272778  0.2499669619213591
  0.3702824435130907  0.6297126693727222  0.2499669619213591
  0.8702873306272778  0.8702824435130907  0.2499669619213591
  0.5000000000000000  0.0000000000000000  0.4994938502704613
  0.0000000000000000  0.5000000000000000  0.5005152420207750
  0.8702838574293423  0.1297105293494170  0.7499901023365112
  0.3702894706505830  0.3702838574293423  0.7499901023365112
  0.6297105293494170  0.6297161425706577  0.7499901023365112
  0.1297161425706577  0.8702894706505830  0.7499901023365112
  0.8356736048865301  0.1636918081901726  0.0970731945056826
  0.3363081918098274  0.3356736048865301  0.0970731945056826
  0.6636918081901726  0.6643263951134699  0.0970731945056826
  0.1643263951134699  0.8363081918098274  0.0970731945056826
  0.0000000000000000  0.5000000000000000  0.2496112156546459
  0.5000000000000000  0.0000000000000000  0.2502852852530140
  0.8363127400795207  0.1643708228622955  0.4028590017559424
  0.3356291771376974  0.3363127400795207  0.4028590017559424
  0.6643708228622955  0.6636872599204793  0.4028590017559424
  0.1636872599204793  0.8356291771377045  0.4028590017559424
  0.1643562640502410  0.1636737794930312  0.5970865489554811
  0.6636737794930312  0.3356437359497590  0.5970865489554811
  0.3363262205069688  0.6643562640502410  0.5970865489554811
  0.8356437359497590  0.8363262205069688  0.5970865489554811
  0.0000000000000000  0.5000000000000000  0.7496248213189602
  0.5000000000000000  0.0000000000000000  0.7502962629950716
  0.1637134148422419  0.1643481369540893  0.9028662333919044
  0.6643481369540893  0.3362865851577581  0.9028662333919044
  0.3356518630459107  0.6637134148422419  0.9028662333919044
  0.8362865851577581  0.8356518630459107  0.9028662333919044
 
  0.00000000E+00  0.00000000E+00  0.00000000E+00
  0.00000000E+00  0.00000000E+00  0.00000000E+00
  0.00000000E+00  0.00000000E+00  0.00000000E+00
  0.00000000E+00  0.00000000E+00  0.00000000E+00
  0.00000000E+00  0.00000000E+00  0.00000000E+00
  0.00000000E+00  0.00000000E+00  0.00000000E+00
  0.00000000E+00  0.00000000E+00  0.00000000E+00
  0.00000000E+00  0.00000000E+00  0.00000000E+00
  0.00000000E+00  0.00000000E+00  0.00000000E+00
  0.00000000E+00  0.00000000E+00  0.00000000E+00
  0.00000000E+00  0.00000000E+00  0.00000000E+00
  0.00000000E+00  0.00000000E+00  0.00000000E+00
  0.00000000E+00  0.00000000E+00  0.00000000E+00
  0.00000000E+00  0.00000000E+00  0.00000000E+00
  0.00000000E+00  0.00000000E+00  0.00000000E+00
  0.00000000E+00  0.00000000E+00  0.00000000E+00
  0.00000000E+00  0.00000000E+00  0.00000000E+00
  0.00000000E+00  0.00000000E+00  0.00000000E+00
  0.00000000E+00  0.00000000E+00  0.00000000E+00
  0.00000000E+00  0.00000000E+00  0.00000000E+00
  0.00000000E+00  0.00000000E+00  0.00000000E+00
  0.00000000E+00  0.00000000E+00  0.00000000E+00
  0.00000000E+00  0.00000000E+00  0.00000000E+00
  0.00000000E+00  0.00000000E+00  0.00000000E+00
  0.00000000E+00  0.00000000E+00  0.00000000E+00
  0.00000000E+00  0.00000000E+00  0.00000000E+00
  0.00000000E+00  0.00000000E+00  0.00000000E+00
  0.00000000E+00  0.00000000E+00  0.00000000E+00
  0.00000000E+00  0.00000000E+00  0.00000000E+00
  0.00000000E+00  0.00000000E+00  0.00000000E+00
  0.00000000E+00  0.00000000E+00  0.00000000E+00
  0.00000000E+00  0.00000000E+00  0.00000000E+00
