Sr3 B33                                 
   1.00000000000000     
     6.6828570707059765    0.0000000000000000    0.0000000000000000
     0.0000000000000000    6.6828570707059773    0.0000000000000000
     0.0000000000000000    0.0000000000000000    6.6828570707059765
   Sr   B 
     3    33
Direct
  0.5000000000000000  0.0000000000000000  0.0000000000000000
  0.0000000000000000  0.5000000000000000  0.0000000000000000
  0.0000000000000000  0.0000000000000000  0.5000000000000000
  0.3717147746673390  0.3717147746673390  0.0000000000000000
  0.6282852253326610  0.3717147746673390  0.0000000000000000
  0.3717147746673390  0.6282852253326610  0.0000000000000000
  0.6282852253326610  0.6282852253326610  0.0000000000000000
  0.1318538272335417  0.1318538272335417  0.1318538272335417
  0.8681461727664583  0.1318538272335417  0.1318538272335417
  0.1318538272335417  0.8681461727664583  0.1318538272335417
  0.8681461727664583  0.8681461727664583  0.1318538272335417
  0.5000000000000000  0.3029295905682119  0.3029295905682119
  0.3029295905682119  0.5000000000000000  0.3029295905682119
  0.6970704094317881  0.5000000000000000  0.3029295905682119
  0.5000000000000000  0.6970704094317881  0.3029295905682119
  0.3717147746673390  0.0000000000000000  0.3717147746673390
  0.6282852253326610  0.0000000000000000  0.3717147746673390
  0.0000000000000000  0.3717147746673390  0.3717147746673390
  0.0000000000000000  0.6282852253326610  0.3717147746673390
  0.3029295905682119  0.3029295905682119  0.5000000000000000
  0.6970704094317881  0.3029295905682119  0.5000000000000000
  0.5000000000000000  0.5000000000000000  0.5000000000000000
  0.3029295905682119  0.6970704094317881  0.5000000000000000
  0.6970704094317881  0.6970704094317881  0.5000000000000000
  0.3717147746673390  0.0000000000000000  0.6282852253326610
  0.6282852253326610  0.0000000000000000  0.6282852253326610
  0.0000000000000000  0.3717147746673390  0.6282852253326610
  0.0000000000000000  0.6282852253326610  0.6282852253326610
  0.5000000000000000  0.3029295905682119  0.6970704094317881
  0.3029295905682119  0.5000000000000000  0.6970704094317881
  0.6970704094317881  0.5000000000000000  0.6970704094317881
  0.5000000000000000  0.6970704094317881  0.6970704094317881
  0.1318538272335417  0.1318538272335417  0.8681461727664583
  0.8681461727664583  0.1318538272335417  0.8681461727664583
  0.1318538272335417  0.8681461727664583  0.8681461727664583
  0.8681461727664583  0.8681461727664583  0.8681461727664583
 
  0.00000000E+00  0.00000000E+00  0.00000000E+00
  0.00000000E+00  0.00000000E+00  0.00000000E+00
  0.00000000E+00  0.00000000E+00  0.00000000E+00
  0.00000000E+00  0.00000000E+00  0.00000000E+00
  0.00000000E+00  0.00000000E+00  0.00000000E+00
  0.00000000E+00  0.00000000E+00  0.00000000E+00
  0.00000000E+00  0.00000000E+00  0.00000000E+00
  0.00000000E+00  0.00000000E+00  0.00000000E+00
  0.00000000E+00  0.00000000E+00  0.00000000E+00
  0.00000000E+00  0.00000000E+00  0.00000000E+00
  0.00000000E+00  0.00000000E+00  0.00000000E+00
  0.00000000E+00  0.00000000E+00  0.00000000E+00
  0.00000000E+00  0.00000000E+00  0.00000000E+00
  0.00000000E+00  0.00000000E+00  0.00000000E+00
  0.00000000E+00  0.00000000E+00  0.00000000E+00
  0.00000000E+00  0.00000000E+00  0.00000000E+00
  0.00000000E+00  0.00000000E+00  0.00000000E+00
  0.00000000E+00  0.00000000E+00  0.00000000E+00
  0.00000000E+00  0.00000000E+00  0.00000000E+00
  0.00000000E+00  0.00000000E+00  0.00000000E+00
  0.00000000E+00  0.00000000E+00  0.00000000E+00
  0.00000000E+00  0.00000000E+00  0.00000000E+00
  0.00000000E+00  0.00000000E+00  0.00000000E+00
  0.00000000E+00  0.00000000E+00  0.00000000E+00
  0.00000000E+00  0.00000000E+00  0.00000000E+00
  0.00000000E+00  0.00000000E+00  0.00000000E+00
  0.00000000E+00  0.00000000E+00  0.00000000E+00
  0.00000000E+00  0.00000000E+00  0.00000000E+00
  0.00000000E+00  0.00000000E+00  0.00000000E+00
  0.00000000E+00  0.00000000E+00  0.00000000E+00
  0.00000000E+00  0.00000000E+00  0.00000000E+00
  0.00000000E+00  0.00000000E+00  0.00000000E+00
  0.00000000E+00  0.00000000E+00  0.00000000E+00
  0.00000000E+00  0.00000000E+00  0.00000000E+00
  0.00000000E+00  0.00000000E+00  0.00000000E+00
  0.00000000E+00  0.00000000E+00  0.00000000E+00
