Mg3Ga                                   
   1.00000000000000     
     6.1643408977744247   -0.0007044466573702    0.0000000000000000
    -3.0832820346069711    5.3378799558878400    0.0000000000000000
     0.0000000000000000    0.0000000000000000    4.9640611794343528
   Ga   Mg
     2     6
Direct
  0.6668104878485650  0.3331957685079772  0.2500000000000000
  0.3331895121514350  0.6668042314920228  0.7500000000000000
  0.1692307941080671  0.3383895334510498  0.2500000000000000
  0.6616181959452376  0.8307745041626049  0.2500000000000000
  0.1691930471192791  0.8308095846377554  0.2500000000000000
  0.8308069528807209  0.1691904153622446  0.7500000000000000
  0.3383818040547624  0.1692254958373951  0.7500000000000000
  0.8307692058919329  0.6616104665489502  0.7500000000000000
 
  0.00000000E+00  0.00000000E+00  0.00000000E+00
  0.00000000E+00  0.00000000E+00  0.00000000E+00
  0.00000000E+00  0.00000000E+00  0.00000000E+00
  0.00000000E+00  0.00000000E+00  0.00000000E+00
  0.00000000E+00  0.00000000E+00  0.00000000E+00
  0.00000000E+00  0.00000000E+00  0.00000000E+00
  0.00000000E+00  0.00000000E+00  0.00000000E+00
  0.00000000E+00  0.00000000E+00  0.00000000E+00
