Ga28 Br36                               
   1.00000000000000     
    12.4934580084312810   -0.0000026647238579   -0.0000026919149360
    -0.0000026919149360   12.4934580084312810   -0.0000026647238579
    -0.0000026647238579   -0.0000026919149360   12.4934580084312827
   Br   Ga
    36    28
Direct
  0.0002272114899924  0.0002272114899924  0.0002272114899924
  0.4997474526504533  0.5001511884128149  0.0002125497214394
  0.4528733110539420  0.1976563709499288  0.0397759468153538
  0.0470747269529070  0.6975874826359387  0.0399941131663937
  0.6975874826359387  0.0399941131663937  0.0470747269529070
  0.8023749454305573  0.5399420221487503  0.0472286378092264
  0.1749647886033898  0.1749647886033898  0.1749647886033898
  0.3250672009824314  0.6749761151530436  0.1749390539552138
  0.0397759468153538  0.4528733110539420  0.1976563709499288
  0.4603250953978204  0.9530135467594789  0.1975141712451318
  0.5397941539675770  0.4530262291354887  0.3024698259102863
  0.9603734351793136  0.9528679600445713  0.3024476032950503
  0.6749761151530436  0.1749390539552138  0.3250672009824314
  0.8251358085399687  0.6748799372991172  0.3251862415240510
  0.1976563709499288  0.0397759468153538  0.4528733110539420
  0.3024698259102863  0.5397941539675770  0.4530262291354887
  0.9530135467594789  0.1975141712451318  0.4603250953978204
  0.5471796902791652  0.6976194611549573  0.4601741913459421
  0.5001511884128149  0.0002125497214394  0.4997474526504533
  0.0002125497214394  0.4997474526504533  0.5001511884128149
  0.4530262291354887  0.3024698259102863  0.5397941539675770
  0.0472286378092264  0.8023749454305573  0.5399420221487503
  0.6976194611549573  0.4601741913459421  0.5471796902791652
  0.8025309051863303  0.9601566121546483  0.5470427991467162
  0.1749390539552138  0.3250672009824314  0.6749761151530436
  0.3251862415240510  0.8251358085399687  0.6748799372991172
  0.0399941131663937  0.0470747269529070  0.6975874826359387
  0.4601741913459421  0.5471796902791652  0.6976194611549573
  0.5399420221487503  0.0472286378092264  0.8023749454305573
  0.9601566121546483  0.5470427991467162  0.8025309051863303
  0.6748799372991172  0.3251862415240510  0.8251358085399687
  0.8251551337480905  0.8251551337480905  0.8251551337480905
  0.1975141712451318  0.4603250953978204  0.9530135467594789
  0.3024476032950503  0.9603734351793136  0.9528679600445713
  0.9528679600445713  0.3024476032950503  0.9603734351793136
  0.5470427991467162  0.8025309051863303  0.9601566121546483
  0.5000030793774570  0.0000634161966815  0.9998924919220613
  0.9998924919220613  0.5000030793774570  0.0000634161966815
  0.6629056031274700  0.3132729474456468  0.0541104935275314
  0.8370592119942657  0.8133179660662577  0.0541782069379337
  0.3134222891124097  0.4459759753476433  0.1629956595391704
  0.1865622117572912  0.9461127575274304  0.1630293160858329
  0.9461127575274304  0.1630293160858329  0.1865622117572912
  0.5539351630346800  0.6631256993614087  0.1865094327502632
  0.4459759753476433  0.1629956595391704  0.3134222891124097
  0.0541104935275314  0.6629056031274700  0.3132729474456468
  0.8132408136763516  0.4459195269507532  0.3370382891556716
  0.6865298637925576  0.9460502970535103  0.3369229239614455
  0.1629956595391704  0.3134222891124097  0.4459759753476433
  0.3370382891556716  0.8132408136763516  0.4459195269507532
  0.0000634161966815  0.9998924919220613  0.5000030793774570
  0.5000558966772459  0.5000558966772459  0.5000558966772459
  0.6631256993614087  0.1865094327502632  0.5539351630346800
  0.8370773951805006  0.6865430177565059  0.5540641354385230
  0.3132729474456468  0.0541104935275314  0.6629056031274700
  0.1865094327502632  0.5539351630346800  0.6631256993614087
  0.9460502970535103  0.3369229239614455  0.6865298637925576
  0.5540641354385230  0.8370773951805006  0.6865430177565059
  0.4459195269507532  0.3370382891556716  0.8132408136763516
  0.0541782069379337  0.8370592119942657  0.8133179660662577
  0.8133179660662577  0.0541782069379337  0.8370592119942657
  0.6865430177565059  0.5540641354385230  0.8370773951805006
  0.1630293160858329  0.1865622117572912  0.9461127575274304
  0.3369229239614455  0.6865298637925576  0.9460502970535103
 
  0.00000000E+00  0.00000000E+00  0.00000000E+00
  0.00000000E+00  0.00000000E+00  0.00000000E+00
  0.00000000E+00  0.00000000E+00  0.00000000E+00
  0.00000000E+00  0.00000000E+00  0.00000000E+00
  0.00000000E+00  0.00000000E+00  0.00000000E+00
  0.00000000E+00  0.00000000E+00  0.00000000E+00
  0.00000000E+00  0.00000000E+00  0.00000000E+00
  0.00000000E+00  0.00000000E+00  0.00000000E+00
  0.00000000E+00  0.00000000E+00  0.00000000E+00
  0.00000000E+00  0.00000000E+00  0.00000000E+00
  0.00000000E+00  0.00000000E+00  0.00000000E+00
  0.00000000E+00  0.00000000E+00  0.00000000E+00
  0.00000000E+00  0.00000000E+00  0.00000000E+00
  0.00000000E+00  0.00000000E+00  0.00000000E+00
  0.00000000E+00  0.00000000E+00  0.00000000E+00
  0.00000000E+00  0.00000000E+00  0.00000000E+00
  0.00000000E+00  0.00000000E+00  0.00000000E+00
  0.00000000E+00  0.00000000E+00  0.00000000E+00
  0.00000000E+00  0.00000000E+00  0.00000000E+00
  0.00000000E+00  0.00000000E+00  0.00000000E+00
  0.00000000E+00  0.00000000E+00  0.00000000E+00
  0.00000000E+00  0.00000000E+00  0.00000000E+00
  0.00000000E+00  0.00000000E+00  0.00000000E+00
  0.00000000E+00  0.00000000E+00  0.00000000E+00
  0.00000000E+00  0.00000000E+00  0.00000000E+00
  0.00000000E+00  0.00000000E+00  0.00000000E+00
  0.00000000E+00  0.00000000E+00  0.00000000E+00
  0.00000000E+00  0.00000000E+00  0.00000000E+00
  0.00000000E+00  0.00000000E+00  0.00000000E+00
  0.00000000E+00  0.00000000E+00  0.00000000E+00
  0.00000000E+00  0.00000000E+00  0.00000000E+00
  0.00000000E+00  0.00000000E+00  0.00000000E+00
  0.00000000E+00  0.00000000E+00  0.00000000E+00
  0.00000000E+00  0.00000000E+00  0.00000000E+00
  0.00000000E+00  0.00000000E+00  0.00000000E+00
  0.00000000E+00  0.00000000E+00  0.00000000E+00
  0.00000000E+00  0.00000000E+00  0.00000000E+00
  0.00000000E+00  0.00000000E+00  0.00000000E+00
  0.00000000E+00  0.00000000E+00  0.00000000E+00
  0.00000000E+00  0.00000000E+00  0.00000000E+00
  0.00000000E+00  0.00000000E+00  0.00000000E+00
  0.00000000E+00  0.00000000E+00  0.00000000E+00
  0.00000000E+00  0.00000000E+00  0.00000000E+00
  0.00000000E+00  0.00000000E+00  0.00000000E+00
  0.00000000E+00  0.00000000E+00  0.00000000E+00
  0.00000000E+00  0.00000000E+00  0.00000000E+00
  0.00000000E+00  0.00000000E+00  0.00000000E+00
  0.00000000E+00  0.00000000E+00  0.00000000E+00
  0.00000000E+00  0.00000000E+00  0.00000000E+00
  0.00000000E+00  0.00000000E+00  0.00000000E+00
  0.00000000E+00  0.00000000E+00  0.00000000E+00
  0.00000000E+00  0.00000000E+00  0.00000000E+00
  0.00000000E+00  0.00000000E+00  0.00000000E+00
  0.00000000E+00  0.00000000E+00  0.00000000E+00
  0.00000000E+00  0.00000000E+00  0.00000000E+00
  0.00000000E+00  0.00000000E+00  0.00000000E+00
  0.00000000E+00  0.00000000E+00  0.00000000E+00
  0.00000000E+00  0.00000000E+00  0.00000000E+00
  0.00000000E+00  0.00000000E+00  0.00000000E+00
  0.00000000E+00  0.00000000E+00  0.00000000E+00
  0.00000000E+00  0.00000000E+00  0.00000000E+00
  0.00000000E+00  0.00000000E+00  0.00000000E+00
  0.00000000E+00  0.00000000E+00  0.00000000E+00
  0.00000000E+00  0.00000000E+00  0.00000000E+00
