Ba2 Ga7                                 
   1.00000000000000     
     6.3178554723968245   -0.0082364545275124    0.0009700533871444
    -3.1665274418591687    5.4671861194932436   -0.0009811150570683
     0.0009860232246962   -0.0005835194718962    6.2589768593632265
   Ga   Ba
     7     2
Direct
  0.1744406302730042  0.3471933489279095  0.1504440522414541
  0.1730056601947609  0.8270045457510093  0.1495102291156982
  0.6527946736733696  0.8255579922547014  0.1504508854621704
  0.0000000000000000  0.0000000000000000  0.5000000000000000
  0.3472053263266304  0.1744420077452986  0.8495491145378296
  0.8269943398052391  0.1729954542489978  0.8504897708843018
  0.8255593697269958  0.6528066510720976  0.8495559477585459
  0.6669324077399921  0.3330721979704663  0.3620891731457618
  0.3330675922600079  0.6669278020295337  0.6379108268542382
 
  0.00000000E+00  0.00000000E+00  0.00000000E+00
  0.00000000E+00  0.00000000E+00  0.00000000E+00
  0.00000000E+00  0.00000000E+00  0.00000000E+00
  0.00000000E+00  0.00000000E+00  0.00000000E+00
  0.00000000E+00  0.00000000E+00  0.00000000E+00
  0.00000000E+00  0.00000000E+00  0.00000000E+00
  0.00000000E+00  0.00000000E+00  0.00000000E+00
  0.00000000E+00  0.00000000E+00  0.00000000E+00
  0.00000000E+00  0.00000000E+00  0.00000000E+00
