Tl10 Br18                               
   1.0000000000000000     
     0.0346045526415587   -8.8234948211020274    7.8865536032769041
     6.4512768161090639   -3.3849274284867459   -6.6148118897287995
     6.4979828996108084    3.3647847483916307    6.6763027192852142
   Br   Tl
    18    10
Direct
  0.2125150951056085  0.1272233750819609  0.1125813128212485
  0.9407215397798225  0.3055398015523139  0.0550896473112203
  0.3644896475470105  0.7831958291037182  0.0444204328295257
  0.4421551756316120  0.4472956737561660  0.1951211963934796
  0.1338463337907712  0.5486948356513963  0.2853393568183762
  0.9402008689844621  0.8633984396678898  0.3196442213866391
  0.2501405571632134  0.9170394220486315  0.4098633446849931
  0.7145117339968579  0.3842436175050139  0.3764804300070992
  0.5601225383402806  0.8235361482747905  0.3604162383747678
  0.4403389356542036  0.1767938881631466  0.6387546741106718
  0.2847560677319620  0.6216895669223490  0.6255949434133683
  0.7508668368383837  0.0863626175199954  0.5875302343598037
  0.0597093097445267  0.1368638465166967  0.6801763638455824
  0.8652952167986570  0.4535450000920633  0.7172974779431271
  0.5550146303567161  0.5514584785294403  0.8079570956403259
  0.6345109517772087  0.2143998623000698  0.9538670488961358
  0.0567452875827996  0.6910451619102247  0.9460320202447434
  0.7862457940739702  0.8699161502237303  0.8811439441177527
  0.7530671937023712  0.5527797226090740  0.0517831644726812
  0.1487957788519694  0.8574666701914069  0.1532727512334802
  0.4891003191517598  0.1378337517033899  0.2860433754643736
  0.3506087369153690  0.6589698074336710  0.3562547367314082
  0.9857080062661154  0.2188558323554304  0.3643663804734771
  0.0174773801908756  0.7793798037886503  0.6339684392047147
  0.6493395262255248  0.3428319373319226  0.6450356433793019
  0.5142495031402419  0.8641298287617261  0.7157894309588073
  0.8506890812368724  0.1406324047479970  0.8456936604865817
  0.2488779534208589  0.4449785262571524  0.9505824343963170

  0.00000000E+00  0.00000000E+00  0.00000000E+00
  0.00000000E+00  0.00000000E+00  0.00000000E+00
  0.00000000E+00  0.00000000E+00  0.00000000E+00
  0.00000000E+00  0.00000000E+00  0.00000000E+00
  0.00000000E+00  0.00000000E+00  0.00000000E+00
  0.00000000E+00  0.00000000E+00  0.00000000E+00
  0.00000000E+00  0.00000000E+00  0.00000000E+00
  0.00000000E+00  0.00000000E+00  0.00000000E+00
  0.00000000E+00  0.00000000E+00  0.00000000E+00
  0.00000000E+00  0.00000000E+00  0.00000000E+00
  0.00000000E+00  0.00000000E+00  0.00000000E+00
  0.00000000E+00  0.00000000E+00  0.00000000E+00
  0.00000000E+00  0.00000000E+00  0.00000000E+00
  0.00000000E+00  0.00000000E+00  0.00000000E+00
  0.00000000E+00  0.00000000E+00  0.00000000E+00
  0.00000000E+00  0.00000000E+00  0.00000000E+00
  0.00000000E+00  0.00000000E+00  0.00000000E+00
  0.00000000E+00  0.00000000E+00  0.00000000E+00
  0.00000000E+00  0.00000000E+00  0.00000000E+00
  0.00000000E+00  0.00000000E+00  0.00000000E+00
  0.00000000E+00  0.00000000E+00  0.00000000E+00
  0.00000000E+00  0.00000000E+00  0.00000000E+00
  0.00000000E+00  0.00000000E+00  0.00000000E+00
  0.00000000E+00  0.00000000E+00  0.00000000E+00
  0.00000000E+00  0.00000000E+00  0.00000000E+00
  0.00000000E+00  0.00000000E+00  0.00000000E+00
  0.00000000E+00  0.00000000E+00  0.00000000E+00
  0.00000000E+00  0.00000000E+00  0.00000000E+00
