Ba20 B4                                 
   1.00000000000000     
     8.1120516845697388    0.0036570702877647   -0.0024227020387859
     0.0090479970671019   19.4271246129851143    0.0090001461894030
    -0.0021862335461732    0.0034544225723502    7.3729423837517816
   B    Ba
     4    20
Direct
  0.7487305214530338  0.2500312642524705  0.0649292251071572
  0.2486778266091179  0.2500678213459011  0.4350978900446165
  0.7513420427734658  0.7500274733541730  0.5649436943128379
  0.2512833808419543  0.7500678659073330  0.9350795880446867
  0.5916497323503762  0.7500274839522234  0.1763242643204066
  0.3070984304574225  0.5571886252027838  0.1674030608037143
  0.3071057026136756  0.9428482198823644  0.1673986805641547
  0.0264709069095161  0.1552113183455219  0.2016803694097931
  0.0264480134248615  0.3448573374936359  0.2017320711507509
  0.5264602065377773  0.1552304577552448  0.2983052583340111
  0.5264664048893124  0.3448520883171255  0.2983248387421114
  0.8070772097451524  0.5571980617518406  0.3325944745835514
  0.8070731656973322  0.9428673463094270  0.3326248777053706
  0.0916490423952254  0.7500297255590951  0.3236921076334056
  0.9083651333284948  0.2500081541378449  0.6763138813865126
  0.1929380705203698  0.0571928325823876  0.6674015659210752
  0.1929140282209474  0.4428484433708277  0.6674107267439666
  0.4735473063418070  0.6552454159120131  0.7017166633967378
  0.4736015411489234  0.8448363811414623  0.7017256733260879
  0.9735771399969408  0.6552411559900904  0.7982887794884377
  0.9735686393706970  0.8448558534036650  0.7983250241177942
  0.6929025106893434  0.0572060114147490  0.8326186150728319
  0.6928948513443416  0.4428492659862044  0.8326551127363118
  0.4083581923399535  0.2500113966316206  0.8237135570536651
 
  0.00000000E+00  0.00000000E+00  0.00000000E+00
  0.00000000E+00  0.00000000E+00  0.00000000E+00
  0.00000000E+00  0.00000000E+00  0.00000000E+00
  0.00000000E+00  0.00000000E+00  0.00000000E+00
  0.00000000E+00  0.00000000E+00  0.00000000E+00
  0.00000000E+00  0.00000000E+00  0.00000000E+00
  0.00000000E+00  0.00000000E+00  0.00000000E+00
  0.00000000E+00  0.00000000E+00  0.00000000E+00
  0.00000000E+00  0.00000000E+00  0.00000000E+00
  0.00000000E+00  0.00000000E+00  0.00000000E+00
  0.00000000E+00  0.00000000E+00  0.00000000E+00
  0.00000000E+00  0.00000000E+00  0.00000000E+00
  0.00000000E+00  0.00000000E+00  0.00000000E+00
  0.00000000E+00  0.00000000E+00  0.00000000E+00
  0.00000000E+00  0.00000000E+00  0.00000000E+00
  0.00000000E+00  0.00000000E+00  0.00000000E+00
  0.00000000E+00  0.00000000E+00  0.00000000E+00
  0.00000000E+00  0.00000000E+00  0.00000000E+00
  0.00000000E+00  0.00000000E+00  0.00000000E+00
  0.00000000E+00  0.00000000E+00  0.00000000E+00
  0.00000000E+00  0.00000000E+00  0.00000000E+00
  0.00000000E+00  0.00000000E+00  0.00000000E+00
  0.00000000E+00  0.00000000E+00  0.00000000E+00
  0.00000000E+00  0.00000000E+00  0.00000000E+00
