AlCl2                                   
   1.00000000000000     
     3.9097168626248577    2.2570044487111018    6.3849734755981711
    -3.9097168626248577    2.2570044487111018    6.3849734755981711
     0.0000000000000000   -4.5148947425095027    6.3849306046245742
   Al   Cl
     2     4
Direct
  0.2500051013176403  0.2500051013176403  0.2499991473949876
  0.4999948986823597  0.4999948986823597  0.5000008526050124
  0.3750000000000000  0.3750000000000000  0.3750000000000000
  0.8750000000000000  0.3750000000000000  0.3750000000000000
  0.3750000000000000  0.8750000000000000  0.3750000000000000
  0.3750000000000000  0.3750000000000000  0.8750000000000000
 
  0.00000000E+00  0.00000000E+00  0.00000000E+00
  0.00000000E+00  0.00000000E+00  0.00000000E+00
  0.00000000E+00  0.00000000E+00  0.00000000E+00
  0.00000000E+00  0.00000000E+00  0.00000000E+00
  0.00000000E+00  0.00000000E+00  0.00000000E+00
  0.00000000E+00  0.00000000E+00  0.00000000E+00
