BI4                                     
   1.00000000000000     
     5.4543846671816345    0.0000000000000000    0.0000000000000000
     0.0000000000000000    5.4543846671816345    0.0000000000000000
     0.0000000000000000    0.0000000000000000   13.9749814534414707
   B    I 
     2     8
Direct
  0.0000000000000000  0.5000000000000000  0.2511148543506536
  0.5000000000000000  0.0000000000000000  0.7488851456493464
  0.0000000000000000  0.0000000000000000  0.0000000000000000
  0.5000000000000000  0.5000000000000000  0.0000000000000000
  0.0000000000000000  0.0000000000000000  0.2093019316371851
  0.5000000000000000  0.5000000000000000  0.2093019316371851
  0.0000000000000000  0.5000000000000000  0.4067877799048389
  0.5000000000000000  0.0000000000000000  0.5932122200951611
  0.0000000000000000  0.0000000000000000  0.7906980683628149
  0.5000000000000000  0.5000000000000000  0.7906980683628149
 
  0.00000000E+00  0.00000000E+00  0.00000000E+00
  0.00000000E+00  0.00000000E+00  0.00000000E+00
  0.00000000E+00  0.00000000E+00  0.00000000E+00
  0.00000000E+00  0.00000000E+00  0.00000000E+00
  0.00000000E+00  0.00000000E+00  0.00000000E+00
  0.00000000E+00  0.00000000E+00  0.00000000E+00
  0.00000000E+00  0.00000000E+00  0.00000000E+00
  0.00000000E+00  0.00000000E+00  0.00000000E+00
  0.00000000E+00  0.00000000E+00  0.00000000E+00
  0.00000000E+00  0.00000000E+00  0.00000000E+00
