Ba3 Ga4                                 
   1.00000000000000     
     2.8015953620294942    1.6192688530236123    8.3554337804691841
    -2.8015953620294942    1.6192688530236123    8.3554337804691841
     0.0000000000000000   -3.2345863824011154    8.3544226739956926
   Ga   Ba
     4     3
Direct
  0.1787697430388562  0.1787697430388562  0.1786251303236099
  0.2895963711147900  0.2895963711147900  0.2896363268229223
  0.7064036288852193  0.7064036288852193  0.7063636731770799
  0.8172302569611460  0.8172302569611460  0.8173748696763994
  0.4256358460804819  0.4256358460804819  0.4257243905000649
  0.5703641539195203  0.5703641539195203  0.5702756094999444
  0.9979999999999976  0.9979999999999976  0.9979999999999976
 
  0.00000000E+00  0.00000000E+00  0.00000000E+00
  0.00000000E+00  0.00000000E+00  0.00000000E+00
  0.00000000E+00  0.00000000E+00  0.00000000E+00
  0.00000000E+00  0.00000000E+00  0.00000000E+00
  0.00000000E+00  0.00000000E+00  0.00000000E+00
  0.00000000E+00  0.00000000E+00  0.00000000E+00
  0.00000000E+00  0.00000000E+00  0.00000000E+00
