Mg2 Ga4 F16                             
   1.00000000000000     
     5.4059491814220015    3.3110983051441818    0.0675524727038449
    -5.4059491814220015    3.3110983051441818    0.0675524727038449
     0.0000000000000000    0.4536784535064842    6.8074048112885084
   Mg   Ga   F 
     2     4    16
Direct
  0.5134086528636104  0.4865913471363896  0.7500000000000000
  0.4865913471363896  0.5134086528636104  0.2500000000000000
  0.8911809627734115  0.1088190372265885  0.7500000000000000
  0.1088190372265885  0.8911809627734115  0.2500000000000000
  0.5000000000000000  0.0000000000000000  0.5000000000000000
  0.0000000000000000  0.5000000000000000  0.0000000000000000
  0.7866470200781208  0.7864145117695998  0.7583731177803301
  0.2133529799218792  0.2135854882304002  0.2416268822196770
  0.2135854882304002  0.2133529799218792  0.7416268822196699
  0.7864145117695998  0.7866470200781208  0.2583731177803230
  0.5489297186429809  0.0360936652380559  0.7693742577117604
  0.4510702813570191  0.9639063347619441  0.2306257422882467
  0.9639063347619441  0.4510702813570191  0.7306257422882396
  0.0360936652380559  0.5489297186429809  0.2693742577117533
  0.1636399889845137  0.8845437827708551  0.5211956392148238
  0.8363600110154863  0.1154562172291449  0.4788043607851762
  0.1154562172291449  0.8363600110154863  0.9788043607851762
  0.8845437827708551  0.1636399889845137  0.0211956392148238
  0.4336669167575735  0.6630121661238135  0.5181542315833596
  0.5663330832424265  0.3369878338761794  0.4818457684166333
  0.3369878338761794  0.5663330832424265  0.9818457684166404
  0.6630121661238135  0.4336669167575735  0.0181542315833667
 
  0.00000000E+00  0.00000000E+00  0.00000000E+00
  0.00000000E+00  0.00000000E+00  0.00000000E+00
  0.00000000E+00  0.00000000E+00  0.00000000E+00
  0.00000000E+00  0.00000000E+00  0.00000000E+00
  0.00000000E+00  0.00000000E+00  0.00000000E+00
  0.00000000E+00  0.00000000E+00  0.00000000E+00
  0.00000000E+00  0.00000000E+00  0.00000000E+00
  0.00000000E+00  0.00000000E+00  0.00000000E+00
  0.00000000E+00  0.00000000E+00  0.00000000E+00
  0.00000000E+00  0.00000000E+00  0.00000000E+00
  0.00000000E+00  0.00000000E+00  0.00000000E+00
  0.00000000E+00  0.00000000E+00  0.00000000E+00
  0.00000000E+00  0.00000000E+00  0.00000000E+00
  0.00000000E+00  0.00000000E+00  0.00000000E+00
  0.00000000E+00  0.00000000E+00  0.00000000E+00
  0.00000000E+00  0.00000000E+00  0.00000000E+00
  0.00000000E+00  0.00000000E+00  0.00000000E+00
  0.00000000E+00  0.00000000E+00  0.00000000E+00
  0.00000000E+00  0.00000000E+00  0.00000000E+00
  0.00000000E+00  0.00000000E+00  0.00000000E+00
  0.00000000E+00  0.00000000E+00  0.00000000E+00
  0.00000000E+00  0.00000000E+00  0.00000000E+00
