Ca1 Tl3 I6                              
   1.0000000000000000     
     8.9670907514498595    0.0425068910474680    0.0119817236110762
     0.0425068910474682    8.9670907514498595    0.0119817236110762
     4.5141261941551285    4.5141261941551276    6.3618610307412222
   I    Ca   Tl
     6     1     3
Direct
  0.7533402269403524  0.2466597730596476  0.0000000000000000
  0.2710177091403096  0.2710177091403096  0.9499779485845963
  0.2466597730596476  0.7533402269403524  0.0000000000000000
  0.7289822908596904  0.7289822908596904  0.0500220514154037
  0.7274352700353859  0.7274352700353859  0.4923303817610645
  0.2725647299646141  0.2725647299646141  0.5076696182389355
  0.0000000000000000  0.0000000000000000  0.0000000000000000
  0.5000000000000000  0.5000000000000000  0.0000000000000000
  0.3347696446919031  0.6652303553080969  0.5000000000000000
  0.6652303553080969  0.3347696446919031  0.5000000000000000

  0.00000000E+00  0.00000000E+00  0.00000000E+00
  0.00000000E+00  0.00000000E+00  0.00000000E+00
  0.00000000E+00  0.00000000E+00  0.00000000E+00
  0.00000000E+00  0.00000000E+00  0.00000000E+00
  0.00000000E+00  0.00000000E+00  0.00000000E+00
  0.00000000E+00  0.00000000E+00  0.00000000E+00
  0.00000000E+00  0.00000000E+00  0.00000000E+00
  0.00000000E+00  0.00000000E+00  0.00000000E+00
  0.00000000E+00  0.00000000E+00  0.00000000E+00
  0.00000000E+00  0.00000000E+00  0.00000000E+00
