Sr16 Tl16 F80                           
   1.0000000000000000     
    14.7700358132510026   -0.0000003345184996    0.0000000000000011
     0.0000003345184989   14.7700358132510026    0.0000000000000011
    -0.0000000000000000   -0.0000000000000000    8.3158053298781596
   Sr   Tl   F 
    16    16    80
Direct
  0.5403860967511562  0.7179835714485066  0.4583426528705843
  0.2179835714485066  0.9596139032488438  0.9583426528705843
  0.7820164285514792  0.0403860967511420  0.9583426528705843
  0.4596139032488438  0.2820164285514863  0.4583426528705843
  0.2576526127232981  0.0901478771733437  0.4925056887090591
  0.5901478771733366  0.2423473872766948  0.9925056887090591
  0.4098521228266634  0.7576526127232981  0.9925056887090591
  0.7423473872767019  0.9098521228266634  0.4925056887090591
  0.0403860967511420  0.2179835714485066  0.9583426528705843
  0.7179835714485066  0.4596139032488438  0.4583426528705843
  0.2820164285514863  0.5403860967511562  0.4583426528705843
  0.9596139032488438  0.7820164285514792  0.9583426528705843
  0.7576526127232981  0.5901478771733366  0.9925056887090591
  0.0901478771733437  0.7423473872767019  0.4925056887090591
  0.9098521228266634  0.2576526127232981  0.4925056887090591
  0.2423473872766948  0.4098521228266634  0.9925056887090591
  0.0000000000000000  0.0000000000000000  0.6448702384055522
  0.0000000000000000  0.0000000000000000  0.1478435108566174
  0.5000000000000000  0.0000000000000000  0.9895977747711555
  0.5000000000000000  0.0000000000000000  0.4895977747711413
  0.3114589330007220  0.1841759447956690  0.0411584000154832
  0.6841759447956690  0.1885410669992780  0.5411584000154761
  0.3158240552043310  0.8114589330007220  0.5411584000154761
  0.6885410669992780  0.8158240552043310  0.0411584000154832
  0.5000000000000000  0.5000000000000000  0.1448702384055522
  0.5000000000000000  0.5000000000000000  0.6478435108566103
  0.0000000000000000  0.5000000000000000  0.4895977747711413
  0.0000000000000000  0.5000000000000000  0.9895977747711555
  0.8114589330007220  0.6841759447956690  0.5411584000154761
  0.1841759447956690  0.6885410669992780  0.0411584000154832
  0.8158240552043310  0.3114589330007220  0.0411584000154832
  0.1885410669992780  0.3158240552043310  0.5411584000154761
  0.0000000000000000  0.0000000000000000  0.8933783993967310
  0.0000000000000000  0.0000000000000000  0.3944728626861149
  0.1468849869722959  0.0154061096195832  0.6726420238285158
  0.5154061096195832  0.3531150130277041  0.1726420238285158
  0.4845938903804168  0.6468849869723030  0.1726420238285158
  0.8531150130276970  0.9845938903804168  0.6726420238285158
  0.1163010433629168  0.0834080400301573  0.0874256279646062
  0.5834080400301502  0.3836989566370761  0.5874256279646204
  0.4165919599698356  0.6163010433629239  0.5874256279646204
  0.8836989566370761  0.9165919599698498  0.0874256279646062
  0.5000000000000000  0.0000000000000000  0.7399059437999256
  0.5000000000000000  0.0000000000000000  0.2399059437999398
  0.4575087106025180  0.1445323643325764  0.0225972506112555
  0.6445323643325764  0.0424912893974891  0.5225972506112555
  0.3554676356674236  0.9575087106025038  0.5225972506112555
  0.5424912893974962  0.8554676356674236  0.0225972506112555
  0.4248442533868015  0.1219001162504014  0.4744595753789014
  0.6219001162504085  0.0751557466131842  0.9744595753789014
  0.3780998837495915  0.9248442533867873  0.9744595753789014
  0.5751557466131985  0.8780998837495915  0.4744595753789014
  0.3627490421904795  0.3066244972836714  0.9217823235260170
  0.8066244972836714  0.1372509578095276  0.4217823235260099
  0.1933755027163286  0.8627490421904795  0.4217823235260099
  0.6372509578095205  0.6933755027163286  0.9217823235260170
  0.3448522325218448  0.2527685592348661  0.2628392579602945
  0.7527685592348803  0.1551477674781481  0.7628392579602945
  0.2472314407651339  0.8448522325218661  0.7628392579602945
  0.6551477674781339  0.7472314407651197  0.2628392579602945
  0.2928205608233156  0.0927894314038795  0.8397098790964392
  0.5927894314038724  0.2071794391766772  0.3397098790964463
  0.4072105685961134  0.7928205608233156  0.3397098790964463
  0.7071794391766844  0.9072105685961276  0.8397098790964392
  0.2869462418780202  0.0613732590093790  0.1923454197293850
  0.5613732590093790  0.2130537581219798  0.6923454197293779
  0.4386267409906210  0.7869462418780202  0.6923454197293779
  0.7130537581219798  0.9386267409906210  0.1923454197293850
  0.6877898114117045  0.7602657050419026  0.5821425381875969
  0.2602657050419097  0.8122101885882813  0.0821425381876111
  0.7397342949580974  0.1877898114117258  0.0821425381876111
  0.3122101885882742  0.2397342949581045  0.5821425381875969
  0.5000000000000000  0.5000000000000000  0.3933783993967097
  0.5000000000000000  0.5000000000000000  0.8944728626861220
  0.6468849869723030  0.5154061096195832  0.1726420238285158
  0.0154061096195832  0.8531150130276970  0.6726420238285158
  0.9845938903804168  0.1468849869722959  0.6726420238285158
  0.3531150130277041  0.4845938903804168  0.1726420238285158
  0.6163010433629239  0.5834080400301502  0.5874256279646204
  0.0834080400301573  0.8836989566370761  0.0874256279646062
  0.9165919599698498  0.1163010433629168  0.0874256279646062
  0.3836989566370761  0.4165919599698356  0.5874256279646204
  0.0000000000000000  0.5000000000000000  0.2399059437999398
  0.0000000000000000  0.5000000000000000  0.7399059437999256
  0.9575087106025038  0.6445323643325764  0.5225972506112555
  0.1445323643325764  0.5424912893974962  0.0225972506112555
  0.8554676356674236  0.4575087106025180  0.0225972506112555
  0.0424912893974891  0.3554676356674236  0.5225972506112555
  0.9248442533867873  0.6219001162504085  0.9744595753789014
  0.1219001162504014  0.5751557466131985  0.4744595753789014
  0.8780998837495915  0.4248442533868015  0.4744595753789014
  0.0751557466131842  0.3780998837495915  0.9744595753789014
  0.8627490421904795  0.8066244972836714  0.4217823235260099
  0.3066244972836714  0.6372509578095205  0.9217823235260170
  0.6933755027163286  0.3627490421904795  0.9217823235260170
  0.1372509578095276  0.1933755027163286  0.4217823235260099
  0.8448522325218661  0.7527685592348803  0.7628392579602945
  0.2527685592348661  0.6551477674781339  0.2628392579602945
  0.7472314407651197  0.3448522325218448  0.2628392579602945
  0.1551477674781481  0.2472314407651339  0.7628392579602945
  0.7928205608233156  0.5927894314038724  0.3397098790964463
  0.0927894314038795  0.7071794391766844  0.8397098790964392
  0.9072105685961276  0.2928205608233156  0.8397098790964392
  0.2071794391766772  0.4072105685961134  0.3397098790964463
  0.7869462418780202  0.5613732590093790  0.6923454197293779
  0.0613732590093790  0.7130537581219798  0.1923454197293850
  0.9386267409906210  0.2869462418780202  0.1923454197293850
  0.2130537581219798  0.4386267409906210  0.6923454197293779
  0.1877898114117258  0.2602657050419097  0.0821425381876111
  0.7602657050419026  0.3122101885882742  0.5821425381875969
  0.2397342949581045  0.6877898114117045  0.5821425381875969
  0.8122101885882813  0.7397342949580974  0.0821425381876111

  0.00000000E+00  0.00000000E+00  0.00000000E+00
  0.00000000E+00  0.00000000E+00  0.00000000E+00
  0.00000000E+00  0.00000000E+00  0.00000000E+00
  0.00000000E+00  0.00000000E+00  0.00000000E+00
  0.00000000E+00  0.00000000E+00  0.00000000E+00
  0.00000000E+00  0.00000000E+00  0.00000000E+00
  0.00000000E+00  0.00000000E+00  0.00000000E+00
  0.00000000E+00  0.00000000E+00  0.00000000E+00
  0.00000000E+00  0.00000000E+00  0.00000000E+00
  0.00000000E+00  0.00000000E+00  0.00000000E+00
  0.00000000E+00  0.00000000E+00  0.00000000E+00
  0.00000000E+00  0.00000000E+00  0.00000000E+00
  0.00000000E+00  0.00000000E+00  0.00000000E+00
  0.00000000E+00  0.00000000E+00  0.00000000E+00
  0.00000000E+00  0.00000000E+00  0.00000000E+00
  0.00000000E+00  0.00000000E+00  0.00000000E+00
  0.00000000E+00  0.00000000E+00  0.00000000E+00
  0.00000000E+00  0.00000000E+00  0.00000000E+00
  0.00000000E+00  0.00000000E+00  0.00000000E+00
  0.00000000E+00  0.00000000E+00  0.00000000E+00
  0.00000000E+00  0.00000000E+00  0.00000000E+00
  0.00000000E+00  0.00000000E+00  0.00000000E+00
  0.00000000E+00  0.00000000E+00  0.00000000E+00
  0.00000000E+00  0.00000000E+00  0.00000000E+00
  0.00000000E+00  0.00000000E+00  0.00000000E+00
  0.00000000E+00  0.00000000E+00  0.00000000E+00
  0.00000000E+00  0.00000000E+00  0.00000000E+00
  0.00000000E+00  0.00000000E+00  0.00000000E+00
  0.00000000E+00  0.00000000E+00  0.00000000E+00
  0.00000000E+00  0.00000000E+00  0.00000000E+00
  0.00000000E+00  0.00000000E+00  0.00000000E+00
  0.00000000E+00  0.00000000E+00  0.00000000E+00
  0.00000000E+00  0.00000000E+00  0.00000000E+00
  0.00000000E+00  0.00000000E+00  0.00000000E+00
  0.00000000E+00  0.00000000E+00  0.00000000E+00
  0.00000000E+00  0.00000000E+00  0.00000000E+00
  0.00000000E+00  0.00000000E+00  0.00000000E+00
  0.00000000E+00  0.00000000E+00  0.00000000E+00
  0.00000000E+00  0.00000000E+00  0.00000000E+00
  0.00000000E+00  0.00000000E+00  0.00000000E+00
  0.00000000E+00  0.00000000E+00  0.00000000E+00
  0.00000000E+00  0.00000000E+00  0.00000000E+00
  0.00000000E+00  0.00000000E+00  0.00000000E+00
  0.00000000E+00  0.00000000E+00  0.00000000E+00
  0.00000000E+00  0.00000000E+00  0.00000000E+00
  0.00000000E+00  0.00000000E+00  0.00000000E+00
  0.00000000E+00  0.00000000E+00  0.00000000E+00
  0.00000000E+00  0.00000000E+00  0.00000000E+00
  0.00000000E+00  0.00000000E+00  0.00000000E+00
  0.00000000E+00  0.00000000E+00  0.00000000E+00
  0.00000000E+00  0.00000000E+00  0.00000000E+00
  0.00000000E+00  0.00000000E+00  0.00000000E+00
  0.00000000E+00  0.00000000E+00  0.00000000E+00
  0.00000000E+00  0.00000000E+00  0.00000000E+00
  0.00000000E+00  0.00000000E+00  0.00000000E+00
  0.00000000E+00  0.00000000E+00  0.00000000E+00
  0.00000000E+00  0.00000000E+00  0.00000000E+00
  0.00000000E+00  0.00000000E+00  0.00000000E+00
  0.00000000E+00  0.00000000E+00  0.00000000E+00
  0.00000000E+00  0.00000000E+00  0.00000000E+00
  0.00000000E+00  0.00000000E+00  0.00000000E+00
  0.00000000E+00  0.00000000E+00  0.00000000E+00
  0.00000000E+00  0.00000000E+00  0.00000000E+00
  0.00000000E+00  0.00000000E+00  0.00000000E+00
  0.00000000E+00  0.00000000E+00  0.00000000E+00
  0.00000000E+00  0.00000000E+00  0.00000000E+00
  0.00000000E+00  0.00000000E+00  0.00000000E+00
  0.00000000E+00  0.00000000E+00  0.00000000E+00
  0.00000000E+00  0.00000000E+00  0.00000000E+00
  0.00000000E+00  0.00000000E+00  0.00000000E+00
  0.00000000E+00  0.00000000E+00  0.00000000E+00
  0.00000000E+00  0.00000000E+00  0.00000000E+00
  0.00000000E+00  0.00000000E+00  0.00000000E+00
  0.00000000E+00  0.00000000E+00  0.00000000E+00
  0.00000000E+00  0.00000000E+00  0.00000000E+00
  0.00000000E+00  0.00000000E+00  0.00000000E+00
  0.00000000E+00  0.00000000E+00  0.00000000E+00
  0.00000000E+00  0.00000000E+00  0.00000000E+00
  0.00000000E+00  0.00000000E+00  0.00000000E+00
  0.00000000E+00  0.00000000E+00  0.00000000E+00
  0.00000000E+00  0.00000000E+00  0.00000000E+00
  0.00000000E+00  0.00000000E+00  0.00000000E+00
  0.00000000E+00  0.00000000E+00  0.00000000E+00
  0.00000000E+00  0.00000000E+00  0.00000000E+00
  0.00000000E+00  0.00000000E+00  0.00000000E+00
  0.00000000E+00  0.00000000E+00  0.00000000E+00
  0.00000000E+00  0.00000000E+00  0.00000000E+00
  0.00000000E+00  0.00000000E+00  0.00000000E+00
  0.00000000E+00  0.00000000E+00  0.00000000E+00
  0.00000000E+00  0.00000000E+00  0.00000000E+00
  0.00000000E+00  0.00000000E+00  0.00000000E+00
  0.00000000E+00  0.00000000E+00  0.00000000E+00
  0.00000000E+00  0.00000000E+00  0.00000000E+00
  0.00000000E+00  0.00000000E+00  0.00000000E+00
  0.00000000E+00  0.00000000E+00  0.00000000E+00
  0.00000000E+00  0.00000000E+00  0.00000000E+00
  0.00000000E+00  0.00000000E+00  0.00000000E+00
  0.00000000E+00  0.00000000E+00  0.00000000E+00
  0.00000000E+00  0.00000000E+00  0.00000000E+00
  0.00000000E+00  0.00000000E+00  0.00000000E+00
  0.00000000E+00  0.00000000E+00  0.00000000E+00
  0.00000000E+00  0.00000000E+00  0.00000000E+00
  0.00000000E+00  0.00000000E+00  0.00000000E+00
  0.00000000E+00  0.00000000E+00  0.00000000E+00
  0.00000000E+00  0.00000000E+00  0.00000000E+00
  0.00000000E+00  0.00000000E+00  0.00000000E+00
  0.00000000E+00  0.00000000E+00  0.00000000E+00
  0.00000000E+00  0.00000000E+00  0.00000000E+00
  0.00000000E+00  0.00000000E+00  0.00000000E+00
  0.00000000E+00  0.00000000E+00  0.00000000E+00
  0.00000000E+00  0.00000000E+00  0.00000000E+00
  0.00000000E+00  0.00000000E+00  0.00000000E+00
