Ba1 Al3 Cl6                             
   1.00000000000000     
     7.6762815622348812    0.1634095142207922    0.2650599526267059
     0.1634095142207921    7.6762815622348803    0.2650599526267061
     4.1115944199517260    4.1115944199517260    5.8092259088819107
   Cl   Ba   Al
     6     1     3
Direct
  0.7153428941779723  0.2846571058220277  0.0000000000000000
  0.2785752322545179  0.2785752322545179  0.0108770859762828
  0.2846571058220277  0.7153428941779723  0.0000000000000000
  0.7214247677454821  0.7214247677454821  0.9891229140237172
  0.7211995783177514  0.7211995783177514  0.5680593686282478
  0.2788004216822486  0.2788004216822486  0.4319406313717522
  0.0000000000000000  0.0000000000000000  0.0000000000000000
  0.5000000000000000  0.5000000000000000  0.0000000000000000
  0.1313518966054517  0.8686481033945483  0.5000000000000000
  0.8686481033945483  0.1313518966054517  0.5000000000000000
 
  0.00000000E+00  0.00000000E+00  0.00000000E+00
  0.00000000E+00  0.00000000E+00  0.00000000E+00
  0.00000000E+00  0.00000000E+00  0.00000000E+00
  0.00000000E+00  0.00000000E+00  0.00000000E+00
  0.00000000E+00  0.00000000E+00  0.00000000E+00
  0.00000000E+00  0.00000000E+00  0.00000000E+00
  0.00000000E+00  0.00000000E+00  0.00000000E+00
  0.00000000E+00  0.00000000E+00  0.00000000E+00
  0.00000000E+00  0.00000000E+00  0.00000000E+00
  0.00000000E+00  0.00000000E+00  0.00000000E+00
