Ca2I3                                   
   1.00000000000000     
    -7.8099236124093236    0.0577479130301967    0.1068227224263632
     3.9549738843114701   -6.7331141933388254   -0.1122816450766091
    -4.0236263990423939    2.3286240584362674    7.6224180812631435
   Ca   I 
     4     6
Direct
  0.6711071830974049  0.3392804578508901  0.0145077352603948
  0.8395797248698358  0.1711514335142255  0.4855035995737182
  0.1604351419078114  0.8287923054116817  0.5145545031483962
  0.3287940301405143  0.6606263621942077  0.9856195462449335
  0.2583911609904419  0.0782135260217203  0.2631048403647256
  0.9292960122547882  0.4291669757543914  0.2499522877138958
  0.5779802940761627  0.7582118980493107  0.2370937115200036
  0.4220641454842990  0.2417779806555984  0.7629169276142420
  0.0706938177396950  0.5709049328820157  0.7501892658867675
  0.7415584894390577  0.9217741276659694  0.7369575826729218
 
  0.00000000E+00  0.00000000E+00  0.00000000E+00
  0.00000000E+00  0.00000000E+00  0.00000000E+00
  0.00000000E+00  0.00000000E+00  0.00000000E+00
  0.00000000E+00  0.00000000E+00  0.00000000E+00
  0.00000000E+00  0.00000000E+00  0.00000000E+00
  0.00000000E+00  0.00000000E+00  0.00000000E+00
  0.00000000E+00  0.00000000E+00  0.00000000E+00
  0.00000000E+00  0.00000000E+00  0.00000000E+00
  0.00000000E+00  0.00000000E+00  0.00000000E+00
  0.00000000E+00  0.00000000E+00  0.00000000E+00
