Mg5Tl                                   
   1.0000000000000000     
     2.8008773123569783    4.8518092773662644    0.0000000000000000
    -2.8008773123569783    4.8518092773662644    0.0000000000000000
     0.0000000000000000    0.0000000000000000    5.1099856724589872
   Mg   Tl
     5     1
Direct
  0.3333138747690469  0.3333125249307400  0.0000000000000000
  0.6666874750692600  0.6666861252309459  0.0000000000000000
  0.6629775205715092  0.0000294203535134  0.5000000000000000
  0.9999705796464866  0.3370224794284908  0.5000000000000000
  0.3370456326812317  0.6629543673187683  0.5000000000000000
  0.0000049172624585  0.9999950827375415  0.0000000000000000

  0.00000000E+00  0.00000000E+00  0.00000000E+00
  0.00000000E+00  0.00000000E+00  0.00000000E+00
  0.00000000E+00  0.00000000E+00  0.00000000E+00
  0.00000000E+00  0.00000000E+00  0.00000000E+00
  0.00000000E+00  0.00000000E+00  0.00000000E+00
  0.00000000E+00  0.00000000E+00  0.00000000E+00
