Ba1 B8                                  
   1.00000000000000     
     5.8035459308543720   -0.9453635543613764    0.0000000000000000
    -3.6583992889614367    4.8845993509175472    0.0000000000000000
     0.0000000000000000    0.0000000000000000    5.3033752397652103
   B    Ba
     8     1
Direct
  0.3954131701677426  0.1915814016269408  0.0000000000000000
  0.8924283855503319  0.1920608056620878  0.0000000000000000
  0.8064936616391449  0.4082437543073709  0.0000000000000000
  0.3040856696734906  0.4062917466093197  0.0000000000000000
  0.6959143303265094  0.5937082533906803  0.0000000000000000
  0.1935063383608551  0.5917562456926291  0.0000000000000000
  0.1075716144496681  0.8079391943379122  0.0000000000000000
  0.6045868298322574  0.8084185983730592  0.0000000000000000
  0.0000000000000000  0.0000000000000000  0.5000000000000000
 
  0.00000000E+00  0.00000000E+00  0.00000000E+00
  0.00000000E+00  0.00000000E+00  0.00000000E+00
  0.00000000E+00  0.00000000E+00  0.00000000E+00
  0.00000000E+00  0.00000000E+00  0.00000000E+00
  0.00000000E+00  0.00000000E+00  0.00000000E+00
  0.00000000E+00  0.00000000E+00  0.00000000E+00
  0.00000000E+00  0.00000000E+00  0.00000000E+00
  0.00000000E+00  0.00000000E+00  0.00000000E+00
  0.00000000E+00  0.00000000E+00  0.00000000E+00
