Ca1 Ga2 F6                              
   1.00000000000000     
     2.8058625208752184    0.6775647946095665    3.6841702445277624
    -2.8058625208752184    0.6775647946095665    3.6841702445277624
     0.0000000000000000   -5.4061327634188894    5.3337480399405921
   Ca   F    Ga
     1     6     2
Direct
  0.0000000000000000  0.0000000000000000  0.0000000000000000
  0.7431702931564175  0.7431702931564175  0.9336151587719215
  0.6174911987269596  0.1056475011103686  0.2890216847241120
  0.1056475011103686  0.6174911987269596  0.2890216847241120
  0.2568297068435896  0.2568297068435896  0.0663848412280785
  0.8943524988896314  0.3825088012730404  0.7109783152758880
  0.3825088012730404  0.8943524988896314  0.7109783152758880
  0.1799723726439026  0.1799723726439026  0.3485552538201446
  0.8200276273560974  0.8200276273560974  0.6514447461798625
 
  0.00000000E+00  0.00000000E+00  0.00000000E+00
  0.00000000E+00  0.00000000E+00  0.00000000E+00
  0.00000000E+00  0.00000000E+00  0.00000000E+00
  0.00000000E+00  0.00000000E+00  0.00000000E+00
  0.00000000E+00  0.00000000E+00  0.00000000E+00
  0.00000000E+00  0.00000000E+00  0.00000000E+00
  0.00000000E+00  0.00000000E+00  0.00000000E+00
  0.00000000E+00  0.00000000E+00  0.00000000E+00
  0.00000000E+00  0.00000000E+00  0.00000000E+00
