Sr6 In33                                
   1.0000000000000000     
    10.5272009797192467    0.0000000000000000    0.0000000000000000
     0.0000000000000000   10.5272009797192467   -0.0000000000000000
    -0.0000000000000000   -0.0000000000000000   10.5272009797192467
   Sr   In
     6    33
Direct
  0.2194953171983087  0.5000000000000000  0.0000000000000000
  0.7805046828016913  0.5000000000000000  0.0000000000000000
  0.5000000000000000  0.0000000000000000  0.2194953171983087
  0.0000000000000000  0.2194953171983087  0.5000000000000000
  0.0000000000000000  0.7805046828016913  0.5000000000000000
  0.5000000000000000  0.0000000000000000  0.7805046828016913
  0.0000000000000000  0.0000000000000000  0.0000000000000000
  0.2605567326980989  0.1497099547827148  0.0000000000000000
  0.7394432673019011  0.1497099547827148  0.0000000000000000
  0.5000000000000000  0.3004610108090517  0.0000000000000000
  0.5000000000000000  0.6995389891909554  0.0000000000000000
  0.2605567326980989  0.8502900452172852  0.0000000000000000
  0.7394432673019011  0.8502900452172852  0.0000000000000000
  0.0000000000000000  0.2605567326980989  0.1497099547827148
  0.0000000000000000  0.7394432673019011  0.1497099547827148
  0.5000000000000000  0.5000000000000000  0.2316336723058967
  0.1497099547827148  0.0000000000000000  0.2605567326980989
  0.8502900452172852  0.0000000000000000  0.2605567326980989
  0.2914073288829968  0.2914073288829968  0.2914073288829968
  0.7085926711170032  0.2914073288829968  0.2914073288829968
  0.2914073288829968  0.7085926711170032  0.2914073288829968
  0.7085926711170032  0.7085926711170032  0.2914073288829968
  0.0000000000000000  0.5000000000000000  0.3004610108090517
  0.3004610108090517  0.0000000000000000  0.5000000000000000
  0.6995389891909554  0.0000000000000000  0.5000000000000000
  0.5000000000000000  0.2316336723058967  0.5000000000000000
  0.2316336723058967  0.5000000000000000  0.5000000000000000
  0.7683663276941033  0.5000000000000000  0.5000000000000000
  0.5000000000000000  0.7683663276941033  0.5000000000000000
  0.0000000000000000  0.5000000000000000  0.6995389891909554
  0.2914073288829968  0.2914073288829968  0.7085926711170032
  0.7085926711170032  0.2914073288829968  0.7085926711170032
  0.2914073288829968  0.7085926711170032  0.7085926711170032
  0.7085926711170032  0.7085926711170032  0.7085926711170032
  0.1497099547827148  0.0000000000000000  0.7394432673019011
  0.8502900452172852  0.0000000000000000  0.7394432673019011
  0.5000000000000000  0.5000000000000000  0.7683663276941033
  0.0000000000000000  0.2605567326980989  0.8502900452172852
  0.0000000000000000  0.7394432673019011  0.8502900452172852

  0.00000000E+00  0.00000000E+00  0.00000000E+00
  0.00000000E+00  0.00000000E+00  0.00000000E+00
  0.00000000E+00  0.00000000E+00  0.00000000E+00
  0.00000000E+00  0.00000000E+00  0.00000000E+00
  0.00000000E+00  0.00000000E+00  0.00000000E+00
  0.00000000E+00  0.00000000E+00  0.00000000E+00
  0.00000000E+00  0.00000000E+00  0.00000000E+00
  0.00000000E+00  0.00000000E+00  0.00000000E+00
  0.00000000E+00  0.00000000E+00  0.00000000E+00
  0.00000000E+00  0.00000000E+00  0.00000000E+00
  0.00000000E+00  0.00000000E+00  0.00000000E+00
  0.00000000E+00  0.00000000E+00  0.00000000E+00
  0.00000000E+00  0.00000000E+00  0.00000000E+00
  0.00000000E+00  0.00000000E+00  0.00000000E+00
  0.00000000E+00  0.00000000E+00  0.00000000E+00
  0.00000000E+00  0.00000000E+00  0.00000000E+00
  0.00000000E+00  0.00000000E+00  0.00000000E+00
  0.00000000E+00  0.00000000E+00  0.00000000E+00
  0.00000000E+00  0.00000000E+00  0.00000000E+00
  0.00000000E+00  0.00000000E+00  0.00000000E+00
  0.00000000E+00  0.00000000E+00  0.00000000E+00
  0.00000000E+00  0.00000000E+00  0.00000000E+00
  0.00000000E+00  0.00000000E+00  0.00000000E+00
  0.00000000E+00  0.00000000E+00  0.00000000E+00
  0.00000000E+00  0.00000000E+00  0.00000000E+00
  0.00000000E+00  0.00000000E+00  0.00000000E+00
  0.00000000E+00  0.00000000E+00  0.00000000E+00
  0.00000000E+00  0.00000000E+00  0.00000000E+00
  0.00000000E+00  0.00000000E+00  0.00000000E+00
  0.00000000E+00  0.00000000E+00  0.00000000E+00
  0.00000000E+00  0.00000000E+00  0.00000000E+00
  0.00000000E+00  0.00000000E+00  0.00000000E+00
  0.00000000E+00  0.00000000E+00  0.00000000E+00
  0.00000000E+00  0.00000000E+00  0.00000000E+00
  0.00000000E+00  0.00000000E+00  0.00000000E+00
  0.00000000E+00  0.00000000E+00  0.00000000E+00
  0.00000000E+00  0.00000000E+00  0.00000000E+00
  0.00000000E+00  0.00000000E+00  0.00000000E+00
  0.00000000E+00  0.00000000E+00  0.00000000E+00
