Ca3Al2                                  
   1.00000000000000     
    -6.9963890807376670   -1.0891047672911447    0.1755647206769028
     2.4592645765523065   -5.9759724867613890   -0.3397619051317931
    -3.3604740267047095    1.8893283513321248    7.1627490951048935
   Al   Ca
     4     6
Direct
  0.3242725530545414  0.6234725827897591  0.0718911819329620
  0.1126580805182158  0.8043063732810722  0.4405567133818806
  0.8873522787576391  0.1956994379463595  0.5594725793354698
  0.6757028597631418  0.3765242529811914  0.9281305152022341
  0.3239727997654924  0.2062512789645794  0.2423946977795524
  0.8892705474990805  0.3259368290607867  0.2006200760147223
  0.6480488747786737  0.7961704569309447  0.2974933439101477
  0.3519590437236886  0.2038360198746290  0.7025209000724502
  0.1107367850439260  0.6740598726856462  0.7993889742963347
  0.6760261770956077  0.7937428954850247  0.7576310180742283
 
  0.00000000E+00  0.00000000E+00  0.00000000E+00
  0.00000000E+00  0.00000000E+00  0.00000000E+00
  0.00000000E+00  0.00000000E+00  0.00000000E+00
  0.00000000E+00  0.00000000E+00  0.00000000E+00
  0.00000000E+00  0.00000000E+00  0.00000000E+00
  0.00000000E+00  0.00000000E+00  0.00000000E+00
  0.00000000E+00  0.00000000E+00  0.00000000E+00
  0.00000000E+00  0.00000000E+00  0.00000000E+00
  0.00000000E+00  0.00000000E+00  0.00000000E+00
  0.00000000E+00  0.00000000E+00  0.00000000E+00
