Ba2 In2 Br10                            
   1.00000000000000     
     7.3646767087353453    0.1109359802378593    2.7573073994683051
     1.7221505553546930    7.1613517488208895    2.7573074192790927
     0.0005307024441296    0.0004268491659561   10.9900082606693914
   Ba   In   Br
     2     2    10
Direct
  0.4413437497053039  0.5586562502922092  0.2499999999982876
  0.5586562502946961  0.4413437497077908  0.7500000000017195
  0.0000000000000000  0.0000000000000000  0.5000000000000000
  0.0000000000000000  0.0000000000000000  0.0000000000000000
  0.7895571649168858  0.7588035686027581  0.6164949495159959
  0.2411964314052497  0.2104418350743060  0.8835050504837128
  0.2104418350831168  0.2411964313972419  0.3835060504840087
  0.7588035685947503  0.7895571649256965  0.1164949495162872
  0.9253490374083242  0.0746509625875404  0.7499999999981881
  0.0746509625916758  0.9253490374124596  0.2500000000018119
  0.7145794964791889  0.3128878060046318  0.0250992456124735
  0.6871121939908420  0.2854205035312347  0.4749007543830359
  0.2854205035208111  0.6871121939953682  0.9749007543875265
  0.3128878060091580  0.7145794964687653  0.5250992456169641
 
  0.00000000E+00  0.00000000E+00  0.00000000E+00
  0.00000000E+00  0.00000000E+00  0.00000000E+00
  0.00000000E+00  0.00000000E+00  0.00000000E+00
  0.00000000E+00  0.00000000E+00  0.00000000E+00
  0.00000000E+00  0.00000000E+00  0.00000000E+00
  0.00000000E+00  0.00000000E+00  0.00000000E+00
  0.00000000E+00  0.00000000E+00  0.00000000E+00
  0.00000000E+00  0.00000000E+00  0.00000000E+00
  0.00000000E+00  0.00000000E+00  0.00000000E+00
  0.00000000E+00  0.00000000E+00  0.00000000E+00
  0.00000000E+00  0.00000000E+00  0.00000000E+00
  0.00000000E+00  0.00000000E+00  0.00000000E+00
  0.00000000E+00  0.00000000E+00  0.00000000E+00
  0.00000000E+00  0.00000000E+00  0.00000000E+00
