Mg6 Tl4 I24                             
   1.0000000000000000     
     0.0000000000000000    0.0000000000000000    8.5727648151287354
    15.0848159412587641    1.0890050810302130    0.0000000000000000
     0.9966538942330255   14.4028615168582803    0.0000000000000000
   Mg   I    Tl
     6    24     4
Direct
  0.0000000000000000  0.8764578331902158  0.9504984061766422
  0.5000000000000000  0.4378891071727153  0.1001165926722152
  0.5000000000000000  0.9235919314677972  0.4541091522186207
  0.0000000000000000  0.3739382133092519  0.2900377828706624
  0.5000000000000000  0.1652239310780175  0.4891192381499749
  0.5000000000000000  0.5139545432796666  0.7956904992077227
  0.2806377257061641  0.5095203907485626  0.9454814792599748
  0.7193622742938359  0.5095203907485626  0.9454814792599748
  0.2627194872664447  0.8117292628348736  0.0586067000651980
  0.7372805127335553  0.8117292628348736  0.0586067000651980
  0.0000000000000000  0.2409287103945346  0.1743878876341398
  0.3174453713931058  0.9871923241224820  0.2782890723768077
  0.6825546286068942  0.9871923241224820  0.2782890723768077
  0.2498735500571669  0.4929071052136607  0.2248922220375675
  0.7501264499428402  0.4929071052136607  0.2248922220375675
  0.0000000000000000  0.8896885454646934  0.3525412697379906
  0.2499767747334687  0.2877952163105775  0.4371547563317080
  0.7500232252665384  0.2877952163105775  0.4371547563317080
  0.2836703840470562  0.0273487379433419  0.5576037382011236
  0.7163296159529438  0.0273487379433419  0.5576037382011236
  0.2964606450872509  0.7702634677866342  0.4657998471999392
  0.7035393549127491  0.7702634677866342  0.4657998471999392
  0.0000000000000000  0.1705398538967060  0.8439177588573301
  0.2642825464624323  0.5011344955149255  0.6664984445420643
  0.7357174535375606  0.5011344955149255  0.6664984445420643
  0.2275432783984925  0.0119684384948116  0.9353372133347833
  0.7724567216015075  0.0119684384948116  0.9353372133347833
  0.0000000000000000  0.7582091446469335  0.8222544114040389
  0.3353000685126801  0.2582303243254458  0.0941394874279453
  0.6646999314873270  0.2582303243254458  0.0941394874279453
  0.0000000000000000  0.6419170965238123  0.0588264891945656
  0.0000000000000000  0.1117750255415686  0.4068071417242010
  0.0000000000000000  0.6814621381360126  0.6185615970984202
  0.0000000000000000  0.3984443993074294  0.8157258514991668

  0.00000000E+00  0.00000000E+00  0.00000000E+00
  0.00000000E+00  0.00000000E+00  0.00000000E+00
  0.00000000E+00  0.00000000E+00  0.00000000E+00
  0.00000000E+00  0.00000000E+00  0.00000000E+00
  0.00000000E+00  0.00000000E+00  0.00000000E+00
  0.00000000E+00  0.00000000E+00  0.00000000E+00
  0.00000000E+00  0.00000000E+00  0.00000000E+00
  0.00000000E+00  0.00000000E+00  0.00000000E+00
  0.00000000E+00  0.00000000E+00  0.00000000E+00
  0.00000000E+00  0.00000000E+00  0.00000000E+00
  0.00000000E+00  0.00000000E+00  0.00000000E+00
  0.00000000E+00  0.00000000E+00  0.00000000E+00
  0.00000000E+00  0.00000000E+00  0.00000000E+00
  0.00000000E+00  0.00000000E+00  0.00000000E+00
  0.00000000E+00  0.00000000E+00  0.00000000E+00
  0.00000000E+00  0.00000000E+00  0.00000000E+00
  0.00000000E+00  0.00000000E+00  0.00000000E+00
  0.00000000E+00  0.00000000E+00  0.00000000E+00
  0.00000000E+00  0.00000000E+00  0.00000000E+00
  0.00000000E+00  0.00000000E+00  0.00000000E+00
  0.00000000E+00  0.00000000E+00  0.00000000E+00
  0.00000000E+00  0.00000000E+00  0.00000000E+00
  0.00000000E+00  0.00000000E+00  0.00000000E+00
  0.00000000E+00  0.00000000E+00  0.00000000E+00
  0.00000000E+00  0.00000000E+00  0.00000000E+00
  0.00000000E+00  0.00000000E+00  0.00000000E+00
  0.00000000E+00  0.00000000E+00  0.00000000E+00
  0.00000000E+00  0.00000000E+00  0.00000000E+00
  0.00000000E+00  0.00000000E+00  0.00000000E+00
  0.00000000E+00  0.00000000E+00  0.00000000E+00
  0.00000000E+00  0.00000000E+00  0.00000000E+00
  0.00000000E+00  0.00000000E+00  0.00000000E+00
  0.00000000E+00  0.00000000E+00  0.00000000E+00
  0.00000000E+00  0.00000000E+00  0.00000000E+00
