Ba3 Tl1 Cl1                             
   1.0000000000000000     
     6.0615868068798688    0.0000000000000000   -0.0000000000000000
    -0.0000000000000000    6.0615868068798688    0.0000000000000000
     0.0000000000000000   -0.0000000000000000    6.0615868068798688
   Cl   Tl   Ba
     1     1     3
Direct
  0.0000000000000000  0.0000000000000000  0.0000000000000000
  0.5000000000000000  0.5000000000000000  0.5000000000000000
  0.5000000000000000  0.0000000000000000  0.0000000000000000
  0.0000000000000000  0.5000000000000000  0.0000000000000000
  0.0000000000000000  0.0000000000000000  0.5000000000000000

  0.00000000E+00  0.00000000E+00  0.00000000E+00
  0.00000000E+00  0.00000000E+00  0.00000000E+00
  0.00000000E+00  0.00000000E+00  0.00000000E+00
  0.00000000E+00  0.00000000E+00  0.00000000E+00
  0.00000000E+00  0.00000000E+00  0.00000000E+00
