Sr2In7                                  
   1.0000000000000000     
     6.8554115428991498    0.0021764553691821    0.0005782035275131
    -3.4263279780307920    5.9377631510403566   -0.0005755439062718
     0.0006078912949468   -0.0003492062430423    6.5037177375618649
   In   Sr
     7     2
Direct
  0.1813369999742562  0.3625943207503894  0.1687811199384797
  0.1810045754287515  0.8189952525693798  0.1681805899110671
  0.6374056211784662  0.8186628744304016  0.1687813539649312
  0.0000000000000000  0.0000000000000000  0.5000000000000000
  0.3625943788215338  0.1813371255695984  0.8312186460350688
  0.8189954245712485  0.1810047474306202  0.8318194100889329
  0.8186630000257509  0.6374056792496106  0.8312188800615203
  0.6667054970726269  0.3332924013226943  0.3473266920685063
  0.3332945029273731  0.6667075986773057  0.6526733079314937

  0.00000000E+00  0.00000000E+00  0.00000000E+00
  0.00000000E+00  0.00000000E+00  0.00000000E+00
  0.00000000E+00  0.00000000E+00  0.00000000E+00
  0.00000000E+00  0.00000000E+00  0.00000000E+00
  0.00000000E+00  0.00000000E+00  0.00000000E+00
  0.00000000E+00  0.00000000E+00  0.00000000E+00
  0.00000000E+00  0.00000000E+00  0.00000000E+00
  0.00000000E+00  0.00000000E+00  0.00000000E+00
  0.00000000E+00  0.00000000E+00  0.00000000E+00
