AlCl                                    
   1.00000000000000     
     7.6010078921752688    0.0000000000000000    0.0000000000000000
     0.0000000000000000    3.3565251713188826    0.0000000000000000
     0.0000000000000000    0.0000000000000000    6.0870720258742637
   Al   Cl
     2     2
Direct
  0.2500000000000000  0.0000000000000000  0.3015747133052571
  0.7500000000000000  0.0000000000000000  0.6984252866947429
  0.7500000000000000  0.5000000000000000  0.4009560665758869
  0.2500000000000000  0.5000000000000000  0.5990439334241131
 
  0.00000000E+00  0.00000000E+00  0.00000000E+00
  0.00000000E+00  0.00000000E+00  0.00000000E+00
  0.00000000E+00  0.00000000E+00  0.00000000E+00
  0.00000000E+00  0.00000000E+00  0.00000000E+00
