Ca16 Ga6                                
   1.00000000000000     
     9.3784536233971281    0.0047953786420494    0.0004227330575762
     4.6983389713090835    8.1832571797283791   -0.0036475502465843
     1.8478867283788998    2.7457670311424955    8.8908060958284132
   Ca   Ga
    16     6
Direct
  0.6469567082501655  0.2667122081628861  0.1050082375333901
  0.0527893062995091  0.6182503070616789  0.1121433590623653
  0.2890825756603803  0.0100023173063519  0.1103242782002383
  0.6638906919872909  0.7839959859756434  0.2956494387424016
  0.8726737175020531  0.3499871764060174  0.2998721029838478
  0.4003538519569148  0.5614869433344793  0.3313317006098160
  0.3304759957227859  0.1981464632137673  0.3538531255638446
  0.9716740040802634  0.9031983887897468  0.3510736809382351
  0.0283279460360220  0.0968453244182257  0.6489190696157152
  0.6695820144532902  0.8018743442927629  0.6461237774606801
  0.5996214383130294  0.4385510702207753  0.6687103268032999
  0.1273751465763979  0.6500404055009170  0.7001256833214882
  0.3361403987893539  0.2160014983765493  0.7043311731796393
  0.7109175149672708  0.9900535625014726  0.8896769244869702
  0.9472579056957144  0.3817801144939352  0.8878139599391730
  0.3530679099839915  0.7333806339994737  0.8949849827529306
  0.9999959656007888  0.0000350141237675  0.9999816625280431
  0.6644708763590899  0.6592884705705657  0.0254701384941285
  0.3379292780535792  0.8338338878996225  0.4997755262907475
  0.0000600207015040  0.4999936624445454  0.4999730948012342
  0.6620763499192535  0.1662002488879537  0.5002364250627735
  0.3355803830913686  0.3407009720188512  0.9745213316290275
 
  0.00000000E+00  0.00000000E+00  0.00000000E+00
  0.00000000E+00  0.00000000E+00  0.00000000E+00
  0.00000000E+00  0.00000000E+00  0.00000000E+00
  0.00000000E+00  0.00000000E+00  0.00000000E+00
  0.00000000E+00  0.00000000E+00  0.00000000E+00
  0.00000000E+00  0.00000000E+00  0.00000000E+00
  0.00000000E+00  0.00000000E+00  0.00000000E+00
  0.00000000E+00  0.00000000E+00  0.00000000E+00
  0.00000000E+00  0.00000000E+00  0.00000000E+00
  0.00000000E+00  0.00000000E+00  0.00000000E+00
  0.00000000E+00  0.00000000E+00  0.00000000E+00
  0.00000000E+00  0.00000000E+00  0.00000000E+00
  0.00000000E+00  0.00000000E+00  0.00000000E+00
  0.00000000E+00  0.00000000E+00  0.00000000E+00
  0.00000000E+00  0.00000000E+00  0.00000000E+00
  0.00000000E+00  0.00000000E+00  0.00000000E+00
  0.00000000E+00  0.00000000E+00  0.00000000E+00
  0.00000000E+00  0.00000000E+00  0.00000000E+00
  0.00000000E+00  0.00000000E+00  0.00000000E+00
  0.00000000E+00  0.00000000E+00  0.00000000E+00
  0.00000000E+00  0.00000000E+00  0.00000000E+00
  0.00000000E+00  0.00000000E+00  0.00000000E+00
