Mg28 Ga11                               
   1.00000000000000     
     4.6707268520870615   -0.0000000257731593   -0.4038347407582147
    -0.0728895484286643    6.8720033331495198   -0.8430365723502701
    -0.1612205273622720   -0.3802043797152996   25.3479063571024135
   Mg   Ga
    28    11
Direct
  0.8220836269409872  0.6584587032861648  0.6441672540553114
  0.2376072301729195  0.9676981283066013  0.4752154603268508
  0.2245330481767951  0.4090398318275561  0.4490660963185462
  0.8626938346047126  0.0476127923859408  0.7253876692053538
  0.1373061654023289  0.3222251231803739  0.2746123307948665
  0.5957238341050299  0.2686930572435386  0.1914486682985412
  0.3555803912961508  0.3735955176071784  0.7111607823865498
  0.2906435778239214  0.3337995599153558  0.5812871558209025
  0.7623927698228030  0.4924826679794521  0.5247845396727513
  0.9560989651035214  0.6090683446351406  0.9121979302477996
  0.7754669518342610  0.9599737355081928  0.5509339036819370
  0.5837692570752466  0.7252692222210229  0.1675385140519907
  0.7093564221656976  0.7525124040980415  0.4187128441785362
  0.6814236050583133  0.3471086387654907  0.3628462101204306
  0.9394714577504288  0.0235418802619520  0.8789429156034458
  0.3185763949368123  0.9842624286447119  0.6371537898794344
  0.1154258049416157  0.8957278339621126  0.2308526100457016
  0.0605285422485125  0.1445989646606307  0.1210570843966323
  0.5000000000008384  0.6710269007107854  0.0000000000000071
  0.9999999999934701  0.9998573262371977  0.9999999999995453
  0.0439010348864741  0.6968704143882505  0.0878020697518309
  0.4669792100685015  0.2779564738790157  0.9339584203028437
  0.5330207899450130  0.3439980535810676  0.0660405796979617
  0.1779163730725912  0.0142914492354791  0.3558327459455768
  0.6444196086878691  0.6624347352148376  0.2888392176124555
  0.8845741950640686  0.6648752239202906  0.7691473899545613
  0.4042761658820666  0.0772453889468423  0.8085513317007482
  0.4162307429350420  0.5577307081668366  0.8324614859486488
  0.0913821417149947  0.5091702021724842  0.1827642833879253
  0.0000000000020819  0.4035921132992399  0.0000000000000071
  0.2742292848783734  0.7017702424354226  0.5484585696912632
  0.3611789310891211  0.7778931919674292  0.7223578621467155
  0.6388210689122076  0.0555353298201595  0.2776421378532135
  0.9086178582819286  0.3264059187834789  0.8172357166119326
  0.7257707151271475  0.1533116727429800  0.4515414303089926
  0.1805139514265122  0.6147444728487272  0.3610279028015384
  0.5430328665982103  0.9595337551414431  0.0860647331684845
  0.4569671334020455  0.8734690219725110  0.9139352668316292
  0.8194860485713917  0.2537165700460733  0.6389720971985469
 
  0.00000000E+00  0.00000000E+00  0.00000000E+00
  0.00000000E+00  0.00000000E+00  0.00000000E+00
  0.00000000E+00  0.00000000E+00  0.00000000E+00
  0.00000000E+00  0.00000000E+00  0.00000000E+00
  0.00000000E+00  0.00000000E+00  0.00000000E+00
  0.00000000E+00  0.00000000E+00  0.00000000E+00
  0.00000000E+00  0.00000000E+00  0.00000000E+00
  0.00000000E+00  0.00000000E+00  0.00000000E+00
  0.00000000E+00  0.00000000E+00  0.00000000E+00
  0.00000000E+00  0.00000000E+00  0.00000000E+00
  0.00000000E+00  0.00000000E+00  0.00000000E+00
  0.00000000E+00  0.00000000E+00  0.00000000E+00
  0.00000000E+00  0.00000000E+00  0.00000000E+00
  0.00000000E+00  0.00000000E+00  0.00000000E+00
  0.00000000E+00  0.00000000E+00  0.00000000E+00
  0.00000000E+00  0.00000000E+00  0.00000000E+00
  0.00000000E+00  0.00000000E+00  0.00000000E+00
  0.00000000E+00  0.00000000E+00  0.00000000E+00
  0.00000000E+00  0.00000000E+00  0.00000000E+00
  0.00000000E+00  0.00000000E+00  0.00000000E+00
  0.00000000E+00  0.00000000E+00  0.00000000E+00
  0.00000000E+00  0.00000000E+00  0.00000000E+00
  0.00000000E+00  0.00000000E+00  0.00000000E+00
  0.00000000E+00  0.00000000E+00  0.00000000E+00
  0.00000000E+00  0.00000000E+00  0.00000000E+00
  0.00000000E+00  0.00000000E+00  0.00000000E+00
  0.00000000E+00  0.00000000E+00  0.00000000E+00
  0.00000000E+00  0.00000000E+00  0.00000000E+00
  0.00000000E+00  0.00000000E+00  0.00000000E+00
  0.00000000E+00  0.00000000E+00  0.00000000E+00
  0.00000000E+00  0.00000000E+00  0.00000000E+00
  0.00000000E+00  0.00000000E+00  0.00000000E+00
  0.00000000E+00  0.00000000E+00  0.00000000E+00
  0.00000000E+00  0.00000000E+00  0.00000000E+00
  0.00000000E+00  0.00000000E+00  0.00000000E+00
  0.00000000E+00  0.00000000E+00  0.00000000E+00
  0.00000000E+00  0.00000000E+00  0.00000000E+00
  0.00000000E+00  0.00000000E+00  0.00000000E+00
  0.00000000E+00  0.00000000E+00  0.00000000E+00
