Mg2In                                   
   1.00000000000000     
     8.3554377383231486    0.0001247553203020    0.0000000000000000
    -4.1781111216069666    7.2357876779636960    0.0000000000000000
     0.0000000000000000    0.0000000000000000    3.4426697098280727
   In   Mg
     3     6
Direct
  0.6666754784693936  0.3333331909434847  0.0000000000000000
  0.3333332306438805  0.6666755300983809  0.0000000000000000
  0.0000158003844888  0.0000157297017864  0.5000000000000000
  0.2922395172960464  0.9999947566164380  0.0000000000000000
  0.9999947213283704  0.2922396169729140  0.0000000000000000
  0.7077903717816270  0.7077904834416131  0.0000000000000000
  0.6324170069331956  0.0000062115043988  0.5000000000000000
  0.3675969877507868  0.3675969198010520  0.5000000000000000
  0.0000061854121896  0.6324167609199094  0.5000000000000000
 
  0.00000000E+00  0.00000000E+00  0.00000000E+00
  0.00000000E+00  0.00000000E+00  0.00000000E+00
  0.00000000E+00  0.00000000E+00  0.00000000E+00
  0.00000000E+00  0.00000000E+00  0.00000000E+00
  0.00000000E+00  0.00000000E+00  0.00000000E+00
  0.00000000E+00  0.00000000E+00  0.00000000E+00
  0.00000000E+00  0.00000000E+00  0.00000000E+00
  0.00000000E+00  0.00000000E+00  0.00000000E+00
  0.00000000E+00  0.00000000E+00  0.00000000E+00
