Mg4 B2 Br10                             
   1.00000000000000     
     6.9524962494657849   -0.0449952753654568   -1.9886478943870294
    -0.1203426696993926   12.0235100454116015   -0.6703137218749404
     1.9008947044010827    5.4938129407796517    6.5284059584117085
   Br   Mg   B 
    10     4     2
Direct
  0.9999171363561246  0.9412592805531261  0.0065403367579933
  0.5617798308233333  0.4176849714911910  0.1060826106684942
  0.4998289666912044  0.1216600571966993  0.9944239881748089
  0.9877762692760967  0.2407223552248681  0.0774124970364625
  0.6466904509945266  0.7947701505297502  0.4580629569970682
  0.2936931074290214  0.4795365108854028  0.6272898114447969
  0.7943281497046897  0.5817742582937697  0.3732741557298667
  0.1472855672930322  0.2668743084658516  0.5416245990078394
  0.0620500584530390  0.6452764583002022  0.8932846378528723
  0.4879130171742645  0.8220800068596148  0.9227854390896297
  0.1603235800958842  0.1638154694970169  0.9066184896901675
  0.8390386975929118  0.4824464039205836  0.8858210373112598
  0.3390160239164572  0.5802779165303988  0.1140153095543042
  0.6601499822738006  0.8997075156436622  0.0928509861257254
  0.2598571261577618  0.4532153709006081  0.4293056257098513
  0.7600520357678349  0.6085989657072446  0.5706075188488384
 
  0.00000000E+00  0.00000000E+00  0.00000000E+00
  0.00000000E+00  0.00000000E+00  0.00000000E+00
  0.00000000E+00  0.00000000E+00  0.00000000E+00
  0.00000000E+00  0.00000000E+00  0.00000000E+00
  0.00000000E+00  0.00000000E+00  0.00000000E+00
  0.00000000E+00  0.00000000E+00  0.00000000E+00
  0.00000000E+00  0.00000000E+00  0.00000000E+00
  0.00000000E+00  0.00000000E+00  0.00000000E+00
  0.00000000E+00  0.00000000E+00  0.00000000E+00
  0.00000000E+00  0.00000000E+00  0.00000000E+00
  0.00000000E+00  0.00000000E+00  0.00000000E+00
  0.00000000E+00  0.00000000E+00  0.00000000E+00
  0.00000000E+00  0.00000000E+00  0.00000000E+00
  0.00000000E+00  0.00000000E+00  0.00000000E+00
  0.00000000E+00  0.00000000E+00  0.00000000E+00
  0.00000000E+00  0.00000000E+00  0.00000000E+00
