Ba9 Ga4                                 
   1.00000000000000     
     0.0037603787380018   -0.0042530177973601    5.7847413240712156
    -6.9160895284000166    6.8922180568646967    2.8823651184273311
    -6.9116550642839831   -6.8838967559314534   -2.8912212009601821
   Ba   Ga
     9     4
Direct
  0.4999944080734977  0.9999696618490717  0.9999684466914189
  0.8838425379229591  0.3023759558596026  0.0694328942403502
  0.3871670776289236  0.4863199600509773  0.2638717006964484
  0.1853336552172351  0.9301306787264281  0.3022395003982297
  0.8740282606134286  0.7373893277540802  0.4869375564947305
  0.1259986064450729  0.2625378170600072  0.5130214338403079
  0.8146819576874691  0.0698201177341247  0.6977038372112574
  0.6128394888617663  0.5136523034871914  0.7361282472130810
  0.1161811870408371  0.6975619911311952  0.9305408021157575
  0.7365441826196744  0.6630720146432552  0.1421769806568989
  0.5978429324268149  0.1420921083058175  0.3366082464263016
  0.4021127710758279  0.8578872016357906  0.6633031868323869
  0.2634329343864863  0.3368908617624555  0.8577671671828142
 
  0.00000000E+00  0.00000000E+00  0.00000000E+00
  0.00000000E+00  0.00000000E+00  0.00000000E+00
  0.00000000E+00  0.00000000E+00  0.00000000E+00
  0.00000000E+00  0.00000000E+00  0.00000000E+00
  0.00000000E+00  0.00000000E+00  0.00000000E+00
  0.00000000E+00  0.00000000E+00  0.00000000E+00
  0.00000000E+00  0.00000000E+00  0.00000000E+00
  0.00000000E+00  0.00000000E+00  0.00000000E+00
  0.00000000E+00  0.00000000E+00  0.00000000E+00
  0.00000000E+00  0.00000000E+00  0.00000000E+00
  0.00000000E+00  0.00000000E+00  0.00000000E+00
  0.00000000E+00  0.00000000E+00  0.00000000E+00
  0.00000000E+00  0.00000000E+00  0.00000000E+00
