Ba1 Ga13                                
   1.00000000000000     
     6.6276354954168566   -3.0812928643492397   -0.0293108838552906
     6.6276354954168575    3.0812928643492401   -0.0293108838552906
    -1.3295945437578414   -0.0000000000000001    7.3763993534522090
   Ba   Ga
     1    13
Direct
  0.0000010006949651  0.0000010006949651  0.9999211284263723
  0.6589016462051660  0.6589016462051660  0.0583791072026614
  0.6027009129607919  0.0769476892621341  0.2487706124136295
  0.0769476892621341  0.6027009129607919  0.2487706124136295
  0.9486626088193901  0.3824798260813651  0.3742651896579545
  0.3824798260813651  0.9486626088193901  0.3742651896579545
  0.5119650646522942  0.5119650646522942  0.3183610177679697
  0.0000107624702537  0.0000107624702537  0.4999550232644268
  0.4880035230083308  0.4880035230083308  0.6830357335594641
  0.6173834651884107  0.0513699266738215  0.6253918446867885
  0.0513699266738215  0.6173834651884107  0.6253918446867885
  0.9230975784393962  0.3972336712922697  0.7509658993350712
  0.3972336712922697  0.9230975784393962  0.7509658993350712
  0.3411313242514709  0.3411313242514709  0.9415608975922254
 
  0.00000000E+00  0.00000000E+00  0.00000000E+00
  0.00000000E+00  0.00000000E+00  0.00000000E+00
  0.00000000E+00  0.00000000E+00  0.00000000E+00
  0.00000000E+00  0.00000000E+00  0.00000000E+00
  0.00000000E+00  0.00000000E+00  0.00000000E+00
  0.00000000E+00  0.00000000E+00  0.00000000E+00
  0.00000000E+00  0.00000000E+00  0.00000000E+00
  0.00000000E+00  0.00000000E+00  0.00000000E+00
  0.00000000E+00  0.00000000E+00  0.00000000E+00
  0.00000000E+00  0.00000000E+00  0.00000000E+00
  0.00000000E+00  0.00000000E+00  0.00000000E+00
  0.00000000E+00  0.00000000E+00  0.00000000E+00
  0.00000000E+00  0.00000000E+00  0.00000000E+00
  0.00000000E+00  0.00000000E+00  0.00000000E+00
