Mg4 Tl4 F20                             
   1.0000000000000000     
     0.0000000000000000    5.2796472571112716   -0.3916477667096201
     8.0937395647922763    0.0000000000000000    0.0000000000000000
     0.0000000000000000    0.3918144595377366   -7.7129770306698262
   Mg   Tl   F 
     4     4    20
Direct
  0.5535252682051990  0.2635838149806986  0.3671270247269192
  0.4464747317948010  0.7635838149806986  0.6328729752730808
  0.9461138710439982  0.0216212285801234  0.1327909641494642
  0.0538861289560018  0.5216212285801305  0.8672090358505287
  0.5171051983687889  0.6740859171665079  0.0960522541849613
  0.4828948016312111  0.1740859171665150  0.9039477458150387
  0.9833989931086933  0.6111225829154989  0.4040655939122288
  0.0166010068913067  0.1111225829154989  0.5959344060877712
  0.3098892051685880  0.0868888235167802  0.3823174972069268
  0.2040430321735229  0.5502995472302601  0.6220450063298273
  0.7959569678264771  0.0502995472302601  0.3779549936701727
  0.8118397799083255  0.6993312037899599  0.8835016809737155
  0.8977342268840403  0.5285752702783810  0.1376755838856454
  0.6175126884703701  0.9448164782593338  0.0633247416182527
  0.8731014823607310  0.3071082964558585  0.7946517464664709
  0.6024974849848874  0.7562857575406525  0.3626465911334975
  0.1022657731159597  0.0285752702783810  0.8623244161143546
  0.1184762918976503  0.8406592118477363  0.5629117366132164
  0.3824873115296299  0.4448164782593338  0.9366752583817402
  0.6901107948314120  0.5868888235167802  0.6176825027930732
  0.6270754006801127  0.9781331675655025  0.7053719355309624
  0.7028751801839590  0.2350876798726915  0.1219400830745414
  0.8815237081023497  0.3406592118477363  0.4370882633867836
  0.1268985176392619  0.8071082964558585  0.2053482535335291
  0.1881602200916674  0.1993312037899599  0.1164983190262774
  0.2971248198160339  0.7350876798726915  0.8780599169254586
  0.3975025150151197  0.2562857575406525  0.6373534088665025
  0.3729245993198802  0.4781331675655025  0.2946280644690376

  0.00000000E+00  0.00000000E+00  0.00000000E+00
  0.00000000E+00  0.00000000E+00  0.00000000E+00
  0.00000000E+00  0.00000000E+00  0.00000000E+00
  0.00000000E+00  0.00000000E+00  0.00000000E+00
  0.00000000E+00  0.00000000E+00  0.00000000E+00
  0.00000000E+00  0.00000000E+00  0.00000000E+00
  0.00000000E+00  0.00000000E+00  0.00000000E+00
  0.00000000E+00  0.00000000E+00  0.00000000E+00
  0.00000000E+00  0.00000000E+00  0.00000000E+00
  0.00000000E+00  0.00000000E+00  0.00000000E+00
  0.00000000E+00  0.00000000E+00  0.00000000E+00
  0.00000000E+00  0.00000000E+00  0.00000000E+00
  0.00000000E+00  0.00000000E+00  0.00000000E+00
  0.00000000E+00  0.00000000E+00  0.00000000E+00
  0.00000000E+00  0.00000000E+00  0.00000000E+00
  0.00000000E+00  0.00000000E+00  0.00000000E+00
  0.00000000E+00  0.00000000E+00  0.00000000E+00
  0.00000000E+00  0.00000000E+00  0.00000000E+00
  0.00000000E+00  0.00000000E+00  0.00000000E+00
  0.00000000E+00  0.00000000E+00  0.00000000E+00
  0.00000000E+00  0.00000000E+00  0.00000000E+00
  0.00000000E+00  0.00000000E+00  0.00000000E+00
  0.00000000E+00  0.00000000E+00  0.00000000E+00
  0.00000000E+00  0.00000000E+00  0.00000000E+00
  0.00000000E+00  0.00000000E+00  0.00000000E+00
  0.00000000E+00  0.00000000E+00  0.00000000E+00
  0.00000000E+00  0.00000000E+00  0.00000000E+00
  0.00000000E+00  0.00000000E+00  0.00000000E+00
