Ca5 Tl9                                 
   1.0000000000000000     
     6.1777900058092019    0.0351574507517934   -0.2366998062664627
    -3.0584030097150161    5.3685594004865598    0.2405494796539416
    -3.5118915028481479    2.0358551354984602   13.4651722025979961
   Tl   Ca
     9     5
Direct
  0.0058276671251534  0.0025935981355900  0.0001006803372903
  0.2395271011055300  0.2651964090297625  0.2006247408884931
  0.2578815735925275  0.7442831030829282  0.2379393921680588
  0.7339728587980048  0.7599257001010571  0.1979320062152397
  0.1385668316944546  0.8553021789866975  0.4275917873597024
  0.8534409950582784  0.1401161506242730  0.5721355079981905
  0.2646671454795708  0.2396133895729449  0.7979931888655756
  0.7454555866374051  0.2568894161623021  0.7635978573675928
  0.7593860048249041  0.7336076976689370  0.8015776763810507
  0.6884549802812785  0.3133316952474843  0.0560857554509226
  0.7902977704120673  0.2103386457113885  0.3373312458459381
  0.4985279656418555  0.4995257790193506  0.5003760135587711
  0.2101404041336608  0.7911253923859363  0.6625076487979484
  0.3138531152153305  0.6881508442713695  0.9437064987652377

  0.00000000E+00  0.00000000E+00  0.00000000E+00
  0.00000000E+00  0.00000000E+00  0.00000000E+00
  0.00000000E+00  0.00000000E+00  0.00000000E+00
  0.00000000E+00  0.00000000E+00  0.00000000E+00
  0.00000000E+00  0.00000000E+00  0.00000000E+00
  0.00000000E+00  0.00000000E+00  0.00000000E+00
  0.00000000E+00  0.00000000E+00  0.00000000E+00
  0.00000000E+00  0.00000000E+00  0.00000000E+00
  0.00000000E+00  0.00000000E+00  0.00000000E+00
  0.00000000E+00  0.00000000E+00  0.00000000E+00
  0.00000000E+00  0.00000000E+00  0.00000000E+00
  0.00000000E+00  0.00000000E+00  0.00000000E+00
  0.00000000E+00  0.00000000E+00  0.00000000E+00
  0.00000000E+00  0.00000000E+00  0.00000000E+00
