Mg4B3                                   
   1.00000000000000     
     7.3407870384957068    8.2976272743324184    0.0000000000000000
    -0.8953951800250357    8.2694510661129570    0.0000000000000000
     0.0000000000000000    0.0000000000000000    3.0999484524075425
   B    Mg
     6     8
Direct
  0.2331223906568596  0.2058201979778005  0.0000000000000000
  0.2804989991144140  0.7001281869867881  0.0000000000000000
  0.7753421180306361  0.7078510069081076  0.0000000000000000
  0.2906318289847860  0.1751178189669815  0.5000000000000000
  0.7484287864590016  0.6731205684394652  0.5000000000000000
  0.2432104307851120  0.6808406017115871  0.5000000000000000
  0.3535965587567560  0.3571436369773267  0.0000000000000000
  0.8315425214836978  0.3732243486459978  0.0000000000000000
  0.5034102257859914  0.8558259757021034  0.0000000000000000
  0.9935735686820806  0.8907841557101293  0.0000000000000000
  0.1701444014752340  0.0238145269448751  0.5000000000000000
  0.5301440542652998  0.4902195845892834  0.5000000000000000
  0.0203551071666439  0.5251469378796898  0.5000000000000000
  0.6921990083534695  0.0077624525598523  0.5000000000000000
 
  0.00000000E+00  0.00000000E+00  0.00000000E+00
  0.00000000E+00  0.00000000E+00  0.00000000E+00
  0.00000000E+00  0.00000000E+00  0.00000000E+00
  0.00000000E+00  0.00000000E+00  0.00000000E+00
  0.00000000E+00  0.00000000E+00  0.00000000E+00
  0.00000000E+00  0.00000000E+00  0.00000000E+00
  0.00000000E+00  0.00000000E+00  0.00000000E+00
  0.00000000E+00  0.00000000E+00  0.00000000E+00
  0.00000000E+00  0.00000000E+00  0.00000000E+00
  0.00000000E+00  0.00000000E+00  0.00000000E+00
  0.00000000E+00  0.00000000E+00  0.00000000E+00
  0.00000000E+00  0.00000000E+00  0.00000000E+00
  0.00000000E+00  0.00000000E+00  0.00000000E+00
  0.00000000E+00  0.00000000E+00  0.00000000E+00
