Sr1 Tl3 F6                              
   1.0000000000000000     
    -3.2989634438814552    4.6636672870684430    3.2935315316183535
     3.2983581999896523   -4.6674991433521882    3.2983581999896519
     3.2935315316183535    4.6636672870684430   -3.2989634438814552
   F    Sr   Tl
     6     1     3
Direct
  0.2501943378644711  0.5012417476706119  0.2501943378644711
  0.7493804011035081  0.0000000000000000  0.2506195988964919
  0.2509798169853639  0.0008062957421728  0.2509798169853639
  0.7490201830146361  0.9991937042578272  0.7490201830146361
  0.7498056621355289  0.4987582523293881  0.7498056621355289
  0.2506195988964919  0.0000000000000000  0.7493804011035081
  0.0000000000000000  0.0000000000000000  0.0000000000000000
  0.7501729817175473  0.5000000000000000  0.2498270182824527
  0.5000000000000000  0.0000000000000000  0.5000000000000000
  0.2498270182824527  0.5000000000000000  0.7501729817175473

  0.00000000E+00  0.00000000E+00  0.00000000E+00
  0.00000000E+00  0.00000000E+00  0.00000000E+00
  0.00000000E+00  0.00000000E+00  0.00000000E+00
  0.00000000E+00  0.00000000E+00  0.00000000E+00
  0.00000000E+00  0.00000000E+00  0.00000000E+00
  0.00000000E+00  0.00000000E+00  0.00000000E+00
  0.00000000E+00  0.00000000E+00  0.00000000E+00
  0.00000000E+00  0.00000000E+00  0.00000000E+00
  0.00000000E+00  0.00000000E+00  0.00000000E+00
  0.00000000E+00  0.00000000E+00  0.00000000E+00
