Ba18 In11                               
   1.0000000000000000     
     9.7623748317468220    6.6937264742233351   -0.0761489319468508
    -9.7623748317468220    6.6937264742233351   -0.0761489319468508
     0.0000000000000000    6.5533234784045336    9.1742693891032410
   Ba   In
    18    11
Direct
  0.9885277847280634  0.9885277847280634  0.0040238670815711
  0.3000585573808934  0.6103524625706100  0.9934861515493267
  0.9793808768246635  0.3090604620359159  0.0195492458062034
  0.3090604620359159  0.9793808768246635  0.0195492458062034
  0.6103524625706100  0.3000585573808934  0.9934861515493267
  0.3595543956777902  0.3595543956777902  0.8095494351873000
  0.7051084795491818  0.7051084795491818  0.7430675624453684
  0.5944254545385590  0.0085759114205075  0.6946274501743446
  0.0085759114205075  0.5944254545385590  0.6946274501743446
  0.0178055077259032  0.0178055077259032  0.6537331776087001
  0.4313947926189883  0.7491806825705041  0.5603104965205645
  0.7491806825705041  0.4313947926189883  0.5603104965205645
  0.9956880552377001  0.3000294985793417  0.4078063981182183
  0.3000294985793417  0.9956880552377001  0.4078063981182183
  0.6802885906128111  0.6802885906128111  0.3162070565150330
  0.2776157358467017  0.6798795056011002  0.3105771126676942
  0.6798795056011002  0.2776157358467017  0.3105771126676942
  0.3980560062068506  0.3980560062068506  0.2876743680623832
  0.6301033571843604  0.8408554861818160  0.0026500862695045
  0.8408554861818160  0.6301033571843604  0.0026500862695045
  0.8217782002156682  0.1804625264473856  0.8132583652886041
  0.1804625264473856  0.8217782002156682  0.8132583652886041
  0.1603537445231922  0.3637177913129790  0.6398122269378845
  0.3637177913129790  0.1603537445231922  0.6398122269378845
  0.8266207406622925  0.9884797765348310  0.3789641849975283
  0.9884797765348310  0.8266207406622925  0.3789641849975283
  0.6366973180400493  0.0049094844659052  0.1683128853843101
  0.0049094844659052  0.6366973180400493  0.1683128853843101
  0.1610388147053925  0.1610388147053925  0.2070363256712611

  0.00000000E+00  0.00000000E+00  0.00000000E+00
  0.00000000E+00  0.00000000E+00  0.00000000E+00
  0.00000000E+00  0.00000000E+00  0.00000000E+00
  0.00000000E+00  0.00000000E+00  0.00000000E+00
  0.00000000E+00  0.00000000E+00  0.00000000E+00
  0.00000000E+00  0.00000000E+00  0.00000000E+00
  0.00000000E+00  0.00000000E+00  0.00000000E+00
  0.00000000E+00  0.00000000E+00  0.00000000E+00
  0.00000000E+00  0.00000000E+00  0.00000000E+00
  0.00000000E+00  0.00000000E+00  0.00000000E+00
  0.00000000E+00  0.00000000E+00  0.00000000E+00
  0.00000000E+00  0.00000000E+00  0.00000000E+00
  0.00000000E+00  0.00000000E+00  0.00000000E+00
  0.00000000E+00  0.00000000E+00  0.00000000E+00
  0.00000000E+00  0.00000000E+00  0.00000000E+00
  0.00000000E+00  0.00000000E+00  0.00000000E+00
  0.00000000E+00  0.00000000E+00  0.00000000E+00
  0.00000000E+00  0.00000000E+00  0.00000000E+00
  0.00000000E+00  0.00000000E+00  0.00000000E+00
  0.00000000E+00  0.00000000E+00  0.00000000E+00
  0.00000000E+00  0.00000000E+00  0.00000000E+00
  0.00000000E+00  0.00000000E+00  0.00000000E+00
  0.00000000E+00  0.00000000E+00  0.00000000E+00
  0.00000000E+00  0.00000000E+00  0.00000000E+00
  0.00000000E+00  0.00000000E+00  0.00000000E+00
  0.00000000E+00  0.00000000E+00  0.00000000E+00
  0.00000000E+00  0.00000000E+00  0.00000000E+00
  0.00000000E+00  0.00000000E+00  0.00000000E+00
  0.00000000E+00  0.00000000E+00  0.00000000E+00
