Sr3 In1 Cl1                             
   1.00000000000000     
     5.7043526251692738    0.0000000000000000    0.0000000000000000
     0.0000000000000000    5.7043526251692738    0.0000000000000000
     0.0000000000000000    0.0000000000000000    5.7043526251692738
   Sr   Cl   In
     3     1     1
Direct
  0.5000000000000000  0.5000000000000000  0.0000000000000000
  0.5000000000000000  0.0000000000000000  0.5000000000000000
  0.0000000000000000  0.5000000000000000  0.5000000000000000
  0.5000000000000000  0.5000000000000000  0.5000000000000000
  0.0000000000000000  0.0000000000000000  0.0000000000000000
 
  0.00000000E+00  0.00000000E+00  0.00000000E+00
  0.00000000E+00  0.00000000E+00  0.00000000E+00
  0.00000000E+00  0.00000000E+00  0.00000000E+00
  0.00000000E+00  0.00000000E+00  0.00000000E+00
  0.00000000E+00  0.00000000E+00  0.00000000E+00
