Sr4 Al4 Cl20                            
   1.0000000000000000     
     7.3587166405818314   -0.0000000000000003    0.0000000000000004
    -0.0000000000000007    8.7445649755796158    0.0000000000000004
     0.0000000000000005    0.0000000000000004   13.4382371459532717
   Sr   Al   Cl
     4     4    20
Direct
  0.7216750534918646  0.7376543593044502  0.6602072370641139
  0.2216750534918646  0.7623456406955498  0.3397927629358790
  0.2783249465081354  0.2376543593044502  0.8397927629358861
  0.7783249465081354  0.2623456406955498  0.1602072370641210
  0.2764434386607206  0.0280555601527439  0.5903765319730070
  0.7764434386607206  0.4719444398472561  0.4096234680269930
  0.7235565613392794  0.5280555601527439  0.9096234680269930
  0.2235565613392794  0.9719444398472561  0.0903765319730141
  0.8724217602854196  0.7310737263351896  0.4518744208567398
  0.3724217602854196  0.7689262736648104  0.5481255791432602
  0.1275782397145804  0.2310737263351896  0.0481255791432602
  0.6275782397145804  0.2689262736648104  0.9518744208567398
  0.5517895935392474  0.5579853759148037  0.3151402605917042
  0.0517895935392545  0.9420146240851963  0.6848597394082887
  0.4482104064607455  0.0579853759148037  0.1848597394082887
  0.9482104064607455  0.4420146240851963  0.8151402605917042
  0.2209111643510226  0.2782767741648726  0.6270778081238362
  0.7209111643510226  0.2217232258351274  0.3729221918761638
  0.7790888356489774  0.7782767741648726  0.8729221918761638
  0.2790888356489774  0.7217232258351274  0.1270778081238362
  0.5276425037116397  0.0390194265563863  0.6878128494541613
  0.0276425037116397  0.4609805734436137  0.3121871505458458
  0.4723574962883603  0.5390194265563863  0.8121871505458387
  0.9723574962883603  0.9609805734436137  0.1878128494541542
  0.7269180389220651  0.4323550007021026  0.5690018313473004
  0.2269180389220651  0.0676449992978974  0.4309981686526996
  0.2730819610779420  0.9323550007021026  0.9309981686526996
  0.7730819610779349  0.5676449992978974  0.0690018313473004

  0.00000000E+00  0.00000000E+00  0.00000000E+00
  0.00000000E+00  0.00000000E+00  0.00000000E+00
  0.00000000E+00  0.00000000E+00  0.00000000E+00
  0.00000000E+00  0.00000000E+00  0.00000000E+00
  0.00000000E+00  0.00000000E+00  0.00000000E+00
  0.00000000E+00  0.00000000E+00  0.00000000E+00
  0.00000000E+00  0.00000000E+00  0.00000000E+00
  0.00000000E+00  0.00000000E+00  0.00000000E+00
  0.00000000E+00  0.00000000E+00  0.00000000E+00
  0.00000000E+00  0.00000000E+00  0.00000000E+00
  0.00000000E+00  0.00000000E+00  0.00000000E+00
  0.00000000E+00  0.00000000E+00  0.00000000E+00
  0.00000000E+00  0.00000000E+00  0.00000000E+00
  0.00000000E+00  0.00000000E+00  0.00000000E+00
  0.00000000E+00  0.00000000E+00  0.00000000E+00
  0.00000000E+00  0.00000000E+00  0.00000000E+00
  0.00000000E+00  0.00000000E+00  0.00000000E+00
  0.00000000E+00  0.00000000E+00  0.00000000E+00
  0.00000000E+00  0.00000000E+00  0.00000000E+00
  0.00000000E+00  0.00000000E+00  0.00000000E+00
  0.00000000E+00  0.00000000E+00  0.00000000E+00
  0.00000000E+00  0.00000000E+00  0.00000000E+00
  0.00000000E+00  0.00000000E+00  0.00000000E+00
  0.00000000E+00  0.00000000E+00  0.00000000E+00
  0.00000000E+00  0.00000000E+00  0.00000000E+00
  0.00000000E+00  0.00000000E+00  0.00000000E+00
  0.00000000E+00  0.00000000E+00  0.00000000E+00
  0.00000000E+00  0.00000000E+00  0.00000000E+00
