Sr2 B2 F10                              
   1.0000000000000000     
     3.4502596061291935   -0.0000000000000000    0.0000000000000002
    -0.0000000000000005    8.1888475445601561    0.0000000000000005
    -0.0000000000000000   -0.0000000000000000    7.0452109807899790
   Sr   B    F 
     2     2    10
Direct
  0.0000000000000000  0.0000000000000000  0.5000000000000000
  0.5000000000000000  0.5000000000000000  0.0000000000000000
  0.5000000000000000  0.0000000000000000  0.0000000000000000
  0.0000000000000000  0.5000000000000000  0.5000000000000000
  0.5000000000000000  0.8076049011189070  0.5000000000000000
  0.5000000000000000  0.1923950988810930  0.5000000000000000
  0.5000000000000000  0.0000000000000000  0.1886775074461440
  0.5000000000000000  0.0000000000000000  0.8113224925538560
  0.0000000000000000  0.0000000000000000  0.0000000000000000
  0.0000000000000000  0.3076049011189070  0.0000000000000000
  0.0000000000000000  0.6923950988810930  0.0000000000000000
  0.0000000000000000  0.5000000000000000  0.6886775074461440
  0.0000000000000000  0.5000000000000000  0.3113224925538560
  0.5000000000000000  0.5000000000000000  0.5000000000000000

  0.00000000E+00  0.00000000E+00  0.00000000E+00
  0.00000000E+00  0.00000000E+00  0.00000000E+00
  0.00000000E+00  0.00000000E+00  0.00000000E+00
  0.00000000E+00  0.00000000E+00  0.00000000E+00
  0.00000000E+00  0.00000000E+00  0.00000000E+00
  0.00000000E+00  0.00000000E+00  0.00000000E+00
  0.00000000E+00  0.00000000E+00  0.00000000E+00
  0.00000000E+00  0.00000000E+00  0.00000000E+00
  0.00000000E+00  0.00000000E+00  0.00000000E+00
  0.00000000E+00  0.00000000E+00  0.00000000E+00
  0.00000000E+00  0.00000000E+00  0.00000000E+00
  0.00000000E+00  0.00000000E+00  0.00000000E+00
  0.00000000E+00  0.00000000E+00  0.00000000E+00
  0.00000000E+00  0.00000000E+00  0.00000000E+00
