Ba3 B11                                 
   1.00000000000000     
     3.1224315546542112   -0.0000001526963361    0.0000000000000000
    -1.5612159816460327   -5.4945147598698272    5.7361345546969389
    -1.5612159816460327   -5.4945147598698272   -5.7361345546969389
   B    Ba
    11     3
Direct
  0.2633764679614217  0.6262378755658418  0.9005150603702603
  0.2440886830863889  0.4550761726165504  0.0331011938222758
  0.7366235320385783  0.0994849396297397  0.3737621244341582
  0.7855230498935768  0.2855230500748718  0.2855230500748718
  0.2440886830863889  0.0331011938222758  0.4550761726165504
  0.5000000000000000  0.5000000000000000  0.5000000000000000
  0.7559113169136111  0.9668988061777242  0.5449238273834496
  0.2144769501064232  0.7144769499251282  0.7144769499251282
  0.2633764679614217  0.9005150603702603  0.6262378755658418
  0.7559113169136111  0.5449238273834496  0.9668988061777242
  0.7366235320385783  0.3737621244341582  0.0994849396297397
  0.0000000000000000  0.0000000000000000  0.0000000000000000
  0.0000000000000000  0.6914504412639815  0.3085495587360185
  0.0000000000000000  0.3085495587360185  0.6914504412639815
 
  0.00000000E+00  0.00000000E+00  0.00000000E+00
  0.00000000E+00  0.00000000E+00  0.00000000E+00
  0.00000000E+00  0.00000000E+00  0.00000000E+00
  0.00000000E+00  0.00000000E+00  0.00000000E+00
  0.00000000E+00  0.00000000E+00  0.00000000E+00
  0.00000000E+00  0.00000000E+00  0.00000000E+00
  0.00000000E+00  0.00000000E+00  0.00000000E+00
  0.00000000E+00  0.00000000E+00  0.00000000E+00
  0.00000000E+00  0.00000000E+00  0.00000000E+00
  0.00000000E+00  0.00000000E+00  0.00000000E+00
  0.00000000E+00  0.00000000E+00  0.00000000E+00
  0.00000000E+00  0.00000000E+00  0.00000000E+00
  0.00000000E+00  0.00000000E+00  0.00000000E+00
  0.00000000E+00  0.00000000E+00  0.00000000E+00
