Be10 Ga4 F32                            
   1.00000000000000     
     2.8529182209827466   -4.4265758887771831    0.0000000000000000
     2.8529182209827466    4.4265758887771831    0.0000000000000000
     0.0000000000000000    0.0000000000000000   20.4113937555812299
   Be   Ga   F 
    10     4    32
Direct
  0.0000000000000000  0.0000000000000000  0.8061267030377124
  0.0000000000000000  0.0000000000000000  0.1938732969622876
  0.5000000000000000  0.5000000000000000  0.6938732969622876
  0.5000000000000000  0.5000000000000000  0.3061267030377124
  0.5000000000000000  0.5000000000000000  0.5000000000000000
  0.0000000000000000  0.0000000000000000  0.0000000000000000
  0.0000000000000000  0.5000000000000000  0.6734813546156317
  0.5000000000000000  0.0000000000000000  0.3265186453843683
  0.5000000000000000  0.0000000000000000  0.8265186453843683
  0.0000000000000000  0.5000000000000000  0.1734813546156317
  0.5000000000000000  0.0000000000000000  0.6012757816242740
  0.0000000000000000  0.5000000000000000  0.3987242183757189
  0.0000000000000000  0.5000000000000000  0.8987242183757260
  0.5000000000000000  0.0000000000000000  0.1012757816242811
  0.3833506353504248  0.2274825498737840  0.6542229890885025
  0.6166493646495823  0.7725174501262160  0.6542229890885025
  0.2274825498737840  0.3833506353504248  0.3457770109114975
  0.7725174501262160  0.6166493646495823  0.3457770109114975
  0.1166493646495752  0.2725174501262160  0.8457770109114975
  0.8833506353504248  0.7274825498737840  0.8457770109114975
  0.2725174501262160  0.1166493646495752  0.1542229890885025
  0.7274825498737840  0.8833506353504248  0.1542229890885025
  0.1277766311429218  0.7432443610801229  0.6220506150954108
  0.8722233688570782  0.2567556389198771  0.6220506150954108
  0.7432443610801229  0.1277766311429218  0.3779493849045892
  0.2567556389198771  0.8722233688570782  0.3779493849045892
  0.3722233688570782  0.7567556389198771  0.8779493849045892
  0.6277766311429218  0.2432443610801229  0.8779493849045892
  0.7122626586470133  0.9346040175879864  0.0338595069706642
  0.2877373413529867  0.0653959824120136  0.0338595069706642
  0.9346040175879864  0.7122626586470133  0.9661404930293358
  0.0653959824120136  0.2877373413529867  0.9661404930293358
  0.7877373413529867  0.5653959824120136  0.4661404930293358
  0.2122626586470133  0.4346040175879864  0.4661404930293358
  0.5653959824120136  0.7877373413529867  0.5338595069706642
  0.4346040175879864  0.2122626586470133  0.5338595069706642
  0.9912201184798022  0.7241338604775507  0.2236736197159033
  0.0087798815201978  0.2758661395224493  0.2236736197159033
  0.7241338604775507  0.9912201184798022  0.7763263802840967
  0.2758661395224493  0.0087798815201978  0.7763263802840967
  0.5087798815201978  0.7758661395224493  0.2763263802840967
  0.4912201184798022  0.2241338604775507  0.2763263802840967
  0.7758661395224493  0.5087798815201978  0.7236736197159033
  0.2241338604775507  0.4912201184798022  0.7236736197159033
  0.2432443610801229  0.6277766311429218  0.1220506150954108
  0.7567556389198771  0.3722233688570782  0.1220506150954108
 
  0.00000000E+00  0.00000000E+00  0.00000000E+00
  0.00000000E+00  0.00000000E+00  0.00000000E+00
  0.00000000E+00  0.00000000E+00  0.00000000E+00
  0.00000000E+00  0.00000000E+00  0.00000000E+00
  0.00000000E+00  0.00000000E+00  0.00000000E+00
  0.00000000E+00  0.00000000E+00  0.00000000E+00
  0.00000000E+00  0.00000000E+00  0.00000000E+00
  0.00000000E+00  0.00000000E+00  0.00000000E+00
  0.00000000E+00  0.00000000E+00  0.00000000E+00
  0.00000000E+00  0.00000000E+00  0.00000000E+00
  0.00000000E+00  0.00000000E+00  0.00000000E+00
  0.00000000E+00  0.00000000E+00  0.00000000E+00
  0.00000000E+00  0.00000000E+00  0.00000000E+00
  0.00000000E+00  0.00000000E+00  0.00000000E+00
  0.00000000E+00  0.00000000E+00  0.00000000E+00
  0.00000000E+00  0.00000000E+00  0.00000000E+00
  0.00000000E+00  0.00000000E+00  0.00000000E+00
  0.00000000E+00  0.00000000E+00  0.00000000E+00
  0.00000000E+00  0.00000000E+00  0.00000000E+00
  0.00000000E+00  0.00000000E+00  0.00000000E+00
  0.00000000E+00  0.00000000E+00  0.00000000E+00
  0.00000000E+00  0.00000000E+00  0.00000000E+00
  0.00000000E+00  0.00000000E+00  0.00000000E+00
  0.00000000E+00  0.00000000E+00  0.00000000E+00
  0.00000000E+00  0.00000000E+00  0.00000000E+00
  0.00000000E+00  0.00000000E+00  0.00000000E+00
  0.00000000E+00  0.00000000E+00  0.00000000E+00
  0.00000000E+00  0.00000000E+00  0.00000000E+00
  0.00000000E+00  0.00000000E+00  0.00000000E+00
  0.00000000E+00  0.00000000E+00  0.00000000E+00
  0.00000000E+00  0.00000000E+00  0.00000000E+00
  0.00000000E+00  0.00000000E+00  0.00000000E+00
  0.00000000E+00  0.00000000E+00  0.00000000E+00
  0.00000000E+00  0.00000000E+00  0.00000000E+00
  0.00000000E+00  0.00000000E+00  0.00000000E+00
  0.00000000E+00  0.00000000E+00  0.00000000E+00
  0.00000000E+00  0.00000000E+00  0.00000000E+00
  0.00000000E+00  0.00000000E+00  0.00000000E+00
  0.00000000E+00  0.00000000E+00  0.00000000E+00
  0.00000000E+00  0.00000000E+00  0.00000000E+00
  0.00000000E+00  0.00000000E+00  0.00000000E+00
  0.00000000E+00  0.00000000E+00  0.00000000E+00
  0.00000000E+00  0.00000000E+00  0.00000000E+00
  0.00000000E+00  0.00000000E+00  0.00000000E+00
  0.00000000E+00  0.00000000E+00  0.00000000E+00
  0.00000000E+00  0.00000000E+00  0.00000000E+00
