Sr2 Tl2 F10                             
   1.00000000000000     
     4.7669667439261634   -0.1881472514363374    1.3379807996995621
     0.8610692955022117    4.6923261895890827    1.3379811361801028
    -1.2018280272132471   -0.9618343873040641    8.3996743868848878
   Sr   Tl   F 
     2     2    10
Direct
  0.5048881782241139  0.4951118217522463  0.2500000000063665
  0.4951118217758861  0.5048881782477537  0.7499999999936264
  0.0000000000000000  0.0000000000000000  0.5000000000000000
  0.0000000000000000  0.0000000000000000  0.0000000000000000
  0.9712158834149278  0.6150660637741368  0.6491944697849092
  0.3849339407744523  0.0287831129654847  0.8508055299823525
  0.0287831165850747  0.3849339362258632  0.3508065302150953
  0.6150660592255406  0.9712158870345178  0.1491944700176404
  0.8939546586812099  0.1060453402679400  0.7500000008080718
  0.1060453413187901  0.8939546597320600  0.2499999991919282
  0.7731140615924161  0.4307062682033234  0.9875691595189480
  0.5692937287525481  0.2268859347362948  0.5124308450008357
  0.2268859384075839  0.5692937317966695  0.0124308404810520
  0.4307062712474519  0.7731140652636981  0.4875691549991643
 
  0.00000000E+00  0.00000000E+00  0.00000000E+00
  0.00000000E+00  0.00000000E+00  0.00000000E+00
  0.00000000E+00  0.00000000E+00  0.00000000E+00
  0.00000000E+00  0.00000000E+00  0.00000000E+00
  0.00000000E+00  0.00000000E+00  0.00000000E+00
  0.00000000E+00  0.00000000E+00  0.00000000E+00
  0.00000000E+00  0.00000000E+00  0.00000000E+00
  0.00000000E+00  0.00000000E+00  0.00000000E+00
  0.00000000E+00  0.00000000E+00  0.00000000E+00
  0.00000000E+00  0.00000000E+00  0.00000000E+00
  0.00000000E+00  0.00000000E+00  0.00000000E+00
  0.00000000E+00  0.00000000E+00  0.00000000E+00
  0.00000000E+00  0.00000000E+00  0.00000000E+00
  0.00000000E+00  0.00000000E+00  0.00000000E+00
