Ba1 B2 F6                               
   1.00000000000000     
     3.4498320101380102    2.7117387459444591    7.5730889924189579
    -3.4498320101380102    2.7117387459444591    7.5730889924189579
     0.0000000000000000   -0.1609838203955611    5.5221509276095979
   Ba   F    B 
     1     6     2
Direct
  0.0000000000000000  0.0000000000000000  0.0000000000000000
  0.7693820813780690  0.7693820813780690  0.0595748082231040
  0.7340970392225756  0.4001877078548546  0.0917700002298645
  0.4001877078548546  0.7340970392225756  0.0917700002298645
  0.2306179186219310  0.2306179186219310  0.9404251917768960
  0.5998122921451454  0.2659029607774244  0.9082299997701284
  0.2659029607774244  0.5998122921451454  0.9082299997701284
  0.5317574274301435  0.5317574274301435  0.7620929633604447
  0.4682425725698565  0.4682425725698565  0.2379070366395553
 
  0.00000000E+00  0.00000000E+00  0.00000000E+00
  0.00000000E+00  0.00000000E+00  0.00000000E+00
  0.00000000E+00  0.00000000E+00  0.00000000E+00
  0.00000000E+00  0.00000000E+00  0.00000000E+00
  0.00000000E+00  0.00000000E+00  0.00000000E+00
  0.00000000E+00  0.00000000E+00  0.00000000E+00
  0.00000000E+00  0.00000000E+00  0.00000000E+00
  0.00000000E+00  0.00000000E+00  0.00000000E+00
  0.00000000E+00  0.00000000E+00  0.00000000E+00
