Mg1 B2 F10                              
   1.00000000000000     
     3.5637506512907149    3.2176677429813019    0.4081604457818249
    -3.5637506512907149    3.2176677429813019    0.4081604457818249
     0.0000000000000000    2.8310147096290446    6.5363334455637361
   Mg   B    F 
     1     2    10
Direct
  0.4701512185912833  0.5298487814087238  0.0000000000000000
  0.1505142978854082  0.9174967889053320  0.6749102299653131
  0.0825032110946680  0.8494857021145918  0.3250897700346869
  0.2828524203783189  0.2141764855101087  0.5835125258361060
  0.7858235144898913  0.7171475796216740  0.4164874741638940
  0.8345533502711007  0.8557680684546227  0.7740155705888156
  0.1442319315453773  0.1654466497288993  0.2259844294111844
  0.7406449077936941  0.2593550922062988  0.0000000000000000
  0.2122176624731438  0.7877823375268562  0.5000000000000000
  0.5769086063948095  0.2685107011212295  0.8089885114787521
  0.7314892988787705  0.4230913936051905  0.1910114885212479
  0.2648143606124407  0.7327057804088568  0.8136096638379442
  0.2672942195911432  0.7351856393875593  0.1863903361620629
 
  0.00000000E+00  0.00000000E+00  0.00000000E+00
  0.00000000E+00  0.00000000E+00  0.00000000E+00
  0.00000000E+00  0.00000000E+00  0.00000000E+00
  0.00000000E+00  0.00000000E+00  0.00000000E+00
  0.00000000E+00  0.00000000E+00  0.00000000E+00
  0.00000000E+00  0.00000000E+00  0.00000000E+00
  0.00000000E+00  0.00000000E+00  0.00000000E+00
  0.00000000E+00  0.00000000E+00  0.00000000E+00
  0.00000000E+00  0.00000000E+00  0.00000000E+00
  0.00000000E+00  0.00000000E+00  0.00000000E+00
  0.00000000E+00  0.00000000E+00  0.00000000E+00
  0.00000000E+00  0.00000000E+00  0.00000000E+00
  0.00000000E+00  0.00000000E+00  0.00000000E+00
