TlBr6                                   
   1.0000000000000000     
     3.8586201675193399    4.8090952803911646    4.7829400267352025
    -4.5527086924427351    3.3929888590379838    6.0603045146520262
    -1.6105867520992749   -4.7968350224291463    4.1817920187435300
   Br   Tl
     6     1
Direct
  0.8660035036493099  0.3053688927373273  0.0996608889252997
  0.6744384444752995  0.9074618120451063  0.1333608418023147
  0.1249060928487751  0.7026910278859262  0.4261597064301483
  0.8730359252164206  0.2983443609684571  0.5725606292793941
  0.3273799776649255  0.0916658071014922  0.8687654541911414
  0.1337948656232655  0.6944509983897191  0.9006547220906569
  0.0008411905220100  0.0004171008719851  0.9992377572810298

  0.00000000E+00  0.00000000E+00  0.00000000E+00
  0.00000000E+00  0.00000000E+00  0.00000000E+00
  0.00000000E+00  0.00000000E+00  0.00000000E+00
  0.00000000E+00  0.00000000E+00  0.00000000E+00
  0.00000000E+00  0.00000000E+00  0.00000000E+00
  0.00000000E+00  0.00000000E+00  0.00000000E+00
  0.00000000E+00  0.00000000E+00  0.00000000E+00
