Be1 Al12                                
   1.00000000000000     
     0.0000000000000000    5.5396775513703345    5.5396775513703345
     5.5396775513703345    0.0000000000000000    5.5396775513703345
     5.5396775513703345    5.5396775513703345    0.0000000000000000
   Al   Be
    12     1
Direct
  0.5000000000000000  0.5000000000000000  0.1620565209922233
  0.8379434790077767  0.5000000000000000  0.1620565209922233
  0.5000000000000000  0.8379434790077767  0.1620565209922233
  0.5000000000000000  0.1620565209922233  0.5000000000000000
  0.8379434790077767  0.1620565209922233  0.5000000000000000
  0.1620565209922233  0.5000000000000000  0.5000000000000000
  0.8379434790077767  0.5000000000000000  0.5000000000000000
  0.1620565209922233  0.8379434790077767  0.5000000000000000
  0.5000000000000000  0.8379434790077767  0.5000000000000000
  0.5000000000000000  0.1620565209922233  0.8379434790077767
  0.1620565209922233  0.5000000000000000  0.8379434790077767
  0.5000000000000000  0.5000000000000000  0.8379434790077767
  0.0000000000000000  0.0000000000000000  0.0000000000000000
 
  0.00000000E+00  0.00000000E+00  0.00000000E+00
  0.00000000E+00  0.00000000E+00  0.00000000E+00
  0.00000000E+00  0.00000000E+00  0.00000000E+00
  0.00000000E+00  0.00000000E+00  0.00000000E+00
  0.00000000E+00  0.00000000E+00  0.00000000E+00
  0.00000000E+00  0.00000000E+00  0.00000000E+00
  0.00000000E+00  0.00000000E+00  0.00000000E+00
  0.00000000E+00  0.00000000E+00  0.00000000E+00
  0.00000000E+00  0.00000000E+00  0.00000000E+00
  0.00000000E+00  0.00000000E+00  0.00000000E+00
  0.00000000E+00  0.00000000E+00  0.00000000E+00
  0.00000000E+00  0.00000000E+00  0.00000000E+00
  0.00000000E+00  0.00000000E+00  0.00000000E+00
