Ba4 Tl4 I20                             
   1.0000000000000000     
     6.5768831045144722   -0.0000000000000001    0.0000000000000003
    -0.0000000000000004    8.5576266900154270    0.0000000000000007
    -0.0000000000000007   -0.0000000000000001   28.5616376863656107
   Ba   Tl   I 
     4     4    20
Direct
  0.0289102742506415  0.2638891371992003  0.3487357187977906
  0.5289102742506415  0.2361108628007997  0.6512642812022094
  0.9710897257493514  0.7638891371992003  0.1512642812022094
  0.4710897257493514  0.7361108628007997  0.8487357187977906
  0.5031311037661155  0.5896749617991262  0.4429179609939666
  0.0031311037661155  0.9103250382008738  0.5570820390060263
  0.4968688962338845  0.0896749617991262  0.0570820390060263
  0.9968688962338845  0.4103250382008738  0.9429179609939666
  0.0149434024418937  0.4602784208562269  0.4537802310716970
  0.5149434024418866  0.0397215791437731  0.5462197689283030
  0.9850565975581063  0.9602784208562269  0.0462197689283030
  0.4850565975581063  0.5397215791437731  0.9537802310716970
  0.4735324554764873  0.8733602531111373  0.1544416122343932
  0.9735324554764944  0.6266397468888627  0.8455583877655997
  0.5264675445235056  0.3733602531111373  0.3455583877655997
  0.0264675445235127  0.1266397468888627  0.6544416122344003
  0.2826926973723403  0.0130135629988786  0.9312257650848892
  0.7826926973723474  0.4869864370011214  0.0687742349151037
  0.7173073026276526  0.5130135629988786  0.5687742349151108
  0.2173073026276597  0.9869864370011214  0.4312257650848750
  0.1045606361018656  0.8149860658717145  0.3467857820232965
  0.6045606361018798  0.6850139341282855  0.6532142179767106
  0.8954393638981202  0.3149860658717145  0.1532142179767035
  0.3954393638981344  0.1850139341282855  0.8467857820232894
  0.5103374251314605  0.8984446774042709  0.7336319884286624
  0.0103374251314605  0.6015553225957291  0.2663680115713376
  0.4896625748685395  0.3984446774042780  0.7663680115713376
  0.9896625748685395  0.1015553225957220  0.2336319884286624

  0.00000000E+00  0.00000000E+00  0.00000000E+00
  0.00000000E+00  0.00000000E+00  0.00000000E+00
  0.00000000E+00  0.00000000E+00  0.00000000E+00
  0.00000000E+00  0.00000000E+00  0.00000000E+00
  0.00000000E+00  0.00000000E+00  0.00000000E+00
  0.00000000E+00  0.00000000E+00  0.00000000E+00
  0.00000000E+00  0.00000000E+00  0.00000000E+00
  0.00000000E+00  0.00000000E+00  0.00000000E+00
  0.00000000E+00  0.00000000E+00  0.00000000E+00
  0.00000000E+00  0.00000000E+00  0.00000000E+00
  0.00000000E+00  0.00000000E+00  0.00000000E+00
  0.00000000E+00  0.00000000E+00  0.00000000E+00
  0.00000000E+00  0.00000000E+00  0.00000000E+00
  0.00000000E+00  0.00000000E+00  0.00000000E+00
  0.00000000E+00  0.00000000E+00  0.00000000E+00
  0.00000000E+00  0.00000000E+00  0.00000000E+00
  0.00000000E+00  0.00000000E+00  0.00000000E+00
  0.00000000E+00  0.00000000E+00  0.00000000E+00
  0.00000000E+00  0.00000000E+00  0.00000000E+00
  0.00000000E+00  0.00000000E+00  0.00000000E+00
  0.00000000E+00  0.00000000E+00  0.00000000E+00
  0.00000000E+00  0.00000000E+00  0.00000000E+00
  0.00000000E+00  0.00000000E+00  0.00000000E+00
  0.00000000E+00  0.00000000E+00  0.00000000E+00
  0.00000000E+00  0.00000000E+00  0.00000000E+00
  0.00000000E+00  0.00000000E+00  0.00000000E+00
  0.00000000E+00  0.00000000E+00  0.00000000E+00
  0.00000000E+00  0.00000000E+00  0.00000000E+00
