Sr1 B2 I6                               
   1.00000000000000     
     4.7307541104240940    1.9418897172038267    7.3091575441677969
    -4.7307541104240940    1.9418897172038267    7.3091575441677969
     0.0000000000000000   -5.6394512406638260    7.9303252936779032
   Sr   I    B 
     1     6     2
Direct
  0.0000000000000000  0.0000000000000000  0.0000000000000000
  0.7336163620231417  0.7336163620231417  0.2628758498918842
  0.8027984621292319  0.1930912093625992  0.3053809018079718
  0.1930912093625992  0.8027984621292319  0.3053809018079718
  0.2663836379768583  0.2663836379768583  0.7371241501081158
  0.8069087906374008  0.1972015378707610  0.6946190981920282
  0.1972015378707610  0.8069087906374008  0.6946190981920282
  0.0009022777235401  0.0009022777235401  0.5854534990702547
  0.9990977222764599  0.9990977222764599  0.4145465009297453
 
  0.00000000E+00  0.00000000E+00  0.00000000E+00
  0.00000000E+00  0.00000000E+00  0.00000000E+00
  0.00000000E+00  0.00000000E+00  0.00000000E+00
  0.00000000E+00  0.00000000E+00  0.00000000E+00
  0.00000000E+00  0.00000000E+00  0.00000000E+00
  0.00000000E+00  0.00000000E+00  0.00000000E+00
  0.00000000E+00  0.00000000E+00  0.00000000E+00
  0.00000000E+00  0.00000000E+00  0.00000000E+00
  0.00000000E+00  0.00000000E+00  0.00000000E+00
