Sr6 Tl4                                 
   1.0000000000000000     
     9.5576048353619036    0.0000000000000000    0.0000000000000000
     0.0000000000000000    9.5576048353619036   -0.0000000000000000
     0.0000000000000000   -0.0000000000000000    4.2648327397838095
   Tl   Sr
     4     6
Direct
  0.6392192805987023  0.1392192805987023  0.0000000000000000
  0.1392192805987023  0.3607807194012977  0.0000000000000000
  0.8607807194012977  0.6392192805987023  0.0000000000000000
  0.3607807194012977  0.8607807194012977  0.0000000000000000
  0.0000000000000000  0.0000000000000000  0.0000000000000000
  0.5000000000000000  0.5000000000000000  0.0000000000000000
  0.3421337602697179  0.1578662397302821  0.5000000000000000
  0.8421337602697179  0.3421337602697179  0.5000000000000000
  0.1578662397302821  0.6578662397302821  0.5000000000000000
  0.6578662397302821  0.8421337602697179  0.5000000000000000

  0.00000000E+00  0.00000000E+00  0.00000000E+00
  0.00000000E+00  0.00000000E+00  0.00000000E+00
  0.00000000E+00  0.00000000E+00  0.00000000E+00
  0.00000000E+00  0.00000000E+00  0.00000000E+00
  0.00000000E+00  0.00000000E+00  0.00000000E+00
  0.00000000E+00  0.00000000E+00  0.00000000E+00
  0.00000000E+00  0.00000000E+00  0.00000000E+00
  0.00000000E+00  0.00000000E+00  0.00000000E+00
  0.00000000E+00  0.00000000E+00  0.00000000E+00
  0.00000000E+00  0.00000000E+00  0.00000000E+00
