CaCl4                                   
   1.00000000000000     
     5.2988835877982847   -0.0157488272759945   -0.0205311020197217
    -2.5935905867825926    7.1897281902995456   -0.0028300838774312
    -0.9145146416102089   -2.8549809096640706    7.4838035894857295
   Ca   Cl
     2     8
Direct
  0.3148240125151531  0.1810653642002151  0.3999675983346265
  0.6851536236233358  0.8188316074476703  0.6000421965920424
  0.2048968705731227  0.8250523056775023  0.0840586069049607
  0.1918727638355406  0.3193571645495084  0.0966188918929447
  0.6712012840064858  0.4944667215192169  0.3270762142129300
  0.7455671189578297  0.0413237441621845  0.3751647406490690
  0.2544255644989590  0.9585597245727868  0.6248621463769339
  0.3288032098342342  0.5054689771875474  0.6729835000739399
  0.8082181071622045  0.6805991753574432  0.9034118972892742
  0.7950374449931346  0.1748752153259119  0.9159142076732749
 
  0.00000000E+00  0.00000000E+00  0.00000000E+00
  0.00000000E+00  0.00000000E+00  0.00000000E+00
  0.00000000E+00  0.00000000E+00  0.00000000E+00
  0.00000000E+00  0.00000000E+00  0.00000000E+00
  0.00000000E+00  0.00000000E+00  0.00000000E+00
  0.00000000E+00  0.00000000E+00  0.00000000E+00
  0.00000000E+00  0.00000000E+00  0.00000000E+00
  0.00000000E+00  0.00000000E+00  0.00000000E+00
  0.00000000E+00  0.00000000E+00  0.00000000E+00
  0.00000000E+00  0.00000000E+00  0.00000000E+00
