Sr4 In10 I2                             
   1.0000000000000000     
     9.1666745312787139   -0.0170185641142034   -0.0266046692727304
    -4.5915359749229037    7.9336328077662772    0.0042508595735917
    -4.5936097114486110   -2.6467520606826653    7.4817645661864507
   I    Sr   In
     2     4    10
Direct
  0.9999649162699882  0.2520081877500999  0.2482811608704623
  0.9997658074379601  0.7481744197108071  0.7518770001769752
  0.8080761370108576  0.6528619810234488  0.1528988847116963
  0.5000780697150873  0.1544633330660901  0.3455459341823470
  0.5000614539894315  0.8454878702645630  0.6543471715976636
  0.1919437111530158  0.3469209989584670  0.8469768777906168
  0.0000201682618410  0.0001819124589062  0.0002695419163032
  0.4988141490568836  0.8310237764703672  0.0368413901019125
  0.2084148734216029  0.6715458979926296  0.1713031179590629
  0.4988245157452837  0.5369954783220336  0.3310478694693231
  0.7906943854028725  0.9612098647423721  0.4610153868396338
  0.0001094691192307  0.5002685024761817  0.5002732426822618
  0.2090365528428464  0.0384969446057113  0.5386222388961173
  0.5011158127890596  0.4626910275547331  0.6689453399932930
  0.7920063039383152  0.3285707084310800  0.8287971778810643
  0.5010736738457382  0.1688990961725096  0.9627576649312530

  0.00000000E+00  0.00000000E+00  0.00000000E+00
  0.00000000E+00  0.00000000E+00  0.00000000E+00
  0.00000000E+00  0.00000000E+00  0.00000000E+00
  0.00000000E+00  0.00000000E+00  0.00000000E+00
  0.00000000E+00  0.00000000E+00  0.00000000E+00
  0.00000000E+00  0.00000000E+00  0.00000000E+00
  0.00000000E+00  0.00000000E+00  0.00000000E+00
  0.00000000E+00  0.00000000E+00  0.00000000E+00
  0.00000000E+00  0.00000000E+00  0.00000000E+00
  0.00000000E+00  0.00000000E+00  0.00000000E+00
  0.00000000E+00  0.00000000E+00  0.00000000E+00
  0.00000000E+00  0.00000000E+00  0.00000000E+00
  0.00000000E+00  0.00000000E+00  0.00000000E+00
  0.00000000E+00  0.00000000E+00  0.00000000E+00
  0.00000000E+00  0.00000000E+00  0.00000000E+00
  0.00000000E+00  0.00000000E+00  0.00000000E+00
