Mg1 Tl3 I6                              
   1.0000000000000000     
     8.5368129756757245    0.0000023065385466   -0.0007182229842934
     0.0000023065385466    8.5368129756757245   -0.0007182229842934
     4.2678989640494063    4.2678989640494063    6.0356243265326359
   I    Mg   Tl
     6     1     3
Direct
  0.7595177096989616  0.2404822903010384  0.0000000000000000
  0.2404767922071898  0.2404767922071898  0.0000191140108754
  0.2404822903010384  0.7595177096989616  0.0000000000000000
  0.7595232077928102  0.7595232077928102  0.9999808859891246
  0.7596438467463074  0.7596438467463074  0.4809609013677090
  0.2403561532536926  0.2403561532536926  0.5190390986322910
  0.0000000000000000  0.0000000000000000  0.0000000000000000
  0.5000000000000000  0.5000000000000000  0.0000000000000000
  0.2499735131839671  0.7500264868160329  0.5000000000000000
  0.7500264868160329  0.2499735131839671  0.5000000000000000

  0.00000000E+00  0.00000000E+00  0.00000000E+00
  0.00000000E+00  0.00000000E+00  0.00000000E+00
  0.00000000E+00  0.00000000E+00  0.00000000E+00
  0.00000000E+00  0.00000000E+00  0.00000000E+00
  0.00000000E+00  0.00000000E+00  0.00000000E+00
  0.00000000E+00  0.00000000E+00  0.00000000E+00
  0.00000000E+00  0.00000000E+00  0.00000000E+00
  0.00000000E+00  0.00000000E+00  0.00000000E+00
  0.00000000E+00  0.00000000E+00  0.00000000E+00
  0.00000000E+00  0.00000000E+00  0.00000000E+00
