Ba2 In2 I10                             
   1.0000000000000000     
     6.1253746382932297   -0.0000000000000002    0.0000000000000003
    -0.0000000000000012   12.9662869522295789    0.0000000000000009
     0.0000000000000002    0.0000000000000005   10.8370922155167229
   Ba   In   I 
     2     2    10
Direct
  0.0000000000000000  0.0000000000000000  0.5000000000000000
  0.5000000000000000  0.5000000000000000  0.0000000000000000
  0.5000000000000000  0.0000000000000000  0.0000000000000000
  0.0000000000000000  0.5000000000000000  0.5000000000000000
  0.5000000000000000  0.7276845190225387  0.5000000000000000
  0.5000000000000000  0.2723154809774613  0.5000000000000000
  0.5000000000000000  0.0000000000000000  0.6833895266608110
  0.5000000000000000  0.0000000000000000  0.3166104733391890
  0.0000000000000000  0.0000000000000000  0.0000000000000000
  0.0000000000000000  0.2276845190225387  0.0000000000000000
  0.0000000000000000  0.7723154809774613  0.0000000000000000
  0.0000000000000000  0.5000000000000000  0.1833895266608110
  0.0000000000000000  0.5000000000000000  0.8166104733391890
  0.5000000000000000  0.5000000000000000  0.5000000000000000

  0.00000000E+00  0.00000000E+00  0.00000000E+00
  0.00000000E+00  0.00000000E+00  0.00000000E+00
  0.00000000E+00  0.00000000E+00  0.00000000E+00
  0.00000000E+00  0.00000000E+00  0.00000000E+00
  0.00000000E+00  0.00000000E+00  0.00000000E+00
  0.00000000E+00  0.00000000E+00  0.00000000E+00
  0.00000000E+00  0.00000000E+00  0.00000000E+00
  0.00000000E+00  0.00000000E+00  0.00000000E+00
  0.00000000E+00  0.00000000E+00  0.00000000E+00
  0.00000000E+00  0.00000000E+00  0.00000000E+00
  0.00000000E+00  0.00000000E+00  0.00000000E+00
  0.00000000E+00  0.00000000E+00  0.00000000E+00
  0.00000000E+00  0.00000000E+00  0.00000000E+00
  0.00000000E+00  0.00000000E+00  0.00000000E+00
