MgB6                                    
   1.00000000000000     
     4.1063442667663903    0.0000000000000000    0.0000000000000000
     0.0000000000000000    4.1063442667663903    0.0000000000000000
     0.0000000000000000    0.0000000000000000    4.1063442667663903
   B    Mg
     6     1
Direct
  0.2991457571645810  0.0000000000000000  0.0000000000000000
  0.7008542428354190  0.0000000000000000  0.0000000000000000
  0.0000000000000000  0.2991457571645810  0.0000000000000000
  0.0000000000000000  0.7008542428354190  0.0000000000000000
  0.0000000000000000  0.0000000000000000  0.2991457571645810
  0.0000000000000000  0.0000000000000000  0.7008542428354190
  0.5000000000000000  0.5000000000000000  0.5000000000000000
 
  0.00000000E+00  0.00000000E+00  0.00000000E+00
  0.00000000E+00  0.00000000E+00  0.00000000E+00
  0.00000000E+00  0.00000000E+00  0.00000000E+00
  0.00000000E+00  0.00000000E+00  0.00000000E+00
  0.00000000E+00  0.00000000E+00  0.00000000E+00
  0.00000000E+00  0.00000000E+00  0.00000000E+00
  0.00000000E+00  0.00000000E+00  0.00000000E+00
