Ca9 B4                                  
   1.00000000000000     
     0.0033994348355930   -0.0006322594803395    4.7242401060853503
    -5.6281989066806180    5.5906219188549215    2.3582832103411522
    -5.8551889471786511   -5.8186410701104361   -2.3643609916186343
   Ca   B 
     9     4
Direct
  0.4999988666094239  0.9999755425465651  0.9999779415450334
  0.8657905077969517  0.3207990302506758  0.0519145134751327
  0.4029530089690070  0.4746109670964884  0.2781316146865080
  0.1843680140780890  0.9365693285175283  0.3022339358138098
  0.8688659831252679  0.7430756164776184  0.4792725060323022
  0.1311223949052689  0.2568965755032409  0.5206736976526400
  0.8156341042678648  0.0633869486696810  0.6977247105608058
  0.5970446742104585  0.5253594757809310  0.7218333836642117
  0.1342164703709940  0.6791398266937350  0.9480479122165519
  0.7458768366095754  0.6605214157362909  0.1543465008760023
  0.6095177497304789  0.1402544565747377  0.3563466726400861
  0.3904899359885547  0.8596973780612345  0.6435924800172188
  0.2541214533380725  0.3394134380912632  0.8456041308196944
 
  0.00000000E+00  0.00000000E+00  0.00000000E+00
  0.00000000E+00  0.00000000E+00  0.00000000E+00
  0.00000000E+00  0.00000000E+00  0.00000000E+00
  0.00000000E+00  0.00000000E+00  0.00000000E+00
  0.00000000E+00  0.00000000E+00  0.00000000E+00
  0.00000000E+00  0.00000000E+00  0.00000000E+00
  0.00000000E+00  0.00000000E+00  0.00000000E+00
  0.00000000E+00  0.00000000E+00  0.00000000E+00
  0.00000000E+00  0.00000000E+00  0.00000000E+00
  0.00000000E+00  0.00000000E+00  0.00000000E+00
  0.00000000E+00  0.00000000E+00  0.00000000E+00
  0.00000000E+00  0.00000000E+00  0.00000000E+00
  0.00000000E+00  0.00000000E+00  0.00000000E+00
