Sr2 B2 Cl10                             
   1.00000000000000     
     7.7748277023912822   -5.6730705124470608   -0.0839704009960187
     7.7720459018231347    5.6738982456908555   -0.0822093992909003
    -5.0523079739216801   -0.0009785672336134    6.6154793053386669
   B    Sr   Cl
     2     2    10
Direct
  0.8553207576669521  0.1400716417185990  0.0392820948628412
  0.1399061046579604  0.8550087663506503  0.5387065913125397
  0.5316862194244081  0.4746847369394160  0.2770056567259402
  0.4745338003553314  0.5317926808021340  0.7769361598938644
  0.2834704582811725  0.4756735781310937  0.9079972590451675
  0.0587589112414335  0.1666213365189151  0.1601213611497698
  0.7598406874985457  0.1447363535826796  0.1778811987192483
  0.0993244495755121  0.7437539418185111  0.2815235390085391
  0.5465696855196924  0.7203455877658556  0.6568998552248715
  0.4760577823225844  0.2833504570324195  0.4082392029190132
  0.1663669063627182  0.0584453859974090  0.6596200986158465
  0.1443694188248230  0.7594159888423633  0.6770555086346306
  0.7440285248176934  0.0992652479392362  0.7820101742454071
  0.7199662934511650  0.5470342965607315  0.1570212996423095
 
  0.00000000E+00  0.00000000E+00  0.00000000E+00
  0.00000000E+00  0.00000000E+00  0.00000000E+00
  0.00000000E+00  0.00000000E+00  0.00000000E+00
  0.00000000E+00  0.00000000E+00  0.00000000E+00
  0.00000000E+00  0.00000000E+00  0.00000000E+00
  0.00000000E+00  0.00000000E+00  0.00000000E+00
  0.00000000E+00  0.00000000E+00  0.00000000E+00
  0.00000000E+00  0.00000000E+00  0.00000000E+00
  0.00000000E+00  0.00000000E+00  0.00000000E+00
  0.00000000E+00  0.00000000E+00  0.00000000E+00
  0.00000000E+00  0.00000000E+00  0.00000000E+00
  0.00000000E+00  0.00000000E+00  0.00000000E+00
  0.00000000E+00  0.00000000E+00  0.00000000E+00
  0.00000000E+00  0.00000000E+00  0.00000000E+00
