Ba4 B4 I20                              
   1.0000000000000000     
     0.0000000000000000   10.8641354773917733   -2.0232113457236816
    17.1020467358451462    0.0000000000000000    0.0000000000000000
     0.0000000000000000    3.4246848831262162   -9.6012590370121007
   Ba   B    I 
     4     4    20
Direct
  0.7503538440380879  0.4442379165608799  0.3522556686503862
  0.2496461559619121  0.9442379165608727  0.6477443313496138
  0.8952647168098196  0.0741114396048701  0.3486874199489876
  0.1047352831901875  0.5741114396048701  0.6513125800510124
  0.4953134794013323  0.8515724996481637  0.0731115866996390
  0.5046865205986606  0.3515724996481637  0.9268884133003468
  0.8621234316920834  0.7074057631731421  0.4164188692968267
  0.1378765683079095  0.2074057631731421  0.5835811307031662
  0.9741261689518410  0.9954145030161996  0.6030872763595170
  0.3967967663917449  0.4694769590478103  0.5477099351717527
  0.6032032336082551  0.9694769590478032  0.4522900648282402
  0.6280607627794978  0.7807178978097582  0.1171682325612124
  0.8707089427219969  0.5198449908286165  0.0033131761602405
  0.3051733578760150  0.8995316770325843  0.2565870062831763
  0.0174738621553985  0.2330221449045879  0.8174429744515592
  0.6597405513044592  0.6540626342837257  0.5101987994351376
  0.1292910572780102  0.0198449908286165  0.9966868238397595
  0.9369920547505330  0.7418854805542594  0.5658875073808716
  0.6948266421239850  0.3995316770325843  0.7434129937168237
  0.0258738310481519  0.4954145030162067  0.3969127236404759
  0.5440813422186750  0.8771988006847096  0.8480646288367311
  0.7918706475488619  0.2491162728506993  0.2777127714632499
  0.0630079452494670  0.2418854805542594  0.4341124926191284
  0.9825261378446015  0.7330221449045879  0.1825570255484408
  0.3719392372205022  0.2807178978097582  0.8828317674387804
  0.2081293524511310  0.7491162728506993  0.7222872285367501
  0.3402594486955479  0.1540626342837257  0.4898012005648624
  0.4559186577813392  0.3771988006847096  0.1519353711632760

  0.00000000E+00  0.00000000E+00  0.00000000E+00
  0.00000000E+00  0.00000000E+00  0.00000000E+00
  0.00000000E+00  0.00000000E+00  0.00000000E+00
  0.00000000E+00  0.00000000E+00  0.00000000E+00
  0.00000000E+00  0.00000000E+00  0.00000000E+00
  0.00000000E+00  0.00000000E+00  0.00000000E+00
  0.00000000E+00  0.00000000E+00  0.00000000E+00
  0.00000000E+00  0.00000000E+00  0.00000000E+00
  0.00000000E+00  0.00000000E+00  0.00000000E+00
  0.00000000E+00  0.00000000E+00  0.00000000E+00
  0.00000000E+00  0.00000000E+00  0.00000000E+00
  0.00000000E+00  0.00000000E+00  0.00000000E+00
  0.00000000E+00  0.00000000E+00  0.00000000E+00
  0.00000000E+00  0.00000000E+00  0.00000000E+00
  0.00000000E+00  0.00000000E+00  0.00000000E+00
  0.00000000E+00  0.00000000E+00  0.00000000E+00
  0.00000000E+00  0.00000000E+00  0.00000000E+00
  0.00000000E+00  0.00000000E+00  0.00000000E+00
  0.00000000E+00  0.00000000E+00  0.00000000E+00
  0.00000000E+00  0.00000000E+00  0.00000000E+00
  0.00000000E+00  0.00000000E+00  0.00000000E+00
  0.00000000E+00  0.00000000E+00  0.00000000E+00
  0.00000000E+00  0.00000000E+00  0.00000000E+00
  0.00000000E+00  0.00000000E+00  0.00000000E+00
  0.00000000E+00  0.00000000E+00  0.00000000E+00
  0.00000000E+00  0.00000000E+00  0.00000000E+00
  0.00000000E+00  0.00000000E+00  0.00000000E+00
  0.00000000E+00  0.00000000E+00  0.00000000E+00
