Be1 In5                                 
   1.00000000000000     
     2.9164394927859809   -5.0514206575925931    0.0000000000000000
     2.9164394927859809    5.0514206575925931    0.0000000000000000
    -0.0000000000000001    0.0000000000000000    5.8880685274311197
   Be   In
     1     5
Direct
  0.0000000000000000  0.0000000000000000  0.0000000000000000
  0.5000000000000000  0.0000000000000000  0.5000000000000000
  0.0000000000000000  0.5000000000000000  0.5000000000000000
  0.5000000000000000  0.5000000000000000  0.5000000000000000
  0.3333330000000032  0.6666669999999968  0.0000000000000000
  0.6666669999999968  0.3333330000000032  0.0000000000000000
 
  0.00000000E+00  0.00000000E+00  0.00000000E+00
  0.00000000E+00  0.00000000E+00  0.00000000E+00
  0.00000000E+00  0.00000000E+00  0.00000000E+00
  0.00000000E+00  0.00000000E+00  0.00000000E+00
  0.00000000E+00  0.00000000E+00  0.00000000E+00
  0.00000000E+00  0.00000000E+00  0.00000000E+00
