Sr10 In4 I32                            
   1.0000000000000000     
     5.5677129181720924   -8.6921093604381117    0.0000000000000000
     5.5677129181720924    8.6921093604381117    0.0000000000000000
     0.0000000000000000    0.0000000000000000   20.4691911311006791
   Sr   In   I 
    10     4    32
Direct
  0.0000000000000000  0.0000000000000000  0.7220869878390417
  0.0000000000000000  0.0000000000000000  0.2779130121609583
  0.5000000000000000  0.5000000000000000  0.7779130121609583
  0.5000000000000000  0.5000000000000000  0.2220869878390417
  0.5000000000000000  0.5000000000000000  0.5000000000000000
  0.0000000000000000  0.0000000000000000  0.0000000000000000
  0.0000000000000000  0.5000000000000000  0.6386765127100631
  0.5000000000000000  0.0000000000000000  0.3613234872899369
  0.5000000000000000  0.0000000000000000  0.8613234872899369
  0.0000000000000000  0.5000000000000000  0.1386765127100631
  0.5000000000000000  0.0000000000000000  0.6158746684568754
  0.0000000000000000  0.5000000000000000  0.3841253315431246
  0.0000000000000000  0.5000000000000000  0.8841253315431246
  0.5000000000000000  0.0000000000000000  0.1158746684568754
  0.5438249147862990  0.2014812420366709  0.7208407651874467
  0.4561750852137010  0.7985187579633291  0.7208407651874467
  0.2014812420366709  0.5438249147862990  0.2791592348125533
  0.7985187579633291  0.4561750852137010  0.2791592348125533
  0.9561750852137010  0.2985187579633291  0.7791592348125533
  0.0438249147862990  0.7014812420366709  0.7791592348125533
  0.2985187579633291  0.9561750852137010  0.2208407651874467
  0.7014812420366709  0.0438249147862990  0.2208407651874467
  0.1646687756671099  0.8700130379341218  0.6113410955560639
  0.8353312243328901  0.1299869620658782  0.6113410955560639
  0.8700130379341218  0.1646687756671099  0.3886589044439361
  0.1299869620658782  0.8353312243328901  0.3886589044439361
  0.3353312243328901  0.6299869620658782  0.8886589044439361
  0.6646687756671099  0.3700130379341218  0.8886589044439361
  0.6682427159218349  0.9690624264313854  0.0079453413866801
  0.3317572840781651  0.0309375735686146  0.0079453413866801
  0.9690624264313854  0.6682427159218349  0.9920546586133199
  0.0309375735686146  0.3317572840781651  0.9920546586133199
  0.8317572840781651  0.5309375735686146  0.4920546586133199
  0.1682427159218349  0.4690624264313854  0.4920546586133199
  0.5309375735686146  0.8317572840781651  0.5079453413866801
  0.4690624264313854  0.1682427159218349  0.5079453413866801
  0.8719817087490753  0.7735472979516871  0.1518520042437856
  0.1280182912509247  0.2264527020483129  0.1518520042437856
  0.7735472979516871  0.8719817087490753  0.8481479957562144
  0.2264527020483129  0.1280182912509247  0.8481479957562144
  0.6280182912509247  0.7264527020483129  0.3481479957562144
  0.3719817087490753  0.2735472979516871  0.3481479957562144
  0.7264527020483129  0.6280182912509247  0.6518520042437856
  0.2735472979516871  0.3719817087490753  0.6518520042437856
  0.3700130379341218  0.6646687756671099  0.1113410955560639
  0.6299869620658782  0.3353312243328901  0.1113410955560639

  0.00000000E+00  0.00000000E+00  0.00000000E+00
  0.00000000E+00  0.00000000E+00  0.00000000E+00
  0.00000000E+00  0.00000000E+00  0.00000000E+00
  0.00000000E+00  0.00000000E+00  0.00000000E+00
  0.00000000E+00  0.00000000E+00  0.00000000E+00
  0.00000000E+00  0.00000000E+00  0.00000000E+00
  0.00000000E+00  0.00000000E+00  0.00000000E+00
  0.00000000E+00  0.00000000E+00  0.00000000E+00
  0.00000000E+00  0.00000000E+00  0.00000000E+00
  0.00000000E+00  0.00000000E+00  0.00000000E+00
  0.00000000E+00  0.00000000E+00  0.00000000E+00
  0.00000000E+00  0.00000000E+00  0.00000000E+00
  0.00000000E+00  0.00000000E+00  0.00000000E+00
  0.00000000E+00  0.00000000E+00  0.00000000E+00
  0.00000000E+00  0.00000000E+00  0.00000000E+00
  0.00000000E+00  0.00000000E+00  0.00000000E+00
  0.00000000E+00  0.00000000E+00  0.00000000E+00
  0.00000000E+00  0.00000000E+00  0.00000000E+00
  0.00000000E+00  0.00000000E+00  0.00000000E+00
  0.00000000E+00  0.00000000E+00  0.00000000E+00
  0.00000000E+00  0.00000000E+00  0.00000000E+00
  0.00000000E+00  0.00000000E+00  0.00000000E+00
  0.00000000E+00  0.00000000E+00  0.00000000E+00
  0.00000000E+00  0.00000000E+00  0.00000000E+00
  0.00000000E+00  0.00000000E+00  0.00000000E+00
  0.00000000E+00  0.00000000E+00  0.00000000E+00
  0.00000000E+00  0.00000000E+00  0.00000000E+00
  0.00000000E+00  0.00000000E+00  0.00000000E+00
  0.00000000E+00  0.00000000E+00  0.00000000E+00
  0.00000000E+00  0.00000000E+00  0.00000000E+00
  0.00000000E+00  0.00000000E+00  0.00000000E+00
  0.00000000E+00  0.00000000E+00  0.00000000E+00
  0.00000000E+00  0.00000000E+00  0.00000000E+00
  0.00000000E+00  0.00000000E+00  0.00000000E+00
  0.00000000E+00  0.00000000E+00  0.00000000E+00
  0.00000000E+00  0.00000000E+00  0.00000000E+00
  0.00000000E+00  0.00000000E+00  0.00000000E+00
  0.00000000E+00  0.00000000E+00  0.00000000E+00
  0.00000000E+00  0.00000000E+00  0.00000000E+00
  0.00000000E+00  0.00000000E+00  0.00000000E+00
  0.00000000E+00  0.00000000E+00  0.00000000E+00
  0.00000000E+00  0.00000000E+00  0.00000000E+00
  0.00000000E+00  0.00000000E+00  0.00000000E+00
  0.00000000E+00  0.00000000E+00  0.00000000E+00
  0.00000000E+00  0.00000000E+00  0.00000000E+00
  0.00000000E+00  0.00000000E+00  0.00000000E+00
