Ba4 Al4 Cl20                            
   1.0000000000000000     
     6.4760201929517436   -0.0000000000000001    0.0000000000000004
    -0.0000000000000005    6.8551440626065361    0.0000000000000004
     0.0000000000000003    0.0000000000000002   17.0192303897471682
   Ba   Al   Cl
     4     4    20
Direct
  0.7808511182356170  0.4054815521865436  0.3531793968258441
  0.2808511182356170  0.0945184478134564  0.6468206031741559
  0.2191488817643759  0.9054815521865436  0.1468206031741559
  0.7191488817643759  0.5945184478134564  0.8531793968258441
  0.2229130357873572  0.8864394134659364  0.3982054598408169
  0.7229130357873572  0.6135605865340636  0.6017945401591760
  0.7770869642126428  0.3864394134659364  0.1017945401591760
  0.2770869642126428  0.1135605865340636  0.8982054598408169
  0.9525951207645988  0.6286695044173172  0.4999233163358667
  0.4525951207645917  0.8713304955826828  0.5000766836641333
  0.0474048792354012  0.1286695044173172  0.0000766836641262
  0.5474048792354012  0.3713304955826828  0.9999233163358667
  0.9450639939733279  0.8627934558670844  0.3108034827942063
  0.4450639939733279  0.6372065441329156  0.6891965172057937
  0.0549360060266721  0.3627934558670844  0.1891965172057937
  0.5549360060266721  0.1372065441329156  0.8108034827942063
  0.9469791802528746  0.6262139930910706  0.0365789582770546
  0.4469791802528746  0.8737860069089294  0.9634210417229454
  0.0530208197471254  0.1262139930910706  0.4634210417229454
  0.5530208197471254  0.3737860069089294  0.5365789582770546
  0.5828785638251119  0.5630167872431642  0.1848783770154938
  0.0828785638251119  0.9369832127568358  0.8151216229845062
  0.4171214361748881  0.0630167872431642  0.3151216229845062
  0.9171214361748881  0.4369832127568358  0.6848783770154938
  0.1900510598225935  0.4205047019680421  0.8600174624664945
  0.6900510598225864  0.0794952980319579  0.1399825375334984
  0.8099489401774136  0.9205047019680421  0.6399825375335055
  0.3099489401774065  0.5794952980319579  0.3600174624665016

  0.00000000E+00  0.00000000E+00  0.00000000E+00
  0.00000000E+00  0.00000000E+00  0.00000000E+00
  0.00000000E+00  0.00000000E+00  0.00000000E+00
  0.00000000E+00  0.00000000E+00  0.00000000E+00
  0.00000000E+00  0.00000000E+00  0.00000000E+00
  0.00000000E+00  0.00000000E+00  0.00000000E+00
  0.00000000E+00  0.00000000E+00  0.00000000E+00
  0.00000000E+00  0.00000000E+00  0.00000000E+00
  0.00000000E+00  0.00000000E+00  0.00000000E+00
  0.00000000E+00  0.00000000E+00  0.00000000E+00
  0.00000000E+00  0.00000000E+00  0.00000000E+00
  0.00000000E+00  0.00000000E+00  0.00000000E+00
  0.00000000E+00  0.00000000E+00  0.00000000E+00
  0.00000000E+00  0.00000000E+00  0.00000000E+00
  0.00000000E+00  0.00000000E+00  0.00000000E+00
  0.00000000E+00  0.00000000E+00  0.00000000E+00
  0.00000000E+00  0.00000000E+00  0.00000000E+00
  0.00000000E+00  0.00000000E+00  0.00000000E+00
  0.00000000E+00  0.00000000E+00  0.00000000E+00
  0.00000000E+00  0.00000000E+00  0.00000000E+00
  0.00000000E+00  0.00000000E+00  0.00000000E+00
  0.00000000E+00  0.00000000E+00  0.00000000E+00
  0.00000000E+00  0.00000000E+00  0.00000000E+00
  0.00000000E+00  0.00000000E+00  0.00000000E+00
  0.00000000E+00  0.00000000E+00  0.00000000E+00
  0.00000000E+00  0.00000000E+00  0.00000000E+00
  0.00000000E+00  0.00000000E+00  0.00000000E+00
  0.00000000E+00  0.00000000E+00  0.00000000E+00
