BaAl5                                   
   1.00000000000000     
     5.6260167211328911   -4.6216476525039294    0.0000000000000000
     5.6260167211328911    4.6216476525039294    0.0000000000000000
     0.0000000000000000    0.0000000000000000    5.3233708810382003
   Al   Ba
    10     2
Direct
  0.2851539786670756  0.2851539786670756  0.0000000000000000
  0.7148106436742125  0.7148106436742125  0.0000000000000000
  0.5674262354646373  0.0415887719589207  0.2500000000000000
  0.9583782188387886  0.4325429986520888  0.2500000000000000
  0.5721258498975104  0.4278418917739302  0.2500000000000000
  0.2851539786670756  0.2851539786670756  0.5000000000000000
  0.7148106436742125  0.7148106436742125  0.5000000000000000
  0.4278418917739302  0.5721258498975104  0.7500000000000000
  0.0415887719589207  0.5674262354646373  0.7500000000000000
  0.4325429986520888  0.9583782188387886  0.7500000000000000
  0.1716583668121530  0.8283084219193668  0.2500000000000000
  0.8283084219193668  0.1716583668121530  0.7500000000000000
 
  0.00000000E+00  0.00000000E+00  0.00000000E+00
  0.00000000E+00  0.00000000E+00  0.00000000E+00
  0.00000000E+00  0.00000000E+00  0.00000000E+00
  0.00000000E+00  0.00000000E+00  0.00000000E+00
  0.00000000E+00  0.00000000E+00  0.00000000E+00
  0.00000000E+00  0.00000000E+00  0.00000000E+00
  0.00000000E+00  0.00000000E+00  0.00000000E+00
  0.00000000E+00  0.00000000E+00  0.00000000E+00
  0.00000000E+00  0.00000000E+00  0.00000000E+00
  0.00000000E+00  0.00000000E+00  0.00000000E+00
  0.00000000E+00  0.00000000E+00  0.00000000E+00
  0.00000000E+00  0.00000000E+00  0.00000000E+00
