Ca                                      
   1.00000000000000     
     2.7651031203509602   -2.7651031203509602    0.0000000000000000
    -2.7651031203509602    0.0000000000000000   -2.7651031203509602
     2.7651031203509602    2.7651031203509602    0.0000000000000000
   Ca
     1
Direct
  0.0000000000000000  0.0000000000000000  0.0000000000000000
 
  0.00000000E+00  0.00000000E+00  0.00000000E+00
