Ca8 Tl6                                 
   1.0000000000000000     
     5.0356610556607793   -3.9867200617955230    0.4867804000072743
     5.0352721747711318    3.9852048990967437    0.4850767956263118
    -2.3081154789448637   -0.0009942992844584   11.5674125484372343
   Ca   Tl
     8     6
Direct
  0.7199792792693387  0.2063858312700972  0.0342595970885782
  0.1641129270620283  0.4281106062203577  0.2290180352069910
  0.5703727407105532  0.8345043894429551  0.2708690036345303
  0.7932485039009691  0.2800065971579002  0.4661384380197831
  0.2105544976317475  0.7224770496065176  0.5334604957801190
  0.4294505230189642  0.1663071714996249  0.7295553045146761
  0.8350579656011590  0.5723409400647412  0.7705524450013357
  0.2774157308573635  0.7900210353236972  0.9662292276222075
  0.7967385158759015  0.6878389713397013  0.0370687804807162
  0.0419822499896441  0.9565519567515395  0.2503760826581924
  0.3119328576338347  0.2029255312067164  0.4629697719845183
  0.6921016590542450  0.8012114441062295  0.5372076254335525
  0.9583874751118486  0.0433514493546880  0.7494974782250594
  0.1989650742823912  0.3082670266552299  0.9626777143497449

  0.00000000E+00  0.00000000E+00  0.00000000E+00
  0.00000000E+00  0.00000000E+00  0.00000000E+00
  0.00000000E+00  0.00000000E+00  0.00000000E+00
  0.00000000E+00  0.00000000E+00  0.00000000E+00
  0.00000000E+00  0.00000000E+00  0.00000000E+00
  0.00000000E+00  0.00000000E+00  0.00000000E+00
  0.00000000E+00  0.00000000E+00  0.00000000E+00
  0.00000000E+00  0.00000000E+00  0.00000000E+00
  0.00000000E+00  0.00000000E+00  0.00000000E+00
  0.00000000E+00  0.00000000E+00  0.00000000E+00
  0.00000000E+00  0.00000000E+00  0.00000000E+00
  0.00000000E+00  0.00000000E+00  0.00000000E+00
  0.00000000E+00  0.00000000E+00  0.00000000E+00
  0.00000000E+00  0.00000000E+00  0.00000000E+00
