Ca10 In6 Cl38                           
   1.0000000000000000     
    -9.0775442188302105    9.0775443524361812    4.7771853800653776
     9.0775442188302105   -9.0775443524361812    4.7771853800653776
     9.0775443524361812    9.0775442188302158   -4.7771853800653776
   Ca   In   Cl
    10     6    38
Direct
  0.7792110144372444  0.9799722131791242  0.7591832276163615
  0.2207889855627556  0.0200277868208758  0.2408167723836385
  0.9799722131791242  0.2207889855627556  0.2007611987418798
  0.0200277868208758  0.7792110144372444  0.7992388012581202
  0.5797761229552094  0.2046015283996923  0.7843776513548946
  0.4202238770447906  0.7953984716003077  0.2156223486451054
  0.2046015283996923  0.4202238770447906  0.6248254054444828
  0.7953984716003077  0.5797761229552094  0.3751745945555172
  0.7500000000000000  0.2500000000000000  0.5000000000000000
  0.2500000000000000  0.7500000000000000  0.5000000000000000
  0.8014627562138372  0.3669282641967371  0.1683900204105768
  0.1985372437861628  0.6330717358032629  0.8316099795894232
  0.3669282641967371  0.1985372437861628  0.5654655079829070
  0.6330717358032629  0.8014627562138372  0.4345344920170930
  0.7526374933079296  0.7526374933079296  0.0000000000000000
  0.2473625066920704  0.2473625066920704  0.0000000000000000
  0.4206745694902096  0.7157363012804581  0.7923938488280484
  0.5793254305097904  0.2842636987195419  0.2076061511719516
  0.9233414524524122  0.6282807206621541  0.2076061511719516
  0.7157363012804581  0.9233414524524122  0.2950617317902484
  0.0766585475475878  0.3717192793378459  0.7923938488280484
  0.2842636987195419  0.0766585475475878  0.7049382682097516
  0.6282807206621541  0.4206745694902096  0.7049382682097516
  0.3717192793378459  0.5793254305097904  0.2950617317902484
  0.7153543963947868  0.9092751601550262  0.0512160048764017
  0.2846456036052132  0.0907248398449738  0.9487839951236055
  0.8580591552786316  0.6641383915183994  0.9487839951236055
  0.9092751601550262  0.8580591552786316  0.1939207637602394
  0.1419408447213684  0.3358616084816006  0.0512160048764017
  0.0907248398449738  0.1419408447213684  0.8060792362397606
  0.6641383915183994  0.7153543963947868  0.8060792362397606
  0.3358616084816006  0.2846456036052132  0.1939207637602394
  0.6588684335920192  0.0734018006094246  0.7322702342014367
  0.3411315664079808  0.9265981993905754  0.2677297657985633
  0.0734018006094246  0.3411315664079808  0.4145333670174054
  0.9265981993905754  0.6588684335920192  0.5854666329825946
  0.0000000000000000  0.0000000000000000  0.0000000000000000
  0.9158514274449772  0.4774417242846738  0.3932931517296581
  0.0841485725550228  0.5225582757153262  0.6067068482703490
  0.4774417242846738  0.0841485725550228  0.5615892968396992
  0.5225582757153262  0.9158514274449772  0.4384107031603008
  0.7106456668237655  0.1315558358179771  0.2017092686240645
  0.2893543331762345  0.8684441641820229  0.7982907313759355
  0.9298465671939056  0.5089363981997010  0.7982907313759355
  0.1315558358179771  0.9298465671939056  0.4209111689942020
  0.0701534328060944  0.4910636018002990  0.2017092686240645
  0.8684441641820229  0.0701534328060944  0.5790888310057980
  0.5089363981997010  0.7106456668237655  0.5790888310057980
  0.4910636018002990  0.2893543331762345  0.4209111689942020
  0.7185106800412555  0.2608342981889606  0.9793449782302091
  0.2814893199587445  0.7391657018110394  0.0206550217697909
  0.2608342981889606  0.2814893199587445  0.5423236181477051
  0.7391657018110394  0.7185106800412555  0.4576763818522949
  0.5000000000000000  0.5000000000000000  0.0000000000000000

  0.00000000E+00  0.00000000E+00  0.00000000E+00
  0.00000000E+00  0.00000000E+00  0.00000000E+00
  0.00000000E+00  0.00000000E+00  0.00000000E+00
  0.00000000E+00  0.00000000E+00  0.00000000E+00
  0.00000000E+00  0.00000000E+00  0.00000000E+00
  0.00000000E+00  0.00000000E+00  0.00000000E+00
  0.00000000E+00  0.00000000E+00  0.00000000E+00
  0.00000000E+00  0.00000000E+00  0.00000000E+00
  0.00000000E+00  0.00000000E+00  0.00000000E+00
  0.00000000E+00  0.00000000E+00  0.00000000E+00
  0.00000000E+00  0.00000000E+00  0.00000000E+00
  0.00000000E+00  0.00000000E+00  0.00000000E+00
  0.00000000E+00  0.00000000E+00  0.00000000E+00
  0.00000000E+00  0.00000000E+00  0.00000000E+00
  0.00000000E+00  0.00000000E+00  0.00000000E+00
  0.00000000E+00  0.00000000E+00  0.00000000E+00
  0.00000000E+00  0.00000000E+00  0.00000000E+00
  0.00000000E+00  0.00000000E+00  0.00000000E+00
  0.00000000E+00  0.00000000E+00  0.00000000E+00
  0.00000000E+00  0.00000000E+00  0.00000000E+00
  0.00000000E+00  0.00000000E+00  0.00000000E+00
  0.00000000E+00  0.00000000E+00  0.00000000E+00
  0.00000000E+00  0.00000000E+00  0.00000000E+00
  0.00000000E+00  0.00000000E+00  0.00000000E+00
  0.00000000E+00  0.00000000E+00  0.00000000E+00
  0.00000000E+00  0.00000000E+00  0.00000000E+00
  0.00000000E+00  0.00000000E+00  0.00000000E+00
  0.00000000E+00  0.00000000E+00  0.00000000E+00
  0.00000000E+00  0.00000000E+00  0.00000000E+00
  0.00000000E+00  0.00000000E+00  0.00000000E+00
  0.00000000E+00  0.00000000E+00  0.00000000E+00
  0.00000000E+00  0.00000000E+00  0.00000000E+00
  0.00000000E+00  0.00000000E+00  0.00000000E+00
  0.00000000E+00  0.00000000E+00  0.00000000E+00
  0.00000000E+00  0.00000000E+00  0.00000000E+00
  0.00000000E+00  0.00000000E+00  0.00000000E+00
  0.00000000E+00  0.00000000E+00  0.00000000E+00
  0.00000000E+00  0.00000000E+00  0.00000000E+00
  0.00000000E+00  0.00000000E+00  0.00000000E+00
  0.00000000E+00  0.00000000E+00  0.00000000E+00
  0.00000000E+00  0.00000000E+00  0.00000000E+00
  0.00000000E+00  0.00000000E+00  0.00000000E+00
  0.00000000E+00  0.00000000E+00  0.00000000E+00
  0.00000000E+00  0.00000000E+00  0.00000000E+00
  0.00000000E+00  0.00000000E+00  0.00000000E+00
  0.00000000E+00  0.00000000E+00  0.00000000E+00
  0.00000000E+00  0.00000000E+00  0.00000000E+00
  0.00000000E+00  0.00000000E+00  0.00000000E+00
  0.00000000E+00  0.00000000E+00  0.00000000E+00
  0.00000000E+00  0.00000000E+00  0.00000000E+00
  0.00000000E+00  0.00000000E+00  0.00000000E+00
  0.00000000E+00  0.00000000E+00  0.00000000E+00
  0.00000000E+00  0.00000000E+00  0.00000000E+00
  0.00000000E+00  0.00000000E+00  0.00000000E+00
