Sr2 Ga2 Br10                            
   1.00000000000000     
    -7.4608899626585474   -3.8601294419506123    0.2500152792135406
     7.4221884162634897   -3.8579034562465178   -0.2715613933325498
    -5.9236673633648396    0.0243293636889285   10.1361634342434321
   Ga   Sr   Br
     2     2    10
Direct
  0.0338536789279686  0.9487069386320428  0.0630872089862464
  0.0480674087989641  0.9654699216954512  0.5619670784069939
  0.4325638908454152  0.6446520260090409  0.2148873111598419
  0.3558496419947588  0.5686418345704851  0.7140771382284754
  0.8390902781781620  0.6043797367071448  0.0715543209575813
  0.7849013994550020  0.0519766383508156  0.1276716229854600
  0.2381790504468100  0.1830921398932475  0.2141087528503292
  0.0521481411404778  0.7319443430441268  0.3439218658604233
  0.4824450115692471  0.6854990945897725  0.4677147014351775
  0.3905879492901292  0.1574285107174163  0.5716654287669769
  0.9541474071136449  0.2194236116575752  0.6197624314026271
  0.8124758375064829  0.7715098634459778  0.7183104758715331
  0.2566124467652671  0.9415348629370968  0.8426344146000773
  0.3189768579676624  0.5256404777498389  0.9683352484882306
 
  0.00000000E+00  0.00000000E+00  0.00000000E+00
  0.00000000E+00  0.00000000E+00  0.00000000E+00
  0.00000000E+00  0.00000000E+00  0.00000000E+00
  0.00000000E+00  0.00000000E+00  0.00000000E+00
  0.00000000E+00  0.00000000E+00  0.00000000E+00
  0.00000000E+00  0.00000000E+00  0.00000000E+00
  0.00000000E+00  0.00000000E+00  0.00000000E+00
  0.00000000E+00  0.00000000E+00  0.00000000E+00
  0.00000000E+00  0.00000000E+00  0.00000000E+00
  0.00000000E+00  0.00000000E+00  0.00000000E+00
  0.00000000E+00  0.00000000E+00  0.00000000E+00
  0.00000000E+00  0.00000000E+00  0.00000000E+00
  0.00000000E+00  0.00000000E+00  0.00000000E+00
  0.00000000E+00  0.00000000E+00  0.00000000E+00
