Sr2 Ga2 F10                             
   1.0000000000000000     
     3.6009219179575145    0.0000000000000000    0.0000000000000002
    -0.0000000000000005    8.0821338966786858    0.0000000000000005
     0.0000000000000000    0.0000000000000000    7.7580818209840867
   Sr   Ga   F 
     2     2    10
Direct
  0.0000000000000000  0.0000000000000000  0.5000000000000000
  0.5000000000000000  0.5000000000000000  0.0000000000000000
  0.5000000000000000  0.0000000000000000  0.0000000000000000
  0.0000000000000000  0.5000000000000000  0.5000000000000000
  0.5000000000000000  0.8002327281346595  0.5000000000000000
  0.5000000000000000  0.1997672718653405  0.5000000000000000
  0.5000000000000000  0.0000000000000000  0.2300261241520971
  0.5000000000000000  0.0000000000000000  0.7699738758479029
  0.0000000000000000  0.0000000000000000  0.0000000000000000
  0.0000000000000000  0.3002327281346595  0.0000000000000000
  0.0000000000000000  0.6997672718653405  0.0000000000000000
  0.0000000000000000  0.5000000000000000  0.7300261241520971
  0.0000000000000000  0.5000000000000000  0.2699738758479029
  0.5000000000000000  0.5000000000000000  0.5000000000000000

  0.00000000E+00  0.00000000E+00  0.00000000E+00
  0.00000000E+00  0.00000000E+00  0.00000000E+00
  0.00000000E+00  0.00000000E+00  0.00000000E+00
  0.00000000E+00  0.00000000E+00  0.00000000E+00
  0.00000000E+00  0.00000000E+00  0.00000000E+00
  0.00000000E+00  0.00000000E+00  0.00000000E+00
  0.00000000E+00  0.00000000E+00  0.00000000E+00
  0.00000000E+00  0.00000000E+00  0.00000000E+00
  0.00000000E+00  0.00000000E+00  0.00000000E+00
  0.00000000E+00  0.00000000E+00  0.00000000E+00
  0.00000000E+00  0.00000000E+00  0.00000000E+00
  0.00000000E+00  0.00000000E+00  0.00000000E+00
  0.00000000E+00  0.00000000E+00  0.00000000E+00
  0.00000000E+00  0.00000000E+00  0.00000000E+00
