Ba17 B12                                
   1.00000000000000     
    -6.7245807466412613   -6.7245807466412613    6.6965234895451848
    -6.7245807466412613    6.6965234895451857   -6.7245807466412613
     6.6965234895451848   -6.7245807466412613   -6.7245807466412613
   B    Ba
    12    17
Direct
  0.3905010522834687  0.1668086796339523  0.0787429824581949
  0.1668086796339523  0.3905010522834687  0.0787429824581949
  0.9983211690595652  0.9983211690595652  0.2787721272894856
  0.3905010522834687  0.0787429824581949  0.1668086796339523
  0.0787429824581949  0.3905010522834687  0.1668086796339523
  0.1668086796339523  0.0787429824581949  0.3905010522834687
  0.0787429824581949  0.1668086796339523  0.3905010522834687
  0.5335846222736649  0.4462041051995413  0.4462041051995413
  0.4462041051995413  0.5335846222736649  0.4462041051995413
  0.9983211690595652  0.2787721272894856  0.9983211690595652
  0.2787721272894856  0.9983211690595652  0.9983211690595652
  0.4462041051995413  0.4462041051995413  0.5335846222736649
  0.7091493024525164  0.7091493024525164  0.7091493024525164
  0.8476271354155003  0.0958457551278471  0.0958457551278471
  0.8238388776987051  0.4096188238154355  0.0328312142839167
  0.0958457551278471  0.8476271354155003  0.0958457551278471
  0.4096188238154355  0.8238388776987051  0.0328312142839167
  0.4941412641949867  0.4941412641949867  0.1901244708343910
  0.6861223932874410  0.3242063750031008  0.3242063750031008
  0.3242063750031008  0.6861223932874410  0.3242063750031008
  0.2324993509295439  0.2324993509295439  0.2324993509295439
  0.8238388776987051  0.0328312142839167  0.4096188238154355
  0.0328312142839167  0.8238388776987051  0.4096188238154355
  0.4941412641949867  0.1901244708343910  0.4941412641949867
  0.1901244708343910  0.4941412641949867  0.4941412641949867
  0.0958457551278471  0.0958457551278471  0.8476271354155003
  0.4096188238154355  0.0328312142839167  0.8238388776987051
  0.0328312142839167  0.4096188238154355  0.8238388776987051
  0.3242063750031008  0.3242063750031008  0.6861223932874410
 
  0.00000000E+00  0.00000000E+00  0.00000000E+00
  0.00000000E+00  0.00000000E+00  0.00000000E+00
  0.00000000E+00  0.00000000E+00  0.00000000E+00
  0.00000000E+00  0.00000000E+00  0.00000000E+00
  0.00000000E+00  0.00000000E+00  0.00000000E+00
  0.00000000E+00  0.00000000E+00  0.00000000E+00
  0.00000000E+00  0.00000000E+00  0.00000000E+00
  0.00000000E+00  0.00000000E+00  0.00000000E+00
  0.00000000E+00  0.00000000E+00  0.00000000E+00
  0.00000000E+00  0.00000000E+00  0.00000000E+00
  0.00000000E+00  0.00000000E+00  0.00000000E+00
  0.00000000E+00  0.00000000E+00  0.00000000E+00
  0.00000000E+00  0.00000000E+00  0.00000000E+00
  0.00000000E+00  0.00000000E+00  0.00000000E+00
  0.00000000E+00  0.00000000E+00  0.00000000E+00
  0.00000000E+00  0.00000000E+00  0.00000000E+00
  0.00000000E+00  0.00000000E+00  0.00000000E+00
  0.00000000E+00  0.00000000E+00  0.00000000E+00
  0.00000000E+00  0.00000000E+00  0.00000000E+00
  0.00000000E+00  0.00000000E+00  0.00000000E+00
  0.00000000E+00  0.00000000E+00  0.00000000E+00
  0.00000000E+00  0.00000000E+00  0.00000000E+00
  0.00000000E+00  0.00000000E+00  0.00000000E+00
  0.00000000E+00  0.00000000E+00  0.00000000E+00
  0.00000000E+00  0.00000000E+00  0.00000000E+00
  0.00000000E+00  0.00000000E+00  0.00000000E+00
  0.00000000E+00  0.00000000E+00  0.00000000E+00
  0.00000000E+00  0.00000000E+00  0.00000000E+00
  0.00000000E+00  0.00000000E+00  0.00000000E+00
