Ba9 Tl4                                 
   1.0000000000000000     
    -7.0375154845287629    7.0695198804773947    2.9847175253147991
     7.0527362960079891   -7.0620998236821482    3.0030688662980403
     7.1880770524934743    7.2131558829820053   -2.9668110331172879
   Tl   Ba
     4     9
Direct
  0.4048351384508493  0.7373841944924564  0.1487920119885260
  0.7381244221694274  0.6015681332649905  0.3366620530141518
  0.2619333433194555  0.3984810664012457  0.6634269743280825
  0.5951041203812082  0.2625826788538106  0.8512620911868467
  0.4999999521743135  0.5000132004844104  0.0000539332665923
  0.1843062244811833  0.8807435493035527  0.0699672724022662
  0.8786486557915225  0.3898403612212746  0.2713507226477532
  0.1133425281269993  0.1875995438087799  0.2959120461628473
  0.6159489992088893  0.8778540357872444  0.4930628593000179
  0.3840896536544491  0.1221436801151796  0.5069837181265626
  0.8867311335483663  0.8124539928622809  0.7041805564642587
  0.1213073359296430  0.6101196771190303  0.7286709082036609
  0.8156284927636861  0.1192158862857653  0.9300748529084473

  0.00000000E+00  0.00000000E+00  0.00000000E+00
  0.00000000E+00  0.00000000E+00  0.00000000E+00
  0.00000000E+00  0.00000000E+00  0.00000000E+00
  0.00000000E+00  0.00000000E+00  0.00000000E+00
  0.00000000E+00  0.00000000E+00  0.00000000E+00
  0.00000000E+00  0.00000000E+00  0.00000000E+00
  0.00000000E+00  0.00000000E+00  0.00000000E+00
  0.00000000E+00  0.00000000E+00  0.00000000E+00
  0.00000000E+00  0.00000000E+00  0.00000000E+00
  0.00000000E+00  0.00000000E+00  0.00000000E+00
  0.00000000E+00  0.00000000E+00  0.00000000E+00
  0.00000000E+00  0.00000000E+00  0.00000000E+00
  0.00000000E+00  0.00000000E+00  0.00000000E+00
