Be2In                                   
   1.00000000000000     
     3.9175736050384353    2.2619696257593498    6.3966460404420138
    -3.9175736050384353    2.2619696257593498    6.3966460404420138
     0.0000000000000000   -4.5232030922391466    6.3967400926310756
   Be   In
     4     2
Direct
  0.8749999916840068  0.3749999960108141  0.3749999725540434
  0.3749999960108141  0.8749999916840068  0.3749999725540434
  0.3749999864236528  0.3749999864236528  0.3750000483757390
  0.3749999797342127  0.3749999797342127  0.8750000690516018
  0.2499958109674409  0.2499958109674409  0.2500130892564840
  0.5000042351798726  0.5000042351798726  0.4999868482080885
 
  0.00000000E+00  0.00000000E+00  0.00000000E+00
  0.00000000E+00  0.00000000E+00  0.00000000E+00
  0.00000000E+00  0.00000000E+00  0.00000000E+00
  0.00000000E+00  0.00000000E+00  0.00000000E+00
  0.00000000E+00  0.00000000E+00  0.00000000E+00
  0.00000000E+00  0.00000000E+00  0.00000000E+00
