Ba3 Al4                                 
   1.00000000000000     
     2.9112318116163602    0.9612460212775076    8.1317522589404714
    -2.9112318116163611    0.9612460212775075    8.1317522589404714
    -0.0000000000000002   -4.1275204546731521    8.5194544684466003
   Al   Ba
     4     3
Direct
  0.1479271479638697  0.1479271479638697  0.2714683175545076
  0.2848799688154884  0.2848799688154884  0.3194635958996912
  0.7199936010863439  0.7199936010863439  0.6854797076371142
  0.8570094220942153  0.8570094220942153  0.7333736051851716
  0.0023423322220424  0.0023423322220424  0.0024209599485800
  0.4787118212206565  0.4787118212206565  0.3445269235525714
  0.5261957065973917  0.5261957065973917  0.6603268902223576
 
  0.00000000E+00  0.00000000E+00  0.00000000E+00
  0.00000000E+00  0.00000000E+00  0.00000000E+00
  0.00000000E+00  0.00000000E+00  0.00000000E+00
  0.00000000E+00  0.00000000E+00  0.00000000E+00
  0.00000000E+00  0.00000000E+00  0.00000000E+00
  0.00000000E+00  0.00000000E+00  0.00000000E+00
  0.00000000E+00  0.00000000E+00  0.00000000E+00
