Sr4 Ga2                                 
   1.00000000000000     
     4.9285191473931826    2.8448969146829040    8.0485075194733433
    -4.9285191473931826    2.8448969146829040    8.0485075194733433
    -0.0000000000000001   -5.6915641915622741    8.0487881879847176
   Ga   Sr
     2     4
Direct
  0.2499992760268057  0.2499992760268057  0.2500007239743951
  0.5000007239731943  0.5000007239731943  0.4999992760256049
  0.3750000000000000  0.3750000000000000  0.3750000000000000
  0.8750000000000000  0.3750000000000000  0.3750000000000000
  0.3750000000000000  0.8750000000000000  0.3750000000000000
  0.3750000000000000  0.3750000000000000  0.8750000000000000
 
  0.00000000E+00  0.00000000E+00  0.00000000E+00
  0.00000000E+00  0.00000000E+00  0.00000000E+00
  0.00000000E+00  0.00000000E+00  0.00000000E+00
  0.00000000E+00  0.00000000E+00  0.00000000E+00
  0.00000000E+00  0.00000000E+00  0.00000000E+00
  0.00000000E+00  0.00000000E+00  0.00000000E+00
