Al3F                                    
   1.00000000000000     
     0.0000000000000000    3.1419946478506353    3.1419946478506353
     3.1419946478506353    0.0000000000000000    3.1419946478506353
     3.1419946478506353    3.1419946478506353    0.0000000000000000
   Al   F 
     3     1
Direct
  0.0000000000000000  0.0000000000000000  0.0000000000000000
  0.2500000000000000  0.2500000000000000  0.2500000000000000
  0.5000000000000000  0.5000000000000000  0.5000000000000000
  0.7500000000000000  0.7500000000000000  0.7500000000000000
 
  0.00000000E+00  0.00000000E+00  0.00000000E+00
  0.00000000E+00  0.00000000E+00  0.00000000E+00
  0.00000000E+00  0.00000000E+00  0.00000000E+00
  0.00000000E+00  0.00000000E+00  0.00000000E+00
