Ca2 In2 I10                             
   1.00000000000000     
     7.3967538433479705   -4.2924595690932543   -0.1586181227558473
     7.3967538433479705    4.2924595690932543   -0.1586181227558473
    -5.3077548180888208    0.0000000000000000   10.8491442072826860
   Ca   I    In
     2    10     2
Direct
  0.5142974207274662  0.4667692655081055  0.2462605963581126
  0.4667692655081055  0.5142974207274662  0.7462605963581126
  0.3991189682065865  0.1776519872379012  0.9694145187416225
  0.5528557148578770  0.1862773628008583  0.3637272216044067
  0.1642442215645090  0.8152262800476535  0.2447420310883288
  0.7805570453537314  0.4473588576324161  0.1252089557283185
  0.8193814229791840  0.5762302364485450  0.5263176531672116
  0.1776519872379012  0.3991189682065865  0.4694145187416225
  0.1862773628008583  0.5528557148578770  0.8637272216044067
  0.8152262800476535  0.1642442215645090  0.7447420310883288
  0.4473588576324161  0.7805570453537314  0.6252089557283185
  0.5762302364485450  0.8193814229791840  0.0263176531672116
  0.0996182044443614  0.0000130121907773  0.0243290233119922
  0.0000130121907773  0.0996182044443614  0.5243290233119922
 
  0.00000000E+00  0.00000000E+00  0.00000000E+00
  0.00000000E+00  0.00000000E+00  0.00000000E+00
  0.00000000E+00  0.00000000E+00  0.00000000E+00
  0.00000000E+00  0.00000000E+00  0.00000000E+00
  0.00000000E+00  0.00000000E+00  0.00000000E+00
  0.00000000E+00  0.00000000E+00  0.00000000E+00
  0.00000000E+00  0.00000000E+00  0.00000000E+00
  0.00000000E+00  0.00000000E+00  0.00000000E+00
  0.00000000E+00  0.00000000E+00  0.00000000E+00
  0.00000000E+00  0.00000000E+00  0.00000000E+00
  0.00000000E+00  0.00000000E+00  0.00000000E+00
  0.00000000E+00  0.00000000E+00  0.00000000E+00
  0.00000000E+00  0.00000000E+00  0.00000000E+00
  0.00000000E+00  0.00000000E+00  0.00000000E+00
