Sr1 Tl2 F8                              
   1.0000000000000000     
     3.2775323412861725    7.5379593603864388    1.6491605352841612
    -3.2775323412861725    7.5379593603864388    1.6491605352841612
     0.0000000000000000    3.1906299283824326    4.0049730065720190
   Sr   Tl   F 
     1     2     8
Direct
  0.0000000000000000  0.0000000000000000  0.0000000000000000
  0.3209992105084183  0.3209992105084183  0.8210263748382332
  0.6790007894915888  0.6790007894915888  0.1789736251617668
  0.6022477421190899  0.0290305393053387  0.6011121076788939
  0.8778904704257400  0.8778904704257400  0.8903030034872259
  0.0290305393053387  0.6022477421190899  0.6011121076788939
  0.4573743418945355  0.4573743418945355  0.8421222388935234
  0.9709694606946684  0.3977522578809101  0.3988878923211132
  0.3977522578809101  0.9709694606946684  0.3988878923211132
  0.1221095295742600  0.1221095295742600  0.1096969965127812
  0.5426256581054645  0.5426256581054645  0.1578777611064766

  0.00000000E+00  0.00000000E+00  0.00000000E+00
  0.00000000E+00  0.00000000E+00  0.00000000E+00
  0.00000000E+00  0.00000000E+00  0.00000000E+00
  0.00000000E+00  0.00000000E+00  0.00000000E+00
  0.00000000E+00  0.00000000E+00  0.00000000E+00
  0.00000000E+00  0.00000000E+00  0.00000000E+00
  0.00000000E+00  0.00000000E+00  0.00000000E+00
  0.00000000E+00  0.00000000E+00  0.00000000E+00
  0.00000000E+00  0.00000000E+00  0.00000000E+00
  0.00000000E+00  0.00000000E+00  0.00000000E+00
  0.00000000E+00  0.00000000E+00  0.00000000E+00
