Ba2 Al2 I10                             
   1.0000000000000000     
     5.4497072196188192   -0.0000000000000002    0.0000000000000005
    -0.0000000000000009   13.6366281803661593    0.0000000000000007
     0.0000000000000002   -0.0000000000000001   11.9330463984569679
   Ba   Al   I 
     2     2    10
Direct
  0.0000000000000000  0.0000000000000000  0.5000000000000000
  0.5000000000000000  0.5000000000000000  0.0000000000000000
  0.5000000000000000  0.0000000000000000  0.0000000000000000
  0.0000000000000000  0.5000000000000000  0.5000000000000000
  0.5000000000000000  0.8419111475686307  0.5000000000000000
  0.5000000000000000  0.1580888524313693  0.5000000000000000
  0.5000000000000000  0.0000000000000000  0.2139342557102992
  0.5000000000000000  0.0000000000000000  0.7860657442897008
  0.0000000000000000  0.0000000000000000  0.0000000000000000
  0.0000000000000000  0.3419111475686307  0.0000000000000000
  0.0000000000000000  0.6580888524313693  0.0000000000000000
  0.0000000000000000  0.5000000000000000  0.7139342557102921
  0.0000000000000000  0.5000000000000000  0.2860657442897008
  0.5000000000000000  0.5000000000000000  0.5000000000000000

  0.00000000E+00  0.00000000E+00  0.00000000E+00
  0.00000000E+00  0.00000000E+00  0.00000000E+00
  0.00000000E+00  0.00000000E+00  0.00000000E+00
  0.00000000E+00  0.00000000E+00  0.00000000E+00
  0.00000000E+00  0.00000000E+00  0.00000000E+00
  0.00000000E+00  0.00000000E+00  0.00000000E+00
  0.00000000E+00  0.00000000E+00  0.00000000E+00
  0.00000000E+00  0.00000000E+00  0.00000000E+00
  0.00000000E+00  0.00000000E+00  0.00000000E+00
  0.00000000E+00  0.00000000E+00  0.00000000E+00
  0.00000000E+00  0.00000000E+00  0.00000000E+00
  0.00000000E+00  0.00000000E+00  0.00000000E+00
  0.00000000E+00  0.00000000E+00  0.00000000E+00
  0.00000000E+00  0.00000000E+00  0.00000000E+00
