Ca2F                                    
   1.00000000000000     
     6.2736031726477819    0.0000000000000000    0.0000000000000000
     0.0000000000000000    6.2736031726477819    0.0000000000000000
     0.0000000000000000    0.0000000000000000    4.0292620049920425
   Ca   F 
     4     2
Direct
  0.2534924155691058  0.2534924155691058  0.0000000000000000
  0.7465075844308942  0.7465075844308942  0.0000000000000000
  0.7534924155691058  0.2465075844308942  0.5000000000000000
  0.2465075844308942  0.7534924155691058  0.5000000000000000
  0.0000000000000000  0.0000000000000000  0.0000000000000000
  0.5000000000000000  0.5000000000000000  0.5000000000000000
 
  0.00000000E+00  0.00000000E+00  0.00000000E+00
  0.00000000E+00  0.00000000E+00  0.00000000E+00
  0.00000000E+00  0.00000000E+00  0.00000000E+00
  0.00000000E+00  0.00000000E+00  0.00000000E+00
  0.00000000E+00  0.00000000E+00  0.00000000E+00
  0.00000000E+00  0.00000000E+00  0.00000000E+00
