Al1 I6                                  
   1.00000000000000     
     4.4900216564765456    5.1482114949657038    5.6896607244903104
    -3.8687923372253246    3.6134598892198775    6.3629350052844087
    -1.3612072092861711   -7.2325427670814655    5.8929125421694240
   I    Al
     6     1
Direct
  0.8703979254019458  0.3185476909590648  0.9362195981715473
  0.5708631385022116  0.0469233297810163  0.1799179661284995
  0.8468029561067496  0.9542869142436103  0.4249873920197942
  0.0930083044148944  0.0395154781604461  0.6116432928200979
  0.4185706654951957  0.9449983411202894  0.9241537258266490
  0.1071741273183378  0.6949372464225050  0.0250574878232683
  0.0935828827606784  0.0011909993130743  0.8984205372101428
 
  0.00000000E+00  0.00000000E+00  0.00000000E+00
  0.00000000E+00  0.00000000E+00  0.00000000E+00
  0.00000000E+00  0.00000000E+00  0.00000000E+00
  0.00000000E+00  0.00000000E+00  0.00000000E+00
  0.00000000E+00  0.00000000E+00  0.00000000E+00
  0.00000000E+00  0.00000000E+00  0.00000000E+00
  0.00000000E+00  0.00000000E+00  0.00000000E+00
