Sr1 B1 F3                               
   1.00000000000000     
     4.4751142483849025    0.0000000000000000    0.0000000000000000
     0.0000000000000000    4.4751142483849025    0.0000000000000000
     0.0000000000000000    0.0000000000000000    4.7078978965522840
   F    Sr   B 
     3     1     1
Direct
  0.0000000000000000  0.0000000000000000  0.0234187522350666
  0.5000000000000000  0.0000000000000000  0.6532365635794903
  0.0000000000000000  0.5000000000000000  0.6532365635794903
  0.0000000000000000  0.0000000000000000  0.5053443449967361
  0.5000000000000000  0.5000000000000000  0.8060637756092390
 
  0.00000000E+00  0.00000000E+00  0.00000000E+00
  0.00000000E+00  0.00000000E+00  0.00000000E+00
  0.00000000E+00  0.00000000E+00  0.00000000E+00
  0.00000000E+00  0.00000000E+00  0.00000000E+00
  0.00000000E+00  0.00000000E+00  0.00000000E+00
