Be4 Ga8 Cl32                            
   1.00000000000000     
    -5.6402105726914611    5.6402105726914611   10.4327643284512561
     5.6402105726914611   -5.6402105726914611   10.4327643284512561
     5.6402105726914611    5.6402105726914611  -10.4327643284512561
   Be   Ga   Cl
     4     8    32
Direct
  0.0000000000000000  0.0000000000000000  0.0000000000000000
  0.7500000000000000  0.2500000000000000  0.5000000000000000
  0.2500000000000000  0.7500000000000000  0.5000000000000000
  0.5000000000000000  0.5000000000000000  0.0000000000000000
  0.5556376536946175  0.8750000000000000  0.1806376536946175
  0.1250000000000000  0.8056376536946175  0.1806376536946175
  0.1250000000000000  0.3056376536946175  0.6806376536946175
  0.6943623463053825  0.3750000000000000  0.8193623463053825
  0.6250000000000000  0.9443623463053825  0.8193623463053825
  0.0556376536946175  0.8750000000000000  0.6806376536946175
  0.1943623463053825  0.3750000000000000  0.3193623463053825
  0.6250000000000000  0.4443623463053825  0.3193623463053825
  0.6441792392029697  0.2470694607011055  0.2946716644958371
  0.0995075747071326  0.8941792392029697  0.8971097785018713
  0.7976022037947459  0.9004924252928674  0.7946716644958371
  0.3223527553391250  0.2704082666529217  0.2556517151430739
  0.8223527553391250  0.5667010401960439  0.0519454886862007
  0.8167010401960439  0.5723527553391250  0.5519454886862007
  0.1058207607970303  0.0029305392988945  0.2053283355041629
  0.9970694607011055  0.2023977962052541  0.1028902214981287
  0.4523977962052541  0.7470694607011055  0.6028902214981287
  0.2295917333470783  0.1776472446608750  0.7443482848569261
  0.0147555515098432  0.0667010401960439  0.7443482848569261
  0.9276472446608750  0.6832989598039561  0.4480545113137993
  0.9332989598039561  0.6776472446608750  0.9480545113137993
  0.1504924252928674  0.5476022037947459  0.2946716644958371
  0.2976022037947459  0.5029305392988945  0.8971097785018713
  0.5995075747071326  0.7023977962052541  0.2053283355041629
  0.7352444484901568  0.1832989598039561  0.7556517151430739
  0.2529305392988945  0.8558207607970303  0.7053283355041629
  0.4970694607011055  0.3941792392029697  0.7946716644958371
  0.9523977962052541  0.3495075747071326  0.7053283355041629
  0.3167010401960439  0.7647555515098432  0.2443482848569261
  0.4332989598039561  0.4852444484901568  0.2556517151430739
  0.6504924252928674  0.3558207607970303  0.6028902214981287
  0.6058207607970303  0.4004924252928674  0.1028902214981287
  0.2352444484901568  0.4795917333470783  0.5519454886862007
  0.4276472446608750  0.9795917333470783  0.2443482848569261
  0.1441792392029697  0.8495075747071326  0.3971097785018713
  0.5204082666529217  0.0723527553391250  0.7556517151430739
  0.5147555515098432  0.7704082666529217  0.9480545113137993
  0.0204082666529217  0.2647555515098432  0.4480545113137993
  0.7529305392988945  0.0476022037947459  0.3971097785018713
  0.7295917333470783  0.9852444484901568  0.0519454886862007
 
  0.00000000E+00  0.00000000E+00  0.00000000E+00
  0.00000000E+00  0.00000000E+00  0.00000000E+00
  0.00000000E+00  0.00000000E+00  0.00000000E+00
  0.00000000E+00  0.00000000E+00  0.00000000E+00
  0.00000000E+00  0.00000000E+00  0.00000000E+00
  0.00000000E+00  0.00000000E+00  0.00000000E+00
  0.00000000E+00  0.00000000E+00  0.00000000E+00
  0.00000000E+00  0.00000000E+00  0.00000000E+00
  0.00000000E+00  0.00000000E+00  0.00000000E+00
  0.00000000E+00  0.00000000E+00  0.00000000E+00
  0.00000000E+00  0.00000000E+00  0.00000000E+00
  0.00000000E+00  0.00000000E+00  0.00000000E+00
  0.00000000E+00  0.00000000E+00  0.00000000E+00
  0.00000000E+00  0.00000000E+00  0.00000000E+00
  0.00000000E+00  0.00000000E+00  0.00000000E+00
  0.00000000E+00  0.00000000E+00  0.00000000E+00
  0.00000000E+00  0.00000000E+00  0.00000000E+00
  0.00000000E+00  0.00000000E+00  0.00000000E+00
  0.00000000E+00  0.00000000E+00  0.00000000E+00
  0.00000000E+00  0.00000000E+00  0.00000000E+00
  0.00000000E+00  0.00000000E+00  0.00000000E+00
  0.00000000E+00  0.00000000E+00  0.00000000E+00
  0.00000000E+00  0.00000000E+00  0.00000000E+00
  0.00000000E+00  0.00000000E+00  0.00000000E+00
  0.00000000E+00  0.00000000E+00  0.00000000E+00
  0.00000000E+00  0.00000000E+00  0.00000000E+00
  0.00000000E+00  0.00000000E+00  0.00000000E+00
  0.00000000E+00  0.00000000E+00  0.00000000E+00
  0.00000000E+00  0.00000000E+00  0.00000000E+00
  0.00000000E+00  0.00000000E+00  0.00000000E+00
  0.00000000E+00  0.00000000E+00  0.00000000E+00
  0.00000000E+00  0.00000000E+00  0.00000000E+00
  0.00000000E+00  0.00000000E+00  0.00000000E+00
  0.00000000E+00  0.00000000E+00  0.00000000E+00
  0.00000000E+00  0.00000000E+00  0.00000000E+00
  0.00000000E+00  0.00000000E+00  0.00000000E+00
  0.00000000E+00  0.00000000E+00  0.00000000E+00
  0.00000000E+00  0.00000000E+00  0.00000000E+00
  0.00000000E+00  0.00000000E+00  0.00000000E+00
  0.00000000E+00  0.00000000E+00  0.00000000E+00
  0.00000000E+00  0.00000000E+00  0.00000000E+00
  0.00000000E+00  0.00000000E+00  0.00000000E+00
  0.00000000E+00  0.00000000E+00  0.00000000E+00
  0.00000000E+00  0.00000000E+00  0.00000000E+00
