Sr1 In13                                
   1.0000000000000000     
     6.6725199931804964   -4.6743989886979787    0.0128743801039550
     6.6725199931804964    4.6743989886979787    0.0128743801039550
    -1.2912759981919721    0.0000000000000000    6.4507975197789840
   Sr   In
     1    13
Direct
  0.0000084194894256  0.0000084194894256  0.0000105182859755
  0.7734229177216250  0.7734229177216250  0.1407416025493333
  0.5999805483502882  0.2281096058618388  0.1809034386238437
  0.2281096058618388  0.5999805483502882  0.1809034386238437
  0.9922271927746280  0.3658167596354218  0.3133677439176950
  0.3658167596354218  0.9922271927746280  0.3133677439176950
  0.6055862847254119  0.6055862847254119  0.4071605956334778
  0.0000945167759525  0.0000945167759525  0.5001048380813415
  0.3942916736730382  0.3942916736730382  0.5926822734931534
  0.6341904196468136  0.0077174924516328  0.6866022633569955
  0.0077174924516328  0.6341904196468136  0.6866022633569955
  0.7718318443203742  0.3999565874829116  0.8190680448247960
  0.3999565874829116  0.7718318443203742  0.8190680448247960
  0.2266547370906551  0.2266547370906551  0.8594171905100723

  0.00000000E+00  0.00000000E+00  0.00000000E+00
  0.00000000E+00  0.00000000E+00  0.00000000E+00
  0.00000000E+00  0.00000000E+00  0.00000000E+00
  0.00000000E+00  0.00000000E+00  0.00000000E+00
  0.00000000E+00  0.00000000E+00  0.00000000E+00
  0.00000000E+00  0.00000000E+00  0.00000000E+00
  0.00000000E+00  0.00000000E+00  0.00000000E+00
  0.00000000E+00  0.00000000E+00  0.00000000E+00
  0.00000000E+00  0.00000000E+00  0.00000000E+00
  0.00000000E+00  0.00000000E+00  0.00000000E+00
  0.00000000E+00  0.00000000E+00  0.00000000E+00
  0.00000000E+00  0.00000000E+00  0.00000000E+00
  0.00000000E+00  0.00000000E+00  0.00000000E+00
  0.00000000E+00  0.00000000E+00  0.00000000E+00
