Ba4 Tl10                                
   1.0000000000000000     
     5.4206716420132146    5.4206716420132146   -4.4760299463251023
     5.4206716420132146   -5.4206716420132146    4.4760299463251023
    -5.4206716420132146   -5.4206716420132146   -4.4760299463251023
   Tl   Ba
    10     4
Direct
  0.8168296186867110  0.3083402449414052  0.1251698636281091
  0.4915106262546871  0.3083402449414052  0.1831703813132890
  0.8748301363718838  0.6916597550585948  0.1831703813132890
  0.2600681988817470  0.0000000000000000  0.2600681988817470
  0.1831703813132890  0.3083402449414052  0.4915106262546871
  0.8168296186867110  0.6916597550585948  0.5084893737453129
  0.7399318011182530  0.0000000000000000  0.7399318011182530
  0.1251698636281091  0.3083402449414052  0.8168296186867110
  0.5084893737453129  0.6916597550585948  0.8168296186867110
  0.1831703813132890  0.6916597550585948  0.8748301363718838
  0.7070880654798017  0.0000000000000000  0.2929119345201983
  0.2929119345201983  0.5858238690404107  0.2929119345201983
  0.2929119345201983  0.0000000000000000  0.7070880654798017
  0.7070880654798017  0.4141761309595893  0.7070880654798017

  0.00000000E+00  0.00000000E+00  0.00000000E+00
  0.00000000E+00  0.00000000E+00  0.00000000E+00
  0.00000000E+00  0.00000000E+00  0.00000000E+00
  0.00000000E+00  0.00000000E+00  0.00000000E+00
  0.00000000E+00  0.00000000E+00  0.00000000E+00
  0.00000000E+00  0.00000000E+00  0.00000000E+00
  0.00000000E+00  0.00000000E+00  0.00000000E+00
  0.00000000E+00  0.00000000E+00  0.00000000E+00
  0.00000000E+00  0.00000000E+00  0.00000000E+00
  0.00000000E+00  0.00000000E+00  0.00000000E+00
  0.00000000E+00  0.00000000E+00  0.00000000E+00
  0.00000000E+00  0.00000000E+00  0.00000000E+00
  0.00000000E+00  0.00000000E+00  0.00000000E+00
  0.00000000E+00  0.00000000E+00  0.00000000E+00
