Be4 Tl4 Br2                             
   1.0000000000000000     
     5.7991513152797420    1.6574453215295639   -0.0021746733422210
    -1.3016399276454544    3.8671824762703935   -0.0009255882817585
     0.0286423267065225   -0.0221858766911462   10.0003516626251887
   Tl   Be   Br
     4     4     2
Direct
  0.2492688336884044  0.5373313017768879  0.0937424168739867
  0.2503439114295958  0.5320644424143097  0.4057373082726841
  0.7497326712269370  0.4679327761779604  0.5942509775837408
  0.7507726191534445  0.4626732214962388  0.9061237554043018
  0.8763571175321943  0.9587600103240348  0.0655791623339326
  0.8776933824041464  0.9571722964085154  0.4336989905011563
  0.1221935296559167  0.0427923967698050  0.5662837739454147
  0.1234792009124703  0.0412481554064499  0.9342574821474443
  0.7120352274798094  0.0634195042192189  0.2502942105807620
  0.2881235065170742  0.9366058950065863  0.7496259223565858

  0.00000000E+00  0.00000000E+00  0.00000000E+00
  0.00000000E+00  0.00000000E+00  0.00000000E+00
  0.00000000E+00  0.00000000E+00  0.00000000E+00
  0.00000000E+00  0.00000000E+00  0.00000000E+00
  0.00000000E+00  0.00000000E+00  0.00000000E+00
  0.00000000E+00  0.00000000E+00  0.00000000E+00
  0.00000000E+00  0.00000000E+00  0.00000000E+00
  0.00000000E+00  0.00000000E+00  0.00000000E+00
  0.00000000E+00  0.00000000E+00  0.00000000E+00
  0.00000000E+00  0.00000000E+00  0.00000000E+00
