Ca1 Ga2 Cl10                            
   1.00000000000000     
     4.4067172474037637    5.2418913079939342    1.1455593766944756
    -4.4067172474037628    5.2418913079939342    1.1455593766944756
     0.0000000000000000    5.3597154894104726   10.4054845443235973
   Ca   Ga   Cl
     1     2    10
Direct
  0.6780917716409434  0.3219082283590566  0.0000000000000000
  0.9210654211356371  0.0950069448952675  0.6785422404984089
  0.9049930551047325  0.0789345788643629  0.3214577595015982
  0.2226480922338467  0.2886702207087879  0.5663334853978910
  0.7113297792912121  0.7773519077661533  0.4336665146021090
  0.9604564795602357  0.7329065940073107  0.7666567999999074
  0.2670934059926893  0.0395435204397643  0.2333432000000926
  0.9606284296543492  0.0393715703456579  0.0000000000000000
  0.8044325150217233  0.1955674849782696  0.5000000000000000
  0.6162010458051412  0.2037723395138116  0.8180900838419376
  0.7962276604861884  0.3837989541948588  0.1819099161580695
  0.3551575763329353  0.6543262322596277  0.9115421980865150
  0.3456737677403723  0.6448424236670647  0.0884578019134850
 
  0.00000000E+00  0.00000000E+00  0.00000000E+00
  0.00000000E+00  0.00000000E+00  0.00000000E+00
  0.00000000E+00  0.00000000E+00  0.00000000E+00
  0.00000000E+00  0.00000000E+00  0.00000000E+00
  0.00000000E+00  0.00000000E+00  0.00000000E+00
  0.00000000E+00  0.00000000E+00  0.00000000E+00
  0.00000000E+00  0.00000000E+00  0.00000000E+00
  0.00000000E+00  0.00000000E+00  0.00000000E+00
  0.00000000E+00  0.00000000E+00  0.00000000E+00
  0.00000000E+00  0.00000000E+00  0.00000000E+00
  0.00000000E+00  0.00000000E+00  0.00000000E+00
  0.00000000E+00  0.00000000E+00  0.00000000E+00
  0.00000000E+00  0.00000000E+00  0.00000000E+00
