Mg2 Al22                                
   1.00000000000000     
    -5.3171694622647001    5.1793826539335939    3.5574185862351371
     5.1791235177801038   -5.3173308715859875    3.5572764473048508
     5.9699809860492854    5.9701591853022231   -3.7754703964460710
   Al   Mg
    22     2
Direct
  0.4991185812677656  0.5008849042705776  0.0000211678440110
  0.4949099170045912  0.1717036533477625  0.0572413678424795
  0.5584889942637972  0.8835070098720692  0.0661825610537221
  0.9280485548821318  0.3276732193615004  0.1730095012611059
  0.2623105391534821  0.8656397691564237  0.1847219727947476
  0.3750042781027290  0.6249884163919219  0.2500197808305558
  0.8750125617452156  0.6249808949619506  0.2500141106278235
  0.4876948823120770  0.3843226422640100  0.3153002092606911
  0.8219623594181726  0.9222827001480027  0.3270186592334525
  0.1915264312793283  0.3664535730108298  0.4338496148536777
  0.2550936567883255  0.0782584197247616  0.4427958306225648
  0.2509007093952178  0.7490795561737968  0.5000182544601444
  0.9217380287410037  0.7449039743550188  0.5572430324384214
  0.6335325141658501  0.8084628294782590  0.5661778128903663
  0.0776965215765202  0.1780192092045425  0.6730169908427470
  0.6156705482753466  0.5122927245566657  0.6847327938241889
  0.3750088952475750  0.1249820293320951  0.7500211932900456
  0.3750106855903184  0.6249891001469976  0.7500180574426096
  0.6723252993552435  0.0719556603978901  0.8270228459264146
  0.1343514994413795  0.7376793182968271  0.8153059678128756
  0.1164899103628798  0.4415037769212233  0.9338606541825740
  0.8282825684220541  0.5050783497902387  0.9427857376288458
  0.9967001874738912  0.0032906662173602  0.0000109125910654
  0.7533218757350966  0.2466676026192687  0.5000109704448761
 
  0.00000000E+00  0.00000000E+00  0.00000000E+00
  0.00000000E+00  0.00000000E+00  0.00000000E+00
  0.00000000E+00  0.00000000E+00  0.00000000E+00
  0.00000000E+00  0.00000000E+00  0.00000000E+00
  0.00000000E+00  0.00000000E+00  0.00000000E+00
  0.00000000E+00  0.00000000E+00  0.00000000E+00
  0.00000000E+00  0.00000000E+00  0.00000000E+00
  0.00000000E+00  0.00000000E+00  0.00000000E+00
  0.00000000E+00  0.00000000E+00  0.00000000E+00
  0.00000000E+00  0.00000000E+00  0.00000000E+00
  0.00000000E+00  0.00000000E+00  0.00000000E+00
  0.00000000E+00  0.00000000E+00  0.00000000E+00
  0.00000000E+00  0.00000000E+00  0.00000000E+00
  0.00000000E+00  0.00000000E+00  0.00000000E+00
  0.00000000E+00  0.00000000E+00  0.00000000E+00
  0.00000000E+00  0.00000000E+00  0.00000000E+00
  0.00000000E+00  0.00000000E+00  0.00000000E+00
  0.00000000E+00  0.00000000E+00  0.00000000E+00
  0.00000000E+00  0.00000000E+00  0.00000000E+00
  0.00000000E+00  0.00000000E+00  0.00000000E+00
  0.00000000E+00  0.00000000E+00  0.00000000E+00
  0.00000000E+00  0.00000000E+00  0.00000000E+00
  0.00000000E+00  0.00000000E+00  0.00000000E+00
  0.00000000E+00  0.00000000E+00  0.00000000E+00
