Mg3Ga2                                  
   1.00000000000000     
    -7.0952608499922105    0.4380211274368846   -0.0550016373341134
     3.9919889886240036   -4.9721899909931704    0.1438088557945267
    -3.6422823685433241    1.6739009863600329    6.1858348351578556
   Ga   Mg
     4     6
Direct
  0.4199178817802220  0.7776112969578293  0.0555008433427417
  0.2308379173036599  0.7823575085637344  0.4577786491021385
  0.7691620826963401  0.2176424914362727  0.5422213508978615
  0.5800821182197708  0.2223887030421707  0.9444991566572654
  0.2461414818067738  0.2126552605876668  0.3566976582984296
  0.8480184823891861  0.3719929274810596  0.2056727951438546
  0.7388909335917191  0.7810721959059492  0.1731480822559988
  0.2611090664082809  0.2189278040940579  0.8268519177440012
  0.1519815176108139  0.6280070725189404  0.7943272048561454
  0.7538585181932262  0.7873447394123332  0.6433023417015704
 
  0.00000000E+00  0.00000000E+00  0.00000000E+00
  0.00000000E+00  0.00000000E+00  0.00000000E+00
  0.00000000E+00  0.00000000E+00  0.00000000E+00
  0.00000000E+00  0.00000000E+00  0.00000000E+00
  0.00000000E+00  0.00000000E+00  0.00000000E+00
  0.00000000E+00  0.00000000E+00  0.00000000E+00
  0.00000000E+00  0.00000000E+00  0.00000000E+00
  0.00000000E+00  0.00000000E+00  0.00000000E+00
  0.00000000E+00  0.00000000E+00  0.00000000E+00
  0.00000000E+00  0.00000000E+00  0.00000000E+00
