Ca4 B4 F20                              
   1.0000000000000000     
     4.9209318088403382    0.0000000000000000    0.0000000000000003
    -0.0000000000000002    4.3555258963247079    0.0000000000000003
     0.0000000000000000   -0.0000000000000001   14.3741992511693759
   Ca   B    F 
     4     4    20
Direct
  0.9217261056871990  0.3036928859820449  0.3470603460320376
  0.4217261056872132  0.1963071140179551  0.6529396539679624
  0.0782738943127796  0.8036928859820449  0.1529396539679624
  0.5782738943127868  0.6963071140179551  0.8470603460320376
  0.4488364365911792  0.9062375873798203  0.3988659139672635
  0.9488364365911792  0.5937624126201797  0.6011340860327294
  0.5511635634088208  0.4062375873798203  0.1011340860327294
  0.0511635634088279  0.0937624126201797  0.8988659139672706
  0.1731365549646711  0.5018108641186672  0.5465347178884485
  0.6731365549646640  0.9981891358813257  0.4534652821115515
  0.8268634450353360  0.0018108641186743  0.9534652821115515
  0.3268634450353289  0.4981891358813257  0.0465347178884485
  0.9593837201220694  0.7886555992178756  0.3014655694687818
  0.4593837201220694  0.7113444007821244  0.6985344305312111
  0.0406162798779306  0.2886555992178685  0.1985344305312182
  0.5406162798779306  0.2113444007821244  0.8014655694687889
  0.7858373099425364  0.5074313931000489  0.0546381620640730
  0.2858373099425364  0.9925686068999511  0.9453618379359199
  0.2141626900574636  0.0074313931000489  0.4453618379359270
  0.7141626900574636  0.4925686068999653  0.5546381620640801
  0.5328612631656284  0.5581548056557750  0.1878868750876421
  0.0328612631656284  0.9418451943442250  0.8121131249123579
  0.4671387368343716  0.0581548056557750  0.3121131249123508
  0.9671387368343716  0.4418451943442250  0.6878868750876421
  0.0490878941566422  0.4114120880295005  0.8859163473552414
  0.5490878941566493  0.0885879119704995  0.1140836526447586
  0.9509121058433507  0.9114120880295005  0.6140836526447586
  0.4509121058433507  0.5885879119704995  0.3859163473552414

  0.00000000E+00  0.00000000E+00  0.00000000E+00
  0.00000000E+00  0.00000000E+00  0.00000000E+00
  0.00000000E+00  0.00000000E+00  0.00000000E+00
  0.00000000E+00  0.00000000E+00  0.00000000E+00
  0.00000000E+00  0.00000000E+00  0.00000000E+00
  0.00000000E+00  0.00000000E+00  0.00000000E+00
  0.00000000E+00  0.00000000E+00  0.00000000E+00
  0.00000000E+00  0.00000000E+00  0.00000000E+00
  0.00000000E+00  0.00000000E+00  0.00000000E+00
  0.00000000E+00  0.00000000E+00  0.00000000E+00
  0.00000000E+00  0.00000000E+00  0.00000000E+00
  0.00000000E+00  0.00000000E+00  0.00000000E+00
  0.00000000E+00  0.00000000E+00  0.00000000E+00
  0.00000000E+00  0.00000000E+00  0.00000000E+00
  0.00000000E+00  0.00000000E+00  0.00000000E+00
  0.00000000E+00  0.00000000E+00  0.00000000E+00
  0.00000000E+00  0.00000000E+00  0.00000000E+00
  0.00000000E+00  0.00000000E+00  0.00000000E+00
  0.00000000E+00  0.00000000E+00  0.00000000E+00
  0.00000000E+00  0.00000000E+00  0.00000000E+00
  0.00000000E+00  0.00000000E+00  0.00000000E+00
  0.00000000E+00  0.00000000E+00  0.00000000E+00
  0.00000000E+00  0.00000000E+00  0.00000000E+00
  0.00000000E+00  0.00000000E+00  0.00000000E+00
  0.00000000E+00  0.00000000E+00  0.00000000E+00
  0.00000000E+00  0.00000000E+00  0.00000000E+00
  0.00000000E+00  0.00000000E+00  0.00000000E+00
  0.00000000E+00  0.00000000E+00  0.00000000E+00
