Sr7 B10                                 
   1.00000000000000     
     2.6424059171585847   -4.5750621553479913   -0.0056191422389280
    -5.2833360722835812    0.0008542588337357    0.0056619588566954
     2.6500217442234768   -1.5301298074559411  -12.5557966110822505
   B    Sr
    10     7
Direct
  0.2811421630909408  0.7189041218870926  0.1586162767366943
  0.0185681392662005  0.6436801289603835  0.2710886014195637
  0.3563674876847926  0.9814748478349031  0.2710888057758609
  0.3556808582257105  0.6443616785461685  0.2709967589568336
  0.2053893375452702  0.7946536657992311  0.3836588516155857
  0.7946493369669625  0.2053984971553930  0.6163806059592858
  0.6443630655295536  0.3556899157304656  0.7290502960580341
  0.6436740387909481  0.0185798007803157  0.7289579894232148
  0.9814715830746934  0.3563719561710315  0.7289568402109126
  0.7188961546102277  0.2811567701708881  0.8414344256422055
  0.6331470682893467  0.3669022115897960  0.1028629796446197
  0.9487097852665727  0.0513410182597269  0.1585833665139234
  0.8715788376771840  0.1284653319851259  0.3864178420972308
  0.5000703789339411  0.4999717061553568  0.4998522826937233
  0.1284632608850913  0.8715806228065972  0.6136106601744018
  0.0513332288051771  0.9487154344430095  0.8414654928598893
  0.3668952753573862  0.6331522917245138  0.8971779242180205
 
  0.00000000E+00  0.00000000E+00  0.00000000E+00
  0.00000000E+00  0.00000000E+00  0.00000000E+00
  0.00000000E+00  0.00000000E+00  0.00000000E+00
  0.00000000E+00  0.00000000E+00  0.00000000E+00
  0.00000000E+00  0.00000000E+00  0.00000000E+00
  0.00000000E+00  0.00000000E+00  0.00000000E+00
  0.00000000E+00  0.00000000E+00  0.00000000E+00
  0.00000000E+00  0.00000000E+00  0.00000000E+00
  0.00000000E+00  0.00000000E+00  0.00000000E+00
  0.00000000E+00  0.00000000E+00  0.00000000E+00
  0.00000000E+00  0.00000000E+00  0.00000000E+00
  0.00000000E+00  0.00000000E+00  0.00000000E+00
  0.00000000E+00  0.00000000E+00  0.00000000E+00
  0.00000000E+00  0.00000000E+00  0.00000000E+00
  0.00000000E+00  0.00000000E+00  0.00000000E+00
  0.00000000E+00  0.00000000E+00  0.00000000E+00
  0.00000000E+00  0.00000000E+00  0.00000000E+00
