Mg4 B2 I10                              
   1.00000000000000     
     7.3313412035365104   -5.8140169063465263    0.6932001543852316
     7.3313412035365104    5.8140169063465263    0.6932001543852316
    -6.4602090854746894    0.0000000000000000    8.2469411485209623
   I    Mg   B 
    10     4     2
Direct
  0.5141205850268520  0.9135958494071375  0.0535338910887688
  0.9135958494071375  0.5141205850268520  0.0535338910887688
  0.9514972977435434  0.9514972977435434  0.1018233591804218
  0.8238208515886924  0.4020524109409962  0.3260199739972904
  0.4020524109409962  0.8238208515886924  0.3260199739972904
  0.3758939511551702  0.3758939511551702  0.2513977037445230
  0.6620818376455873  0.6620818376455873  0.6274098256315597
  0.5263720397160370  0.1707285355979593  0.8127447496758364
  0.1707285355979593  0.5263720397160370  0.8127447496758364
  0.0704559228693498  0.0704559228693498  0.8481558624530834
  0.8285516057188573  0.2305225065752410  0.0254776805509920
  0.2915118237295147  0.2915118237295147  0.9395299166143474
  0.7181982717995581  0.7181982717995581  0.9212812248773687
  0.2305225065752410  0.8285516057188573  0.0254776805509920
  0.6708984494902879  0.3495980609952127  0.4374247584364568
  0.3495980609952127  0.6708984494902879  0.4374247584364568
 
  0.00000000E+00  0.00000000E+00  0.00000000E+00
  0.00000000E+00  0.00000000E+00  0.00000000E+00
  0.00000000E+00  0.00000000E+00  0.00000000E+00
  0.00000000E+00  0.00000000E+00  0.00000000E+00
  0.00000000E+00  0.00000000E+00  0.00000000E+00
  0.00000000E+00  0.00000000E+00  0.00000000E+00
  0.00000000E+00  0.00000000E+00  0.00000000E+00
  0.00000000E+00  0.00000000E+00  0.00000000E+00
  0.00000000E+00  0.00000000E+00  0.00000000E+00
  0.00000000E+00  0.00000000E+00  0.00000000E+00
  0.00000000E+00  0.00000000E+00  0.00000000E+00
  0.00000000E+00  0.00000000E+00  0.00000000E+00
  0.00000000E+00  0.00000000E+00  0.00000000E+00
  0.00000000E+00  0.00000000E+00  0.00000000E+00
  0.00000000E+00  0.00000000E+00  0.00000000E+00
  0.00000000E+00  0.00000000E+00  0.00000000E+00
