Mg2 B2 Cl10                             
   1.00000000000000     
     7.0457163820134250   -4.6229166674735698    1.1736856914266689
     7.0445502837608860    4.6238534824192135    1.1686398836248419
    -4.1588911224673710    0.0022100471798324    6.7703471517400979
   B    Mg   Cl
     2     2    10
Direct
  0.1875011165751701  0.7298862326342288  0.9476500580497529
  0.7299520452344481  0.1874639353959822  0.4475828793274559
  0.5342590774656557  0.5843009842852425  0.2224055513655330
  0.5842429993255465  0.5343190869414869  0.7223870974505573
  0.2813322754078484  0.5030010680933259  0.0090863138086092
  0.2965267660100182  0.8723347686177902  0.1410121599033047
  0.7020207986608327  0.2591437757265211  0.2334526476463452
  0.8175774366377055  0.9522540497549272  0.4106799029716015
  0.5656851229463911  0.7144241776194420  0.5358797855600628
  0.5030870575011122  0.2812727286061119  0.5090703917891588
  0.8723169044482688  0.2965795049073137  0.6409595358765685
  0.2591089016519845  0.7019820325226362  0.7334798266221014
  0.9522721106802479  0.8174973326822368  0.9108168438381199
  0.7143173874547557  0.5657403222127755  0.0358370057907891
 
  0.00000000E+00  0.00000000E+00  0.00000000E+00
  0.00000000E+00  0.00000000E+00  0.00000000E+00
  0.00000000E+00  0.00000000E+00  0.00000000E+00
  0.00000000E+00  0.00000000E+00  0.00000000E+00
  0.00000000E+00  0.00000000E+00  0.00000000E+00
  0.00000000E+00  0.00000000E+00  0.00000000E+00
  0.00000000E+00  0.00000000E+00  0.00000000E+00
  0.00000000E+00  0.00000000E+00  0.00000000E+00
  0.00000000E+00  0.00000000E+00  0.00000000E+00
  0.00000000E+00  0.00000000E+00  0.00000000E+00
  0.00000000E+00  0.00000000E+00  0.00000000E+00
  0.00000000E+00  0.00000000E+00  0.00000000E+00
  0.00000000E+00  0.00000000E+00  0.00000000E+00
  0.00000000E+00  0.00000000E+00  0.00000000E+00
