Sr6 Al4 Br24                            
   1.00000000000000     
    12.6697498235780284   -0.0006220335709545    0.0000000000000000
     0.0007065247677131   12.6554742426158580    0.0000000000000000
     0.0000000000000000    0.0000000000000000    7.4151901748012179
   Br   Al   Sr
    24     4     6
Direct
  0.6613425794941321  0.1398230257314239  0.0000000000000000
  0.1614199171964330  0.3600980837935452  0.0000000000000000
  0.8386256027204269  0.6398788918808762  0.0000000000000000
  0.3386643733065924  0.8602424773447552  0.0000000000000000
  0.5002071856401145  0.9997942267741422  0.2642071476860650
  0.0002279578742446  0.5001404126977107  0.2641712164076111
  0.1962430547213714  0.1074948607171251  0.2371589465429977
  0.9039070236605298  0.2034014244002407  0.2333610440241429
  0.4039162426896681  0.2964867636648236  0.2333839244356781
  0.6962580538664511  0.3924916744489053  0.2371633047555974
  0.3037037540442356  0.6076403921260507  0.2371946893285823
  0.5959741141474524  0.7032880355836397  0.2333545138951010
  0.0960547432335588  0.7967729519839111  0.2333561894822509
  0.8035685349723494  0.8923940669035701  0.2371811453082557
  0.1962430547213714  0.1074948607171251  0.7628410534570023
  0.9039070236605298  0.2034014244002407  0.7666389559758571
  0.4039162426896681  0.2964867636648236  0.7666160755643219
  0.6962580538664511  0.3924916744489053  0.7628366952444026
  0.3037037540442356  0.6076403921260507  0.7628053106714248
  0.5959741141474524  0.7032880355836397  0.7666454861048990
  0.0960547432335588  0.7967729519839111  0.7666438105177491
  0.8035685349723494  0.8923940669035701  0.7628188546917443
  0.5002071856401145  0.9997942267741422  0.7357928523139350
  0.0002279578742446  0.5001404126977107  0.7358287835923889
  0.2743609649870322  0.2198236997381144  0.0000000000000000
  0.7743633055289934  0.2800669825885365  0.0000000000000000
  0.2255866736409899  0.7200597762490091  0.0000000000000000
  0.7254738241217709  0.7799912376705151  0.0000000000000000
  0.9997560059044730  0.9999775514347036  0.0000000000000000
  0.4998812445491154  0.4999315227501668  0.0000000000000000
  0.5626791646305804  0.1752682149084919  0.5000000000000000
  0.0626324838455332  0.3245940371566505  0.5000000000000000
  0.9374602587525160  0.6756090972533073  0.5000000000000000
  0.4372322716214754  0.8244257828996808  0.5000000000000000
 
  0.00000000E+00  0.00000000E+00  0.00000000E+00
  0.00000000E+00  0.00000000E+00  0.00000000E+00
  0.00000000E+00  0.00000000E+00  0.00000000E+00
  0.00000000E+00  0.00000000E+00  0.00000000E+00
  0.00000000E+00  0.00000000E+00  0.00000000E+00
  0.00000000E+00  0.00000000E+00  0.00000000E+00
  0.00000000E+00  0.00000000E+00  0.00000000E+00
  0.00000000E+00  0.00000000E+00  0.00000000E+00
  0.00000000E+00  0.00000000E+00  0.00000000E+00
  0.00000000E+00  0.00000000E+00  0.00000000E+00
  0.00000000E+00  0.00000000E+00  0.00000000E+00
  0.00000000E+00  0.00000000E+00  0.00000000E+00
  0.00000000E+00  0.00000000E+00  0.00000000E+00
  0.00000000E+00  0.00000000E+00  0.00000000E+00
  0.00000000E+00  0.00000000E+00  0.00000000E+00
  0.00000000E+00  0.00000000E+00  0.00000000E+00
  0.00000000E+00  0.00000000E+00  0.00000000E+00
  0.00000000E+00  0.00000000E+00  0.00000000E+00
  0.00000000E+00  0.00000000E+00  0.00000000E+00
  0.00000000E+00  0.00000000E+00  0.00000000E+00
  0.00000000E+00  0.00000000E+00  0.00000000E+00
  0.00000000E+00  0.00000000E+00  0.00000000E+00
  0.00000000E+00  0.00000000E+00  0.00000000E+00
  0.00000000E+00  0.00000000E+00  0.00000000E+00
  0.00000000E+00  0.00000000E+00  0.00000000E+00
  0.00000000E+00  0.00000000E+00  0.00000000E+00
  0.00000000E+00  0.00000000E+00  0.00000000E+00
  0.00000000E+00  0.00000000E+00  0.00000000E+00
  0.00000000E+00  0.00000000E+00  0.00000000E+00
  0.00000000E+00  0.00000000E+00  0.00000000E+00
  0.00000000E+00  0.00000000E+00  0.00000000E+00
  0.00000000E+00  0.00000000E+00  0.00000000E+00
  0.00000000E+00  0.00000000E+00  0.00000000E+00
  0.00000000E+00  0.00000000E+00  0.00000000E+00
