Sr2Al                                   
   1.00000000000000     
     5.0667638236331118    2.9245850637349933    8.2734484034332567
    -5.0667638236331118    2.9245850637349933    8.2734484034332567
     0.0000000000000000   -5.8506171408213907    8.2736052556178930
   Al   Sr
     2     4
Direct
  0.2499974707193999  0.2499974707193999  0.2500032657273294
  0.5000025292806001  0.5000025292806001  0.4999967342726706
  0.3750000000000000  0.3750000000000000  0.3750000000000000
  0.8750000000000000  0.3750000000000000  0.3750000000000000
  0.3750000000000000  0.8750000000000000  0.3750000000000000
  0.3750000000000000  0.3750000000000000  0.8750000000000000
 
  0.00000000E+00  0.00000000E+00  0.00000000E+00
  0.00000000E+00  0.00000000E+00  0.00000000E+00
  0.00000000E+00  0.00000000E+00  0.00000000E+00
  0.00000000E+00  0.00000000E+00  0.00000000E+00
  0.00000000E+00  0.00000000E+00  0.00000000E+00
  0.00000000E+00  0.00000000E+00  0.00000000E+00
