Ca2 B2 Br6                              
   1.00000000000000     
     2.1576605991893154   -7.0321530426767831   -0.0760805882841904
     2.1752895349612298    7.0251931558320804   -0.0851139003327039
    -0.4066784263791605    0.0080456489521879   10.8223841463480817
   Br   Ca   B 
     6     2     2
Direct
  0.3225772030211402  0.6468215203040728  0.0753125204650829
  0.0426467099170580  0.8981932209268422  0.2528928368872201
  0.3848205507716500  0.5995909162414463  0.4791396091054310
  0.6457983195948245  0.3211010101694143  0.5751531426093663
  0.8990219902059948  0.0435969052464813  0.7527950730223978
  0.5994124140916526  0.3844619967474543  0.9791654530626133
  0.9389624431683785  0.0175009248527402  0.0259281506820486
  0.0169894937719874  0.9383612783526729  0.5260407528700597
  0.7496182047643245  0.3979069987635384  0.1671894502343818
  0.3997526706929975  0.7520652283953524  0.6668830110613939
 
  0.00000000E+00  0.00000000E+00  0.00000000E+00
  0.00000000E+00  0.00000000E+00  0.00000000E+00
  0.00000000E+00  0.00000000E+00  0.00000000E+00
  0.00000000E+00  0.00000000E+00  0.00000000E+00
  0.00000000E+00  0.00000000E+00  0.00000000E+00
  0.00000000E+00  0.00000000E+00  0.00000000E+00
  0.00000000E+00  0.00000000E+00  0.00000000E+00
  0.00000000E+00  0.00000000E+00  0.00000000E+00
  0.00000000E+00  0.00000000E+00  0.00000000E+00
  0.00000000E+00  0.00000000E+00  0.00000000E+00
