B12                                     
   1.00000000000000     
     4.2806548053573659    0.0003511566764707    2.6689563275760348
     1.4813312187083056    4.0161757378760532    2.6689563279417698
     0.0005030862459455    0.0003511480838542    5.0445358849344313
   B 
    12
Direct
  0.0103156148666272  0.6540521616754944  0.0103156148666486
  0.0103156148666415  0.0103156148666486  0.6540521616754731
  0.6540521616754873  0.0103156148666415  0.0103156148666557
  0.3459478383245127  0.9896843851333585  0.9896843851333443
  0.9896843851333728  0.3459478383245056  0.9896843851333514
  0.9896843851333585  0.9896843851333514  0.3459478383245269
  0.2210950703615566  0.6305583142543725  0.2210950703616561
  0.2210950703616561  0.2210950703616561  0.6305583142542801
  0.6305583142543938  0.2210950703615850  0.2210950703616774
  0.3694416857456062  0.7789049296384150  0.7789049296383226
  0.7789049296384434  0.3694416857456275  0.7789049296383439
  0.7789049296383439  0.7789049296383439  0.3694416857457199
 
  0.00000000E+00  0.00000000E+00  0.00000000E+00
  0.00000000E+00  0.00000000E+00  0.00000000E+00
  0.00000000E+00  0.00000000E+00  0.00000000E+00
  0.00000000E+00  0.00000000E+00  0.00000000E+00
  0.00000000E+00  0.00000000E+00  0.00000000E+00
  0.00000000E+00  0.00000000E+00  0.00000000E+00
  0.00000000E+00  0.00000000E+00  0.00000000E+00
  0.00000000E+00  0.00000000E+00  0.00000000E+00
  0.00000000E+00  0.00000000E+00  0.00000000E+00
  0.00000000E+00  0.00000000E+00  0.00000000E+00
  0.00000000E+00  0.00000000E+00  0.00000000E+00
  0.00000000E+00  0.00000000E+00  0.00000000E+00
