Mg22 B14                                
   1.00000000000000     
    -6.3067760198268799    6.3124562081417368    0.0042112779039916
     6.3109821362133625    0.0000000000000000   -6.2423013019133231
    -6.3067760198268799   -6.3124562081417368    0.0042112779039916
   Mg   B 
    22    14
Direct
  0.9999877566441384  0.0000021393578606  0.9999877566441384
  0.3862691771296767  0.2591567277287368  0.1300942366662099
  0.8727701481546717  0.2588188651474894  0.1292792733717931
  0.8706961464633736  0.7411805136716296  0.1272063421047989
  0.4997260807411195  0.0000596281501117  0.1644041413939306
  0.1650135320205308  0.6657167402509288  0.1650135320205308
  0.5007503184919173  0.6655464848381527  0.1651921309851332
  0.1300942366662099  0.2591567277287368  0.3862691771296767
  0.1644041413939306  0.0000596281501117  0.4997260807411195
  0.4999900099293200  0.0000015084395670  0.4999900099293200
  0.8355649412136756  0.9999394600751756  0.5002529332722503
  0.4992832307469754  0.3342811483667631  0.4992832307469754
  0.8347872911362870  0.3344541943135795  0.4992278783937962
  0.1651921309851332  0.6655464848381527  0.5007503184919173
  0.5006964581959181  0.6657216116666476  0.5006964581959181
  0.8698826519322367  0.7408436397364824  0.6137102143659661
  0.5002529332722503  0.9999394600751756  0.8355649412136756
  0.4992278783937962  0.3344541943135795  0.8347872911362870
  0.8349667072945053  0.3342835808430848  0.8349667072945053
  0.1292792733717931  0.2588188651474894  0.8727701481546717
  0.1272063421047989  0.7411805136716296  0.8706961464633736
  0.6137102143659661  0.7408436397364824  0.8698826519322367
  0.6993743492177700  0.3988947316360409  0.0988888332611495
  0.2192697755905471  0.0002054616964102  0.2192697755905471
  0.7806893109171327  0.0000002972514466  0.2192886843764228
  0.2227436244678955  0.4450976866921366  0.2227436244678955
  0.6998817114458689  0.3990264641158703  0.2996410404045236
  0.7003380537232076  0.6009744772747112  0.3000974607967422
  0.9010894149708051  0.6011039875658852  0.3006040437207531
  0.0988888332611495  0.3988947316360409  0.6993743492177700
  0.2996410404045236  0.3990264641158703  0.6998817114458689
  0.3000974607967422  0.6009744772747112  0.7003380537232076
  0.2192886843764228  0.0000002972514466  0.7806893109171327
  0.7807097039494408  0.9997941181759629  0.7807097039494408
  0.7772323925095108  0.5548970614999789  0.7772323925095108
  0.3006040437207531  0.6011039875658852  0.9010894149708051
 
  0.00000000E+00  0.00000000E+00  0.00000000E+00
  0.00000000E+00  0.00000000E+00  0.00000000E+00
  0.00000000E+00  0.00000000E+00  0.00000000E+00
  0.00000000E+00  0.00000000E+00  0.00000000E+00
  0.00000000E+00  0.00000000E+00  0.00000000E+00
  0.00000000E+00  0.00000000E+00  0.00000000E+00
  0.00000000E+00  0.00000000E+00  0.00000000E+00
  0.00000000E+00  0.00000000E+00  0.00000000E+00
  0.00000000E+00  0.00000000E+00  0.00000000E+00
  0.00000000E+00  0.00000000E+00  0.00000000E+00
  0.00000000E+00  0.00000000E+00  0.00000000E+00
  0.00000000E+00  0.00000000E+00  0.00000000E+00
  0.00000000E+00  0.00000000E+00  0.00000000E+00
  0.00000000E+00  0.00000000E+00  0.00000000E+00
  0.00000000E+00  0.00000000E+00  0.00000000E+00
  0.00000000E+00  0.00000000E+00  0.00000000E+00
  0.00000000E+00  0.00000000E+00  0.00000000E+00
  0.00000000E+00  0.00000000E+00  0.00000000E+00
  0.00000000E+00  0.00000000E+00  0.00000000E+00
  0.00000000E+00  0.00000000E+00  0.00000000E+00
  0.00000000E+00  0.00000000E+00  0.00000000E+00
  0.00000000E+00  0.00000000E+00  0.00000000E+00
  0.00000000E+00  0.00000000E+00  0.00000000E+00
  0.00000000E+00  0.00000000E+00  0.00000000E+00
  0.00000000E+00  0.00000000E+00  0.00000000E+00
  0.00000000E+00  0.00000000E+00  0.00000000E+00
  0.00000000E+00  0.00000000E+00  0.00000000E+00
  0.00000000E+00  0.00000000E+00  0.00000000E+00
  0.00000000E+00  0.00000000E+00  0.00000000E+00
  0.00000000E+00  0.00000000E+00  0.00000000E+00
  0.00000000E+00  0.00000000E+00  0.00000000E+00
  0.00000000E+00  0.00000000E+00  0.00000000E+00
  0.00000000E+00  0.00000000E+00  0.00000000E+00
  0.00000000E+00  0.00000000E+00  0.00000000E+00
  0.00000000E+00  0.00000000E+00  0.00000000E+00
  0.00000000E+00  0.00000000E+00  0.00000000E+00
