Sr12 Tl4 F36                            
   1.0000000000000000     
     9.2725673862870437    0.0137697678526906    0.0697767273546358
     0.0070368405340747    5.6207372520919892   -0.0104854474245059
     0.1118912835763835   -0.0309700700005709   14.7595626411761991
   Tl   Sr   F 
     4    12    36
Direct
  0.5604220286302350  0.2768016426777677  0.1908346404372239
  0.0726922050680585  0.2217938158409467  0.3091379099710423
  0.9310711247009777  0.7777610813019749  0.6910418676592371
  0.4355585431092095  0.7231485746707307  0.8092901216941826
  0.6496214233047226  0.7633351983080416  0.0200009897054798
  0.9297977414882155  0.2589035786386020  0.0872263565634483
  0.2400608988747521  0.7386141538456812  0.1695000818622248
  0.7497841475848546  0.7611850570572898  0.3239657625662886
  0.4422050607159917  0.2427228312134417  0.4166013368987151
  0.1534264026466587  0.7374536499556044  0.4790623932683360
  0.8502973099271571  0.2629483540006134  0.5209222879132867
  0.5630174686980851  0.7584835215243189  0.5848716299941685
  0.2530346855123327  0.2395402403320332  0.6749834344030390
  0.7566904736188391  0.2612287870096708  0.8292574236013195
  0.0648483135807609  0.7409730193935928  0.9139196985411573
  0.3472263556059758  0.2365129989011976  0.9800550671168793
  0.1456361116688782  0.4924239579927487  0.0389516407177766
  0.1369459556122266  0.0090682528654540  0.0402291405047208
  0.4339069152231048  0.9982448016484256  0.1090152931069994
  0.4450077586508669  0.5142194758301741  0.0941283450387331
  0.6706875925038460  0.1964837551843459  0.0628487694296069
  0.7280809076967358  0.6130094211783614  0.1630997545439143
  0.2857894346805665  0.3266691746161712  0.2444317463153851
  0.5202295548621478  0.9937547451809792  0.2886198055560953
  0.5245256429223204  0.5279380656303800  0.3000514392011624
  0.0167416836667442  0.9708812129665176  0.2039374822198710
  0.0191960052776707  0.5004736678945676  0.2137141663676729
  0.7761343060472399  0.1757168034545131  0.2471825810151032
  0.2262251092918959  0.8859116551000952  0.3317806689367160
  0.1813816624767597  0.3066956084622419  0.4340424580461573
  0.9483382633771527  0.9879682666185303  0.4048674888018340
  0.9409607229128625  0.5001218611884113  0.3915942660793306
  0.6448231805880908  0.4905637924413071  0.4609476463998874
  0.6526010368618103  0.0055843815871270  0.4610695085439360
  0.3510722106469188  0.9940605930864379  0.5392221955627150
  0.3594926750029117  0.5104052082217763  0.5397408800809131
  0.0628464875992023  0.4998859397834181  0.6081199067387715
  0.0541980720510651  0.0125924233647936  0.5949744376053445
  0.8230903227537993  0.6936845554605711  0.5658135355081200
  0.7742510246724805  0.1132944067958164  0.6671509706620782
  0.2214878404364882  0.8241885642523528  0.7503243676368996
  0.9808632138760416  0.4968255876190355  0.7865005336723598
  0.9808170417269793  0.0283673051745978  0.7974842663874782
  0.4781013011036137  0.4719683203191778  0.7009048361826515
  0.4801074795250742  0.0058601618686893  0.7123146207059179
  0.7167197553701570  0.6743229498992278  0.7542586856137277
  0.2718326646810780  0.3873854550295519  0.8360906237474737
  0.3235739429901940  0.8053901746413246  0.9364717346876716
  0.5523895891534778  0.4868210857546131  0.9054470584435705
  0.5623478171557892  0.0012601573139435  0.8910875448541233
  0.8586878159016464  0.9909297597903901  0.9605932109125561
  0.8509547179651733  0.5062019471125367  0.9609173879767852

  0.00000000E+00  0.00000000E+00  0.00000000E+00
  0.00000000E+00  0.00000000E+00  0.00000000E+00
  0.00000000E+00  0.00000000E+00  0.00000000E+00
  0.00000000E+00  0.00000000E+00  0.00000000E+00
  0.00000000E+00  0.00000000E+00  0.00000000E+00
  0.00000000E+00  0.00000000E+00  0.00000000E+00
  0.00000000E+00  0.00000000E+00  0.00000000E+00
  0.00000000E+00  0.00000000E+00  0.00000000E+00
  0.00000000E+00  0.00000000E+00  0.00000000E+00
  0.00000000E+00  0.00000000E+00  0.00000000E+00
  0.00000000E+00  0.00000000E+00  0.00000000E+00
  0.00000000E+00  0.00000000E+00  0.00000000E+00
  0.00000000E+00  0.00000000E+00  0.00000000E+00
  0.00000000E+00  0.00000000E+00  0.00000000E+00
  0.00000000E+00  0.00000000E+00  0.00000000E+00
  0.00000000E+00  0.00000000E+00  0.00000000E+00
  0.00000000E+00  0.00000000E+00  0.00000000E+00
  0.00000000E+00  0.00000000E+00  0.00000000E+00
  0.00000000E+00  0.00000000E+00  0.00000000E+00
  0.00000000E+00  0.00000000E+00  0.00000000E+00
  0.00000000E+00  0.00000000E+00  0.00000000E+00
  0.00000000E+00  0.00000000E+00  0.00000000E+00
  0.00000000E+00  0.00000000E+00  0.00000000E+00
  0.00000000E+00  0.00000000E+00  0.00000000E+00
  0.00000000E+00  0.00000000E+00  0.00000000E+00
  0.00000000E+00  0.00000000E+00  0.00000000E+00
  0.00000000E+00  0.00000000E+00  0.00000000E+00
  0.00000000E+00  0.00000000E+00  0.00000000E+00
  0.00000000E+00  0.00000000E+00  0.00000000E+00
  0.00000000E+00  0.00000000E+00  0.00000000E+00
  0.00000000E+00  0.00000000E+00  0.00000000E+00
  0.00000000E+00  0.00000000E+00  0.00000000E+00
  0.00000000E+00  0.00000000E+00  0.00000000E+00
  0.00000000E+00  0.00000000E+00  0.00000000E+00
  0.00000000E+00  0.00000000E+00  0.00000000E+00
  0.00000000E+00  0.00000000E+00  0.00000000E+00
  0.00000000E+00  0.00000000E+00  0.00000000E+00
  0.00000000E+00  0.00000000E+00  0.00000000E+00
  0.00000000E+00  0.00000000E+00  0.00000000E+00
  0.00000000E+00  0.00000000E+00  0.00000000E+00
  0.00000000E+00  0.00000000E+00  0.00000000E+00
  0.00000000E+00  0.00000000E+00  0.00000000E+00
  0.00000000E+00  0.00000000E+00  0.00000000E+00
  0.00000000E+00  0.00000000E+00  0.00000000E+00
  0.00000000E+00  0.00000000E+00  0.00000000E+00
  0.00000000E+00  0.00000000E+00  0.00000000E+00
  0.00000000E+00  0.00000000E+00  0.00000000E+00
  0.00000000E+00  0.00000000E+00  0.00000000E+00
  0.00000000E+00  0.00000000E+00  0.00000000E+00
  0.00000000E+00  0.00000000E+00  0.00000000E+00
  0.00000000E+00  0.00000000E+00  0.00000000E+00
  0.00000000E+00  0.00000000E+00  0.00000000E+00
