Ca1 B2 Br6                              
   1.00000000000000     
     6.1074002834539094    3.6984246145643134   10.7813599964081881
    -6.1074002834539121    3.6984246145643143   10.7813599964081899
    -0.0000000000000013   -1.0740418415644060    6.6716203187950791
   Ca   Br   B 
     1     6     2
Direct
  0.0000000000000000  0.0000000000000000  0.0000000000000000
  0.8011012920892497  0.8011012920892497  0.8896597630783418
  0.9835264121718339  0.2573241571084992  0.9361457835252907
  0.2573241571084992  0.9835264121718339  0.9361457835252907
  0.1988987079107503  0.1988987079107503  0.1103402369216582
  0.7426758428915008  0.0164735878281661  0.0638542164747093
  0.0164735878281661  0.7426758428915008  0.0638542164747093
  0.0769614663331026  0.0769614663331026  0.2364034698147037
  0.9230385336669045  0.9230385336669045  0.7635965301852963
 
  0.00000000E+00  0.00000000E+00  0.00000000E+00
  0.00000000E+00  0.00000000E+00  0.00000000E+00
  0.00000000E+00  0.00000000E+00  0.00000000E+00
  0.00000000E+00  0.00000000E+00  0.00000000E+00
  0.00000000E+00  0.00000000E+00  0.00000000E+00
  0.00000000E+00  0.00000000E+00  0.00000000E+00
  0.00000000E+00  0.00000000E+00  0.00000000E+00
  0.00000000E+00  0.00000000E+00  0.00000000E+00
  0.00000000E+00  0.00000000E+00  0.00000000E+00
