Sr4 B4 F20                              
   1.0000000000000000     
     4.7697613821419953   -0.0000000000000000    0.0000000000000003
    -0.0000000000000002    4.1871108561317394    0.0000000000000003
     0.0000000000000000   -0.0000000000000001   15.9697771820321872
   Sr   B    F 
     4     4    20
Direct
  0.7467090701559869  0.5022362810606609  0.5777408812123426
  0.2467090701559940  0.9977637189393391  0.4222591187876645
  0.2532909298440131  0.0022362810606609  0.9222591187876574
  0.7532909298440131  0.4977637189393391  0.0777408812123426
  0.2376676299087421  0.0989461529814761  0.6807168945652862
  0.7376676299087421  0.4010538470185310  0.3192831054347138
  0.7623323700912579  0.5989461529814619  0.8192831054347138
  0.2623323700912579  0.9010538470185381  0.1807168945652862
  0.9581358339086563  0.5082077560925029  0.3722993882146142
  0.4581358339086563  0.9917922439074971  0.6277006117853858
  0.0418641660913437  0.0082077560925029  0.1277006117853858
  0.5418641660913437  0.4917922439074971  0.8722993882146142
  0.4832548378274666  0.5132741242062053  0.3546597634794111
  0.9832548378274737  0.9867258757937947  0.6453402365205818
  0.5167451621725334  0.0132741242062053  0.1453402365205818
  0.0167451621725334  0.4867258757938018  0.8546597634794111
  0.2317974557064204  0.4305709567300511  0.6758589122751673
  0.7317974557064204  0.0694290432699489  0.3241410877248327
  0.7682025442935796  0.9305709567300582  0.8241410877248327
  0.2682025442935796  0.5694290432699418  0.1758589122751673
  0.2736492191903750  0.9897230988290744  0.7614546961351252
  0.7736492191903750  0.5102769011709256  0.2385453038648748
  0.7263507808096250  0.4897230988290744  0.7385453038648748
  0.2263507808096321  0.0102769011709256  0.2614546961351252
  0.2563339437368342  0.4980700898867454  0.5107640475149395
  0.7563339437368342  0.0019299101132546  0.4892359524850605
  0.7436660562631658  0.9980700898867454  0.9892359524850605
  0.2436660562631658  0.5019299101132546  0.0107640475149395

  0.00000000E+00  0.00000000E+00  0.00000000E+00
  0.00000000E+00  0.00000000E+00  0.00000000E+00
  0.00000000E+00  0.00000000E+00  0.00000000E+00
  0.00000000E+00  0.00000000E+00  0.00000000E+00
  0.00000000E+00  0.00000000E+00  0.00000000E+00
  0.00000000E+00  0.00000000E+00  0.00000000E+00
  0.00000000E+00  0.00000000E+00  0.00000000E+00
  0.00000000E+00  0.00000000E+00  0.00000000E+00
  0.00000000E+00  0.00000000E+00  0.00000000E+00
  0.00000000E+00  0.00000000E+00  0.00000000E+00
  0.00000000E+00  0.00000000E+00  0.00000000E+00
  0.00000000E+00  0.00000000E+00  0.00000000E+00
  0.00000000E+00  0.00000000E+00  0.00000000E+00
  0.00000000E+00  0.00000000E+00  0.00000000E+00
  0.00000000E+00  0.00000000E+00  0.00000000E+00
  0.00000000E+00  0.00000000E+00  0.00000000E+00
  0.00000000E+00  0.00000000E+00  0.00000000E+00
  0.00000000E+00  0.00000000E+00  0.00000000E+00
  0.00000000E+00  0.00000000E+00  0.00000000E+00
  0.00000000E+00  0.00000000E+00  0.00000000E+00
  0.00000000E+00  0.00000000E+00  0.00000000E+00
  0.00000000E+00  0.00000000E+00  0.00000000E+00
  0.00000000E+00  0.00000000E+00  0.00000000E+00
  0.00000000E+00  0.00000000E+00  0.00000000E+00
  0.00000000E+00  0.00000000E+00  0.00000000E+00
  0.00000000E+00  0.00000000E+00  0.00000000E+00
  0.00000000E+00  0.00000000E+00  0.00000000E+00
  0.00000000E+00  0.00000000E+00  0.00000000E+00
