BI                                      
   1.00000000000000     
     0.0000000000000000    2.7581630112191631    2.7581630112191631
     2.7581630112191635    0.0000000000000000    2.7581630112191631
     2.7581630112191635    2.7581630112191631    0.0000000000000000
   B    I 
     1     1
Direct
  0.0000000000000000  0.0000000000000000  0.0000000000000000
  0.5000000000000000  0.5000000000000000  0.5000000000000000
 
  0.00000000E+00  0.00000000E+00  0.00000000E+00
  0.00000000E+00  0.00000000E+00  0.00000000E+00
