Be1 Tl2 I4                              
   1.0000000000000000     
    -2.8358803050520112    2.8358803050520112    8.3615568460753984
     2.8358803050520112   -2.8358803050520112    8.3615568460753984
     2.8358803050520112    2.8358803050520112   -8.3615568460753984
   Be   I    Tl
     1     4     2
Direct
  0.0000000000000000  0.0000000000000000  0.0000000000000000
  0.1526287721864676  0.1526287721864676  0.0000000000000000
  0.8473712278135324  0.8473712278135324  0.0000000000000000
  0.5000000000000000  0.0000000000000000  0.5000000000000000
  0.0000000000000000  0.5000000000000000  0.5000000000000000
  0.3682230132679720  0.3682230132679720  0.0000000000000000
  0.6317769867320280  0.6317769867320280  0.0000000000000000

  0.00000000E+00  0.00000000E+00  0.00000000E+00
  0.00000000E+00  0.00000000E+00  0.00000000E+00
  0.00000000E+00  0.00000000E+00  0.00000000E+00
  0.00000000E+00  0.00000000E+00  0.00000000E+00
  0.00000000E+00  0.00000000E+00  0.00000000E+00
  0.00000000E+00  0.00000000E+00  0.00000000E+00
  0.00000000E+00  0.00000000E+00  0.00000000E+00
