Ba1 Tl3 Br6                             
   1.0000000000000000     
     8.5944305290359289   -0.0013797916010743    0.0002421799069517
    -0.0013797916010743    8.5944305290359289    0.0002421799069517
     4.2966998918100057    4.2966998918100057    6.0775985381804887
   Br   Ba   Tl
     6     1     3
Direct
  0.7425343178276407  0.2574656821723593  0.0000000000000000
  0.2575756959213678  0.2575756959213678  0.0001544640279221
  0.2574656821723593  0.7425343178276407  0.0000000000000000
  0.7424243040786322  0.7424243040786322  0.9998455359720779
  0.7424563828825157  0.7424563828825157  0.5150967677214311
  0.2575436171174843  0.2575436171174843  0.4849032322785689
  0.0000000000000000  0.0000000000000000  0.0000000000000000
  0.5000000000000000  0.5000000000000000  0.0000000000000000
  0.2499864262821418  0.7500135737178582  0.5000000000000000
  0.7500135737178582  0.2499864262821418  0.5000000000000000

  0.00000000E+00  0.00000000E+00  0.00000000E+00
  0.00000000E+00  0.00000000E+00  0.00000000E+00
  0.00000000E+00  0.00000000E+00  0.00000000E+00
  0.00000000E+00  0.00000000E+00  0.00000000E+00
  0.00000000E+00  0.00000000E+00  0.00000000E+00
  0.00000000E+00  0.00000000E+00  0.00000000E+00
  0.00000000E+00  0.00000000E+00  0.00000000E+00
  0.00000000E+00  0.00000000E+00  0.00000000E+00
  0.00000000E+00  0.00000000E+00  0.00000000E+00
  0.00000000E+00  0.00000000E+00  0.00000000E+00
