Ca1 Ga3 Br6                             
   1.00000000000000     
     7.9772854198623326    0.0638041445246733    0.1677811301607598
     0.0638041445246732    7.9772854198623326    0.1677811301607600
     4.1368575072253977    4.1368575072253986    5.8434689044363086
   Br   Ca   Ga
     6     1     3
Direct
  0.7439119697452554  0.2560880302547446  0.0000000000000000
  0.2302917172044019  0.2302917172044019  0.0496621672065132
  0.2560880302547446  0.7439119697452554  0.0000000000000000
  0.7697082827955981  0.7697082827955981  0.9503378327934868
  0.7732148018507345  0.7732148018507345  0.5096511876141108
  0.2267851981492655  0.2267851981492655  0.4903488123858892
  0.0000000000000000  0.0000000000000000  0.0000000000000000
  0.5000000000000000  0.5000000000000000  0.0000000000000000
  0.1618181933451126  0.8381818066548874  0.5000000000000000
  0.8381818066548874  0.1618181933451126  0.5000000000000000
 
  0.00000000E+00  0.00000000E+00  0.00000000E+00
  0.00000000E+00  0.00000000E+00  0.00000000E+00
  0.00000000E+00  0.00000000E+00  0.00000000E+00
  0.00000000E+00  0.00000000E+00  0.00000000E+00
  0.00000000E+00  0.00000000E+00  0.00000000E+00
  0.00000000E+00  0.00000000E+00  0.00000000E+00
  0.00000000E+00  0.00000000E+00  0.00000000E+00
  0.00000000E+00  0.00000000E+00  0.00000000E+00
  0.00000000E+00  0.00000000E+00  0.00000000E+00
  0.00000000E+00  0.00000000E+00  0.00000000E+00
