Be8 Br2                                 
   1.00000000000000     
     3.2638789051475969    0.0000000000000000    0.0000000000000000
     0.0000000000000000    3.2638789051475969    0.0000000000000000
     0.0000000000000000    0.0000000000000000   13.1313297542249217
   Be   Br
     8     2
Direct
  0.0000000000000000  0.0000000000000000  0.0000000000000000
  0.5000000000000000  0.5000000000000000  0.0000000000000000
  0.0000000000000000  0.0000000000000000  0.3906832208813071
  0.5000000000000000  0.5000000000000000  0.3906832208813071
  0.5000000000000000  0.0000000000000000  0.4952544136767543
  0.0000000000000000  0.5000000000000000  0.5047455863232528
  0.0000000000000000  0.0000000000000000  0.6093167791186929
  0.5000000000000000  0.5000000000000000  0.6093167791186929
  0.0000000000000000  0.5000000000000000  0.2465481886672762
  0.5000000000000000  0.0000000000000000  0.7534518113327238
 
  0.00000000E+00  0.00000000E+00  0.00000000E+00
  0.00000000E+00  0.00000000E+00  0.00000000E+00
  0.00000000E+00  0.00000000E+00  0.00000000E+00
  0.00000000E+00  0.00000000E+00  0.00000000E+00
  0.00000000E+00  0.00000000E+00  0.00000000E+00
  0.00000000E+00  0.00000000E+00  0.00000000E+00
  0.00000000E+00  0.00000000E+00  0.00000000E+00
  0.00000000E+00  0.00000000E+00  0.00000000E+00
  0.00000000E+00  0.00000000E+00  0.00000000E+00
  0.00000000E+00  0.00000000E+00  0.00000000E+00
