Sr4 Al4 Br20                            
   1.0000000000000000     
     6.6816903663998302   -0.0000000000000001    0.0000000000000004
    -0.0000000000000004    7.2984375662579977    0.0000000000000005
     0.0000000000000002    0.0000000000000001   18.2936283745017931
   Sr   Al   Br
     4     4    20
Direct
  0.7701874773681752  0.4225268516493017  0.3422150405623512
  0.2701874773681752  0.0774731483506983  0.6577849594376488
  0.2298125226318177  0.9225268516493017  0.1577849594376488
  0.7298125226318177  0.5774731483506983  0.8422150405623512
  0.2177651260441564  0.8819481111021759  0.3926833358842217
  0.7177651260441564  0.6180518888978241  0.6073166641157712
  0.7822348739558436  0.3819481111021759  0.1073166641157712
  0.2822348739558436  0.1180518888978241  0.8926833358842217
  0.8938740542346295  0.6052499655889321  0.4897158557443504
  0.3938740542346224  0.8947500344110679  0.5102841442556496
  0.1061259457653705  0.1052499655889321  0.0102841442556496
  0.6061259457653705  0.3947500344110679  0.9897158557443504
  0.9646533679754583  0.8018546619340796  0.2925536176961785
  0.4646533679754583  0.6981453380659204  0.7074463823038215
  0.0353466320245417  0.3018546619340867  0.2074463823038215
  0.5353466320245417  0.1981453380659133  0.7925536176961785
  0.0083052828337031  0.6212554117560884  0.0667838070698252
  0.5083052828337031  0.8787445882439116  0.9332161929301748
  0.9916947171662969  0.1212554117560884  0.4332161929301748
  0.4916947171662969  0.3787445882439116  0.5667838070698252
  0.5554628587620201  0.5416512655428320  0.1874606420602944
  0.0554628587620201  0.9583487344571680  0.8125393579397127
  0.4445371412379799  0.0416512655428320  0.3125393579397056
  0.9445371412379799  0.4583487344571680  0.6874606420602873
  0.1625990705757943  0.4367561643303475  0.8763836545865402
  0.6625990705757943  0.0632438356696525  0.1236163454134598
  0.8374009294242057  0.9367561643303475  0.6236163454134598
  0.3374009294242057  0.5632438356696525  0.3763836545865402

  0.00000000E+00  0.00000000E+00  0.00000000E+00
  0.00000000E+00  0.00000000E+00  0.00000000E+00
  0.00000000E+00  0.00000000E+00  0.00000000E+00
  0.00000000E+00  0.00000000E+00  0.00000000E+00
  0.00000000E+00  0.00000000E+00  0.00000000E+00
  0.00000000E+00  0.00000000E+00  0.00000000E+00
  0.00000000E+00  0.00000000E+00  0.00000000E+00
  0.00000000E+00  0.00000000E+00  0.00000000E+00
  0.00000000E+00  0.00000000E+00  0.00000000E+00
  0.00000000E+00  0.00000000E+00  0.00000000E+00
  0.00000000E+00  0.00000000E+00  0.00000000E+00
  0.00000000E+00  0.00000000E+00  0.00000000E+00
  0.00000000E+00  0.00000000E+00  0.00000000E+00
  0.00000000E+00  0.00000000E+00  0.00000000E+00
  0.00000000E+00  0.00000000E+00  0.00000000E+00
  0.00000000E+00  0.00000000E+00  0.00000000E+00
  0.00000000E+00  0.00000000E+00  0.00000000E+00
  0.00000000E+00  0.00000000E+00  0.00000000E+00
  0.00000000E+00  0.00000000E+00  0.00000000E+00
  0.00000000E+00  0.00000000E+00  0.00000000E+00
  0.00000000E+00  0.00000000E+00  0.00000000E+00
  0.00000000E+00  0.00000000E+00  0.00000000E+00
  0.00000000E+00  0.00000000E+00  0.00000000E+00
  0.00000000E+00  0.00000000E+00  0.00000000E+00
  0.00000000E+00  0.00000000E+00  0.00000000E+00
  0.00000000E+00  0.00000000E+00  0.00000000E+00
  0.00000000E+00  0.00000000E+00  0.00000000E+00
  0.00000000E+00  0.00000000E+00  0.00000000E+00
