Ba4 B2 I10                              
   1.00000000000000     
     7.1658834705703685   -6.9227820025814264   -0.2902175554057633
     7.1658834705703685    6.9227820025814246   -0.2902175554057631
    -7.5620818860892696    0.0000000000000003    8.5533205127364234
   I    Ba   B 
    10     4     2
Direct
  0.5122457338917243  0.9947603741378117  0.0202838590215890
  0.9947603741378117  0.5122457338917243  0.0202838590215890
  0.9812796111760989  0.9812796111760989  0.2591544303626279
  0.8040223534379862  0.4192955419577657  0.3272380666078121
  0.4192955419577657  0.8040223534379862  0.3272380666078121
  0.2914122919679940  0.2914122919679940  0.2878288737296870
  0.7400388105047924  0.7400388105047924  0.7406605738172445
  0.5210865330438494  0.2396300830502796  0.8030186996788871
  0.2396300830502796  0.5210865330438494  0.8030186996788871
  0.0348797351499073  0.0348797351499073  0.7772918115706702
  0.8646969301021485  0.1660290037566483  0.0138929248980872
  0.3627745860586202  0.3627745860586202  0.0497781750759003
  0.6370541078344019  0.6370541078344019  0.9280331188120527
  0.1660290037566483  0.8646969301021485  0.0138929248980872
  0.7629940421508934  0.1677002617790606  0.3141929581095297
  0.1677002617790606  0.7629940421508934  0.3141929581095297
 
  0.00000000E+00  0.00000000E+00  0.00000000E+00
  0.00000000E+00  0.00000000E+00  0.00000000E+00
  0.00000000E+00  0.00000000E+00  0.00000000E+00
  0.00000000E+00  0.00000000E+00  0.00000000E+00
  0.00000000E+00  0.00000000E+00  0.00000000E+00
  0.00000000E+00  0.00000000E+00  0.00000000E+00
  0.00000000E+00  0.00000000E+00  0.00000000E+00
  0.00000000E+00  0.00000000E+00  0.00000000E+00
  0.00000000E+00  0.00000000E+00  0.00000000E+00
  0.00000000E+00  0.00000000E+00  0.00000000E+00
  0.00000000E+00  0.00000000E+00  0.00000000E+00
  0.00000000E+00  0.00000000E+00  0.00000000E+00
  0.00000000E+00  0.00000000E+00  0.00000000E+00
  0.00000000E+00  0.00000000E+00  0.00000000E+00
  0.00000000E+00  0.00000000E+00  0.00000000E+00
  0.00000000E+00  0.00000000E+00  0.00000000E+00
