Ba1 Tl2 Cl10                            
   1.0000000000000000     
     4.8492284260451042    6.5132812826766324    0.5430457727240348
    -4.8492284260451042    6.5132812826766324    0.5430457727240348
     0.0000000000000000    5.4861498668506306    8.3122023767768720
   Ba   Tl   Cl
     1     2    10
Direct
  0.5881606892516729  0.4118393107483342  0.0000000000000000
  0.0586235859984043  0.9247087103524194  0.7533992723503715
  0.0752912896475806  0.9413764140015957  0.2466007276496285
  0.1159114927901896  0.2715903797909434  0.5478487228219606
  0.7284096202090566  0.8840885072098104  0.4521512771780394
  0.7435148529382971  0.7866425899945924  0.9229942932216346
  0.2133574100054076  0.2564851470617029  0.0770057067783654
  0.9276227626050186  0.0723772373949814  0.0000000000000000
  0.1740170075753511  0.8259829924246489  0.5000000000000000
  0.8266758056800043  0.5160907729501645  0.6052990874803115
  0.4839092270498426  0.1733241943199957  0.3947009125196956
  0.3344216486850442  0.7259163924358703  0.8044564221327803
  0.2740836075641297  0.6655783513149558  0.1955435778672197

  0.00000000E+00  0.00000000E+00  0.00000000E+00
  0.00000000E+00  0.00000000E+00  0.00000000E+00
  0.00000000E+00  0.00000000E+00  0.00000000E+00
  0.00000000E+00  0.00000000E+00  0.00000000E+00
  0.00000000E+00  0.00000000E+00  0.00000000E+00
  0.00000000E+00  0.00000000E+00  0.00000000E+00
  0.00000000E+00  0.00000000E+00  0.00000000E+00
  0.00000000E+00  0.00000000E+00  0.00000000E+00
  0.00000000E+00  0.00000000E+00  0.00000000E+00
  0.00000000E+00  0.00000000E+00  0.00000000E+00
  0.00000000E+00  0.00000000E+00  0.00000000E+00
  0.00000000E+00  0.00000000E+00  0.00000000E+00
  0.00000000E+00  0.00000000E+00  0.00000000E+00
