Be1 B2 I6                               
   1.00000000000000     
     3.6276165279345074    4.2742887914137304    7.3275392470321110
    -3.6276165279345074    4.2742887914137286    7.3275392470321110
    -0.0000000000000001   -3.5957259466949605    6.2093276696155852
   Be   I    B 
     1     6     2
Direct
  0.0000000000000000  0.0000000000000000  0.0000000000000000
  0.6525091351306216  0.6525091351306216  0.6010598534694580
  0.8456015805249706  0.3246851123453780  0.0961105035502712
  0.3246851123453780  0.8456015805249706  0.0961105035502712
  0.3474908648693784  0.3474908648693784  0.3989401465305420
  0.6753148876546220  0.1543984194750223  0.9038894964497288
  0.1543984194750223  0.6753148876546220  0.9038894964497288
  0.5569135897382012  0.5569135897382012  0.9515824424527750
  0.4430864102617988  0.4430864102617988  0.0484175575472250
 
  0.00000000E+00  0.00000000E+00  0.00000000E+00
  0.00000000E+00  0.00000000E+00  0.00000000E+00
  0.00000000E+00  0.00000000E+00  0.00000000E+00
  0.00000000E+00  0.00000000E+00  0.00000000E+00
  0.00000000E+00  0.00000000E+00  0.00000000E+00
  0.00000000E+00  0.00000000E+00  0.00000000E+00
  0.00000000E+00  0.00000000E+00  0.00000000E+00
  0.00000000E+00  0.00000000E+00  0.00000000E+00
  0.00000000E+00  0.00000000E+00  0.00000000E+00
