Be2 Tl2 F10                             
   1.0000000000000000     
     3.7695203104837147   -0.0000000000000000    0.0000000000000002
    -0.0000000000000005    7.3236292153492322    0.0000000000000005
     0.0000000000000001    0.0000000000000000    8.7076442285111213
   Be   Tl   F 
     2     2    10
Direct
  0.0000000000000000  0.0000000000000000  0.5000000000000000
  0.5000000000000000  0.5000000000000000  0.0000000000000000
  0.5000000000000000  0.0000000000000000  0.0000000000000000
  0.0000000000000000  0.5000000000000000  0.5000000000000000
  0.5000000000000000  0.8427288162460655  0.5000000000000000
  0.5000000000000000  0.1572711837539345  0.5000000000000000
  0.5000000000000000  0.0000000000000000  0.2382035304405576
  0.5000000000000000  0.0000000000000000  0.7617964695594424
  0.0000000000000000  0.0000000000000000  0.0000000000000000
  0.0000000000000000  0.3427288162460655  0.0000000000000000
  0.0000000000000000  0.6572711837539345  0.0000000000000000
  0.0000000000000000  0.5000000000000000  0.7382035304405576
  0.0000000000000000  0.5000000000000000  0.2617964695594424
  0.5000000000000000  0.5000000000000000  0.5000000000000000

  0.00000000E+00  0.00000000E+00  0.00000000E+00
  0.00000000E+00  0.00000000E+00  0.00000000E+00
  0.00000000E+00  0.00000000E+00  0.00000000E+00
  0.00000000E+00  0.00000000E+00  0.00000000E+00
  0.00000000E+00  0.00000000E+00  0.00000000E+00
  0.00000000E+00  0.00000000E+00  0.00000000E+00
  0.00000000E+00  0.00000000E+00  0.00000000E+00
  0.00000000E+00  0.00000000E+00  0.00000000E+00
  0.00000000E+00  0.00000000E+00  0.00000000E+00
  0.00000000E+00  0.00000000E+00  0.00000000E+00
  0.00000000E+00  0.00000000E+00  0.00000000E+00
  0.00000000E+00  0.00000000E+00  0.00000000E+00
  0.00000000E+00  0.00000000E+00  0.00000000E+00
  0.00000000E+00  0.00000000E+00  0.00000000E+00
