Mg4 In4 Br2                             
   1.0000000000000000     
     3.5605085535099916   -0.1104879812915310    0.0085884176027492
    -2.1840916889756823    5.1663271415776677    0.0007136361027689
    -0.0433567551283422   -0.0190783626344658   15.8896564570193419
   Br   In   Mg
     2     4     4
Direct
  0.6595498434037523  0.2413407599629309  0.2501196092656031
  0.3402412745318699  0.7586389195164074  0.7501407185066213
  0.3450315885184025  0.7134333003920759  0.0471850083844174
  0.3410607392932619  0.7080438342488904  0.4527590511960042
  0.6552385224669806  0.2865229433511445  0.5470703734867612
  0.6589232390884092  0.2920036659825058  0.9528275578191554
  0.1082945643753987  0.1586174437457757  0.1136864478688935
  0.1044531848973946  0.1530382723302992  0.3862370258016128
  0.8917297879099877  0.8413746525994199  0.6137081897152825
  0.8954772555145567  0.8469862078705432  0.8863660179555950

  0.00000000E+00  0.00000000E+00  0.00000000E+00
  0.00000000E+00  0.00000000E+00  0.00000000E+00
  0.00000000E+00  0.00000000E+00  0.00000000E+00
  0.00000000E+00  0.00000000E+00  0.00000000E+00
  0.00000000E+00  0.00000000E+00  0.00000000E+00
  0.00000000E+00  0.00000000E+00  0.00000000E+00
  0.00000000E+00  0.00000000E+00  0.00000000E+00
  0.00000000E+00  0.00000000E+00  0.00000000E+00
  0.00000000E+00  0.00000000E+00  0.00000000E+00
  0.00000000E+00  0.00000000E+00  0.00000000E+00
