Sr6 B4                                  
   1.00000000000000     
    -7.2509418939440362   -0.0004487187951835   -0.0016510716841695
     3.6250826045739837   -6.2785308957190749    0.0004804671785967
    -3.6243027203861078    2.0929045196902942    6.3502717999362872
   B    Sr
     4     6
Direct
  0.2911750051005910  0.7089368347461189  0.1267375091115781
  0.2088454505448851  0.7910028249980314  0.3732441228698278
  0.7911640810122975  0.2089836935252478  0.6267073585871472
  0.7088174433900392  0.2910706657340896  0.8732423988860702
  0.8695127046625757  0.3694077529673905  0.2499549340047835
  0.2499701477653389  0.1305662151725642  0.2500054964218847
  0.6305223678345584  0.7499606758958777  0.2499921511524548
  0.3694822080946309  0.2500526045669815  0.7499673759177625
  0.7500231700181814  0.8694266598413591  0.7499526564797492
  0.1304874215768876  0.6305920725523464  0.7499959965687211
 
  0.00000000E+00  0.00000000E+00  0.00000000E+00
  0.00000000E+00  0.00000000E+00  0.00000000E+00
  0.00000000E+00  0.00000000E+00  0.00000000E+00
  0.00000000E+00  0.00000000E+00  0.00000000E+00
  0.00000000E+00  0.00000000E+00  0.00000000E+00
  0.00000000E+00  0.00000000E+00  0.00000000E+00
  0.00000000E+00  0.00000000E+00  0.00000000E+00
  0.00000000E+00  0.00000000E+00  0.00000000E+00
  0.00000000E+00  0.00000000E+00  0.00000000E+00
  0.00000000E+00  0.00000000E+00  0.00000000E+00
