Ca4 Ga4 Cl20                            
   1.0000000000000000     
    12.6515504086427892    0.0000000000000000    0.0000000000000000
     0.0000000000000000    7.1340312209732515    0.9453624478131620
     0.0000000000000000    4.7637107302720567    9.7477367707536793
   Ca   Ga   Cl
     4     4    20
Direct
  0.9998140557409272  0.4605473877277078  0.3244156732448928
  0.4998140557409343  0.5394526122722993  0.1755843267551214
  0.0001859442590657  0.5394526122722993  0.6755843267551143
  0.5001859442590728  0.4605473877277078  0.8244156732448857
  0.7450193753916778  0.9958839838257063  0.5056044958751826
  0.2450193753916707  0.0041160161743008  0.9943955041248174
  0.2549806246083293  0.0041160161743008  0.4943955041248174
  0.7549806246083222  0.9958839838257063  0.0056044958751826
  0.6353797108828587  0.2726076665926485  0.4459113773709973
  0.1353797108828587  0.7273923334073515  0.0540886226290027
  0.3646202891171413  0.7273923334073515  0.5540886226290027
  0.8646202891171413  0.2726076665926485  0.9459113773709973
  0.8582518128350642  0.1250750706711372  0.3190962463914886
  0.3582518128350642  0.8749249293288628  0.1809037536085114
  0.1417481871649358  0.8749249293288628  0.6809037536085114
  0.6417481871649358  0.1250750706711372  0.8190962463914886
  0.3579101591910714  0.1380667716588277  0.8071183316360262
  0.8579101591910643  0.8619332283411651  0.6928816683639738
  0.6420898408089357  0.8619332283411651  0.1928816683639738
  0.1420898408089286  0.1380667716588277  0.3071183316360262
  0.6382781223605178  0.7134162639470105  0.5651831564356442
  0.1382781223605178  0.2865837360529895  0.9348168435643558
  0.3617218776394822  0.2865837360529895  0.4348168435643558
  0.8617218776394822  0.7134162639470105  0.0651831564356442
  0.3683599450152499  0.5103663220178873  0.9950343346375732
  0.8683599450152499  0.4896336779821127  0.5049656653624268
  0.6316400549847501  0.4896336779821127  0.0049656653624268
  0.1316400549847501  0.5103663220178873  0.4950343346375732

  0.00000000E+00  0.00000000E+00  0.00000000E+00
  0.00000000E+00  0.00000000E+00  0.00000000E+00
  0.00000000E+00  0.00000000E+00  0.00000000E+00
  0.00000000E+00  0.00000000E+00  0.00000000E+00
  0.00000000E+00  0.00000000E+00  0.00000000E+00
  0.00000000E+00  0.00000000E+00  0.00000000E+00
  0.00000000E+00  0.00000000E+00  0.00000000E+00
  0.00000000E+00  0.00000000E+00  0.00000000E+00
  0.00000000E+00  0.00000000E+00  0.00000000E+00
  0.00000000E+00  0.00000000E+00  0.00000000E+00
  0.00000000E+00  0.00000000E+00  0.00000000E+00
  0.00000000E+00  0.00000000E+00  0.00000000E+00
  0.00000000E+00  0.00000000E+00  0.00000000E+00
  0.00000000E+00  0.00000000E+00  0.00000000E+00
  0.00000000E+00  0.00000000E+00  0.00000000E+00
  0.00000000E+00  0.00000000E+00  0.00000000E+00
  0.00000000E+00  0.00000000E+00  0.00000000E+00
  0.00000000E+00  0.00000000E+00  0.00000000E+00
  0.00000000E+00  0.00000000E+00  0.00000000E+00
  0.00000000E+00  0.00000000E+00  0.00000000E+00
  0.00000000E+00  0.00000000E+00  0.00000000E+00
  0.00000000E+00  0.00000000E+00  0.00000000E+00
  0.00000000E+00  0.00000000E+00  0.00000000E+00
  0.00000000E+00  0.00000000E+00  0.00000000E+00
  0.00000000E+00  0.00000000E+00  0.00000000E+00
  0.00000000E+00  0.00000000E+00  0.00000000E+00
  0.00000000E+00  0.00000000E+00  0.00000000E+00
  0.00000000E+00  0.00000000E+00  0.00000000E+00
