Mg8 Tl10                                
   1.0000000000000000     
     5.6689542156535238   -0.0202879511835350    0.5775304910604406
    -2.8131354648725821    5.1004205910230356   -0.3936182128681734
     1.6696662232892057   -0.2671981487850348   16.6718881907203773
   Tl   Mg
    10     8
Direct
  0.7526987464795312  0.2961643506513738  0.0737712849426160
  0.9833589505489684  0.3087649195030124  0.2497233205099221
  0.6502667083869369  0.6417712178567854  0.2543196569492352
  0.3164527281127860  0.9712835474191408  0.2486166045515503
  0.5364493105546302  0.2886131545868693  0.4265970651453088
  0.4627857835830724  0.7114709854520314  0.5734510990253625
  0.6836682510058054  0.0286898450609456  0.7514215695705033
  0.3498223201556740  0.3581710405904701  0.7457602861870711
  0.0167613018744390  0.6912090364838122  0.7503412571307138
  0.2480870899368099  0.7039045343213104  0.9262972879127176
  0.4255663336388267  0.6364591186208060  0.0870499102144322
  0.0841663562397557  0.9770474805318941  0.0869076256983874
  0.8902291475523967  0.9866219837542616  0.4142162232321098
  0.2084603160637002  0.6423083764545154  0.4137223533722150
  0.7908490410156332  0.3578097923928567  0.5863048673684830
  0.1090858612289765  0.0135093824718240  0.5858240516216284
  0.9165559671851966  0.0230499152768360  0.9131566587290934
  0.5752357864368491  0.3636513185712573  0.9130188778386028

  0.00000000E+00  0.00000000E+00  0.00000000E+00
  0.00000000E+00  0.00000000E+00  0.00000000E+00
  0.00000000E+00  0.00000000E+00  0.00000000E+00
  0.00000000E+00  0.00000000E+00  0.00000000E+00
  0.00000000E+00  0.00000000E+00  0.00000000E+00
  0.00000000E+00  0.00000000E+00  0.00000000E+00
  0.00000000E+00  0.00000000E+00  0.00000000E+00
  0.00000000E+00  0.00000000E+00  0.00000000E+00
  0.00000000E+00  0.00000000E+00  0.00000000E+00
  0.00000000E+00  0.00000000E+00  0.00000000E+00
  0.00000000E+00  0.00000000E+00  0.00000000E+00
  0.00000000E+00  0.00000000E+00  0.00000000E+00
  0.00000000E+00  0.00000000E+00  0.00000000E+00
  0.00000000E+00  0.00000000E+00  0.00000000E+00
  0.00000000E+00  0.00000000E+00  0.00000000E+00
  0.00000000E+00  0.00000000E+00  0.00000000E+00
  0.00000000E+00  0.00000000E+00  0.00000000E+00
  0.00000000E+00  0.00000000E+00  0.00000000E+00
