Ca4 Tl6                                 
   1.0000000000000000     
     3.2894627963029768   -5.6087361067616168    0.0000000000000000
     3.2894627963029768    5.6087361067616168   -0.0000000000000000
     0.0000000000000000   -0.0000000000000000    8.6278830138112390
   Ca   Tl
     4     6
Direct
  0.1445277271805381  0.8554722728194619  0.1038879339635415
  0.6445277271805381  0.3554722728194619  0.3961120660364585
  0.3554722728194619  0.6445277271805381  0.6038879339635415
  0.8554722728194619  0.1445277271805381  0.8961120660364585
  0.5000000000000000  0.5000000000000000  0.0000000000000000
  0.1189939913560778  0.3810060086439222  0.2500000000000000
  0.6189939913560778  0.8810060086439222  0.2500000000000000
  0.0000000000000000  0.0000000000000000  0.5000000000000000
  0.3810060086439222  0.1189939913560778  0.7500000000000000
  0.8810060086439222  0.6189939913560778  0.7500000000000000

  0.00000000E+00  0.00000000E+00  0.00000000E+00
  0.00000000E+00  0.00000000E+00  0.00000000E+00
  0.00000000E+00  0.00000000E+00  0.00000000E+00
  0.00000000E+00  0.00000000E+00  0.00000000E+00
  0.00000000E+00  0.00000000E+00  0.00000000E+00
  0.00000000E+00  0.00000000E+00  0.00000000E+00
  0.00000000E+00  0.00000000E+00  0.00000000E+00
  0.00000000E+00  0.00000000E+00  0.00000000E+00
  0.00000000E+00  0.00000000E+00  0.00000000E+00
  0.00000000E+00  0.00000000E+00  0.00000000E+00
