Al3I                                    
   1.00000000000000     
     7.8181489966610558    0.0004788763942320    0.0000000000000000
    -3.9081649266625860    6.7710972406783680    0.0000000000000000
     0.0000000000000000    0.0000000000000000    3.9526771755539483
   Al   I 
     6     2
Direct
  0.1344242803633335  0.2687698337732343  0.2500000000000000
  0.1342631638899761  0.8657400175696068  0.2500000000000000
  0.7312229495206566  0.8655733652794169  0.2500000000000000
  0.2687770504793434  0.1344266347205831  0.7500000000000000
  0.8657368361100239  0.1342599824303932  0.7500000000000000
  0.8655757196366665  0.7312301662267657  0.7500000000000000
  0.6666475136094974  0.3333556564294824  0.2500000000000000
  0.3333524863905026  0.6666443435705176  0.7500000000000000
 
  0.00000000E+00  0.00000000E+00  0.00000000E+00
  0.00000000E+00  0.00000000E+00  0.00000000E+00
  0.00000000E+00  0.00000000E+00  0.00000000E+00
  0.00000000E+00  0.00000000E+00  0.00000000E+00
  0.00000000E+00  0.00000000E+00  0.00000000E+00
  0.00000000E+00  0.00000000E+00  0.00000000E+00
  0.00000000E+00  0.00000000E+00  0.00000000E+00
  0.00000000E+00  0.00000000E+00  0.00000000E+00
