Sr8 Ga2                                 
   1.00000000000000     
     5.6922418466339835    0.0000000000000000    0.0000000000000000
     0.0000000000000000    5.6922418466339826    0.0000000000000000
     0.0000000000000000    0.0000000000000000   14.0382841837295551
   Ga   Sr
     2     8
Direct
  0.0000000000000000  0.5000000000000000  0.1447472023281193
  0.5000000000000000  0.0000000000000000  0.8552527976718807
  0.0000000000000000  0.0000000000000000  0.0000000000000000
  0.5000000000000000  0.5000000000000000  0.0000000000000000
  0.0000000000000000  0.0000000000000000  0.2683996224216827
  0.5000000000000000  0.5000000000000000  0.2683996224216827
  0.0000000000000000  0.5000000000000000  0.4925195407952998
  0.5000000000000000  0.0000000000000000  0.5074804592047002
  0.0000000000000000  0.0000000000000000  0.7316003775783173
  0.5000000000000000  0.5000000000000000  0.7316003775783173
 
  0.00000000E+00  0.00000000E+00  0.00000000E+00
  0.00000000E+00  0.00000000E+00  0.00000000E+00
  0.00000000E+00  0.00000000E+00  0.00000000E+00
  0.00000000E+00  0.00000000E+00  0.00000000E+00
  0.00000000E+00  0.00000000E+00  0.00000000E+00
  0.00000000E+00  0.00000000E+00  0.00000000E+00
  0.00000000E+00  0.00000000E+00  0.00000000E+00
  0.00000000E+00  0.00000000E+00  0.00000000E+00
  0.00000000E+00  0.00000000E+00  0.00000000E+00
  0.00000000E+00  0.00000000E+00  0.00000000E+00
