Sr2In                                   
   1.0000000000000000     
     5.2089021762047798    3.0073891934853445    8.5059633628328566
    -5.2088810213387999    3.0073758229286320    8.5059551630216657
    -0.0000010019149807   -6.0147533809955824    8.5059551629464636
   In   Sr
     2     4
Direct
  0.2499973687513162  0.2499970680045891  0.2499970680045962
  0.5000026312486767  0.5000029319954109  0.5000029319954038
  0.8750000000000000  0.3750000000000000  0.3750000000000000
  0.3750000000000000  0.8750000000000000  0.3750000000000000
  0.3750000000000000  0.3750000000000000  0.3750000000000000
  0.3750000000000000  0.3750000000000000  0.8750000000000000

  0.00000000E+00  0.00000000E+00  0.00000000E+00
  0.00000000E+00  0.00000000E+00  0.00000000E+00
  0.00000000E+00  0.00000000E+00  0.00000000E+00
  0.00000000E+00  0.00000000E+00  0.00000000E+00
  0.00000000E+00  0.00000000E+00  0.00000000E+00
  0.00000000E+00  0.00000000E+00  0.00000000E+00
