Be9 B4                                  
   1.00000000000000     
     0.0018786893245561    0.0029916448067695    3.0801759226424261
    -3.4336038222529255    3.8577260111889458    1.5386595642069116
    -4.1660029363753663   -4.6791130185461975   -1.5365529055744944
   Be   B 
     9     4
Direct
  0.4999977242941966  0.9999824703196154  0.9999786438727725
  0.8595270465924827  0.3355343747098303  0.0567937660385098
  0.3829554185716830  0.5698761862558470  0.3368898687092496
  0.1368656698696711  0.9512010857426318  0.2248493475797062
  0.8080079949141208  0.8529813856229325  0.4685848926320304
  0.1920023976668972  0.1469573130808399  0.5313753225753359
  0.8631340144769695  0.0487523440254805  0.7751076094812035
  0.6170477939979975  0.4300721304646018  0.6630560002234915
  0.1404596021519779  0.6644338917856913  0.9431485233350401
  0.7365215229734829  0.7029613825057197  0.1766661424847769
  0.5694051626038714  0.1900698228078355  0.3277151382147352
  0.4306009954622070  0.8098782057269176  0.6722466185709592
  0.2634746564244352  0.2969994069520538  0.8232881262821721
 
  0.00000000E+00  0.00000000E+00  0.00000000E+00
  0.00000000E+00  0.00000000E+00  0.00000000E+00
  0.00000000E+00  0.00000000E+00  0.00000000E+00
  0.00000000E+00  0.00000000E+00  0.00000000E+00
  0.00000000E+00  0.00000000E+00  0.00000000E+00
  0.00000000E+00  0.00000000E+00  0.00000000E+00
  0.00000000E+00  0.00000000E+00  0.00000000E+00
  0.00000000E+00  0.00000000E+00  0.00000000E+00
  0.00000000E+00  0.00000000E+00  0.00000000E+00
  0.00000000E+00  0.00000000E+00  0.00000000E+00
  0.00000000E+00  0.00000000E+00  0.00000000E+00
  0.00000000E+00  0.00000000E+00  0.00000000E+00
  0.00000000E+00  0.00000000E+00  0.00000000E+00
