Mg2 B2 Cl10                             
   1.0000000000000000     
     4.1425642585890348   -0.0000000000000001    0.0000000000000003
    -0.0000000000000009   11.0960114270694383    0.0000000000000009
     0.0000000000000001    0.0000000000000003   10.2180810030158877
   Mg   B    Cl
     2     2    10
Direct
  0.0000000000000000  0.0000000000000000  0.5000000000000000
  0.5000000000000000  0.5000000000000000  0.0000000000000000
  0.5000000000000000  0.0000000000000000  0.0000000000000000
  0.0000000000000000  0.5000000000000000  0.5000000000000000
  0.5000000000000000  0.8590267009601220  0.5000000000000000
  0.5000000000000000  0.1409732990398780  0.5000000000000000
  0.5000000000000000  0.0000000000000000  0.1767549916531550
  0.5000000000000000  0.0000000000000000  0.8232450083468450
  0.0000000000000000  0.0000000000000000  0.0000000000000000
  0.0000000000000000  0.3590267009601220  0.0000000000000000
  0.0000000000000000  0.6409732990398780  0.0000000000000000
  0.0000000000000000  0.5000000000000000  0.6767549916531550
  0.0000000000000000  0.5000000000000000  0.3232450083468450
  0.5000000000000000  0.5000000000000000  0.5000000000000000

  0.00000000E+00  0.00000000E+00  0.00000000E+00
  0.00000000E+00  0.00000000E+00  0.00000000E+00
  0.00000000E+00  0.00000000E+00  0.00000000E+00
  0.00000000E+00  0.00000000E+00  0.00000000E+00
  0.00000000E+00  0.00000000E+00  0.00000000E+00
  0.00000000E+00  0.00000000E+00  0.00000000E+00
  0.00000000E+00  0.00000000E+00  0.00000000E+00
  0.00000000E+00  0.00000000E+00  0.00000000E+00
  0.00000000E+00  0.00000000E+00  0.00000000E+00
  0.00000000E+00  0.00000000E+00  0.00000000E+00
  0.00000000E+00  0.00000000E+00  0.00000000E+00
  0.00000000E+00  0.00000000E+00  0.00000000E+00
  0.00000000E+00  0.00000000E+00  0.00000000E+00
  0.00000000E+00  0.00000000E+00  0.00000000E+00
