Mg4 B4 Cl20                             
   1.0000000000000000     
    14.7094712431885739    0.0000000000000000    0.0000000000000000
     0.0000000000000000   10.4096792099173463   -2.8367636369994593
     0.0000000000000000    1.9478406533753991    6.3544442557092644
   Mg   B    Cl
     4     4    20
Direct
  0.9999858790566378  0.4995119129318795  0.2497831091032623
  0.4999858790566307  0.5004880870681205  0.2502168908967377
  0.0000141209433622  0.5004880870681205  0.7502168908967519
  0.5000141209433622  0.4995119129318795  0.7497831091032481
  0.8149546880670755  0.9968865963409641  0.5987851510196904
  0.3149546880670755  0.0031134036590430  0.9012148489803096
  0.1850453119329245  0.0031134036590430  0.4012148489803096
  0.6850453119329245  0.9968865963409641  0.0987851510196904
  0.5176665071930131  0.3428909081237208  0.5072051035310636
  0.0176665071930131  0.6571090918762721  0.9927948964689364
  0.4823334928069798  0.6571090918762721  0.4927948964689364
  0.9823334928069869  0.3428909081237208  0.0072051035310636
  0.8327253552633067  0.1567505686762090  0.5800885855618816
  0.3327253552633067  0.8432494313237910  0.9199114144381184
  0.1672746447366933  0.8432494313237910  0.4199114144381184
  0.6672746447366933  0.1567505686762090  0.0800885855618887
  0.4068621462895265  0.1049132907313606  0.8876587784129129
  0.9068621462895265  0.8950867092686394  0.6123412215870871
  0.5931378537104735  0.8950867092686394  0.1123412215870871
  0.0931378537104735  0.1049132907313606  0.3876587784129129
  0.7036612151354475  0.9388744385412977  0.6047681601483106
  0.2036612151354475  0.0611255614586952  0.8952318398516894
  0.2963387848645596  0.0611255614586952  0.3952318398516894
  0.7963387848645525  0.9388744385412977  0.1047681601483106
  0.3844080197506301  0.4809071089012349  0.0012525173613724
  0.8844080197506230  0.5190928910987722  0.4987474826386276
  0.6155919802493770  0.5190928910987722  0.9987474826386205
  0.1155919802493699  0.4809071089012349  0.5012525173613795

  0.00000000E+00  0.00000000E+00  0.00000000E+00
  0.00000000E+00  0.00000000E+00  0.00000000E+00
  0.00000000E+00  0.00000000E+00  0.00000000E+00
  0.00000000E+00  0.00000000E+00  0.00000000E+00
  0.00000000E+00  0.00000000E+00  0.00000000E+00
  0.00000000E+00  0.00000000E+00  0.00000000E+00
  0.00000000E+00  0.00000000E+00  0.00000000E+00
  0.00000000E+00  0.00000000E+00  0.00000000E+00
  0.00000000E+00  0.00000000E+00  0.00000000E+00
  0.00000000E+00  0.00000000E+00  0.00000000E+00
  0.00000000E+00  0.00000000E+00  0.00000000E+00
  0.00000000E+00  0.00000000E+00  0.00000000E+00
  0.00000000E+00  0.00000000E+00  0.00000000E+00
  0.00000000E+00  0.00000000E+00  0.00000000E+00
  0.00000000E+00  0.00000000E+00  0.00000000E+00
  0.00000000E+00  0.00000000E+00  0.00000000E+00
  0.00000000E+00  0.00000000E+00  0.00000000E+00
  0.00000000E+00  0.00000000E+00  0.00000000E+00
  0.00000000E+00  0.00000000E+00  0.00000000E+00
  0.00000000E+00  0.00000000E+00  0.00000000E+00
  0.00000000E+00  0.00000000E+00  0.00000000E+00
  0.00000000E+00  0.00000000E+00  0.00000000E+00
  0.00000000E+00  0.00000000E+00  0.00000000E+00
  0.00000000E+00  0.00000000E+00  0.00000000E+00
  0.00000000E+00  0.00000000E+00  0.00000000E+00
  0.00000000E+00  0.00000000E+00  0.00000000E+00
  0.00000000E+00  0.00000000E+00  0.00000000E+00
  0.00000000E+00  0.00000000E+00  0.00000000E+00
