Be10 Ga12                               
   1.00000000000000     
    -2.8624910101063090   -4.9413901233716553    0.0000000000000000
    -2.8351754241615188    4.9255132866392373    0.0000000000000000
     0.0000000000000000    0.0000000000000000  -10.6646473243936306
   Be   Ga
    10    12
Direct
  0.7891716343088220  0.7777102857782765  0.2500000000000000
  0.9930490442187931  0.2127313253728644  0.2500000000000000
  0.2238320351238627  0.0090053326683943  0.2500000000000000
  0.8776338263421053  0.5552215433021885  0.7500000000000000
  0.4428836057518097  0.3246780944065577  0.7500000000000000
  0.6733578438738093  0.1205691645351550  0.7500000000000000
  0.0004969902797782  0.0000379293175214  0.0706942854351311
  0.0004969902797782  0.0000379293175214  0.4293057145648689
  0.6658081184418165  0.3333238696643406  0.9294933114378949
  0.6658081184418165  0.3333238696643406  0.5705066885621051
  0.5620803164533683  0.9934967787094990  0.1146567002955123
  0.4348875406386412  0.4394621383997404  0.1140219705080270
  0.0093817097818558  0.5675505239698779  0.1136581130999872
  0.5620803164533683  0.9934967787094990  0.3853432997044877
  0.4348875406386412  0.4394621383997404  0.3859780294919730
  0.0093817097818558  0.5675505239698779  0.3863418869000128
  0.2318563384284502  0.8937562484174535  0.6140312279889457
  0.1045584055419440  0.3397520185513443  0.6146551886385012
  0.6576665856245398  0.7659626199384917  0.6136982905707740
  0.2318563384284502  0.8937562484174535  0.8859687720110543
  0.1045584055419440  0.3397520185513443  0.8853448113614988
  0.6576665856245398  0.7659626199384917  0.8863017094292260
 
  0.00000000E+00  0.00000000E+00  0.00000000E+00
  0.00000000E+00  0.00000000E+00  0.00000000E+00
  0.00000000E+00  0.00000000E+00  0.00000000E+00
  0.00000000E+00  0.00000000E+00  0.00000000E+00
  0.00000000E+00  0.00000000E+00  0.00000000E+00
  0.00000000E+00  0.00000000E+00  0.00000000E+00
  0.00000000E+00  0.00000000E+00  0.00000000E+00
  0.00000000E+00  0.00000000E+00  0.00000000E+00
  0.00000000E+00  0.00000000E+00  0.00000000E+00
  0.00000000E+00  0.00000000E+00  0.00000000E+00
  0.00000000E+00  0.00000000E+00  0.00000000E+00
  0.00000000E+00  0.00000000E+00  0.00000000E+00
  0.00000000E+00  0.00000000E+00  0.00000000E+00
  0.00000000E+00  0.00000000E+00  0.00000000E+00
  0.00000000E+00  0.00000000E+00  0.00000000E+00
  0.00000000E+00  0.00000000E+00  0.00000000E+00
  0.00000000E+00  0.00000000E+00  0.00000000E+00
  0.00000000E+00  0.00000000E+00  0.00000000E+00
  0.00000000E+00  0.00000000E+00  0.00000000E+00
  0.00000000E+00  0.00000000E+00  0.00000000E+00
  0.00000000E+00  0.00000000E+00  0.00000000E+00
  0.00000000E+00  0.00000000E+00  0.00000000E+00
