Mg2 Ga2 Br10                            
   1.00000000000000     
     8.8469088061317507   -4.8652671464234896    2.2874260449397461
     8.8469088061317507    4.8652671464234896    2.2874260449397461
    -3.3710447124788563    0.0000000000000000    7.1894992557293165
   Mg   Br   Ga
     2    10     2
Direct
  0.4448933493057368  0.4447891138131794  0.2629293963503798
  0.4447891138131794  0.4448933493057368  0.7629293963503798
  0.3408647073342763  0.3693913014413397  0.9748488796721233
  0.0377481204847285  0.2653652416459877  0.0979773372696684
  0.7465984200313827  0.1912368290995303  0.2669442521898873
  0.1902141934958337  0.7460406142958007  0.2789514635584638
  0.5569318636346381  0.5743956240398660  0.5633770449905668
  0.3693913014413397  0.3408647073342763  0.4748488796721233
  0.2653652416459877  0.0377481204847285  0.5979773372696684
  0.1912368290995303  0.7465984200313827  0.7669442521898873
  0.7460406142958007  0.1902141934958337  0.7789514635584638
  0.5743956240398660  0.5569318636346381  0.0633770449905668
  0.8028976586996350  0.2882329626780447  0.0549716259689532
  0.2882329626780447  0.8028976586996350  0.5549716259689603
 
  0.00000000E+00  0.00000000E+00  0.00000000E+00
  0.00000000E+00  0.00000000E+00  0.00000000E+00
  0.00000000E+00  0.00000000E+00  0.00000000E+00
  0.00000000E+00  0.00000000E+00  0.00000000E+00
  0.00000000E+00  0.00000000E+00  0.00000000E+00
  0.00000000E+00  0.00000000E+00  0.00000000E+00
  0.00000000E+00  0.00000000E+00  0.00000000E+00
  0.00000000E+00  0.00000000E+00  0.00000000E+00
  0.00000000E+00  0.00000000E+00  0.00000000E+00
  0.00000000E+00  0.00000000E+00  0.00000000E+00
  0.00000000E+00  0.00000000E+00  0.00000000E+00
  0.00000000E+00  0.00000000E+00  0.00000000E+00
  0.00000000E+00  0.00000000E+00  0.00000000E+00
  0.00000000E+00  0.00000000E+00  0.00000000E+00
