Sr1 Al3 I6                              
   1.00000000000000     
     8.5582019969584309    0.0001603202390948    0.0004402985528479
     0.0001603202390948    8.5582019969584309    0.0004402985528480
     4.2794910020316035    4.2794910020316035    6.0529521798057520
   I    Sr   Al
     6     1     3
Direct
  0.7366643492030818  0.2633356507969182  0.0000000000000000
  0.2635387493834642  0.2635387493834642  0.9994248024919727
  0.2633356507969182  0.7366643492030818  0.0000000000000000
  0.7364612506165358  0.7364612506165358  0.0005751975080273
  0.7374134143374320  0.7374134143374320  0.5263008975028853
  0.2625865856625680  0.2625865856625680  0.4736991024971147
  0.0000000000000000  0.0000000000000000  0.0000000000000000
  0.5000000000000000  0.5000000000000000  0.0000000000000000
  0.2496832051999789  0.7503167948000211  0.5000000000000000
  0.7503167948000211  0.2496832051999789  0.5000000000000000
 
  0.00000000E+00  0.00000000E+00  0.00000000E+00
  0.00000000E+00  0.00000000E+00  0.00000000E+00
  0.00000000E+00  0.00000000E+00  0.00000000E+00
  0.00000000E+00  0.00000000E+00  0.00000000E+00
  0.00000000E+00  0.00000000E+00  0.00000000E+00
  0.00000000E+00  0.00000000E+00  0.00000000E+00
  0.00000000E+00  0.00000000E+00  0.00000000E+00
  0.00000000E+00  0.00000000E+00  0.00000000E+00
  0.00000000E+00  0.00000000E+00  0.00000000E+00
  0.00000000E+00  0.00000000E+00  0.00000000E+00
