Ba4 Al2 Cl10                            
   1.00000000000000     
     8.7727881277871802   -0.0005964273340000    0.0056187901745284
    -0.0005964273340000    8.7727881277871802    0.0056187901745283
     4.3905232671822629    4.3905232671822629    6.4306930388102916
   Cl   Ba   Al
    10     4     2
Direct
  0.4999777587957652  0.9999313205470557  0.0001290075784084
  0.9999313205470557  0.4999777587957652  0.0001290075784084
  0.7103681953136132  0.0050778153446061  0.2834226357820882
  0.2106349083228380  0.2106349083228380  0.2836230626215794
  0.5058219156316284  0.5058219156316284  0.2829895133290847
  0.0050778153446061  0.7103681953136132  0.2834226357820882
  0.9950620536188026  0.2897123423745995  0.7166646597607240
  0.4942003509262207  0.4942003509262207  0.7170499515782822
  0.7893885043957809  0.7893885043957809  0.7165006225082067
  0.2897123423745995  0.9950620536188026  0.7166646597607240
  0.1562699719708647  0.1562699719708647  0.0005693552378716
  0.6565832801830069  0.3434528770042675  0.9999657485179014
  0.3434528770042675  0.6565832801830069  0.9999657485179014
  0.8437913603490372  0.8437913603490372  0.9994822012287372
  0.7498169167873883  0.2500104284345070  0.4997105951090006
  0.2500104284345070  0.7498169167873883  0.4997105951090006
 
  0.00000000E+00  0.00000000E+00  0.00000000E+00
  0.00000000E+00  0.00000000E+00  0.00000000E+00
  0.00000000E+00  0.00000000E+00  0.00000000E+00
  0.00000000E+00  0.00000000E+00  0.00000000E+00
  0.00000000E+00  0.00000000E+00  0.00000000E+00
  0.00000000E+00  0.00000000E+00  0.00000000E+00
  0.00000000E+00  0.00000000E+00  0.00000000E+00
  0.00000000E+00  0.00000000E+00  0.00000000E+00
  0.00000000E+00  0.00000000E+00  0.00000000E+00
  0.00000000E+00  0.00000000E+00  0.00000000E+00
  0.00000000E+00  0.00000000E+00  0.00000000E+00
  0.00000000E+00  0.00000000E+00  0.00000000E+00
  0.00000000E+00  0.00000000E+00  0.00000000E+00
  0.00000000E+00  0.00000000E+00  0.00000000E+00
  0.00000000E+00  0.00000000E+00  0.00000000E+00
  0.00000000E+00  0.00000000E+00  0.00000000E+00
