Ba16 Ga16 F80                           
   1.0000000000000000     
    14.6758861195457673    0.0000000232737838    0.0000000000000009
    -0.0000000232737848   14.6758861195457673    0.0000000000000009
    -0.0000000000000000   -0.0000000000000000    7.5919569651907359
   Ba   Ga   F 
    16    16    80
Direct
  0.5516306842697958  0.7156042136267544  0.4952538064407790
  0.2156042136267402  0.9483693157302042  0.9952538064407861
  0.7843957863732456  0.0516306842697958  0.9952538064407861
  0.4483693157302042  0.2843957863732527  0.4952538064407790
  0.2421163815482501  0.0711232382173037  0.4951149873540075
  0.5711232382173037  0.2578836184517499  0.9951149873540004
  0.4288767617826963  0.7421163815482501  0.9951149873540004
  0.7578836184517499  0.9288767617826963  0.4951149873540075
  0.0516306842697958  0.2156042136267402  0.9952538064407861
  0.7156042136267544  0.4483693157302042  0.4952538064407790
  0.2843957863732527  0.5516306842697958  0.4952538064407790
  0.9483693157302042  0.7843957863732456  0.9952538064407861
  0.7421163815482501  0.5711232382173037  0.9951149873540004
  0.0711232382173037  0.7578836184517499  0.4951149873540075
  0.9288767617826963  0.2421163815482501  0.4951149873540075
  0.2578836184517499  0.4288767617826963  0.9951149873540004
  0.0000000000000000  0.0000000000000000  0.7420410260988035
  0.0000000000000000  0.0000000000000000  0.2463330818150524
  0.5000000000000000  0.0000000000000000  0.9958457020655871
  0.5000000000000000  0.0000000000000000  0.4958457020655942
  0.3336285807157040  0.1832174989090731  0.9953952164657807
  0.6832174989090731  0.1663714192842960  0.4953952164657807
  0.3167825010909269  0.8336285807157040  0.4953952164657807
  0.6663714192842960  0.8167825010909269  0.9953952164657807
  0.5000000000000000  0.5000000000000000  0.2420410260988035
  0.5000000000000000  0.5000000000000000  0.7463330818150524
  0.0000000000000000  0.5000000000000000  0.4958457020655942
  0.0000000000000000  0.5000000000000000  0.9958457020655871
  0.8336285807157040  0.6832174989090731  0.4953952164657807
  0.1832174989090731  0.6663714192842960  0.9953952164657807
  0.8167825010909269  0.3336285807157040  0.9953952164657807
  0.1663714192842960  0.3167825010909269  0.4953952164657807
  0.0000000000000000  0.0000000000000000  0.9942105123464842
  0.0000000000000000  0.0000000000000000  0.4941168258674651
  0.1162960598750828  0.0532575130591582  0.7570127415470438
  0.5532575130591582  0.3837039401249172  0.2570127415470438
  0.4467424869408418  0.6162960598750828  0.2570127415470438
  0.8837039401249172  0.9467424869408418  0.7570127415470438
  0.1161548508064314  0.0537013795912245  0.2317863592809957
  0.5537013795912173  0.3838451491935686  0.7317863592810028
  0.4462986204087827  0.6161548508064314  0.7317863592810028
  0.8838451491935686  0.9462986204087827  0.2317863592809957
  0.5000000000000000  0.0000000000000000  0.7457558165690799
  0.5000000000000000  0.0000000000000000  0.2457558165690799
  0.4498166453289301  0.1190943860658322  0.9946286810744240
  0.6190943860658322  0.0501833546710699  0.4946286810744311
  0.3809056139341678  0.9498166453289301  0.4946286810744311
  0.5501833546710699  0.8809056139341678  0.9946286810744240
  0.4338750202531543  0.1107067692129888  0.4957849572452346
  0.6107067692129888  0.0661249797468457  0.9957849572452275
  0.3892932307870112  0.9338750202531543  0.9957849572452275
  0.5661249797468315  0.8892932307870112  0.4957849572452346
  0.3926011720388800  0.2607916769233469  0.8269369876015631
  0.7607916769233469  0.1073988279611129  0.3269369876015631
  0.2392083230766531  0.8926011720388800  0.3269369876015631
  0.6073988279611200  0.7392083230766531  0.8269369876015631
  0.3929051560435326  0.2604761737488701  0.1638533628366616
  0.7604761737488701  0.1070948439564745  0.6638533628366616
  0.2395238262511299  0.8929051560435184  0.6638533628366616
  0.6070948439564816  0.7395238262511299  0.1638533628366616
  0.2903000525630191  0.0996092243014104  0.8243384012498680
  0.5996092243014104  0.2096999474369738  0.3243384012498680
  0.4003907756985896  0.7903000525630262  0.3243384012498680
  0.7096999474369738  0.9003907756985896  0.8243384012498680
  0.2908548088161709  0.0993407592302518  0.1666295315002344
  0.5993407592302518  0.2091451911838291  0.6666295315002344
  0.4006592407697482  0.7908548088161709  0.6666295315002344
  0.7091451911838291  0.9006592407697482  0.1666295315002344
  0.7260711165675744  0.7535286838146078  0.4961325965540482
  0.2535286838146078  0.7739288834324185  0.9961325965540553
  0.7464713161853922  0.2260711165675744  0.9961325965540553
  0.2739288834324185  0.2464713161853922  0.4961325965540482
  0.5000000000000000  0.5000000000000000  0.4942105123464842
  0.5000000000000000  0.5000000000000000  0.9941168258674793
  0.6162960598750828  0.5532575130591582  0.2570127415470438
  0.0532575130591582  0.8837039401249172  0.7570127415470438
  0.9467424869408418  0.1162960598750828  0.7570127415470438
  0.3837039401249172  0.4467424869408418  0.2570127415470438
  0.6161548508064314  0.5537013795912173  0.7317863592810028
  0.0537013795912245  0.8838451491935686  0.2317863592809957
  0.9462986204087827  0.1161548508064314  0.2317863592809957
  0.3838451491935686  0.4462986204087827  0.7317863592810028
  0.0000000000000000  0.5000000000000000  0.2457558165690799
  0.0000000000000000  0.5000000000000000  0.7457558165690799
  0.9498166453289301  0.6190943860658322  0.4946286810744311
  0.1190943860658322  0.5501833546710699  0.9946286810744240
  0.8809056139341678  0.4498166453289301  0.9946286810744240
  0.0501833546710699  0.3809056139341678  0.4946286810744311
  0.9338750202531543  0.6107067692129888  0.9957849572452275
  0.1107067692129888  0.5661249797468315  0.4957849572452346
  0.8892932307870112  0.4338750202531543  0.4957849572452346
  0.0661249797468457  0.3892932307870112  0.9957849572452275
  0.8926011720388800  0.7607916769233469  0.3269369876015631
  0.2607916769233469  0.6073988279611200  0.8269369876015631
  0.7392083230766531  0.3926011720388800  0.8269369876015631
  0.1073988279611129  0.2392083230766531  0.3269369876015631
  0.8929051560435184  0.7604761737488701  0.6638533628366616
  0.2604761737488701  0.6070948439564816  0.1638533628366616
  0.7395238262511299  0.3929051560435326  0.1638533628366616
  0.1070948439564745  0.2395238262511299  0.6638533628366616
  0.7903000525630262  0.5996092243014104  0.3243384012498680
  0.0996092243014104  0.7096999474369738  0.8243384012498680
  0.9003907756985896  0.2903000525630191  0.8243384012498680
  0.2096999474369738  0.4003907756985896  0.3243384012498680
  0.7908548088161709  0.5993407592302518  0.6666295315002344
  0.0993407592302518  0.7091451911838291  0.1666295315002344
  0.9006592407697482  0.2908548088161709  0.1666295315002344
  0.2091451911838291  0.4006592407697482  0.6666295315002344
  0.2260711165675744  0.2535286838146078  0.9961325965540553
  0.7535286838146078  0.2739288834324185  0.4961325965540482
  0.2464713161853922  0.7260711165675744  0.4961325965540482
  0.7739288834324185  0.7464713161853922  0.9961325965540553

  0.00000000E+00  0.00000000E+00  0.00000000E+00
  0.00000000E+00  0.00000000E+00  0.00000000E+00
  0.00000000E+00  0.00000000E+00  0.00000000E+00
  0.00000000E+00  0.00000000E+00  0.00000000E+00
  0.00000000E+00  0.00000000E+00  0.00000000E+00
  0.00000000E+00  0.00000000E+00  0.00000000E+00
  0.00000000E+00  0.00000000E+00  0.00000000E+00
  0.00000000E+00  0.00000000E+00  0.00000000E+00
  0.00000000E+00  0.00000000E+00  0.00000000E+00
  0.00000000E+00  0.00000000E+00  0.00000000E+00
  0.00000000E+00  0.00000000E+00  0.00000000E+00
  0.00000000E+00  0.00000000E+00  0.00000000E+00
  0.00000000E+00  0.00000000E+00  0.00000000E+00
  0.00000000E+00  0.00000000E+00  0.00000000E+00
  0.00000000E+00  0.00000000E+00  0.00000000E+00
  0.00000000E+00  0.00000000E+00  0.00000000E+00
  0.00000000E+00  0.00000000E+00  0.00000000E+00
  0.00000000E+00  0.00000000E+00  0.00000000E+00
  0.00000000E+00  0.00000000E+00  0.00000000E+00
  0.00000000E+00  0.00000000E+00  0.00000000E+00
  0.00000000E+00  0.00000000E+00  0.00000000E+00
  0.00000000E+00  0.00000000E+00  0.00000000E+00
  0.00000000E+00  0.00000000E+00  0.00000000E+00
  0.00000000E+00  0.00000000E+00  0.00000000E+00
  0.00000000E+00  0.00000000E+00  0.00000000E+00
  0.00000000E+00  0.00000000E+00  0.00000000E+00
  0.00000000E+00  0.00000000E+00  0.00000000E+00
  0.00000000E+00  0.00000000E+00  0.00000000E+00
  0.00000000E+00  0.00000000E+00  0.00000000E+00
  0.00000000E+00  0.00000000E+00  0.00000000E+00
  0.00000000E+00  0.00000000E+00  0.00000000E+00
  0.00000000E+00  0.00000000E+00  0.00000000E+00
  0.00000000E+00  0.00000000E+00  0.00000000E+00
  0.00000000E+00  0.00000000E+00  0.00000000E+00
  0.00000000E+00  0.00000000E+00  0.00000000E+00
  0.00000000E+00  0.00000000E+00  0.00000000E+00
  0.00000000E+00  0.00000000E+00  0.00000000E+00
  0.00000000E+00  0.00000000E+00  0.00000000E+00
  0.00000000E+00  0.00000000E+00  0.00000000E+00
  0.00000000E+00  0.00000000E+00  0.00000000E+00
  0.00000000E+00  0.00000000E+00  0.00000000E+00
  0.00000000E+00  0.00000000E+00  0.00000000E+00
  0.00000000E+00  0.00000000E+00  0.00000000E+00
  0.00000000E+00  0.00000000E+00  0.00000000E+00
  0.00000000E+00  0.00000000E+00  0.00000000E+00
  0.00000000E+00  0.00000000E+00  0.00000000E+00
  0.00000000E+00  0.00000000E+00  0.00000000E+00
  0.00000000E+00  0.00000000E+00  0.00000000E+00
  0.00000000E+00  0.00000000E+00  0.00000000E+00
  0.00000000E+00  0.00000000E+00  0.00000000E+00
  0.00000000E+00  0.00000000E+00  0.00000000E+00
  0.00000000E+00  0.00000000E+00  0.00000000E+00
  0.00000000E+00  0.00000000E+00  0.00000000E+00
  0.00000000E+00  0.00000000E+00  0.00000000E+00
  0.00000000E+00  0.00000000E+00  0.00000000E+00
  0.00000000E+00  0.00000000E+00  0.00000000E+00
  0.00000000E+00  0.00000000E+00  0.00000000E+00
  0.00000000E+00  0.00000000E+00  0.00000000E+00
  0.00000000E+00  0.00000000E+00  0.00000000E+00
  0.00000000E+00  0.00000000E+00  0.00000000E+00
  0.00000000E+00  0.00000000E+00  0.00000000E+00
  0.00000000E+00  0.00000000E+00  0.00000000E+00
  0.00000000E+00  0.00000000E+00  0.00000000E+00
  0.00000000E+00  0.00000000E+00  0.00000000E+00
  0.00000000E+00  0.00000000E+00  0.00000000E+00
  0.00000000E+00  0.00000000E+00  0.00000000E+00
  0.00000000E+00  0.00000000E+00  0.00000000E+00
  0.00000000E+00  0.00000000E+00  0.00000000E+00
  0.00000000E+00  0.00000000E+00  0.00000000E+00
  0.00000000E+00  0.00000000E+00  0.00000000E+00
  0.00000000E+00  0.00000000E+00  0.00000000E+00
  0.00000000E+00  0.00000000E+00  0.00000000E+00
  0.00000000E+00  0.00000000E+00  0.00000000E+00
  0.00000000E+00  0.00000000E+00  0.00000000E+00
  0.00000000E+00  0.00000000E+00  0.00000000E+00
  0.00000000E+00  0.00000000E+00  0.00000000E+00
  0.00000000E+00  0.00000000E+00  0.00000000E+00
  0.00000000E+00  0.00000000E+00  0.00000000E+00
  0.00000000E+00  0.00000000E+00  0.00000000E+00
  0.00000000E+00  0.00000000E+00  0.00000000E+00
  0.00000000E+00  0.00000000E+00  0.00000000E+00
  0.00000000E+00  0.00000000E+00  0.00000000E+00
  0.00000000E+00  0.00000000E+00  0.00000000E+00
  0.00000000E+00  0.00000000E+00  0.00000000E+00
  0.00000000E+00  0.00000000E+00  0.00000000E+00
  0.00000000E+00  0.00000000E+00  0.00000000E+00
  0.00000000E+00  0.00000000E+00  0.00000000E+00
  0.00000000E+00  0.00000000E+00  0.00000000E+00
  0.00000000E+00  0.00000000E+00  0.00000000E+00
  0.00000000E+00  0.00000000E+00  0.00000000E+00
  0.00000000E+00  0.00000000E+00  0.00000000E+00
  0.00000000E+00  0.00000000E+00  0.00000000E+00
  0.00000000E+00  0.00000000E+00  0.00000000E+00
  0.00000000E+00  0.00000000E+00  0.00000000E+00
  0.00000000E+00  0.00000000E+00  0.00000000E+00
  0.00000000E+00  0.00000000E+00  0.00000000E+00
  0.00000000E+00  0.00000000E+00  0.00000000E+00
  0.00000000E+00  0.00000000E+00  0.00000000E+00
  0.00000000E+00  0.00000000E+00  0.00000000E+00
  0.00000000E+00  0.00000000E+00  0.00000000E+00
  0.00000000E+00  0.00000000E+00  0.00000000E+00
  0.00000000E+00  0.00000000E+00  0.00000000E+00
  0.00000000E+00  0.00000000E+00  0.00000000E+00
  0.00000000E+00  0.00000000E+00  0.00000000E+00
  0.00000000E+00  0.00000000E+00  0.00000000E+00
  0.00000000E+00  0.00000000E+00  0.00000000E+00
  0.00000000E+00  0.00000000E+00  0.00000000E+00
  0.00000000E+00  0.00000000E+00  0.00000000E+00
  0.00000000E+00  0.00000000E+00  0.00000000E+00
  0.00000000E+00  0.00000000E+00  0.00000000E+00
  0.00000000E+00  0.00000000E+00  0.00000000E+00
  0.00000000E+00  0.00000000E+00  0.00000000E+00
