MgGa2                                   
   1.00000000000000     
     6.9036860586336921   -0.0000356876117453    0.0000000000000000
    -0.0000970085151424   16.3928577021866708    0.0000000000000000
     0.0000000000000000    0.0000000000000000    4.0889951455979929
   Ga   Mg
    16     8
Direct
  0.9024992453130452  0.0665867903432442  0.0000000000000000
  0.4024728814872987  0.4333992559453890  0.0000000000000000
  0.5974709906644478  0.5665878697452200  0.0000000000000000
  0.0974856299469309  0.9334045988089557  0.0000000000000000
  0.6466614011809853  0.0614994646007787  0.5000000000000000
  0.0328183512158589  0.1584728244947300  0.5000000000000000
  0.4140562781894133  0.1900824812275630  0.5000000000000000
  0.9140183485968905  0.3098938498223447  0.5000000000000000
  0.5327867672558781  0.3415103663593086  0.5000000000000000
  0.1466487461874664  0.4384547180500533  0.5000000000000000
  0.8533068260543004  0.5615055480104374  0.5000000000000000
  0.4671848004392416  0.6584749398428329  0.5000000000000000
  0.0859529202650364  0.6900761775360493  0.5000000000000000
  0.5859648802276638  0.8098910682775511  0.5000000000000000
  0.9672081631625176  0.8415063119441442  0.5000000000000000
  0.3533164832674416  0.9384489300950918  0.5000000000000000
  0.3236705526029695  0.0769201511373154  0.0000000000000000
  0.7064007171525120  0.2191941810369187  0.0000000000000000
  0.2063800078365006  0.2807880605389244  0.0000000000000000
  0.8236145248854925  0.4230639350030572  0.0000000000000000
  0.1763197888484171  0.5769119911588660  0.0000000000000000
  0.7936205883986673  0.7191859964796166  0.0000000000000000
  0.2935819173914069  0.7807910733625150  0.0000000000000000
  0.6763591894296184  0.9230494161790830  0.0000000000000000
 
  0.00000000E+00  0.00000000E+00  0.00000000E+00
  0.00000000E+00  0.00000000E+00  0.00000000E+00
  0.00000000E+00  0.00000000E+00  0.00000000E+00
  0.00000000E+00  0.00000000E+00  0.00000000E+00
  0.00000000E+00  0.00000000E+00  0.00000000E+00
  0.00000000E+00  0.00000000E+00  0.00000000E+00
  0.00000000E+00  0.00000000E+00  0.00000000E+00
  0.00000000E+00  0.00000000E+00  0.00000000E+00
  0.00000000E+00  0.00000000E+00  0.00000000E+00
  0.00000000E+00  0.00000000E+00  0.00000000E+00
  0.00000000E+00  0.00000000E+00  0.00000000E+00
  0.00000000E+00  0.00000000E+00  0.00000000E+00
  0.00000000E+00  0.00000000E+00  0.00000000E+00
  0.00000000E+00  0.00000000E+00  0.00000000E+00
  0.00000000E+00  0.00000000E+00  0.00000000E+00
  0.00000000E+00  0.00000000E+00  0.00000000E+00
  0.00000000E+00  0.00000000E+00  0.00000000E+00
  0.00000000E+00  0.00000000E+00  0.00000000E+00
  0.00000000E+00  0.00000000E+00  0.00000000E+00
  0.00000000E+00  0.00000000E+00  0.00000000E+00
  0.00000000E+00  0.00000000E+00  0.00000000E+00
  0.00000000E+00  0.00000000E+00  0.00000000E+00
  0.00000000E+00  0.00000000E+00  0.00000000E+00
  0.00000000E+00  0.00000000E+00  0.00000000E+00
