Mg2 Al2 Br10                            
   1.0000000000000000     
     4.6117449014190850   -0.0000000000000002    0.0000000000000003
    -0.0000000000000010   11.7032610627133735    0.0000000000000011
     0.0000000000000001    0.0000000000000005   11.7709607071385154
   Mg   Al   Br
     2     2    10
Direct
  0.0000000000000000  0.0000000000000000  0.5000000000000000
  0.5000000000000000  0.5000000000000000  0.0000000000000000
  0.5000000000000000  0.0000000000000000  0.0000000000000000
  0.0000000000000000  0.5000000000000000  0.5000000000000000
  0.5000000000000000  0.8560827647497433  0.5000000000000000
  0.5000000000000000  0.1439172352502567  0.5000000000000000
  0.5000000000000000  0.0000000000000000  0.1977127250668858
  0.5000000000000000  0.0000000000000000  0.8022872749331142
  0.0000000000000000  0.0000000000000000  0.0000000000000000
  0.0000000000000000  0.3560827647497433  0.0000000000000000
  0.0000000000000000  0.6439172352502567  0.0000000000000000
  0.0000000000000000  0.5000000000000000  0.6977127250668858
  0.0000000000000000  0.5000000000000000  0.3022872749331142
  0.5000000000000000  0.5000000000000000  0.5000000000000000

  0.00000000E+00  0.00000000E+00  0.00000000E+00
  0.00000000E+00  0.00000000E+00  0.00000000E+00
  0.00000000E+00  0.00000000E+00  0.00000000E+00
  0.00000000E+00  0.00000000E+00  0.00000000E+00
  0.00000000E+00  0.00000000E+00  0.00000000E+00
  0.00000000E+00  0.00000000E+00  0.00000000E+00
  0.00000000E+00  0.00000000E+00  0.00000000E+00
  0.00000000E+00  0.00000000E+00  0.00000000E+00
  0.00000000E+00  0.00000000E+00  0.00000000E+00
  0.00000000E+00  0.00000000E+00  0.00000000E+00
  0.00000000E+00  0.00000000E+00  0.00000000E+00
  0.00000000E+00  0.00000000E+00  0.00000000E+00
  0.00000000E+00  0.00000000E+00  0.00000000E+00
  0.00000000E+00  0.00000000E+00  0.00000000E+00
