Sr1 B3 F6                               
   1.00000000000000     
    -2.8443456011554682    4.2344308758841382    2.5176246729207148
     3.1466756321975513   -4.4897901870694632    3.1466756321975531
     2.5176246729207161    4.2344308758841409   -2.8443456011554686
   F    Sr   B 
     6     1     3
Direct
  0.2784999436235154  0.5725008725466481  0.2784999436235225
  0.6857362925397226  0.0000000000000000  0.3142637074602774
  0.2790483326997375  0.9856310027900861  0.2790483326997375
  0.7209516673002625  0.0143689972099139  0.7209516673002625
  0.7215000563764775  0.4274991274533519  0.7215000563764775
  0.3142637074602774  0.0000000000000000  0.6857362925397226
  0.0000000000000000  0.0000000000000000  0.0000000000000000
  0.8869008859242484  0.5000000000000000  0.1130991140757516
  0.5000000000000000  0.0000000000000000  0.5000000000000000
  0.1130991140757516  0.5000000000000000  0.8869008859242484
 
  0.00000000E+00  0.00000000E+00  0.00000000E+00
  0.00000000E+00  0.00000000E+00  0.00000000E+00
  0.00000000E+00  0.00000000E+00  0.00000000E+00
  0.00000000E+00  0.00000000E+00  0.00000000E+00
  0.00000000E+00  0.00000000E+00  0.00000000E+00
  0.00000000E+00  0.00000000E+00  0.00000000E+00
  0.00000000E+00  0.00000000E+00  0.00000000E+00
  0.00000000E+00  0.00000000E+00  0.00000000E+00
  0.00000000E+00  0.00000000E+00  0.00000000E+00
  0.00000000E+00  0.00000000E+00  0.00000000E+00
