Mg2 B2 F6                               
   1.00000000000000     
     6.4480652481656158    0.0981233850373979    0.0000000000000000
    -3.2989695105973982    3.4921603907569980    0.0000000000000000
     0.0000000000000000    0.0000000000000000    5.4587289618961421
   F    Mg   B 
     6     2     2
Direct
  0.5440628626876176  0.1437243241313624  0.2500000000000000
  0.7290667697690765  0.8075756881381437  0.2500000000000000
  0.1699354323953131  0.5249226975624026  0.2500000000000000
  0.8300645676046869  0.4750773024375974  0.7500000000000000
  0.2709332302309235  0.1924243118618563  0.7500000000000000
  0.4559371373123753  0.8562756758686305  0.7500000000000000
  0.0000000000000000  0.0000000000000000  0.0000000000000000
  0.0000000000000000  0.0000000000000000  0.5000000000000000
  0.2657047987386107  0.8910563255539614  0.2500000000000000
  0.7342952012613893  0.1089436744460386  0.7500000000000000
 
  0.00000000E+00  0.00000000E+00  0.00000000E+00
  0.00000000E+00  0.00000000E+00  0.00000000E+00
  0.00000000E+00  0.00000000E+00  0.00000000E+00
  0.00000000E+00  0.00000000E+00  0.00000000E+00
  0.00000000E+00  0.00000000E+00  0.00000000E+00
  0.00000000E+00  0.00000000E+00  0.00000000E+00
  0.00000000E+00  0.00000000E+00  0.00000000E+00
  0.00000000E+00  0.00000000E+00  0.00000000E+00
  0.00000000E+00  0.00000000E+00  0.00000000E+00
  0.00000000E+00  0.00000000E+00  0.00000000E+00
