Sr1 In3 Br6                             
   1.00000000000000     
     8.2763364894043114   -0.0002480213539224    0.0000870214210493
    -0.0002480213539224    8.2763364894043097    0.0000870214210493
     4.1381102450034595    4.1381102450034586    5.8526775682967509
   Br   Sr   In
     6     1     3
Direct
  0.7452753807268735  0.2547246192731265  0.0000000000000000
  0.2547044278434356  0.2547044278434356  0.9999717063524045
  0.2547246192731265  0.7452753807268735  0.0000000000000000
  0.7452955721565644  0.7452955721565644  0.0000282936475955
  0.7452576509894158  0.7452576509894158  0.5094526250925142
  0.2547423490105842  0.2547423490105842  0.4905473749074858
  0.0000000000000000  0.0000000000000000  0.0000000000000000
  0.5000000000000000  0.5000000000000000  0.0000000000000000
  0.2500067478619954  0.7499932521380046  0.5000000000000000
  0.7499932521380046  0.2500067478619954  0.5000000000000000
 
  0.00000000E+00  0.00000000E+00  0.00000000E+00
  0.00000000E+00  0.00000000E+00  0.00000000E+00
  0.00000000E+00  0.00000000E+00  0.00000000E+00
  0.00000000E+00  0.00000000E+00  0.00000000E+00
  0.00000000E+00  0.00000000E+00  0.00000000E+00
  0.00000000E+00  0.00000000E+00  0.00000000E+00
  0.00000000E+00  0.00000000E+00  0.00000000E+00
  0.00000000E+00  0.00000000E+00  0.00000000E+00
  0.00000000E+00  0.00000000E+00  0.00000000E+00
  0.00000000E+00  0.00000000E+00  0.00000000E+00
