Be4 Tl4 Cl20                            
   1.0000000000000000     
     9.1242990964168893    0.0000000000000000    0.0000000000000000
     0.0000000000000000    7.4688087621250352    0.0375440605304029
     0.0000000000000000    4.0197334195838232   14.7198727474233486
   Be   Tl   Cl
     4     4    20
Direct
  0.9176595869968907  0.3294192167466434  0.3239307987098101
  0.4176595869968907  0.6705807832533708  0.1760692012901899
  0.0823404130031093  0.6705807832533708  0.6760692012901899
  0.5823404130031093  0.3294192167466434  0.8239307987098101
  0.9158271031697751  0.2454336020579220  0.6383287081133275
  0.4158271031697680  0.7545663979420638  0.8616712918866725
  0.0841728968302249  0.7545663979420638  0.3616712918866796
  0.5841728968302249  0.2454336020579220  0.1383287081133275
  0.5167766154981592  0.7262805665895797  0.5357174989818105
  0.0167766154981592  0.2737194334104203  0.9642825010181895
  0.4832233845018408  0.2737194334104203  0.4642825010181895
  0.9832233845018408  0.7262805665895797  0.0357174989818105
  0.8510383237767556  0.1071928183286843  0.2929645532416387
  0.3510383237767343  0.8928071816713157  0.2070354467583613
  0.1489616762232515  0.8928071816713157  0.7070354467583684
  0.6489616762232444  0.1071928183286843  0.7929645532416316
  0.5438115408914541  0.1986008438225042  0.5970444224946405
  0.0438115408914541  0.8013991561775029  0.9029555775053595
  0.4561884591085459  0.8013991561775029  0.4029555775053595
  0.9561884591085388  0.1986008438225042  0.0970444224946405
  0.6348634537615538  0.5724063332211244  0.7499151438509202
  0.1348634537615609  0.4275936667788756  0.7500848561490798
  0.3651365462384319  0.4275936667788756  0.2500848561490798
  0.8651365462384462  0.5724063332211244  0.2499151438509131
  0.4612651110351678  0.3054789705497356  0.9302048966158694
  0.9612651110351749  0.6945210294502644  0.5697951033841306
  0.5387348889648251  0.6945210294502644  0.0697951033841306
  0.0387348889648251  0.3054789705497356  0.4302048966158694

  0.00000000E+00  0.00000000E+00  0.00000000E+00
  0.00000000E+00  0.00000000E+00  0.00000000E+00
  0.00000000E+00  0.00000000E+00  0.00000000E+00
  0.00000000E+00  0.00000000E+00  0.00000000E+00
  0.00000000E+00  0.00000000E+00  0.00000000E+00
  0.00000000E+00  0.00000000E+00  0.00000000E+00
  0.00000000E+00  0.00000000E+00  0.00000000E+00
  0.00000000E+00  0.00000000E+00  0.00000000E+00
  0.00000000E+00  0.00000000E+00  0.00000000E+00
  0.00000000E+00  0.00000000E+00  0.00000000E+00
  0.00000000E+00  0.00000000E+00  0.00000000E+00
  0.00000000E+00  0.00000000E+00  0.00000000E+00
  0.00000000E+00  0.00000000E+00  0.00000000E+00
  0.00000000E+00  0.00000000E+00  0.00000000E+00
  0.00000000E+00  0.00000000E+00  0.00000000E+00
  0.00000000E+00  0.00000000E+00  0.00000000E+00
  0.00000000E+00  0.00000000E+00  0.00000000E+00
  0.00000000E+00  0.00000000E+00  0.00000000E+00
  0.00000000E+00  0.00000000E+00  0.00000000E+00
  0.00000000E+00  0.00000000E+00  0.00000000E+00
  0.00000000E+00  0.00000000E+00  0.00000000E+00
  0.00000000E+00  0.00000000E+00  0.00000000E+00
  0.00000000E+00  0.00000000E+00  0.00000000E+00
  0.00000000E+00  0.00000000E+00  0.00000000E+00
  0.00000000E+00  0.00000000E+00  0.00000000E+00
  0.00000000E+00  0.00000000E+00  0.00000000E+00
  0.00000000E+00  0.00000000E+00  0.00000000E+00
  0.00000000E+00  0.00000000E+00  0.00000000E+00
