Ba3Al                                   
   1.00000000000000     
     8.2441595025225762    0.0028654064192282    0.0000000000000000
    -4.1190956506885792    7.1413331288425130    0.0000000000000000
     0.0000000000000000    0.0000000000000000    5.9789175742308149
   Al   Ba
     2     6
Direct
  0.6671102215310327  0.3328885820107956  0.2500000000000000
  0.3328897784689673  0.6671114179892044  0.7500000000000000
  0.1808356567786973  0.3624096215640762  0.2500000000000000
  0.1806564111887994  0.8193426689864225  0.2500000000000000
  0.6375942639617449  0.8191681282894621  0.2500000000000000
  0.3624057360382551  0.1808318717105379  0.7500000000000000
  0.8193435888112006  0.1806573310135775  0.7500000000000000
  0.8191643432213027  0.6375903784359238  0.7500000000000000
 
  0.00000000E+00  0.00000000E+00  0.00000000E+00
  0.00000000E+00  0.00000000E+00  0.00000000E+00
  0.00000000E+00  0.00000000E+00  0.00000000E+00
  0.00000000E+00  0.00000000E+00  0.00000000E+00
  0.00000000E+00  0.00000000E+00  0.00000000E+00
  0.00000000E+00  0.00000000E+00  0.00000000E+00
  0.00000000E+00  0.00000000E+00  0.00000000E+00
  0.00000000E+00  0.00000000E+00  0.00000000E+00
