Mg18 Ga11                               
   1.00000000000000     
     7.4445141178566212    5.2647757747897881    0.0066424396033805
    -7.4445141178566212    5.2647757747897881    0.0066424396033805
     0.0000000000000000    5.2495350817887569    7.4262457062220877
   Mg   Ga
    18    11
Direct
  0.9939831011606302  0.9939831011606302  0.0069931218290691
  0.3142770310341305  0.6071850244104624  0.9977548337466757
  0.9956465925215312  0.3367330502779993  0.0023807292539715
  0.3367330502779993  0.9956465925215312  0.0023807292539715
  0.6071850244104624  0.3142770310341305  0.9977548337466757
  0.3656233469913985  0.3656233469913985  0.8150380140081808
  0.6892367409787994  0.6892367409787994  0.7105878057048542
  0.6061570282908093  0.0030635610471563  0.6849850617950892
  0.0030635610471563  0.6061570282908093  0.6849850617950892
  0.0015061419127633  0.0015061419127633  0.6596921560886315
  0.3972390315708481  0.7196023497997288  0.6007166393824193
  0.7196023497997288  0.3972390315708481  0.6007166393824193
  0.0026884283293285  0.3161327856112877  0.3947508511431650
  0.3161327856112877  0.0026884283293285  0.3947508511431650
  0.6546213364278657  0.6546213364278657  0.3501187506032153
  0.2896040022276409  0.6857583187739849  0.3144708232199136
  0.6857583187739849  0.2896040022276409  0.3144708232199136
  0.3959080467921083  0.3959080467921083  0.2846456154559291
  0.6289625443201459  0.8102647155402423  0.0019784686945670
  0.8102647155402423  0.6289625443201459  0.0019784686945670
  0.8203662310746367  0.1872574792373598  0.8099764130321532
  0.1872574792373598  0.8203662310746367  0.8099764130321532
  0.1804410099177005  0.3724623600755095  0.6239410861776093
  0.3724623600755095  0.1804410099177005  0.6239410861776093
  0.8096478126944078  0.0012396632821989  0.3725118821330753
  0.0012396632821989  0.8096478126944078  0.3725118821330753
  0.6299669313938168  0.9999509286257222  0.1899264822021607
  0.9999509286257222  0.6299669313938168  0.1899264822021607
  0.1844744056797367  0.1844744056797367  0.1861389947485463
 
  0.00000000E+00  0.00000000E+00  0.00000000E+00
  0.00000000E+00  0.00000000E+00  0.00000000E+00
  0.00000000E+00  0.00000000E+00  0.00000000E+00
  0.00000000E+00  0.00000000E+00  0.00000000E+00
  0.00000000E+00  0.00000000E+00  0.00000000E+00
  0.00000000E+00  0.00000000E+00  0.00000000E+00
  0.00000000E+00  0.00000000E+00  0.00000000E+00
  0.00000000E+00  0.00000000E+00  0.00000000E+00
  0.00000000E+00  0.00000000E+00  0.00000000E+00
  0.00000000E+00  0.00000000E+00  0.00000000E+00
  0.00000000E+00  0.00000000E+00  0.00000000E+00
  0.00000000E+00  0.00000000E+00  0.00000000E+00
  0.00000000E+00  0.00000000E+00  0.00000000E+00
  0.00000000E+00  0.00000000E+00  0.00000000E+00
  0.00000000E+00  0.00000000E+00  0.00000000E+00
  0.00000000E+00  0.00000000E+00  0.00000000E+00
  0.00000000E+00  0.00000000E+00  0.00000000E+00
  0.00000000E+00  0.00000000E+00  0.00000000E+00
  0.00000000E+00  0.00000000E+00  0.00000000E+00
  0.00000000E+00  0.00000000E+00  0.00000000E+00
  0.00000000E+00  0.00000000E+00  0.00000000E+00
  0.00000000E+00  0.00000000E+00  0.00000000E+00
  0.00000000E+00  0.00000000E+00  0.00000000E+00
  0.00000000E+00  0.00000000E+00  0.00000000E+00
  0.00000000E+00  0.00000000E+00  0.00000000E+00
  0.00000000E+00  0.00000000E+00  0.00000000E+00
  0.00000000E+00  0.00000000E+00  0.00000000E+00
  0.00000000E+00  0.00000000E+00  0.00000000E+00
  0.00000000E+00  0.00000000E+00  0.00000000E+00
