Sr3 B11                                 
   1.00000000000000     
     3.0313250121916018    0.0000000000000000    0.0000000000000000
    -1.5156625060958009   -4.9856264900958154    5.6889557178005337
    -1.5156625060958009   -4.9856264900958154   -5.6889557178005337
   B    Sr
    11     3
Direct
  0.2601122320278080  0.6265524986607574  0.8936719653948515
  0.2445838805881593  0.4555207662130059  0.0336469949632985
  0.7398877679721920  0.1063280346051485  0.3734475013392426
  0.8266161400966183  0.3266161400966183  0.3266161400966183
  0.2445838805881593  0.0336469949632985  0.4555207662130059
  0.5000000000000000  0.5000000000000000  0.5000000000000000
  0.7554161194118407  0.9663530050367015  0.5444792337869941
  0.1733838599033817  0.6733838599033817  0.6733838599033817
  0.2601122320278080  0.8936719653948515  0.6265524986607574
  0.7554161194118407  0.5444792337869941  0.9663530050367015
  0.7398877679721920  0.3734475013392426  0.1063280346051485
  0.0000000000000000  0.0000000000000000  0.0000000000000000
  0.0000000000000000  0.6936536319386306  0.3063463680613694
  0.0000000000000000  0.3063463680613694  0.6936536319386306
 
  0.00000000E+00  0.00000000E+00  0.00000000E+00
  0.00000000E+00  0.00000000E+00  0.00000000E+00
  0.00000000E+00  0.00000000E+00  0.00000000E+00
  0.00000000E+00  0.00000000E+00  0.00000000E+00
  0.00000000E+00  0.00000000E+00  0.00000000E+00
  0.00000000E+00  0.00000000E+00  0.00000000E+00
  0.00000000E+00  0.00000000E+00  0.00000000E+00
  0.00000000E+00  0.00000000E+00  0.00000000E+00
  0.00000000E+00  0.00000000E+00  0.00000000E+00
  0.00000000E+00  0.00000000E+00  0.00000000E+00
  0.00000000E+00  0.00000000E+00  0.00000000E+00
  0.00000000E+00  0.00000000E+00  0.00000000E+00
  0.00000000E+00  0.00000000E+00  0.00000000E+00
  0.00000000E+00  0.00000000E+00  0.00000000E+00
