Be1 B2 F10                              
   1.00000000000000     
     4.2041132458791415    3.3007226747910856    0.9394782709260774
    -4.2041132458791415    3.3007226747910856    0.9394782709260773
     0.0000000000000000    4.4328126936047054    6.1318143341800120
   Be   B    F 
     1     2    10
Direct
  0.5882913816460160  0.4117086183539840  0.0000000000000000
  0.0902882367177114  0.0062025034004805  0.7804552094099222
  0.9937974965995195  0.9097117632822886  0.2195447905900778
  0.2734143040393704  0.3212351369433080  0.5256371401138580
  0.6787648630566920  0.7265856959606296  0.4743628598861420
  0.7440689471243545  0.7842489311603131  0.8905661786873367
  0.2157510688396869  0.2559310528756455  0.1094338213126633
  0.9673433257221120  0.0326566742778880  0.0000000000000000
  0.1973316362262381  0.8026683637737619  0.5000000000000000
  0.7986581277252824  0.4046201855495895  0.7705256144211532
  0.5953798144504177  0.2013418722747176  0.2294743855788468
  0.2355604010787289  0.8346506032261161  0.8085985427733320
  0.1653493967738839  0.7644395989212711  0.1914014572266751
 
  0.00000000E+00  0.00000000E+00  0.00000000E+00
  0.00000000E+00  0.00000000E+00  0.00000000E+00
  0.00000000E+00  0.00000000E+00  0.00000000E+00
  0.00000000E+00  0.00000000E+00  0.00000000E+00
  0.00000000E+00  0.00000000E+00  0.00000000E+00
  0.00000000E+00  0.00000000E+00  0.00000000E+00
  0.00000000E+00  0.00000000E+00  0.00000000E+00
  0.00000000E+00  0.00000000E+00  0.00000000E+00
  0.00000000E+00  0.00000000E+00  0.00000000E+00
  0.00000000E+00  0.00000000E+00  0.00000000E+00
  0.00000000E+00  0.00000000E+00  0.00000000E+00
  0.00000000E+00  0.00000000E+00  0.00000000E+00
  0.00000000E+00  0.00000000E+00  0.00000000E+00
