BaF                                     
   1.00000000000000     
     0.0000000000000000    3.1548468506750260    3.1548468506750260
     3.1548468506750260    0.0000000000000000    3.1548468506750260
     3.1548468506750260    3.1548468506750260    0.0000000000000000
   Ba   F 
     1     1
Direct
  0.0000000000000000  0.0000000000000000  0.0000000000000000
  0.2500000000000000  0.2500000000000000  0.2500000000000000
 
  0.00000000E+00  0.00000000E+00  0.00000000E+00
  0.00000000E+00  0.00000000E+00  0.00000000E+00
