Ba28 Al11                               
   1.00000000000000     
     5.9825100065652403   -0.0000000288283546   -0.5145569580866047
    -0.0885254157665096    8.4768865519928926   -1.0292359609451385
    -0.0088191918643788   -0.0600727446742835   34.9326266328172963
   Ba   Al
    28    11
Direct
  0.8174660254911714  0.9100540391567264  0.6349320509798062
  0.5597001856826509  0.2326504592824676  0.1194013713672888
  0.7247675582957953  0.2482109605288940  0.4495341165926376
  0.6371039045576481  0.1708357339845676  0.2742078091148912
  0.3233925966079454  0.2365878605671696  0.6467851932210422
  0.8535042971907387  0.5643584374321051  0.7070085943784079
  0.5440267690625831  0.6751885974040377  0.0880525381273713
  0.9999999999985079  0.5664703959975697  0.0000000000003055
  0.6167747960600636  0.5924516210669069  0.2335485921189786
  0.9174448570333666  0.5418257233265393  0.8348907140616788
  0.2618746216535968  0.2505759683058457  0.5237492433078685
  0.2752324417054410  0.7986768439404628  0.5504658834070639
  0.9035523457446359  0.9958914935824197  0.8071036914946248
  0.3628960954414140  0.8966289248680823  0.7257921908853575
  0.4559732309373175  0.5871360592803967  0.9119474618725931
  0.6766074033859582  0.5898026673439105  0.3532148067798175
  0.4402998143159422  0.1132490879148165  0.8805986286326757
  0.1464957028143985  0.8573508430559968  0.2929924056207369
  0.0964476542532253  0.1887878020908218  0.1928963085057944
  0.7927739788204207  0.4635665016908703  0.5855479576372247
  0.3832252039397517  0.3589030289458464  0.7664514078810214
  0.5000000000030624  0.2482620333669132  0.9999999999996021
  0.7381253783469077  0.7268277249974204  0.4762507566920746
  0.9695007213970825  0.9346224526268188  0.9390014427954654
  0.0825551429686868  0.7069350092642708  0.1651092859381293
  0.2072260211811923  0.8780185440486505  0.4144520423626687
  0.1825339745104060  0.2751219881767071  0.3650679490197604
  0.0304992785987821  0.9956220098276489  0.0609985572051741
  0.6799318106355585  0.9951561299282758  0.3598636212693123
  0.1404536626407946  0.4528657548095154  0.2809073252815608
  0.7730823780368752  0.0596543957872200  0.5461657560761637
  0.9571750574454256  0.3154828984550804  0.9143501148920379
  0.3200681893650241  0.6352935086569147  0.6401363787305385
  0.8595463373602854  0.1719574295315027  0.7190926747184321
  0.0428249425551925  0.4011337835667064  0.0856498851078271
  0.5911438071608757  0.9358855409158124  0.1822866143222370
  0.4088561928389467  0.7535989265944778  0.8177133856777914
  0.2269176219618387  0.5134886397129321  0.4538342439240282
  0.5000000000004903  0.8448691799666577  0.0000000000000284
 
  0.00000000E+00  0.00000000E+00  0.00000000E+00
  0.00000000E+00  0.00000000E+00  0.00000000E+00
  0.00000000E+00  0.00000000E+00  0.00000000E+00
  0.00000000E+00  0.00000000E+00  0.00000000E+00
  0.00000000E+00  0.00000000E+00  0.00000000E+00
  0.00000000E+00  0.00000000E+00  0.00000000E+00
  0.00000000E+00  0.00000000E+00  0.00000000E+00
  0.00000000E+00  0.00000000E+00  0.00000000E+00
  0.00000000E+00  0.00000000E+00  0.00000000E+00
  0.00000000E+00  0.00000000E+00  0.00000000E+00
  0.00000000E+00  0.00000000E+00  0.00000000E+00
  0.00000000E+00  0.00000000E+00  0.00000000E+00
  0.00000000E+00  0.00000000E+00  0.00000000E+00
  0.00000000E+00  0.00000000E+00  0.00000000E+00
  0.00000000E+00  0.00000000E+00  0.00000000E+00
  0.00000000E+00  0.00000000E+00  0.00000000E+00
  0.00000000E+00  0.00000000E+00  0.00000000E+00
  0.00000000E+00  0.00000000E+00  0.00000000E+00
  0.00000000E+00  0.00000000E+00  0.00000000E+00
  0.00000000E+00  0.00000000E+00  0.00000000E+00
  0.00000000E+00  0.00000000E+00  0.00000000E+00
  0.00000000E+00  0.00000000E+00  0.00000000E+00
  0.00000000E+00  0.00000000E+00  0.00000000E+00
  0.00000000E+00  0.00000000E+00  0.00000000E+00
  0.00000000E+00  0.00000000E+00  0.00000000E+00
  0.00000000E+00  0.00000000E+00  0.00000000E+00
  0.00000000E+00  0.00000000E+00  0.00000000E+00
  0.00000000E+00  0.00000000E+00  0.00000000E+00
  0.00000000E+00  0.00000000E+00  0.00000000E+00
  0.00000000E+00  0.00000000E+00  0.00000000E+00
  0.00000000E+00  0.00000000E+00  0.00000000E+00
  0.00000000E+00  0.00000000E+00  0.00000000E+00
  0.00000000E+00  0.00000000E+00  0.00000000E+00
  0.00000000E+00  0.00000000E+00  0.00000000E+00
  0.00000000E+00  0.00000000E+00  0.00000000E+00
  0.00000000E+00  0.00000000E+00  0.00000000E+00
  0.00000000E+00  0.00000000E+00  0.00000000E+00
  0.00000000E+00  0.00000000E+00  0.00000000E+00
  0.00000000E+00  0.00000000E+00  0.00000000E+00
