Ba12 In4 Cl36                           
   1.0000000000000000     
    12.3571785710605209   -0.0022432520833016    0.0009427465579171
    -0.0008401178493374    7.2268064322825527   -0.4215939083755023
     0.0015919443522812   -1.0651106683589144   18.1957273906383321
   In   Ba   Cl
     4    12    36
Direct
  0.5124114437951945  0.2287649015542712  0.1773896138036477
  0.0123101866729343  0.2722790732135962  0.3225192604877520
  0.9877838085599251  0.7289170525364383  0.6782092755015583
  0.4875474165550102  0.7697254838399701  0.8217315059560448
  0.6751883713156417  0.7688612477555168  0.0314979440592396
  0.9441370549355597  0.2939001486322397  0.0997708424147703
  0.2547983902360329  0.7860928438039281  0.1738196073522289
  0.7550369558283236  0.7148792953473873  0.3260844661009017
  0.4443192408306089  0.2067910236377344  0.4000866094803612
  0.1756829329315934  0.7309175091000242  0.4684223264835978
  0.8243651417759494  0.2738077136607728  0.5315722181185123
  0.5553591923175034  0.7973654727774004  0.5988645531139483
  0.2441474242833053  0.2856404425275230  0.6746992602697333
  0.7445318781787407  0.2129253444585757  0.8256163646519781
  0.0553266828812795  0.7027364242177896  0.9011352429469000
  0.3245799790844757  0.2263485899071114  0.9683622311098787
  0.1462870313442721  0.5157371300795219  0.0418735151940552
  0.1404035215794650  0.0101856914975116  0.0343871346083660
  0.4402686617047777  0.9593728623210751  0.0813371534288478
  0.4466154576481998  0.4804838053236011  0.0966380074654651
  0.6818406394477350  0.2028264609946362  0.1008554908406580
  0.8144039541811594  0.6777260587435521  0.1584787366972833
  0.3260035025108223  0.2142172481957871  0.2312267604731062
  0.5748616577076717  0.9840040102065331  0.2586676873141585
  0.5481474590758069  0.4808606067910617  0.2812509709924313
  0.0479744849916770  0.0200617727811547  0.2186226058751330
  0.0746894583254232  0.5169508472692002  0.2411673452724230
  0.8258856418259484  0.2868678347265003  0.2686715653468781
  0.3145092769436957  0.8230928698643041  0.3413994335635380
  0.1819221192141782  0.2977468208858483  0.3988750473684348
  0.9464637919637156  0.0204311747231714  0.4032216728307034
  0.9403940850049395  0.5414356764828767  0.4186983858399245
  0.6406743154869545  0.4904348497378095  0.4654447564854962
  0.6461872888784441  0.9846509608312815  0.4580839341763649
  0.3537875563009152  0.0212315017004059  0.5416456801480720
  0.3609601275521186  0.5153585318457630  0.5328437774520154
  0.0602803530956848  0.4613680185064553  0.5815094869507504
  0.0551262361653144  0.9817357922590446  0.5985096960745722
  0.8188481030318542  0.7061882518206133  0.6011409945425328
  0.6850827950136207  0.1802464535251218  0.6582259947877347
  0.1734971639567462  0.7120162116934736  0.7329573615374230
  0.9244251107302475  0.4828204345080636  0.7586590727508380
  0.9516086722789581  0.9790819154679156  0.7826563468328089
  0.4512414326444372  0.5200620716074411  0.7171751900897547
  0.4242757600830416  0.0163619141472253  0.7414614389309335
  0.6733070842527269  0.7866246871203657  0.7670669913539285
  0.1845655231043040  0.3187974112425849  0.8419755948628591
  0.3187897820280128  0.7930009093155519  0.8990144357538625
  0.5547250830624648  0.5169621431884082  0.9014471961145389
  0.5601480629445135  0.0375387107010212  0.9184203249586389
  0.8605364601224181  0.9848226531563355  0.9668161718150472
  0.8535362456156648  0.4793231397685105  0.9583927194193649

  0.00000000E+00  0.00000000E+00  0.00000000E+00
  0.00000000E+00  0.00000000E+00  0.00000000E+00
  0.00000000E+00  0.00000000E+00  0.00000000E+00
  0.00000000E+00  0.00000000E+00  0.00000000E+00
  0.00000000E+00  0.00000000E+00  0.00000000E+00
  0.00000000E+00  0.00000000E+00  0.00000000E+00
  0.00000000E+00  0.00000000E+00  0.00000000E+00
  0.00000000E+00  0.00000000E+00  0.00000000E+00
  0.00000000E+00  0.00000000E+00  0.00000000E+00
  0.00000000E+00  0.00000000E+00  0.00000000E+00
  0.00000000E+00  0.00000000E+00  0.00000000E+00
  0.00000000E+00  0.00000000E+00  0.00000000E+00
  0.00000000E+00  0.00000000E+00  0.00000000E+00
  0.00000000E+00  0.00000000E+00  0.00000000E+00
  0.00000000E+00  0.00000000E+00  0.00000000E+00
  0.00000000E+00  0.00000000E+00  0.00000000E+00
  0.00000000E+00  0.00000000E+00  0.00000000E+00
  0.00000000E+00  0.00000000E+00  0.00000000E+00
  0.00000000E+00  0.00000000E+00  0.00000000E+00
  0.00000000E+00  0.00000000E+00  0.00000000E+00
  0.00000000E+00  0.00000000E+00  0.00000000E+00
  0.00000000E+00  0.00000000E+00  0.00000000E+00
  0.00000000E+00  0.00000000E+00  0.00000000E+00
  0.00000000E+00  0.00000000E+00  0.00000000E+00
  0.00000000E+00  0.00000000E+00  0.00000000E+00
  0.00000000E+00  0.00000000E+00  0.00000000E+00
  0.00000000E+00  0.00000000E+00  0.00000000E+00
  0.00000000E+00  0.00000000E+00  0.00000000E+00
  0.00000000E+00  0.00000000E+00  0.00000000E+00
  0.00000000E+00  0.00000000E+00  0.00000000E+00
  0.00000000E+00  0.00000000E+00  0.00000000E+00
  0.00000000E+00  0.00000000E+00  0.00000000E+00
  0.00000000E+00  0.00000000E+00  0.00000000E+00
  0.00000000E+00  0.00000000E+00  0.00000000E+00
  0.00000000E+00  0.00000000E+00  0.00000000E+00
  0.00000000E+00  0.00000000E+00  0.00000000E+00
  0.00000000E+00  0.00000000E+00  0.00000000E+00
  0.00000000E+00  0.00000000E+00  0.00000000E+00
  0.00000000E+00  0.00000000E+00  0.00000000E+00
  0.00000000E+00  0.00000000E+00  0.00000000E+00
  0.00000000E+00  0.00000000E+00  0.00000000E+00
  0.00000000E+00  0.00000000E+00  0.00000000E+00
  0.00000000E+00  0.00000000E+00  0.00000000E+00
  0.00000000E+00  0.00000000E+00  0.00000000E+00
  0.00000000E+00  0.00000000E+00  0.00000000E+00
  0.00000000E+00  0.00000000E+00  0.00000000E+00
  0.00000000E+00  0.00000000E+00  0.00000000E+00
  0.00000000E+00  0.00000000E+00  0.00000000E+00
  0.00000000E+00  0.00000000E+00  0.00000000E+00
  0.00000000E+00  0.00000000E+00  0.00000000E+00
  0.00000000E+00  0.00000000E+00  0.00000000E+00
  0.00000000E+00  0.00000000E+00  0.00000000E+00
