Ca5Ga3                                  
   1.00000000000000     
     0.0008760829259632   -7.9441616734144116    0.0062586025727483
    -7.9441676493419093    0.0008761926041386    0.0062900004206746
     3.9770459779744676    3.9770132691938027   -7.4884078500288194
   Ca   Ga
    10     6
Direct
  0.9999977820316275  0.0000001950862440  0.9999804857741381
  0.5000239386365308  0.5000314746674945  0.0000261563010540
  0.8216216985178590  0.3216141535467401  0.2889452427464434
  0.3211612449998356  0.4678938259636851  0.2890922088720416
  0.9678931972011355  0.8211641661987628  0.2890792333070209
  0.4675602942082620  0.9675711966557117  0.2888496329625028
  0.5324593846725989  0.0324783265102369  0.7111438445360747
  0.0321498760837287  0.1788610564241964  0.7109175002391339
  0.6788577403696010  0.5321182557265658  0.7109128778830964
  0.1784010217758620  0.6783936103184303  0.7110515242744313
  0.3888144056382572  0.1112186935605450  0.0000023534087532
  0.8887411780212489  0.3887325264796075  0.0001917174672030
  0.1112876181752114  0.6112835350598829  0.9998267405697874
  0.6111921999362551  0.8888017217414159  0.9999772642385025
  0.2499699547918581  0.2500603731168454  0.4999943317664588
  0.7500684649401563  0.7499768889436425  0.5000088856533438
 
  0.00000000E+00  0.00000000E+00  0.00000000E+00
  0.00000000E+00  0.00000000E+00  0.00000000E+00
  0.00000000E+00  0.00000000E+00  0.00000000E+00
  0.00000000E+00  0.00000000E+00  0.00000000E+00
  0.00000000E+00  0.00000000E+00  0.00000000E+00
  0.00000000E+00  0.00000000E+00  0.00000000E+00
  0.00000000E+00  0.00000000E+00  0.00000000E+00
  0.00000000E+00  0.00000000E+00  0.00000000E+00
  0.00000000E+00  0.00000000E+00  0.00000000E+00
  0.00000000E+00  0.00000000E+00  0.00000000E+00
  0.00000000E+00  0.00000000E+00  0.00000000E+00
  0.00000000E+00  0.00000000E+00  0.00000000E+00
  0.00000000E+00  0.00000000E+00  0.00000000E+00
  0.00000000E+00  0.00000000E+00  0.00000000E+00
  0.00000000E+00  0.00000000E+00  0.00000000E+00
  0.00000000E+00  0.00000000E+00  0.00000000E+00
