Mg15 In1                                
   1.00000000000000     
     3.1509931805140994   -5.4576804429497141    0.0000000000000000
     3.1509931805140994    5.4576804429497141    0.0000000000000000
     0.0000000000000000    0.0000000000000000   10.5773547024332828
   Mg   In
    15     1
Direct
  0.3333330000000032  0.6666669999999968  0.5000000000000000
  0.8324030373787537  0.6648060747572586  0.0000000000000000
  0.8335431780214009  0.6670853560431667  0.5000000000000000
  0.8324030373785121  0.1675969626214879  0.0000000000000000
  0.8335431780217561  0.1664568219782439  0.5000000000000000
  0.3351939252427414  0.1675969626212463  0.0000000000000000
  0.3329146439568333  0.1664568219785991  0.5000000000000000
  0.6680432933134526  0.8340221466564586  0.2502619722829706
  0.6680432933134526  0.8340221466564586  0.7497380277170294
  0.1659778533430156  0.8340221466569844  0.2502619722829706
  0.1659778533430156  0.8340221466569844  0.7497380277170294
  0.1659778533435414  0.3319567066865474  0.2502619722829706
  0.1659778533435414  0.3319567066865474  0.7497380277170294
  0.6666669999999968  0.3333330000000032  0.2513741467774082
  0.6666669999999968  0.3333330000000032  0.7486258532225918
  0.3333330000000032  0.6666669999999968  0.0000000000000000
 
  0.00000000E+00  0.00000000E+00  0.00000000E+00
  0.00000000E+00  0.00000000E+00  0.00000000E+00
  0.00000000E+00  0.00000000E+00  0.00000000E+00
  0.00000000E+00  0.00000000E+00  0.00000000E+00
  0.00000000E+00  0.00000000E+00  0.00000000E+00
  0.00000000E+00  0.00000000E+00  0.00000000E+00
  0.00000000E+00  0.00000000E+00  0.00000000E+00
  0.00000000E+00  0.00000000E+00  0.00000000E+00
  0.00000000E+00  0.00000000E+00  0.00000000E+00
  0.00000000E+00  0.00000000E+00  0.00000000E+00
  0.00000000E+00  0.00000000E+00  0.00000000E+00
  0.00000000E+00  0.00000000E+00  0.00000000E+00
  0.00000000E+00  0.00000000E+00  0.00000000E+00
  0.00000000E+00  0.00000000E+00  0.00000000E+00
  0.00000000E+00  0.00000000E+00  0.00000000E+00
  0.00000000E+00  0.00000000E+00  0.00000000E+00
