Ba1 B3 F6                               
   1.00000000000000     
    -3.0408697368841398    4.3921867669654615    2.5564678940065906
     3.3325668003065529   -4.8283487504584803    3.3325668003065529
     2.5564678940065910    4.3921867669654615   -3.0408697368841398
   F    Ba   B 
     6     1     3
Direct
  0.2793799985171788  0.5882004775667511  0.2793799985171788
  0.6787034508918381  0.0000000000000000  0.3212965491081619
  0.2802164371701465  0.9718468525076460  0.2802164371701465
  0.7197835628298606  0.0281531474923540  0.7197835628298606
  0.7206200014828212  0.4117995224332489  0.7206200014828212
  0.3212965491081619  0.0000000000000000  0.6787034508918381
  0.0000000000000000  0.0000000000000000  0.0000000000000000
  0.8917572098326900  0.5000000000000000  0.1082427901673100
  0.5000000000000000  0.0000000000000000  0.5000000000000000
  0.1082427901673100  0.5000000000000000  0.8917572098326900
 
  0.00000000E+00  0.00000000E+00  0.00000000E+00
  0.00000000E+00  0.00000000E+00  0.00000000E+00
  0.00000000E+00  0.00000000E+00  0.00000000E+00
  0.00000000E+00  0.00000000E+00  0.00000000E+00
  0.00000000E+00  0.00000000E+00  0.00000000E+00
  0.00000000E+00  0.00000000E+00  0.00000000E+00
  0.00000000E+00  0.00000000E+00  0.00000000E+00
  0.00000000E+00  0.00000000E+00  0.00000000E+00
  0.00000000E+00  0.00000000E+00  0.00000000E+00
  0.00000000E+00  0.00000000E+00  0.00000000E+00
