Be2 Ga2 I10                             
   1.00000000000000     
    -9.3485771817167311   -3.5414885148028801    1.3043856613287204
     9.3318415791243741   -3.5058594664737752   -1.3235282339984349
    -8.8306666663982156    0.0197872229282758   12.9416974516270642
   Ga   Be   I 
     2     2    10
Direct
  0.0002519242865802  0.0463188693743035  0.9343999463888935
  0.9607466852909070  0.9937383478820578  0.4320851479058305
  0.5007343236691568  0.4695623312341084  0.2647833664172694
  0.5284730412591898  0.5052068604014579  0.7678694706642730
  0.7331183981952947  0.5167057727325997  0.0929515001031831
  0.7297705985632916  0.0443134402907717  0.1307522813433764
  0.1545870725446008  0.1441415410917415  0.2615351893317381
  0.0670798052393664  0.7730710297754229  0.3633882638520092
  0.5425672503029375  0.7252132518622076  0.4469179586016878
  0.4791626658586523  0.2637209183533358  0.5969025115380617
  0.9716295724214561  0.2714328077410855  0.6277639426689845
  0.8454952529670479  0.8560084505396617  0.7662454802560532
  0.2066500324695113  0.9236617169056345  0.8640257748562234
  0.2796323769319855  0.4668046618156296  0.9500771660724112
 
  0.00000000E+00  0.00000000E+00  0.00000000E+00
  0.00000000E+00  0.00000000E+00  0.00000000E+00
  0.00000000E+00  0.00000000E+00  0.00000000E+00
  0.00000000E+00  0.00000000E+00  0.00000000E+00
  0.00000000E+00  0.00000000E+00  0.00000000E+00
  0.00000000E+00  0.00000000E+00  0.00000000E+00
  0.00000000E+00  0.00000000E+00  0.00000000E+00
  0.00000000E+00  0.00000000E+00  0.00000000E+00
  0.00000000E+00  0.00000000E+00  0.00000000E+00
  0.00000000E+00  0.00000000E+00  0.00000000E+00
  0.00000000E+00  0.00000000E+00  0.00000000E+00
  0.00000000E+00  0.00000000E+00  0.00000000E+00
  0.00000000E+00  0.00000000E+00  0.00000000E+00
  0.00000000E+00  0.00000000E+00  0.00000000E+00
