SrF                                     
   1.00000000000000     
     0.0000000000000000    2.9597851867176059    2.9597851867176059
     2.9597851867176064    0.0000000000000000    2.9597851867176059
     2.9597851867176064    2.9597851867176059    0.0000000000000000
   F    Sr
     1     1
Direct
  0.0000000000000000  0.0000000000000000  0.0000000000000000
  0.2500000000000000  0.2500000000000000  0.2500000000000000
 
  0.00000000E+00  0.00000000E+00  0.00000000E+00
  0.00000000E+00  0.00000000E+00  0.00000000E+00
