Sr4 Tl2 F10                             
   1.0000000000000000     
     4.9311133596186698   -4.9288530575727885   -0.0102259297068669
     4.9311133596186698    4.9288530575727885   -0.0102259297068668
    -4.9435184660353748   -0.0000000000000002    5.6391802066397050
   F    Sr   Tl
    10     4     2
Direct
  0.4999927607242611  0.9999835421120338  0.0000006438972306
  0.9999835421120338  0.4999927607242611  0.0000006438972306
  0.9805011050035972  0.9805011050035972  0.2467575172649532
  0.7674825224276418  0.4806403253928124  0.2470649120177839
  0.4806403253928124  0.7674825224276418  0.2470649120177839
  0.2676159889731409  0.2676159889731409  0.2473014149061470
  0.7323672178634055  0.7323672178634055  0.7527013647896084
  0.5193227990789566  0.2324812150180904  0.7529357447329446
  0.2324812150180904  0.5193227990789566  0.7529357447329446
  0.0194794701182914  0.0194794701182914  0.7532400845080858
  0.8389921773221616  0.1610000133187626  0.9999999079492738
  0.3390786367084360  0.3390786367084360  0.0002072064635499
  0.6608971060052582  0.6608971060052582  0.9997924911354445
  0.1610000133187626  0.8389921773221616  0.9999999079492738
  0.7499880752156045  0.2500770447175356  0.4999987518688727
  0.2500770447175356  0.7499880752156045  0.4999987518688727

  0.00000000E+00  0.00000000E+00  0.00000000E+00
  0.00000000E+00  0.00000000E+00  0.00000000E+00
  0.00000000E+00  0.00000000E+00  0.00000000E+00
  0.00000000E+00  0.00000000E+00  0.00000000E+00
  0.00000000E+00  0.00000000E+00  0.00000000E+00
  0.00000000E+00  0.00000000E+00  0.00000000E+00
  0.00000000E+00  0.00000000E+00  0.00000000E+00
  0.00000000E+00  0.00000000E+00  0.00000000E+00
  0.00000000E+00  0.00000000E+00  0.00000000E+00
  0.00000000E+00  0.00000000E+00  0.00000000E+00
  0.00000000E+00  0.00000000E+00  0.00000000E+00
  0.00000000E+00  0.00000000E+00  0.00000000E+00
  0.00000000E+00  0.00000000E+00  0.00000000E+00
  0.00000000E+00  0.00000000E+00  0.00000000E+00
  0.00000000E+00  0.00000000E+00  0.00000000E+00
  0.00000000E+00  0.00000000E+00  0.00000000E+00
