Ca3F                                    
   1.00000000000000     
    -2.2627011679030846    2.2627011679030846    6.2921471770809143
     2.2627011679030846   -2.2627011679030846    6.2921471770809143
     2.2627011679030846    2.2627011679030846   -6.2921471770809143
   Ca   F 
     3     1
Direct
  0.7500000000000000  0.2500000000000000  0.5000000000000000
  0.2500000000000000  0.7500000000000000  0.5000000000000000
  0.5000000000000000  0.5000000000000000  0.0000000000000000
  0.0000000000000000  0.0000000000000000  0.0000000000000000
 
  0.00000000E+00  0.00000000E+00  0.00000000E+00
  0.00000000E+00  0.00000000E+00  0.00000000E+00
  0.00000000E+00  0.00000000E+00  0.00000000E+00
  0.00000000E+00  0.00000000E+00  0.00000000E+00
