B15                                     
   1.00000000000000     
     2.9034851357245159    1.6763276296807632    3.9939598740243611
    -2.9034851357245159    1.6763276296807632    3.9939598740243611
     0.0000000000000000   -3.3526552593615286    3.9939598740243611
   B 
    15
Direct
  0.5000000000000000  0.5000000000000000  0.5000000000000000
  0.6990634931358670  0.1933428585204595  0.1933428585204666
  0.1933428585204666  0.1933428585204666  0.6990634931358670
  0.1933428585204595  0.6990634931358670  0.1933428585204666
  0.3009365068641330  0.8066571414795405  0.8066571414795334
  0.8066571414795334  0.8066571414795334  0.3009365068641330
  0.8066571414795405  0.3009365068641330  0.8066571414795334
  0.6697347212385125  0.9936825727698206  0.9936825727698348
  0.9936825727698348  0.9936825727698348  0.6697347212384912
  0.9936825727698206  0.6697347212385125  0.9936825727698348
  0.3302652787614875  0.0063174272301794  0.0063174272301652
  0.0063174272301652  0.0063174272301652  0.3302652787615088
  0.0063174272301794  0.3302652787614875  0.0063174272301652
  0.3650751193778845  0.3650751193778845  0.3650751193778845
  0.6349248806221155  0.6349248806221155  0.6349248806221155
 
  0.00000000E+00  0.00000000E+00  0.00000000E+00
  0.00000000E+00  0.00000000E+00  0.00000000E+00
  0.00000000E+00  0.00000000E+00  0.00000000E+00
  0.00000000E+00  0.00000000E+00  0.00000000E+00
  0.00000000E+00  0.00000000E+00  0.00000000E+00
  0.00000000E+00  0.00000000E+00  0.00000000E+00
  0.00000000E+00  0.00000000E+00  0.00000000E+00
  0.00000000E+00  0.00000000E+00  0.00000000E+00
  0.00000000E+00  0.00000000E+00  0.00000000E+00
  0.00000000E+00  0.00000000E+00  0.00000000E+00
  0.00000000E+00  0.00000000E+00  0.00000000E+00
  0.00000000E+00  0.00000000E+00  0.00000000E+00
  0.00000000E+00  0.00000000E+00  0.00000000E+00
  0.00000000E+00  0.00000000E+00  0.00000000E+00
  0.00000000E+00  0.00000000E+00  0.00000000E+00
