Ba3 Al33                                
   1.00000000000000     
     8.9171470868898393    0.0000000000000000    0.0000000000000000
     0.0000000000000000    8.9171470868898393    0.0000000000000000
     0.0000000000000000    0.0000000000000000    8.9171470868898393
   Ba   Al
     3    33
Direct
  0.5000000000000000  0.0000000000000000  0.0000000000000000
  0.0000000000000000  0.5000000000000000  0.0000000000000000
  0.0000000000000000  0.0000000000000000  0.5000000000000000
  0.3513928876107713  0.3513928876107713  0.0000000000000000
  0.6486071123892287  0.3513928876107713  0.0000000000000000
  0.3513928876107713  0.6486071123892287  0.0000000000000000
  0.6486071123892287  0.6486071123892287  0.0000000000000000
  0.1643956433808285  0.1643956433808285  0.1643956433808285
  0.8356043566191715  0.1643956433808285  0.1643956433808285
  0.1643956433808285  0.8356043566191715  0.1643956433808285
  0.8356043566191715  0.8356043566191715  0.1643956433808285
  0.5000000000000000  0.2749503002387641  0.2749503002387641
  0.2749503002387641  0.5000000000000000  0.2749503002387641
  0.7250496997612359  0.5000000000000000  0.2749503002387641
  0.5000000000000000  0.7250496997612359  0.2749503002387641
  0.3513928876107713  0.0000000000000000  0.3513928876107713
  0.6486071123892287  0.0000000000000000  0.3513928876107713
  0.0000000000000000  0.3513928876107713  0.3513928876107713
  0.0000000000000000  0.6486071123892287  0.3513928876107713
  0.2749503002387641  0.2749503002387641  0.5000000000000000
  0.7250496997612359  0.2749503002387641  0.5000000000000000
  0.5000000000000000  0.5000000000000000  0.5000000000000000
  0.2749503002387641  0.7250496997612359  0.5000000000000000
  0.7250496997612359  0.7250496997612359  0.5000000000000000
  0.3513928876107713  0.0000000000000000  0.6486071123892287
  0.6486071123892287  0.0000000000000000  0.6486071123892287
  0.0000000000000000  0.3513928876107713  0.6486071123892287
  0.0000000000000000  0.6486071123892287  0.6486071123892287
  0.5000000000000000  0.2749503002387641  0.7250496997612359
  0.2749503002387641  0.5000000000000000  0.7250496997612359
  0.7250496997612359  0.5000000000000000  0.7250496997612359
  0.5000000000000000  0.7250496997612359  0.7250496997612359
  0.1643956433808285  0.1643956433808285  0.8356043566191715
  0.8356043566191715  0.1643956433808285  0.8356043566191715
  0.1643956433808285  0.8356043566191715  0.8356043566191715
  0.8356043566191715  0.8356043566191715  0.8356043566191715
 
  0.00000000E+00  0.00000000E+00  0.00000000E+00
  0.00000000E+00  0.00000000E+00  0.00000000E+00
  0.00000000E+00  0.00000000E+00  0.00000000E+00
  0.00000000E+00  0.00000000E+00  0.00000000E+00
  0.00000000E+00  0.00000000E+00  0.00000000E+00
  0.00000000E+00  0.00000000E+00  0.00000000E+00
  0.00000000E+00  0.00000000E+00  0.00000000E+00
  0.00000000E+00  0.00000000E+00  0.00000000E+00
  0.00000000E+00  0.00000000E+00  0.00000000E+00
  0.00000000E+00  0.00000000E+00  0.00000000E+00
  0.00000000E+00  0.00000000E+00  0.00000000E+00
  0.00000000E+00  0.00000000E+00  0.00000000E+00
  0.00000000E+00  0.00000000E+00  0.00000000E+00
  0.00000000E+00  0.00000000E+00  0.00000000E+00
  0.00000000E+00  0.00000000E+00  0.00000000E+00
  0.00000000E+00  0.00000000E+00  0.00000000E+00
  0.00000000E+00  0.00000000E+00  0.00000000E+00
  0.00000000E+00  0.00000000E+00  0.00000000E+00
  0.00000000E+00  0.00000000E+00  0.00000000E+00
  0.00000000E+00  0.00000000E+00  0.00000000E+00
  0.00000000E+00  0.00000000E+00  0.00000000E+00
  0.00000000E+00  0.00000000E+00  0.00000000E+00
  0.00000000E+00  0.00000000E+00  0.00000000E+00
  0.00000000E+00  0.00000000E+00  0.00000000E+00
  0.00000000E+00  0.00000000E+00  0.00000000E+00
  0.00000000E+00  0.00000000E+00  0.00000000E+00
  0.00000000E+00  0.00000000E+00  0.00000000E+00
  0.00000000E+00  0.00000000E+00  0.00000000E+00
  0.00000000E+00  0.00000000E+00  0.00000000E+00
  0.00000000E+00  0.00000000E+00  0.00000000E+00
  0.00000000E+00  0.00000000E+00  0.00000000E+00
  0.00000000E+00  0.00000000E+00  0.00000000E+00
  0.00000000E+00  0.00000000E+00  0.00000000E+00
  0.00000000E+00  0.00000000E+00  0.00000000E+00
  0.00000000E+00  0.00000000E+00  0.00000000E+00
  0.00000000E+00  0.00000000E+00  0.00000000E+00
