Mg4 In4 Cl20                            
   1.0000000000000000     
     7.2616785569903133   -0.0000000000000001    0.0000000000000005
    -0.0000000000000005    7.4366705310597210    0.0000000000000005
     0.0000000000000004    0.0000000000000003   18.7935910778081592
   Mg   In   Cl
     4     4    20
Direct
  0.4184646069645410  0.2687108752248619  0.4369364442355206
  0.9184646069645410  0.2312891247751381  0.5630635557644794
  0.5815353930354519  0.7687108752248619  0.0630635557644794
  0.0815353930354519  0.7312891247751381  0.9369364442355206
  0.2822812065678875  0.7676721244838731  0.3877216821968048
  0.7822812065678875  0.7323278755161269  0.6122783178031881
  0.7177187934321125  0.2676721244838731  0.1122783178031881
  0.2177187934321125  0.2323278755161269  0.8877216821968048
  0.7735813264577303  0.7673771530408402  0.4882683043996465
  0.2735813264577232  0.7326228469591598  0.5117316956003464
  0.2264186735422697  0.2673771530408402  0.0117316956003464
  0.7264186735422697  0.2326228469591598  0.9882683043996536
  0.0358583610510905  0.7873571362235126  0.3092700291180321
  0.5358583610510905  0.7126428637764874  0.6907299708819608
  0.9641416389489095  0.2873571362235126  0.1907299708819750
  0.4641416389489166  0.2126428637764874  0.8092700291180392
  0.9029721247808027  0.7306502158212851  0.0422649780150337
  0.4029721247808027  0.7693497841787149  0.9577350219849663
  0.0970278752191973  0.2306502158212851  0.4577350219849663
  0.5970278752191973  0.2693497841787149  0.5422649780150337
  0.5050558299549124  0.5208382599722725  0.1394045367236529
  0.0050558299549124  0.9791617400277275  0.8605954632763471
  0.4949441700450876  0.0208382599722654  0.3605954632763542
  0.9949441700450876  0.4791617400277346  0.6394045367236529
  0.0285610487705554  0.4984918392054354  0.8518408005811366
  0.5285610487705554  0.0015081607945646  0.1481591994188634
  0.9714389512294446  0.9984918392054283  0.6481591994188634
  0.4714389512294446  0.5015081607945717  0.3518408005811366

  0.00000000E+00  0.00000000E+00  0.00000000E+00
  0.00000000E+00  0.00000000E+00  0.00000000E+00
  0.00000000E+00  0.00000000E+00  0.00000000E+00
  0.00000000E+00  0.00000000E+00  0.00000000E+00
  0.00000000E+00  0.00000000E+00  0.00000000E+00
  0.00000000E+00  0.00000000E+00  0.00000000E+00
  0.00000000E+00  0.00000000E+00  0.00000000E+00
  0.00000000E+00  0.00000000E+00  0.00000000E+00
  0.00000000E+00  0.00000000E+00  0.00000000E+00
  0.00000000E+00  0.00000000E+00  0.00000000E+00
  0.00000000E+00  0.00000000E+00  0.00000000E+00
  0.00000000E+00  0.00000000E+00  0.00000000E+00
  0.00000000E+00  0.00000000E+00  0.00000000E+00
  0.00000000E+00  0.00000000E+00  0.00000000E+00
  0.00000000E+00  0.00000000E+00  0.00000000E+00
  0.00000000E+00  0.00000000E+00  0.00000000E+00
  0.00000000E+00  0.00000000E+00  0.00000000E+00
  0.00000000E+00  0.00000000E+00  0.00000000E+00
  0.00000000E+00  0.00000000E+00  0.00000000E+00
  0.00000000E+00  0.00000000E+00  0.00000000E+00
  0.00000000E+00  0.00000000E+00  0.00000000E+00
  0.00000000E+00  0.00000000E+00  0.00000000E+00
  0.00000000E+00  0.00000000E+00  0.00000000E+00
  0.00000000E+00  0.00000000E+00  0.00000000E+00
  0.00000000E+00  0.00000000E+00  0.00000000E+00
  0.00000000E+00  0.00000000E+00  0.00000000E+00
  0.00000000E+00  0.00000000E+00  0.00000000E+00
  0.00000000E+00  0.00000000E+00  0.00000000E+00
