Mg6 In4 I24                             
   1.00000000000000     
     0.0000000000000000    0.0000000000000000    8.0413509654548108
    15.1539517396284147   -0.6957185726821331    0.0000000000000000
    -0.6844745844759766   15.3911989664853959    0.0000000000000000
   Mg   I    In
     6    24     4
Direct
  0.0000000000000000  0.0504043185993623  0.8089492733741821
  0.5000000000000000  0.2888711481856134  0.9849566394750369
  0.5000000000000000  0.0258004508332164  0.3526950255764874
  0.0000000000000000  0.6902136983892859  0.4617180038705655
  0.5000000000000000  0.1851301990674372  0.4958511573928135
  0.5000000000000000  0.4548709220497145  0.8591960921657673
  0.2668244892493163  0.4314281434155944  0.9953078931629520
  0.7331755107506837  0.4314281434155944  0.9953078931629520
  0.2513518705014164  0.7197239565349633  0.1153067321146466
  0.7486481294985836  0.7197239565349633  0.1153067321146466
  0.0000000000000000  0.3188774297747798  0.1914912748858200
  0.2498673749065290  0.0748441982188126  0.2366127254420363
  0.7501326250934710  0.0748441982188126  0.2366127254420363
  0.2359014440417369  0.5956752118503346  0.3431845452897377
  0.7640985559582631  0.5956752118503346  0.3431845452897377
  0.0000000000000000  0.8412923947716422  0.3633762281466986
  0.2492909225588633  0.2971785465687660  0.4382789413831674
  0.7507090774411367  0.2971785465687660  0.4382789413831674
  0.2673898037828479  0.0441602610350529  0.4916929415605793
  0.7326101962171521  0.0441602610350529  0.4916929415605793
  0.2445688669617354  0.7223236817714920  0.5935439244605760
  0.7554311330382717  0.7223236817714920  0.5935439244605760
  0.0000000000000000  0.1742053689724727  0.6900055384050603
  0.2589288081282533  0.4130177040626464  0.7350941880368822
  0.7410711918717396  0.4130177040626464  0.7350941880368822
  0.2469349182454366  0.9249001264905274  0.7844346927479080
  0.7530650817545634  0.9249001264905274  0.7844346927479080
  0.0000000000000000  0.6754349645710676  0.8532096078308555
  0.2445087862942259  0.1739778688516225  0.9271870575527359
  0.7554912137057812  0.1739778688516225  0.9271870575527359
  0.0000000000000000  0.6922026373138408  0.2369961936132512
  0.0000000000000000  0.2037595348112120  0.3185354455851126
  0.0000000000000000  0.7865724430068397  0.7239086566912576
  0.0000000000000000  0.3181050920539832  0.8380235794846413
 
  0.00000000E+00  0.00000000E+00  0.00000000E+00
  0.00000000E+00  0.00000000E+00  0.00000000E+00
  0.00000000E+00  0.00000000E+00  0.00000000E+00
  0.00000000E+00  0.00000000E+00  0.00000000E+00
  0.00000000E+00  0.00000000E+00  0.00000000E+00
  0.00000000E+00  0.00000000E+00  0.00000000E+00
  0.00000000E+00  0.00000000E+00  0.00000000E+00
  0.00000000E+00  0.00000000E+00  0.00000000E+00
  0.00000000E+00  0.00000000E+00  0.00000000E+00
  0.00000000E+00  0.00000000E+00  0.00000000E+00
  0.00000000E+00  0.00000000E+00  0.00000000E+00
  0.00000000E+00  0.00000000E+00  0.00000000E+00
  0.00000000E+00  0.00000000E+00  0.00000000E+00
  0.00000000E+00  0.00000000E+00  0.00000000E+00
  0.00000000E+00  0.00000000E+00  0.00000000E+00
  0.00000000E+00  0.00000000E+00  0.00000000E+00
  0.00000000E+00  0.00000000E+00  0.00000000E+00
  0.00000000E+00  0.00000000E+00  0.00000000E+00
  0.00000000E+00  0.00000000E+00  0.00000000E+00
  0.00000000E+00  0.00000000E+00  0.00000000E+00
  0.00000000E+00  0.00000000E+00  0.00000000E+00
  0.00000000E+00  0.00000000E+00  0.00000000E+00
  0.00000000E+00  0.00000000E+00  0.00000000E+00
  0.00000000E+00  0.00000000E+00  0.00000000E+00
  0.00000000E+00  0.00000000E+00  0.00000000E+00
  0.00000000E+00  0.00000000E+00  0.00000000E+00
  0.00000000E+00  0.00000000E+00  0.00000000E+00
  0.00000000E+00  0.00000000E+00  0.00000000E+00
  0.00000000E+00  0.00000000E+00  0.00000000E+00
  0.00000000E+00  0.00000000E+00  0.00000000E+00
  0.00000000E+00  0.00000000E+00  0.00000000E+00
  0.00000000E+00  0.00000000E+00  0.00000000E+00
  0.00000000E+00  0.00000000E+00  0.00000000E+00
  0.00000000E+00  0.00000000E+00  0.00000000E+00
