Sr8 Tl10                                
   1.0000000000000000     
     6.4647160716145944   -0.0000428695016724   -0.0026738964556007
    -3.2318691577927754    5.6025484476913796   -0.0000448698664999
    -0.0076790191173413   -0.0044405191025722   18.4026528385632844
   Tl   Sr
    10     8
Direct
  0.6670270373138791  0.3331334103342201  0.1031509760824250
  0.0008389314833011  0.5004400823999546  0.2501334894864300
  0.4994957297176228  0.5004908045621690  0.2495970425093077
  0.4994428898466623  0.9992370825254611  0.2496528960408853
  0.6659704130834072  0.3329236101229682  0.3965276125510329
  0.3329651467229269  0.6667688585173721  0.6036530613680213
  0.5004116948351225  0.0008139000293355  0.7503306778625500
  0.5005636512342946  0.4996190930241653  0.7503266320422668
  0.9991243371306595  0.4995257440124945  0.7503529789664398
  0.3342319365038335  0.6672348229930662  0.8970393674256840
  0.3326961569902522  0.6661735957888126  0.0769669215257167
  0.9996581587637579  0.9995501026324405  0.1447478673914944
  0.9999863998221059  0.9999900733764306  0.3540799220233737
  0.3336935477521408  0.6668687682126659  0.4233686772910161
  0.6665170937083644  0.3334485087714754  0.5768221850148834
  0.0000653557897010  0.0002164787494436  0.6456652188518035
  0.0005293320582851  0.0003823068307369  0.8548820171563207
  0.6672821872436785  0.3336827571168044  0.9232024564103511

  0.00000000E+00  0.00000000E+00  0.00000000E+00
  0.00000000E+00  0.00000000E+00  0.00000000E+00
  0.00000000E+00  0.00000000E+00  0.00000000E+00
  0.00000000E+00  0.00000000E+00  0.00000000E+00
  0.00000000E+00  0.00000000E+00  0.00000000E+00
  0.00000000E+00  0.00000000E+00  0.00000000E+00
  0.00000000E+00  0.00000000E+00  0.00000000E+00
  0.00000000E+00  0.00000000E+00  0.00000000E+00
  0.00000000E+00  0.00000000E+00  0.00000000E+00
  0.00000000E+00  0.00000000E+00  0.00000000E+00
  0.00000000E+00  0.00000000E+00  0.00000000E+00
  0.00000000E+00  0.00000000E+00  0.00000000E+00
  0.00000000E+00  0.00000000E+00  0.00000000E+00
  0.00000000E+00  0.00000000E+00  0.00000000E+00
  0.00000000E+00  0.00000000E+00  0.00000000E+00
  0.00000000E+00  0.00000000E+00  0.00000000E+00
  0.00000000E+00  0.00000000E+00  0.00000000E+00
  0.00000000E+00  0.00000000E+00  0.00000000E+00
