Be4 Al2 Cl10                            
   1.00000000000000     
     8.8414853859536269   -0.0073595708965262    0.1010418434456514
     0.0472815144942985    8.9504017861329928    0.0492981156242089
     4.5195303099662212    4.5093200829921463    6.8123550303117346
   Cl   Al   Be
    10     2     4
Direct
  0.0328325022025666  0.9887738931269254  0.0040983312543403
  0.5297042464693149  0.5033337000289109  0.0043898563756315
  0.5442747264858951  0.0898784905947920  0.2593302258061172
  0.0444987127563650  0.1544066617085278  0.2500578163558416
  0.7003107301017977  0.5180033773379549  0.2472803994406831
  0.2068509134331222  0.7358274047635405  0.2488694088930217
  0.7976304396355403  0.3410648586728868  0.7532472549268832
  0.2960546728271467  0.4097202227129628  0.7442815388898225
  0.9501149826376647  0.7778829310866442  0.7428142635959176
  0.4559830240938751  0.9832381726608972  0.7439242684877172
  0.3591392375767413  0.2465567998090563  0.5009422656589351
  0.8618355650417442  0.7533705339623467  0.4995780076060754
  0.1234360820842184  0.2030357752772076  0.9986692620067004
  0.6232811888646737  0.2928532971092679  0.0055423550373561
  0.2400955354111503  0.8915218529411035  0.9989837388503204
  0.7342574403781796  0.6108320282069570  0.9979910068146154
 
  0.00000000E+00  0.00000000E+00  0.00000000E+00
  0.00000000E+00  0.00000000E+00  0.00000000E+00
  0.00000000E+00  0.00000000E+00  0.00000000E+00
  0.00000000E+00  0.00000000E+00  0.00000000E+00
  0.00000000E+00  0.00000000E+00  0.00000000E+00
  0.00000000E+00  0.00000000E+00  0.00000000E+00
  0.00000000E+00  0.00000000E+00  0.00000000E+00
  0.00000000E+00  0.00000000E+00  0.00000000E+00
  0.00000000E+00  0.00000000E+00  0.00000000E+00
  0.00000000E+00  0.00000000E+00  0.00000000E+00
  0.00000000E+00  0.00000000E+00  0.00000000E+00
  0.00000000E+00  0.00000000E+00  0.00000000E+00
  0.00000000E+00  0.00000000E+00  0.00000000E+00
  0.00000000E+00  0.00000000E+00  0.00000000E+00
  0.00000000E+00  0.00000000E+00  0.00000000E+00
  0.00000000E+00  0.00000000E+00  0.00000000E+00
