SrCl4                                   
   1.00000000000000     
     5.4915216216039031   -0.0302044733389129   -0.0251430510876259
    -2.7434440530787048    7.6263554783690504    0.0085418046293554
    -1.0923416472131076   -3.1916061700450289    7.6855341619146431
   Cl   Sr
     8     2
Direct
  0.7653314162408975  0.4709833890376274  0.1333434111142253
  0.8243369159234746  0.0085919903803031  0.1718412310158683
  0.2943438948786579  0.1742433089670996  0.3965249394156061
  0.3132612696364987  0.6875862214662618  0.4269881566117206
  0.6867683690119506  0.3124191960409348  0.5730204406308772
  0.7056905828730962  0.8257499279529483  0.6034765904732637
  0.1756571262826370  0.9913775915391341  0.8281400304774635
  0.2346352520761030  0.5289967930128228  0.8666543566661673
  0.1860802181965653  0.3230715938784670  0.1030039338069173
  0.8138949548801193  0.6769199877243963  0.8970069097878834
 
  0.00000000E+00  0.00000000E+00  0.00000000E+00
  0.00000000E+00  0.00000000E+00  0.00000000E+00
  0.00000000E+00  0.00000000E+00  0.00000000E+00
  0.00000000E+00  0.00000000E+00  0.00000000E+00
  0.00000000E+00  0.00000000E+00  0.00000000E+00
  0.00000000E+00  0.00000000E+00  0.00000000E+00
  0.00000000E+00  0.00000000E+00  0.00000000E+00
  0.00000000E+00  0.00000000E+00  0.00000000E+00
  0.00000000E+00  0.00000000E+00  0.00000000E+00
  0.00000000E+00  0.00000000E+00  0.00000000E+00
