Ca7 Tl13                                
   1.0000000000000000     
     6.4857062670062415    0.1272778250079779   -0.0239232304345405
    -3.1295096236091275    5.4021660642658453   -0.3013459631703320
    -0.0818163266477675   -0.9967045557520600   17.7510679994193872
   Tl   Ca
    13     7
Direct
  0.2966387842851930  0.5424619208424772  0.0484470535452175
  0.1110744357286038  0.2582929977969712  0.2071168843705422
  0.1439150797120163  0.7758495971031323  0.1962802745523007
  0.6398318519008797  0.7423771031233244  0.2070009726218984
  0.3307010775081451  0.6959956178320468  0.3522619319580826
  0.9999456287353112  0.4762993137421603  0.4932548347122321
  0.5454207356852621  0.5603235636687103  0.4915036683846594
  0.4635652894270521  0.0339681116382096  0.5190238430826852
  0.7641889986073309  0.5122948363422708  0.6578826321126741
  0.3512630239200760  0.2202014211600343  0.7687195846939261
  0.8435367804757874  0.1955033987786905  0.7795401905175865
  0.9023213302372355  0.7532735739970278  0.8370449383278142
  0.6140078590656728  0.2992624127026744  0.9399607572565927
  0.9650799179499145  0.9034735720679308  0.0250507167214309
  0.6179588663767177  0.2222950652715738  0.1156321484692384
  0.6564389535669903  0.3132090815024497  0.3241915311183234
  0.0116562978234924  0.0040678746745826  0.3855515186823553
  0.0052813100694422  0.0575645505212421  0.5998566937121481
  0.3624448660575652  0.7263142018736914  0.6708364173619330
  0.3747309128672640  0.7069737853607734  0.8812434077983724

  0.00000000E+00  0.00000000E+00  0.00000000E+00
  0.00000000E+00  0.00000000E+00  0.00000000E+00
  0.00000000E+00  0.00000000E+00  0.00000000E+00
  0.00000000E+00  0.00000000E+00  0.00000000E+00
  0.00000000E+00  0.00000000E+00  0.00000000E+00
  0.00000000E+00  0.00000000E+00  0.00000000E+00
  0.00000000E+00  0.00000000E+00  0.00000000E+00
  0.00000000E+00  0.00000000E+00  0.00000000E+00
  0.00000000E+00  0.00000000E+00  0.00000000E+00
  0.00000000E+00  0.00000000E+00  0.00000000E+00
  0.00000000E+00  0.00000000E+00  0.00000000E+00
  0.00000000E+00  0.00000000E+00  0.00000000E+00
  0.00000000E+00  0.00000000E+00  0.00000000E+00
  0.00000000E+00  0.00000000E+00  0.00000000E+00
  0.00000000E+00  0.00000000E+00  0.00000000E+00
  0.00000000E+00  0.00000000E+00  0.00000000E+00
  0.00000000E+00  0.00000000E+00  0.00000000E+00
  0.00000000E+00  0.00000000E+00  0.00000000E+00
  0.00000000E+00  0.00000000E+00  0.00000000E+00
  0.00000000E+00  0.00000000E+00  0.00000000E+00
