Ca8In3                                  
   1.00000000000000     
     9.6134207213133909    0.0038968244817688   -0.0036283490950185
     4.8151240259812633    8.4381296273961635   -0.0031337997466323
     1.8901123327734279    2.8341220218247196    9.1681207766198707
   Ca   In
    16     6
Direct
  0.6511149786133004  0.2695727492084785  0.1082415811871513
  0.0458512385976633  0.6215276763940807  0.1116948090458081
  0.2972353413746163  0.0011134918807372  0.1114259677290264
  0.6668427611328056  0.7911004597691260  0.2959784172133268
  0.8813866542646736  0.3460937331061871  0.2973651428434110
  0.3989824357252800  0.5604525219377336  0.3297374959064641
  0.3305030794049202  0.2016056847975136  0.3506912453823787
  0.9788641477548694  0.9000400508394577  0.3535074042753763
  0.0211751941001594  0.0999658035622275  0.6464854345364230
  0.6694501734781397  0.7983332418702744  0.6492782724748736
  0.6012526113686363  0.4391413774686299  0.6705845897757214
  0.1189662226092949  0.6537290002399274  0.7024771597010258
  0.3331216433318005  0.2087274028297372  0.7040142669604279
  0.7029459660818205  0.9986610534671172  0.8885162362651613
  0.9542075640561620  0.3789900279918186  0.8882242271236294
  0.3486719707839612  0.7306047209824200  0.8917672864434749
  0.9998068134930733  0.0004183111605300  0.9999267822879219
  0.6643013907630859  0.6596283056291128  0.0257867694639913
  0.3345513373987004  0.8377735478675490  0.4995434180776002
  0.9999634478006669  0.5004238456821497  0.4998609621416605
  0.6655508583444387  0.1621372297698045  0.5004865066439237
  0.3355541695219202  0.3403187635453975  0.9743060245212121
 
  0.00000000E+00  0.00000000E+00  0.00000000E+00
  0.00000000E+00  0.00000000E+00  0.00000000E+00
  0.00000000E+00  0.00000000E+00  0.00000000E+00
  0.00000000E+00  0.00000000E+00  0.00000000E+00
  0.00000000E+00  0.00000000E+00  0.00000000E+00
  0.00000000E+00  0.00000000E+00  0.00000000E+00
  0.00000000E+00  0.00000000E+00  0.00000000E+00
  0.00000000E+00  0.00000000E+00  0.00000000E+00
  0.00000000E+00  0.00000000E+00  0.00000000E+00
  0.00000000E+00  0.00000000E+00  0.00000000E+00
  0.00000000E+00  0.00000000E+00  0.00000000E+00
  0.00000000E+00  0.00000000E+00  0.00000000E+00
  0.00000000E+00  0.00000000E+00  0.00000000E+00
  0.00000000E+00  0.00000000E+00  0.00000000E+00
  0.00000000E+00  0.00000000E+00  0.00000000E+00
  0.00000000E+00  0.00000000E+00  0.00000000E+00
  0.00000000E+00  0.00000000E+00  0.00000000E+00
  0.00000000E+00  0.00000000E+00  0.00000000E+00
  0.00000000E+00  0.00000000E+00  0.00000000E+00
  0.00000000E+00  0.00000000E+00  0.00000000E+00
  0.00000000E+00  0.00000000E+00  0.00000000E+00
  0.00000000E+00  0.00000000E+00  0.00000000E+00
