Be2 In2 I10                             
   1.00000000000000     
    -9.1192806507683031   -3.5866459361088907    1.1269476824309039
     9.1450857041185110   -3.6383852301174970   -1.1666547877365465
    -8.4091684415689816    0.0778700778079207   13.1998299957741807
   In   Be   I 
     2     2    10
Direct
  0.0019238188540882  0.9593046458973689  0.0675864185543418
  0.0332470294550617  0.0009938733025265  0.5656931887372494
  0.4882219603574356  0.5052171619090586  0.2337507651868904
  0.4935079139299674  0.5174118143119344  0.7330976106245117
  0.7313246368681732  0.5260207489064328  0.0578702688554600
  0.7565731817118291  0.0613679920572849  0.1363050077384855
  0.1726945891529112  0.1697005433554040  0.2448229293496595
  0.0197785847462271  0.7063256978100512  0.3683984818397690
  0.5420120661234975  0.7589369349049164  0.3935339387379244
  0.4695649621316349  0.2748085030463301  0.5563559919605794
  0.9330868582326630  0.2463702896243802  0.6322326903319677
  0.8183207253822147  0.8454144211090551  0.7480559789880630
  0.2849932838270490  0.9693190768089153  0.8678038238617773
  0.2546493892272466  0.4587082969563738  0.8941909052333372
 
  0.00000000E+00  0.00000000E+00  0.00000000E+00
  0.00000000E+00  0.00000000E+00  0.00000000E+00
  0.00000000E+00  0.00000000E+00  0.00000000E+00
  0.00000000E+00  0.00000000E+00  0.00000000E+00
  0.00000000E+00  0.00000000E+00  0.00000000E+00
  0.00000000E+00  0.00000000E+00  0.00000000E+00
  0.00000000E+00  0.00000000E+00  0.00000000E+00
  0.00000000E+00  0.00000000E+00  0.00000000E+00
  0.00000000E+00  0.00000000E+00  0.00000000E+00
  0.00000000E+00  0.00000000E+00  0.00000000E+00
  0.00000000E+00  0.00000000E+00  0.00000000E+00
  0.00000000E+00  0.00000000E+00  0.00000000E+00
  0.00000000E+00  0.00000000E+00  0.00000000E+00
  0.00000000E+00  0.00000000E+00  0.00000000E+00
