In3Br                                   
   1.00000000000000     
    -2.3135203209468598    2.3135203209468598    5.6737083216508912
     2.3135203209468598   -2.3135203209468598    5.6737083216508912
     2.3135203209468598    2.3135203209468598   -5.6737083216508912
   Br   In
     1     3
Direct
  0.0000000000000000  0.0000000000000000  0.0000000000000000
  0.7500000000000000  0.2500000000000000  0.5000000000000000
  0.2500000000000000  0.7500000000000000  0.5000000000000000
  0.5000000000000000  0.5000000000000000  0.0000000000000000
 
  0.00000000E+00  0.00000000E+00  0.00000000E+00
  0.00000000E+00  0.00000000E+00  0.00000000E+00
  0.00000000E+00  0.00000000E+00  0.00000000E+00
  0.00000000E+00  0.00000000E+00  0.00000000E+00
