Mg4 Tl8 Cl16                            
   1.00000000000000     
     9.2782557743219272    0.0045433071750581   -0.0100158638042062
     0.0026443757587939    7.6152641105171730   -0.4120375280601387
    -0.0099086840634477   -0.7452700625873121   13.1942927261022511
   Mg   Cl   Tl
     4    16     8
Direct
  0.7162053799202397  0.2336927191695892  0.0770626748554406
  0.2154689113854360  0.2652765967687856  0.4229865198457503
  0.7839285230361384  0.7311164212996033  0.5767626536309294
  0.2844383229107805  0.7699723741464197  0.9231741388409631
  0.1823134184365713  0.8428708271302625  0.0863908428479263
  0.4700065244526144  0.2960761713019053  0.0656962726278536
  0.7643246263548633  0.9923008792729391  0.1680733481827588
  0.8360427512546309  0.4950523802011517  0.1414712251071109
  0.3351609785731995  0.0035539077792066  0.3590140116556384
  0.2646974704459737  0.5064445256999477  0.3323475662376509
  0.9692527194157847  0.2039852884655176  0.4340825855141475
  0.6821308541859707  0.6582842240512932  0.4132925403134706
  0.3174562830908556  0.3381386103731785  0.5863934205180641
  0.0303199251320763  0.7919345335919346  0.5662677461166297
  0.7344571715290016  0.4893031964538466  0.6668132821180421
  0.6646583002497550  0.9926419476037438  0.6412826078375176
  0.1653009097661666  0.5084721564739283  0.8582363206045116
  0.2355075330465439  0.0116366752185542  0.8325787759243255
  0.5308293432440649  0.7082779251770503  0.9341719413270084
  0.8183464822501918  0.1605384751661276  0.9139010235358995
  0.1329448641645996  0.2548841818230940  0.0340600645084095
  0.5040057909433813  0.7048632282784624  0.1848639532507903
  0.0038732744650574  0.7942524078985684  0.3152001260235409
  0.6321941012478263  0.2458171704626295  0.4652717757308551
  0.3672858429920751  0.7493625754171234  0.5342919494310578
  0.9953042686586642  0.2020718891822284  0.6848205668542491
  0.4956536847441555  0.2988786471969576  0.8149329192631711
  0.8678917441033676  0.7499000643959306  0.9661591472963167
 
  0.00000000E+00  0.00000000E+00  0.00000000E+00
  0.00000000E+00  0.00000000E+00  0.00000000E+00
  0.00000000E+00  0.00000000E+00  0.00000000E+00
  0.00000000E+00  0.00000000E+00  0.00000000E+00
  0.00000000E+00  0.00000000E+00  0.00000000E+00
  0.00000000E+00  0.00000000E+00  0.00000000E+00
  0.00000000E+00  0.00000000E+00  0.00000000E+00
  0.00000000E+00  0.00000000E+00  0.00000000E+00
  0.00000000E+00  0.00000000E+00  0.00000000E+00
  0.00000000E+00  0.00000000E+00  0.00000000E+00
  0.00000000E+00  0.00000000E+00  0.00000000E+00
  0.00000000E+00  0.00000000E+00  0.00000000E+00
  0.00000000E+00  0.00000000E+00  0.00000000E+00
  0.00000000E+00  0.00000000E+00  0.00000000E+00
  0.00000000E+00  0.00000000E+00  0.00000000E+00
  0.00000000E+00  0.00000000E+00  0.00000000E+00
  0.00000000E+00  0.00000000E+00  0.00000000E+00
  0.00000000E+00  0.00000000E+00  0.00000000E+00
  0.00000000E+00  0.00000000E+00  0.00000000E+00
  0.00000000E+00  0.00000000E+00  0.00000000E+00
  0.00000000E+00  0.00000000E+00  0.00000000E+00
  0.00000000E+00  0.00000000E+00  0.00000000E+00
  0.00000000E+00  0.00000000E+00  0.00000000E+00
  0.00000000E+00  0.00000000E+00  0.00000000E+00
  0.00000000E+00  0.00000000E+00  0.00000000E+00
  0.00000000E+00  0.00000000E+00  0.00000000E+00
  0.00000000E+00  0.00000000E+00  0.00000000E+00
  0.00000000E+00  0.00000000E+00  0.00000000E+00
