Tl1                                     
   1.00000000000000     
     3.2382332710416315    0.0000000004726599   -1.1448896595261262
    -1.6191171521355743    2.8043933957325917   -1.1448896594740543
    -0.0000000356667453   -0.0000000570077301    3.4346657821018045
   Tl
     1
Direct
  0.0000000000000000  0.0000000000000000  0.0000000000000000
 
  0.00000000E+00  0.00000000E+00  0.00000000E+00
