GaF                                     
   1.00000000000000     
     0.0000000000000000    2.5774863784712725    2.5774863784712725
     2.5774863784712725    0.0000000000000000    2.5774863784712725
     2.5774863784712725    2.5774863784712725    0.0000000000000000
   F    Ga
     1     1
Direct
  0.0000000000000000  0.0000000000000000  0.0000000000000000
  0.5000000000000000  0.5000000000000000  0.5000000000000000
 
  0.00000000E+00  0.00000000E+00  0.00000000E+00
  0.00000000E+00  0.00000000E+00  0.00000000E+00
