KPOINTS from AFLOWTRI1b (triclinic) X-G-Y L-G-Z N-G-M R-G
20   ! 20 grids 
Line-mode
reciprocal
   0.0000   -0.5000   0.0000   ! X
   0.0000   0.0000   0.0000   ! \Gamma
 
   0.0000   0.0000   0.0000   ! \Gamma
   0.5000   0.0000   0.0000   ! Y
 
   0.5000   -0.5000   0.0000   ! L
   0.0000   0.0000   0.0000   ! \Gamma
 
   0.0000   0.0000   0.0000   ! \Gamma
   -0.5000   0.0000   0.5000   ! Z
 
   -0.5000   -0.5000   0.5000   ! N
   0.0000   0.0000   0.0000   ! \Gamma
 
   0.0000   0.0000   0.0000   ! \Gamma
   0.0000   0.0000   0.5000   ! M
 
   0.0000   -0.5000   0.5000   ! R
   0.0000   0.0000   0.0000   ! \Gamma
