Sr8 Al50                                
   1.00000000000000     
    13.7131988081240568    0.0000000000000000    0.0000000000000000
     0.0000000000000000    7.9594699552442254   -0.3070625942473145
     0.0000000000000000    7.3606980103416939   13.5458162423780966
   Sr   Al
     8    50
Direct
  0.6642549586160058  0.1146289437478742  0.3545567879356355
  0.3357450413839942  0.1146289437478742  0.8545567879356426
  0.1573072532324602  0.3529100710193376  0.6558603753215309
  0.8426927467675398  0.3529100710193376  0.1558603753215309
  0.3357450413839942  0.8853710562521258  0.6454432120643574
  0.6642549586160058  0.8853710562521258  0.1454432120643574
  0.8426927467675398  0.6470899289806624  0.3441396246784691
  0.1573072532324602  0.6470899289806624  0.8441396246784691
  0.6639783137742228  0.6487472597941135  0.5500760295374789
  0.3360216862257772  0.6487472597941135  0.0500760295374789
  0.1675555300540452  0.1962556472250441  0.4401279294845892
  0.8324444699459548  0.1962556472250441  0.9401279294845821
  0.3360216862257772  0.3512527402058865  0.4499239704625211
  0.6639783137742228  0.3512527402058865  0.9499239704625211
  0.8324444699459548  0.8037443527749559  0.5598720705154179
  0.1675555300540452  0.8037443527749559  0.0598720705154179
  0.0901029229986889  0.9939148657738883  0.1643923926225668
  0.6110339496522457  0.7061371784528632  0.8497156373198536
  0.9098970770013111  0.9939148657738883  0.6643923926225668
  0.3889660503477543  0.7061371784528632  0.3497156373198536
  0.9098970770013111  0.0060851342261117  0.8356076073774332
  0.3889660503477543  0.2938628215471368  0.1502843626801464
  0.0901029229986889  0.0060851342261117  0.3356076073774332
  0.6110339496522457  0.2938628215471368  0.6502843626801464
  0.5945842724508665  0.7185131271846075  0.3746050593910084
  0.4054157275491335  0.7185131271846075  0.8746050593910084
  0.1035769563402269  0.9921148365724974  0.6280807557111459
  0.8964230436597731  0.9921148365724974  0.1280807557111459
  0.4054157275491335  0.2814868728153925  0.6253949406089916
  0.5945842724508665  0.2814868728153925  0.1253949406089916
  0.8964230436597731  0.0078851634275026  0.3719192442888541
  0.1035769563402269  0.0078851634275026  0.8719192442888541
  0.4898306420223051  0.5466197882394184  0.6562102224167603
  0.5101693579776949  0.5466197882394184  0.1562102224167603
  0.0026547538250057  0.3223410309428587  0.3336015416192879
  0.9973452461749943  0.3223410309428587  0.8336015416192879
  0.5101693579776949  0.4533802117605816  0.3437897775832397
  0.4898306420223051  0.4533802117605816  0.8437897775832397
  0.9973452461749943  0.6776589690571413  0.6663984583807121
  0.0026547538250057  0.6776589690571413  0.1663984583807050
  0.1615650688026165  0.1829222048107653  0.9814194060988513
  0.6689360480139754  0.6293794713721610  0.0258319273874861
  0.8384349311973835  0.1829222048107653  0.4814194060988513
  0.3310639519860246  0.6293794713721610  0.5258319273874861
  0.8384349311973835  0.8170777951892347  0.0185805939011487
  0.3310639519860246  0.3706205286278390  0.9741680726125139
  0.1615650688026165  0.8170777951892347  0.5185805939011487
  0.6689360480139754  0.3706205286278390  0.4741680726125139
  0.4871155917196006  0.8520005954332319  0.4786910647906737
  0.5128844082803994  0.8520005954332319  0.9786910647906737
  0.0029918135558162  0.3190168906392401  0.5083848114665415
  0.9970081864441838  0.3190168906392401  0.0083848114665415
  0.5128844082803994  0.1479994045667681  0.5213089352093263
  0.4871155917196006  0.1479994045667681  0.0213089352093263
  0.9970081864441838  0.6809831093607599  0.4916151885334585
  0.0029918135558162  0.6809831093607599  0.9916151885334585
  0.4821247517706837  0.0000000000000000  0.2500000000000000
  0.5178752482293163  0.0000000000000000  0.7500000000000000
 
  0.00000000E+00  0.00000000E+00  0.00000000E+00
  0.00000000E+00  0.00000000E+00  0.00000000E+00
  0.00000000E+00  0.00000000E+00  0.00000000E+00
  0.00000000E+00  0.00000000E+00  0.00000000E+00
  0.00000000E+00  0.00000000E+00  0.00000000E+00
  0.00000000E+00  0.00000000E+00  0.00000000E+00
  0.00000000E+00  0.00000000E+00  0.00000000E+00
  0.00000000E+00  0.00000000E+00  0.00000000E+00
  0.00000000E+00  0.00000000E+00  0.00000000E+00
  0.00000000E+00  0.00000000E+00  0.00000000E+00
  0.00000000E+00  0.00000000E+00  0.00000000E+00
  0.00000000E+00  0.00000000E+00  0.00000000E+00
  0.00000000E+00  0.00000000E+00  0.00000000E+00
  0.00000000E+00  0.00000000E+00  0.00000000E+00
  0.00000000E+00  0.00000000E+00  0.00000000E+00
  0.00000000E+00  0.00000000E+00  0.00000000E+00
  0.00000000E+00  0.00000000E+00  0.00000000E+00
  0.00000000E+00  0.00000000E+00  0.00000000E+00
  0.00000000E+00  0.00000000E+00  0.00000000E+00
  0.00000000E+00  0.00000000E+00  0.00000000E+00
  0.00000000E+00  0.00000000E+00  0.00000000E+00
  0.00000000E+00  0.00000000E+00  0.00000000E+00
  0.00000000E+00  0.00000000E+00  0.00000000E+00
  0.00000000E+00  0.00000000E+00  0.00000000E+00
  0.00000000E+00  0.00000000E+00  0.00000000E+00
  0.00000000E+00  0.00000000E+00  0.00000000E+00
  0.00000000E+00  0.00000000E+00  0.00000000E+00
  0.00000000E+00  0.00000000E+00  0.00000000E+00
  0.00000000E+00  0.00000000E+00  0.00000000E+00
  0.00000000E+00  0.00000000E+00  0.00000000E+00
  0.00000000E+00  0.00000000E+00  0.00000000E+00
  0.00000000E+00  0.00000000E+00  0.00000000E+00
  0.00000000E+00  0.00000000E+00  0.00000000E+00
  0.00000000E+00  0.00000000E+00  0.00000000E+00
  0.00000000E+00  0.00000000E+00  0.00000000E+00
  0.00000000E+00  0.00000000E+00  0.00000000E+00
  0.00000000E+00  0.00000000E+00  0.00000000E+00
  0.00000000E+00  0.00000000E+00  0.00000000E+00
  0.00000000E+00  0.00000000E+00  0.00000000E+00
  0.00000000E+00  0.00000000E+00  0.00000000E+00
  0.00000000E+00  0.00000000E+00  0.00000000E+00
  0.00000000E+00  0.00000000E+00  0.00000000E+00
  0.00000000E+00  0.00000000E+00  0.00000000E+00
  0.00000000E+00  0.00000000E+00  0.00000000E+00
  0.00000000E+00  0.00000000E+00  0.00000000E+00
  0.00000000E+00  0.00000000E+00  0.00000000E+00
  0.00000000E+00  0.00000000E+00  0.00000000E+00
  0.00000000E+00  0.00000000E+00  0.00000000E+00
  0.00000000E+00  0.00000000E+00  0.00000000E+00
  0.00000000E+00  0.00000000E+00  0.00000000E+00
  0.00000000E+00  0.00000000E+00  0.00000000E+00
  0.00000000E+00  0.00000000E+00  0.00000000E+00
  0.00000000E+00  0.00000000E+00  0.00000000E+00
  0.00000000E+00  0.00000000E+00  0.00000000E+00
  0.00000000E+00  0.00000000E+00  0.00000000E+00
  0.00000000E+00  0.00000000E+00  0.00000000E+00
  0.00000000E+00  0.00000000E+00  0.00000000E+00
  0.00000000E+00  0.00000000E+00  0.00000000E+00
