BI3                                     
   1.00000000000000     
     7.4572531434904112    0.0000000000000000    0.0066367086392985
     0.0000000000000000    8.5761071984696606    0.0000000000000000
    -3.7208049785617918    0.0000000000000000    6.4439562282576874
   B    I 
     2     6
Direct
  0.3339923500629212  0.2500000000000000  0.1667091121555089
  0.6660564594184706  0.7500000000000000  0.8332988673814441
  0.6868193117123127  0.7500000000000000  0.1292185106629873
  0.0593915201438122  0.2500000000000000  0.1874810223070327
  0.6289276201788994  0.2500000000000000  0.4417359580719378
  0.3711241694142799  0.7500000000000000  0.5582688499009265
  0.9406775589737961  0.7500000000000000  0.8125559334371459
  0.3131110100955041  0.2500000000000000  0.8707317460830168
 
  0.00000000E+00  0.00000000E+00  0.00000000E+00
  0.00000000E+00  0.00000000E+00  0.00000000E+00
  0.00000000E+00  0.00000000E+00  0.00000000E+00
  0.00000000E+00  0.00000000E+00  0.00000000E+00
  0.00000000E+00  0.00000000E+00  0.00000000E+00
  0.00000000E+00  0.00000000E+00  0.00000000E+00
  0.00000000E+00  0.00000000E+00  0.00000000E+00
  0.00000000E+00  0.00000000E+00  0.00000000E+00
