Ca4 Tl4 Cl20                            
   1.0000000000000000     
    14.9090471714703998    0.0000000000000000    0.0000000000000000
     0.0000000000000000    4.8330496862599839   -1.8258909218199768
     0.0000000000000000    4.2328774468563468   11.6060495974529374
   Ca   Tl   Cl
     4     4    20
Direct
  0.0670314750948009  0.4731009103837280  0.3544442249078301
  0.5670314750948009  0.5268990896162720  0.1455557750921699
  0.9329685249051991  0.5268990896162720  0.6455557750921628
  0.4329685249051920  0.4731009103837280  0.8544442249078372
  0.7565056859117050  0.0304969734057465  0.3988598532885703
  0.2565056859117050  0.9695030265942535  0.1011401467114297
  0.2434943140882950  0.9695030265942535  0.6011401467114297
  0.7434943140882950  0.0304969734057465  0.8988598532885703
  0.6349601300248437  0.5258212122668056  0.3517107925902465
  0.1349601300248437  0.4741787877331944  0.1482892074097535
  0.3650398699751563  0.4741787877331944  0.6482892074097464
  0.8650398699751563  0.5258212122668056  0.8517107925902536
  0.8340358477831415  0.1926132771029501  0.1490109157702193
  0.3340358477831415  0.8073867228970499  0.3509890842297807
  0.1659641522168585  0.8073867228970499  0.8509890842297807
  0.6659641522168585  0.1926132771029501  0.6490109157702193
  0.5297514760752478  0.3198032652611573  0.6454310135782748
  0.0297514760752478  0.6801967347388356  0.8545689864217252
  0.4702485239247522  0.6801967347388356  0.3545689864217252
  0.9702485239247522  0.3198032652611573  0.1454310135782748
  0.3726829601459372  0.9737346975709471  0.8631396823254178
  0.8726829601459301  0.0262653024290600  0.6368603176745822
  0.6273170398540699  0.0262653024290600  0.1368603176745893
  0.1273170398540628  0.9737346975709471  0.3631396823254107
  0.3964189866331864  0.4735740422199726  0.0748770945076416
  0.8964189866331864  0.5264259577800274  0.4251229054923584
  0.6035810133668136  0.5264259577800274  0.9251229054923584
  0.1035810133668136  0.4735740422199726  0.5748770945076416

  0.00000000E+00  0.00000000E+00  0.00000000E+00
  0.00000000E+00  0.00000000E+00  0.00000000E+00
  0.00000000E+00  0.00000000E+00  0.00000000E+00
  0.00000000E+00  0.00000000E+00  0.00000000E+00
  0.00000000E+00  0.00000000E+00  0.00000000E+00
  0.00000000E+00  0.00000000E+00  0.00000000E+00
  0.00000000E+00  0.00000000E+00  0.00000000E+00
  0.00000000E+00  0.00000000E+00  0.00000000E+00
  0.00000000E+00  0.00000000E+00  0.00000000E+00
  0.00000000E+00  0.00000000E+00  0.00000000E+00
  0.00000000E+00  0.00000000E+00  0.00000000E+00
  0.00000000E+00  0.00000000E+00  0.00000000E+00
  0.00000000E+00  0.00000000E+00  0.00000000E+00
  0.00000000E+00  0.00000000E+00  0.00000000E+00
  0.00000000E+00  0.00000000E+00  0.00000000E+00
  0.00000000E+00  0.00000000E+00  0.00000000E+00
  0.00000000E+00  0.00000000E+00  0.00000000E+00
  0.00000000E+00  0.00000000E+00  0.00000000E+00
  0.00000000E+00  0.00000000E+00  0.00000000E+00
  0.00000000E+00  0.00000000E+00  0.00000000E+00
  0.00000000E+00  0.00000000E+00  0.00000000E+00
  0.00000000E+00  0.00000000E+00  0.00000000E+00
  0.00000000E+00  0.00000000E+00  0.00000000E+00
  0.00000000E+00  0.00000000E+00  0.00000000E+00
  0.00000000E+00  0.00000000E+00  0.00000000E+00
  0.00000000E+00  0.00000000E+00  0.00000000E+00
  0.00000000E+00  0.00000000E+00  0.00000000E+00
  0.00000000E+00  0.00000000E+00  0.00000000E+00
