Sr2 Al2 Cl10                            
   1.0000000000000000     
     4.5318207742010346   -0.0000000000000001    0.0000000000000003
    -0.0000000000000009   11.0847262756869291    0.0000000000000009
     0.0000000000000002    0.0000000000000003   10.6738341152071854
   Sr   Al   Cl
     2     2    10
Direct
  0.0000000000000000  0.0000000000000000  0.5000000000000000
  0.5000000000000000  0.5000000000000000  0.0000000000000000
  0.5000000000000000  0.0000000000000000  0.0000000000000000
  0.0000000000000000  0.5000000000000000  0.5000000000000000
  0.5000000000000000  0.8373430831140070  0.5000000000000000
  0.5000000000000000  0.1626569168860001  0.5000000000000000
  0.5000000000000000  0.0000000000000000  0.2003528961474004
  0.5000000000000000  0.0000000000000000  0.7996471038525996
  0.0000000000000000  0.0000000000000000  0.0000000000000000
  0.0000000000000000  0.3373430831139999  0.0000000000000000
  0.0000000000000000  0.6626569168859930  0.0000000000000000
  0.0000000000000000  0.5000000000000000  0.7003528961474004
  0.0000000000000000  0.5000000000000000  0.2996471038525996
  0.5000000000000000  0.5000000000000000  0.5000000000000000

  0.00000000E+00  0.00000000E+00  0.00000000E+00
  0.00000000E+00  0.00000000E+00  0.00000000E+00
  0.00000000E+00  0.00000000E+00  0.00000000E+00
  0.00000000E+00  0.00000000E+00  0.00000000E+00
  0.00000000E+00  0.00000000E+00  0.00000000E+00
  0.00000000E+00  0.00000000E+00  0.00000000E+00
  0.00000000E+00  0.00000000E+00  0.00000000E+00
  0.00000000E+00  0.00000000E+00  0.00000000E+00
  0.00000000E+00  0.00000000E+00  0.00000000E+00
  0.00000000E+00  0.00000000E+00  0.00000000E+00
  0.00000000E+00  0.00000000E+00  0.00000000E+00
  0.00000000E+00  0.00000000E+00  0.00000000E+00
  0.00000000E+00  0.00000000E+00  0.00000000E+00
  0.00000000E+00  0.00000000E+00  0.00000000E+00
