B4 Br6                                  
   1.00000000000000     
    -7.1212743901321485    0.3508043452157161   -1.4785197892005257
     3.5339908363060970   -6.2861230905261536    3.3424560348160188
    -1.6104967436344466   -1.3566796762749185    8.9563104299078109
   B    Br
     4     6
Direct
  0.9576001930017526  0.3994119582294431  0.1063753753862500
  0.9207425799789135  0.1442322440836747  0.1947884662507775
  0.0792574200210865  0.8557677559163253  0.8052115337492225
  0.0423998069982474  0.6005880417705569  0.8936246246137500
  0.8992650899419345  0.4742468916807567  0.2635514482986920
  0.1790305343389704  0.1421922776149671  0.2377277838060223
  0.6234258487034481  0.8560646545436157  0.2520087501939514
  0.3765741512965519  0.1439353454563843  0.7479912498060486
  0.8209694656610296  0.8578077223850329  0.7622722161939777
  0.1007349100580655  0.5257531083192433  0.7364485517013080
 
  0.00000000E+00  0.00000000E+00  0.00000000E+00
  0.00000000E+00  0.00000000E+00  0.00000000E+00
  0.00000000E+00  0.00000000E+00  0.00000000E+00
  0.00000000E+00  0.00000000E+00  0.00000000E+00
  0.00000000E+00  0.00000000E+00  0.00000000E+00
  0.00000000E+00  0.00000000E+00  0.00000000E+00
  0.00000000E+00  0.00000000E+00  0.00000000E+00
  0.00000000E+00  0.00000000E+00  0.00000000E+00
  0.00000000E+00  0.00000000E+00  0.00000000E+00
  0.00000000E+00  0.00000000E+00  0.00000000E+00
