CaTl13                                  
   1.0000000000000000     
     6.9224336857844575   -5.0248378740354971   -0.0861275718384131
     6.9224336857844575    5.0248378740354971   -0.0861275718384131
    -1.4314839345860413    0.0000000000000000    6.3336670462654983
   Ca   Tl
     1    13
Direct
  0.0000548444311050  0.0000548444311050  0.0000226771247682
  0.7785892658141051  0.7785892658141051  0.1401638228343245
  0.6074164118589849  0.2125104919244407  0.1902446294287756
  0.2125104919244407  0.6074164118589849  0.1902446294287756
  0.9935424323771116  0.3513046201227397  0.3181204341073567
  0.3513046201227397  0.9935424323771116  0.3181204341073567
  0.6049705452997856  0.6049705452997856  0.3855976972695245
  0.9999979013678626  0.9999979013678626  0.5000109398172512
  0.3950071672214435  0.3950071672214435  0.6142832795232351
  0.6487743584478594  0.0063205799462835  0.6819783155671146
  0.0063205799462835  0.6487743584478594  0.6819783155671146
  0.7874101218172385  0.3925283737025893  0.8097669322862231
  0.3925283737025893  0.7874101218172385  0.8097669322862231
  0.2214618856684396  0.2214618856684396  0.8597009606519563

  0.00000000E+00  0.00000000E+00  0.00000000E+00
  0.00000000E+00  0.00000000E+00  0.00000000E+00
  0.00000000E+00  0.00000000E+00  0.00000000E+00
  0.00000000E+00  0.00000000E+00  0.00000000E+00
  0.00000000E+00  0.00000000E+00  0.00000000E+00
  0.00000000E+00  0.00000000E+00  0.00000000E+00
  0.00000000E+00  0.00000000E+00  0.00000000E+00
  0.00000000E+00  0.00000000E+00  0.00000000E+00
  0.00000000E+00  0.00000000E+00  0.00000000E+00
  0.00000000E+00  0.00000000E+00  0.00000000E+00
  0.00000000E+00  0.00000000E+00  0.00000000E+00
  0.00000000E+00  0.00000000E+00  0.00000000E+00
  0.00000000E+00  0.00000000E+00  0.00000000E+00
  0.00000000E+00  0.00000000E+00  0.00000000E+00
