Ca17 B11 Cl1                            
   1.00000000000000     
     7.1961700591382520   -3.6248788790312596    3.6258477130213955
     1.1104962659740993    9.0654087212375423    3.3475210885573117
    -8.4175815399902412   -5.8379627323121577    3.8388820594739421
   B    Cl   Ca
    11     1    17
Direct
  0.5440572709279223  0.9934482574349062  0.9759340434818782
  0.1792258626259624  0.2700491728382417  0.2419098568082561
  0.5609733439840099  0.1935241743734721  0.0690537162646336
  0.3315634608346230  0.9905550745604685  0.2407751098875934
  0.0998547773437508  0.2087453911099715  0.3335839669006546
  0.2307347669818611  0.1169068397063029  0.2574006565136528
  0.0462502791516712  0.8413632079441342  0.7439700215898100
  0.8681345097190984  0.8759864449565669  0.7601154859090045
  0.1732389008957256  0.7369108105989923  0.7197411742801449
  0.5958898069538350  0.1152695292427026  0.9144277373551901
  0.0184832738449785  0.0323455659566818  0.8050366182609423
  0.5796237293379463  0.5377857161407960  0.8072890317889119
  0.1543132610419562  0.3708466526388037  0.0164797441495992
  0.2627257894818840  0.0322409463665991  0.0114589506017495
  0.6473697750129688  0.4385495967434494  0.0364143641340320
  0.8757368867714277  0.0765322392889587  0.0357312874382458
  0.3648895107998626  0.7058471587568533  0.9455330827914707
  0.8486133505963309  0.7894689696574773  0.4854808102449013
  0.6546589427915492  0.0829372550937606  0.2679453978219755
  0.0870936199841950  0.5136532343071281  0.4169741357151793
  0.0403200186991128  0.8800425332564998  0.2516220284202930
  0.4217864730498277  0.7990101400751328  0.3359566157430791
  0.5004281237840615  0.4054864686435522  0.3097757694808436
  0.2851447082535117  0.0147655076330011  0.7124149134028457
  0.0426825033474358  0.2532493070759969  0.5863487190606733
  0.8833233190936056  0.5970057682847809  0.7434555133834593
  0.7487497168806527  0.1134050979559404  0.7273818344724248
  0.5294004684146500  0.7708674075757358  0.7164100915006060
  0.4256895493955781  0.2425415317831110  0.5313803225979541
 
  0.00000000E+00  0.00000000E+00  0.00000000E+00
  0.00000000E+00  0.00000000E+00  0.00000000E+00
  0.00000000E+00  0.00000000E+00  0.00000000E+00
  0.00000000E+00  0.00000000E+00  0.00000000E+00
  0.00000000E+00  0.00000000E+00  0.00000000E+00
  0.00000000E+00  0.00000000E+00  0.00000000E+00
  0.00000000E+00  0.00000000E+00  0.00000000E+00
  0.00000000E+00  0.00000000E+00  0.00000000E+00
  0.00000000E+00  0.00000000E+00  0.00000000E+00
  0.00000000E+00  0.00000000E+00  0.00000000E+00
  0.00000000E+00  0.00000000E+00  0.00000000E+00
  0.00000000E+00  0.00000000E+00  0.00000000E+00
  0.00000000E+00  0.00000000E+00  0.00000000E+00
  0.00000000E+00  0.00000000E+00  0.00000000E+00
  0.00000000E+00  0.00000000E+00  0.00000000E+00
  0.00000000E+00  0.00000000E+00  0.00000000E+00
  0.00000000E+00  0.00000000E+00  0.00000000E+00
  0.00000000E+00  0.00000000E+00  0.00000000E+00
  0.00000000E+00  0.00000000E+00  0.00000000E+00
  0.00000000E+00  0.00000000E+00  0.00000000E+00
  0.00000000E+00  0.00000000E+00  0.00000000E+00
  0.00000000E+00  0.00000000E+00  0.00000000E+00
  0.00000000E+00  0.00000000E+00  0.00000000E+00
  0.00000000E+00  0.00000000E+00  0.00000000E+00
  0.00000000E+00  0.00000000E+00  0.00000000E+00
  0.00000000E+00  0.00000000E+00  0.00000000E+00
  0.00000000E+00  0.00000000E+00  0.00000000E+00
  0.00000000E+00  0.00000000E+00  0.00000000E+00
  0.00000000E+00  0.00000000E+00  0.00000000E+00
