Mg4 In4 Cl20                            
   1.0000000000000000     
     0.0000000000000000    7.1370697876533233   -1.5657594444966145
    12.7592000462425084    0.0000000000000000    0.0000000000000000
     0.0000000000000000    1.8169556460933838   -9.8562214831000645
   Mg   In   Cl
     4     4    20
Direct
  0.3548598045795046  0.4238137573931198  0.5020379721373516
  0.6451401954204954  0.9238137573931127  0.4979620278626484
  0.9317096431391647  0.0818717203353998  0.0928506155483575
  0.0682903568608424  0.5818717203353998  0.9071493844516425
  0.3934158354894137  0.6138493963983223  0.0716025766979840
  0.6065841645105863  0.1138493963983223  0.9283974233020160
  0.8262240228174420  0.6572867871529908  0.3804096006171704
  0.1737759771825580  0.1572867871529908  0.6195903993828296
  0.3491415233830466  0.0059728044589846  0.4709093711161643
  0.0920461467036233  0.5265638842477358  0.6712887227552287
  0.9079538532963767  0.0265638842477358  0.3287112772447642
  0.7390917504080079  0.6760539690446521  0.9556953483569757
  0.9481416132372829  0.5310754927955230  0.1705146565198561
  0.6340803229867049  0.9756984762087058  0.0904558963850661
  0.8158576834569544  0.2219160773479771  0.7082233927773487
  0.6225724725302655  0.7852561063897951  0.3201439805437758
  0.0518583867627171  0.0310754927955159  0.8294853434801439
  0.7796898380919473  0.7748355955937072  0.5907866859114463
  0.3659196770132951  0.4756984762086987  0.9095441036149339
  0.6508584766169534  0.5059728044589917  0.5290906288838357
  0.5511795267446544  0.9895713542222211  0.7514683297090130
  0.7507966727468514  0.2338335584108862  0.0704869965716810
  0.2203101619080527  0.2748355955937072  0.4092133140885537
  0.1841423165430456  0.7219160773479771  0.2917766072226513
  0.2609082495919850  0.1760539690446521  0.0443046516430172
  0.2492033272531486  0.7338335584108862  0.9295130034283190
  0.3774275274697345  0.2852561063897951  0.6798560194562242
  0.4488204732553456  0.4895713542222211  0.2485316702909941

  0.00000000E+00  0.00000000E+00  0.00000000E+00
  0.00000000E+00  0.00000000E+00  0.00000000E+00
  0.00000000E+00  0.00000000E+00  0.00000000E+00
  0.00000000E+00  0.00000000E+00  0.00000000E+00
  0.00000000E+00  0.00000000E+00  0.00000000E+00
  0.00000000E+00  0.00000000E+00  0.00000000E+00
  0.00000000E+00  0.00000000E+00  0.00000000E+00
  0.00000000E+00  0.00000000E+00  0.00000000E+00
  0.00000000E+00  0.00000000E+00  0.00000000E+00
  0.00000000E+00  0.00000000E+00  0.00000000E+00
  0.00000000E+00  0.00000000E+00  0.00000000E+00
  0.00000000E+00  0.00000000E+00  0.00000000E+00
  0.00000000E+00  0.00000000E+00  0.00000000E+00
  0.00000000E+00  0.00000000E+00  0.00000000E+00
  0.00000000E+00  0.00000000E+00  0.00000000E+00
  0.00000000E+00  0.00000000E+00  0.00000000E+00
  0.00000000E+00  0.00000000E+00  0.00000000E+00
  0.00000000E+00  0.00000000E+00  0.00000000E+00
  0.00000000E+00  0.00000000E+00  0.00000000E+00
  0.00000000E+00  0.00000000E+00  0.00000000E+00
  0.00000000E+00  0.00000000E+00  0.00000000E+00
  0.00000000E+00  0.00000000E+00  0.00000000E+00
  0.00000000E+00  0.00000000E+00  0.00000000E+00
  0.00000000E+00  0.00000000E+00  0.00000000E+00
  0.00000000E+00  0.00000000E+00  0.00000000E+00
  0.00000000E+00  0.00000000E+00  0.00000000E+00
  0.00000000E+00  0.00000000E+00  0.00000000E+00
  0.00000000E+00  0.00000000E+00  0.00000000E+00
