Ba1 B2 F10                              
   1.00000000000000     
     4.2481436774862749    3.1715281615434607    0.5988163706728623
    -4.2481436774862749    3.1715281615434607    0.5988163706728623
     0.0000000000000000    3.1518962337642504    6.9328588573647192
   Ba   B    F 
     1     2    10
Direct
  0.4442226487116443  0.5557773512883557  0.0000000000000000
  0.2738145065964162  0.0609043246976455  0.5676856637354106
  0.9390956753023545  0.7261854934035910  0.4323143362645894
  0.4245805016683946  0.3311847272286599  0.3822716948564988
  0.6688152727713401  0.5754194983316054  0.6177283051435012
  0.0100015965134332  0.0304350625314171  0.7124750170498899
  0.9695649374685829  0.9899984034865668  0.2875249829501101
  0.7473181351035478  0.2526818648964522  0.0000000000000000
  0.1828334499848339  0.8171665500151661  0.5000000000000000
  0.4693640316278191  0.0488380631501997  0.9731547959873694
  0.9511619368498003  0.5306359683721809  0.0268452040126306
  0.4503633212774574  0.9871370138756319  0.6483701060399198
  0.0128629861243681  0.5496366787225426  0.3516298939600802
 
  0.00000000E+00  0.00000000E+00  0.00000000E+00
  0.00000000E+00  0.00000000E+00  0.00000000E+00
  0.00000000E+00  0.00000000E+00  0.00000000E+00
  0.00000000E+00  0.00000000E+00  0.00000000E+00
  0.00000000E+00  0.00000000E+00  0.00000000E+00
  0.00000000E+00  0.00000000E+00  0.00000000E+00
  0.00000000E+00  0.00000000E+00  0.00000000E+00
  0.00000000E+00  0.00000000E+00  0.00000000E+00
  0.00000000E+00  0.00000000E+00  0.00000000E+00
  0.00000000E+00  0.00000000E+00  0.00000000E+00
  0.00000000E+00  0.00000000E+00  0.00000000E+00
  0.00000000E+00  0.00000000E+00  0.00000000E+00
  0.00000000E+00  0.00000000E+00  0.00000000E+00
