Mg4 Al8 I32                             
   1.00000000000000     
    -6.7365350001477706    6.7365350001477706   11.2991943168471014
     6.7365350001477706   -6.7365350001477706   11.2991943168471014
     6.7365350001477706    6.7365350001477706  -11.2991943168471014
   Mg   Al   I 
     4     8    32
Direct
  0.0000000000000000  0.0000000000000000  0.0000000000000000
  0.7500000000000000  0.2500000000000000  0.5000000000000000
  0.2500000000000000  0.7500000000000000  0.5000000000000000
  0.5000000000000000  0.5000000000000000  0.0000000000000000
  0.5804619928829595  0.8750000000000000  0.2054619928829595
  0.1250000000000000  0.8304619928829595  0.2054619928829595
  0.1250000000000000  0.3304619928829595  0.7054619928829595
  0.6695380071170405  0.3750000000000000  0.7945380071170405
  0.6250000000000000  0.9195380071170405  0.7945380071170405
  0.0804619928829595  0.8750000000000000  0.7054619928829595
  0.1695380071170405  0.3750000000000000  0.2945380071170405
  0.6250000000000000  0.4195380071170405  0.2945380071170405
  0.6000092758165891  0.2152092621939019  0.2374361552566171
  0.1125731205599649  0.8500092758165891  0.8848000136226801
  0.7722268930627223  0.8874268794400351  0.7374361552566171
  0.2925628862459391  0.2501757886640590  0.2353769171677058
  0.7925628862459391  0.5571859690782190  0.0423880975818776
  0.8071859690782190  0.5425628862459391  0.5423880975818776
  0.1499907241834109  0.0347907378060981  0.2625638447433829
  0.9652092621939019  0.2277731069372777  0.1151999863773128
  0.4777731069372777  0.7152092621939019  0.6151999863773199
  0.2498242113359410  0.2074371137540609  0.7646230828322942
  0.0147978714963415  0.0571859690782190  0.7646230828322942
  0.9574371137540609  0.6928140309217810  0.4576119024181224
  0.9428140309217810  0.7074371137540609  0.9576119024181224
  0.1374268794400351  0.5222268930627223  0.2374361552566171
  0.2722268930627223  0.5347907378060981  0.8848000136226801
  0.6125731205599649  0.7277731069372777  0.2625638447433829
  0.7352021285036585  0.1928140309217810  0.7353769171677058
  0.2847907378060981  0.8999907241834109  0.7625638447433829
  0.4652092621939019  0.3500092758165891  0.7374361552566171
  0.9777731069372777  0.3625731205599649  0.7625638447433829
  0.3071859690782190  0.7647978714963415  0.2646230828322942
  0.4428140309217810  0.4852021285036585  0.2353769171677058
  0.6374268794400351  0.3999907241834109  0.6151999863773199
  0.6499907241834109  0.3874268794400351  0.1151999863773128
  0.2352021285036585  0.4998242113359410  0.5423880975818776
  0.4574371137540609  0.9998242113359410  0.2646230828322942
  0.1000092758165891  0.8625731205599649  0.3848000136226801
  0.5001757886640590  0.0425628862459391  0.7353769171677058
  0.5147978714963415  0.7501757886640590  0.9576119024181224
  0.0001757886640590  0.2647978714963415  0.4576119024181224
  0.7847907378060981  0.0222268930627223  0.3848000136226801
  0.7498242113359410  0.9852021285036585  0.0423880975818776
 
  0.00000000E+00  0.00000000E+00  0.00000000E+00
  0.00000000E+00  0.00000000E+00  0.00000000E+00
  0.00000000E+00  0.00000000E+00  0.00000000E+00
  0.00000000E+00  0.00000000E+00  0.00000000E+00
  0.00000000E+00  0.00000000E+00  0.00000000E+00
  0.00000000E+00  0.00000000E+00  0.00000000E+00
  0.00000000E+00  0.00000000E+00  0.00000000E+00
  0.00000000E+00  0.00000000E+00  0.00000000E+00
  0.00000000E+00  0.00000000E+00  0.00000000E+00
  0.00000000E+00  0.00000000E+00  0.00000000E+00
  0.00000000E+00  0.00000000E+00  0.00000000E+00
  0.00000000E+00  0.00000000E+00  0.00000000E+00
  0.00000000E+00  0.00000000E+00  0.00000000E+00
  0.00000000E+00  0.00000000E+00  0.00000000E+00
  0.00000000E+00  0.00000000E+00  0.00000000E+00
  0.00000000E+00  0.00000000E+00  0.00000000E+00
  0.00000000E+00  0.00000000E+00  0.00000000E+00
  0.00000000E+00  0.00000000E+00  0.00000000E+00
  0.00000000E+00  0.00000000E+00  0.00000000E+00
  0.00000000E+00  0.00000000E+00  0.00000000E+00
  0.00000000E+00  0.00000000E+00  0.00000000E+00
  0.00000000E+00  0.00000000E+00  0.00000000E+00
  0.00000000E+00  0.00000000E+00  0.00000000E+00
  0.00000000E+00  0.00000000E+00  0.00000000E+00
  0.00000000E+00  0.00000000E+00  0.00000000E+00
  0.00000000E+00  0.00000000E+00  0.00000000E+00
  0.00000000E+00  0.00000000E+00  0.00000000E+00
  0.00000000E+00  0.00000000E+00  0.00000000E+00
  0.00000000E+00  0.00000000E+00  0.00000000E+00
  0.00000000E+00  0.00000000E+00  0.00000000E+00
  0.00000000E+00  0.00000000E+00  0.00000000E+00
  0.00000000E+00  0.00000000E+00  0.00000000E+00
  0.00000000E+00  0.00000000E+00  0.00000000E+00
  0.00000000E+00  0.00000000E+00  0.00000000E+00
  0.00000000E+00  0.00000000E+00  0.00000000E+00
  0.00000000E+00  0.00000000E+00  0.00000000E+00
  0.00000000E+00  0.00000000E+00  0.00000000E+00
  0.00000000E+00  0.00000000E+00  0.00000000E+00
  0.00000000E+00  0.00000000E+00  0.00000000E+00
  0.00000000E+00  0.00000000E+00  0.00000000E+00
  0.00000000E+00  0.00000000E+00  0.00000000E+00
  0.00000000E+00  0.00000000E+00  0.00000000E+00
  0.00000000E+00  0.00000000E+00  0.00000000E+00
  0.00000000E+00  0.00000000E+00  0.00000000E+00
