Ba22 In14                               
   1.0000000000000000     
    -0.0000000000000000    9.3678007240476138    9.3678007240476138
     9.3678007240476138   -0.0000000000000000    9.3678007240476138
     9.3678007240476138    9.3678007240476138   -0.0000000000000000
   Ba   In
    22    14
Direct
  0.0000000000000000  0.0000000000000000  0.0000000000000000
  0.5000000000000000  0.5000000000000000  0.5000000000000000
  0.1295253009779671  0.1295253009779671  0.1295253009779671
  0.3885749029339038  0.8704746990220329  0.8704746990220329
  0.8704746990220329  0.3885749029339038  0.8704746990220329
  0.8704746990220329  0.8704746990220329  0.3885749029339038
  0.1295253009779671  0.6114250970660962  0.1295253009779671
  0.1295253009779671  0.1295253009779671  0.6114250970660962
  0.6114250970660962  0.1295253009779671  0.1295253009779671
  0.8704746990220329  0.8704746990220329  0.8704746990220329
  0.5000000000000000  0.8344790489942895  0.5000000000000000
  0.8344790489942895  0.5000000000000000  0.5000000000000000
  0.5000000000000000  0.8344790489942895  0.1655209510057105
  0.1655209510057105  0.5000000000000000  0.8344790489942895
  0.8344790489942895  0.5000000000000000  0.1655209510057105
  0.5000000000000000  0.5000000000000000  0.8344790489942895
  0.1655209510057105  0.8344790489942895  0.5000000000000000
  0.5000000000000000  0.1655209510057105  0.8344790489942895
  0.5000000000000000  0.5000000000000000  0.1655209510057105
  0.8344790489942895  0.1655209510057105  0.5000000000000000
  0.1655209510057105  0.5000000000000000  0.5000000000000000
  0.5000000000000000  0.1655209510057105  0.5000000000000000
  0.2206748097737474  0.7793251902262526  0.2206748097737474
  0.2206748097737474  0.7793251902262526  0.7793251902262526
  0.7793251902262526  0.2206748097737474  0.2206748097737474
  0.7793251902262526  0.7793251902262526  0.2206748097737474
  0.2206748097737474  0.2206748097737474  0.7793251902262526
  0.7793251902262526  0.2206748097737474  0.7793251902262526
  0.3082494458137504  0.3082484458137529  0.3082484458137529
  0.9247463374412703  0.6917515541862471  0.6917515541862471
  0.6917515541862471  0.9247463374412703  0.6917515541862471
  0.6917515541862471  0.6917515541862471  0.9247463374412703
  0.3082484458137529  0.0752536625587368  0.3082484458137529
  0.3082484458137529  0.3082484458137529  0.0752536625587368
  0.0752536625587368  0.3082484458137529  0.3082484458137529
  0.6917515541862471  0.6917515541862471  0.6917505541862496

  0.00000000E+00  0.00000000E+00  0.00000000E+00
  0.00000000E+00  0.00000000E+00  0.00000000E+00
  0.00000000E+00  0.00000000E+00  0.00000000E+00
  0.00000000E+00  0.00000000E+00  0.00000000E+00
  0.00000000E+00  0.00000000E+00  0.00000000E+00
  0.00000000E+00  0.00000000E+00  0.00000000E+00
  0.00000000E+00  0.00000000E+00  0.00000000E+00
  0.00000000E+00  0.00000000E+00  0.00000000E+00
  0.00000000E+00  0.00000000E+00  0.00000000E+00
  0.00000000E+00  0.00000000E+00  0.00000000E+00
  0.00000000E+00  0.00000000E+00  0.00000000E+00
  0.00000000E+00  0.00000000E+00  0.00000000E+00
  0.00000000E+00  0.00000000E+00  0.00000000E+00
  0.00000000E+00  0.00000000E+00  0.00000000E+00
  0.00000000E+00  0.00000000E+00  0.00000000E+00
  0.00000000E+00  0.00000000E+00  0.00000000E+00
  0.00000000E+00  0.00000000E+00  0.00000000E+00
  0.00000000E+00  0.00000000E+00  0.00000000E+00
  0.00000000E+00  0.00000000E+00  0.00000000E+00
  0.00000000E+00  0.00000000E+00  0.00000000E+00
  0.00000000E+00  0.00000000E+00  0.00000000E+00
  0.00000000E+00  0.00000000E+00  0.00000000E+00
  0.00000000E+00  0.00000000E+00  0.00000000E+00
  0.00000000E+00  0.00000000E+00  0.00000000E+00
  0.00000000E+00  0.00000000E+00  0.00000000E+00
  0.00000000E+00  0.00000000E+00  0.00000000E+00
  0.00000000E+00  0.00000000E+00  0.00000000E+00
  0.00000000E+00  0.00000000E+00  0.00000000E+00
  0.00000000E+00  0.00000000E+00  0.00000000E+00
  0.00000000E+00  0.00000000E+00  0.00000000E+00
  0.00000000E+00  0.00000000E+00  0.00000000E+00
  0.00000000E+00  0.00000000E+00  0.00000000E+00
  0.00000000E+00  0.00000000E+00  0.00000000E+00
  0.00000000E+00  0.00000000E+00  0.00000000E+00
  0.00000000E+00  0.00000000E+00  0.00000000E+00
  0.00000000E+00  0.00000000E+00  0.00000000E+00
