Ca4 Al4 Cl20                            
   1.0000000000000000     
     0.0000000000000000   10.7669705164985086   -1.2132494306997095
    11.7715648702115256    0.0000000000000000    0.0000000000000000
     0.0000000000000000    0.8494401851073220   -7.5238214787918087
   Ca   Al   Cl
     4     4    20
Direct
  0.6771702337266774  0.4037660144462905  0.2258914007001920
  0.3228297662733155  0.9037660144462976  0.7741085992998080
  0.8932555652392509  0.0506872636721027  0.1258230951930912
  0.1067444347607491  0.5506872636721027  0.8741769048069088
  0.5670010387652482  0.8096328379093691  0.2132071259461199
  0.4329989612347518  0.3096328379093762  0.7867928740538872
  0.9761677440475793  0.5728370554223901  0.4761729341948850
  0.0238322559524207  0.0728370554223901  0.5238270658051150
  0.2131639468201740  0.0071290596937672  0.5054055154504766
  0.1075063539077163  0.4466284460001901  0.5313079479123886
  0.8924936460922837  0.9466284460001901  0.4686920520876043
  0.7513212207676929  0.8583135555777304  0.0528026532433330
  0.8991754443008020  0.4310712394979106  0.0091757698331918
  0.4196786798849743  0.8835309633898660  0.0992248598816943
  0.9447475356771378  0.1578042950877219  0.7766359929597968
  0.5494159977202813  0.8754607484341932  0.4852619638188358
  0.1008245556991980  0.9310712394979106  0.9908242301668082
  0.9623095752935811  0.6927724387135825  0.6973789961280374
  0.5803213201150328  0.3835309633898660  0.9007751401183057
  0.7868360531798331  0.5071290596937672  0.4945944845495234
  0.4502988733107216  0.1267677589867873  0.7879757087319277
  0.6929438434291981  0.1811973031680836  0.2457950797644486
  0.0376904247064118  0.1927724387135825  0.3026210038719626
  0.0552524643228622  0.6578042950877219  0.2233640070402032
  0.2486787792323000  0.3583135555777304  0.9471973467566599
  0.3070561565708019  0.6811973031680836  0.7542049202355514
  0.4505840022797187  0.3754607484341932  0.5147380361811642
  0.5497011266892855  0.6267677589867873  0.2120242912680794

  0.00000000E+00  0.00000000E+00  0.00000000E+00
  0.00000000E+00  0.00000000E+00  0.00000000E+00
  0.00000000E+00  0.00000000E+00  0.00000000E+00
  0.00000000E+00  0.00000000E+00  0.00000000E+00
  0.00000000E+00  0.00000000E+00  0.00000000E+00
  0.00000000E+00  0.00000000E+00  0.00000000E+00
  0.00000000E+00  0.00000000E+00  0.00000000E+00
  0.00000000E+00  0.00000000E+00  0.00000000E+00
  0.00000000E+00  0.00000000E+00  0.00000000E+00
  0.00000000E+00  0.00000000E+00  0.00000000E+00
  0.00000000E+00  0.00000000E+00  0.00000000E+00
  0.00000000E+00  0.00000000E+00  0.00000000E+00
  0.00000000E+00  0.00000000E+00  0.00000000E+00
  0.00000000E+00  0.00000000E+00  0.00000000E+00
  0.00000000E+00  0.00000000E+00  0.00000000E+00
  0.00000000E+00  0.00000000E+00  0.00000000E+00
  0.00000000E+00  0.00000000E+00  0.00000000E+00
  0.00000000E+00  0.00000000E+00  0.00000000E+00
  0.00000000E+00  0.00000000E+00  0.00000000E+00
  0.00000000E+00  0.00000000E+00  0.00000000E+00
  0.00000000E+00  0.00000000E+00  0.00000000E+00
  0.00000000E+00  0.00000000E+00  0.00000000E+00
  0.00000000E+00  0.00000000E+00  0.00000000E+00
  0.00000000E+00  0.00000000E+00  0.00000000E+00
  0.00000000E+00  0.00000000E+00  0.00000000E+00
  0.00000000E+00  0.00000000E+00  0.00000000E+00
  0.00000000E+00  0.00000000E+00  0.00000000E+00
  0.00000000E+00  0.00000000E+00  0.00000000E+00
