Ca2 Tl22                                
   1.0000000000000000     
    -6.6929968642740922    5.3955654694731603    4.2280568031890207
     6.1402692885672741   -5.9385004896295719    4.0795698063123895
     8.2012906919916109    7.6481045816994451   -4.8636050411323115
   Tl   Ca
    22     2
Direct
  0.6798641189376227  0.6630816897325005  0.0474862315192581
  0.4919791904399204  0.1713261563945494  0.0328184956638395
  0.4652880604378353  0.8231409430389647  0.1045316128783682
  0.9223282728182127  0.2139200522241964  0.1509856034712129
  0.1935517257865200  0.9147614397666075  0.1675450240769223
  0.3436864630090568  0.7184844202659022  0.3276333863092802
  0.8944086019688413  0.5863137890762644  0.2806907496390352
  0.4120294137632570  0.3866408680975582  0.2361839229087295
  0.8258238781673910  0.8913845439655574  0.3663287962062114
  0.2380923391038579  0.3813031641276510  0.4497085878768772
  0.3083361225218084  0.0873602764019950  0.4534403724912011
  0.2218940252046124  0.7108464926842544  0.5660302334953045
  0.7629717405915741  0.5534123404555942  0.5350547659089031
  0.7106633316333344  0.8563682445592562  0.6091824406059771
  0.1143993209086887  0.3362703608631890  0.6765973530008935
  0.5659818359482429  0.4839437772999275  0.7405130113231877
  0.2225966023330912  0.0466510795540245  0.7097412786152830
  0.5831833929738011  0.8798109356911468  0.8503531083329108
  0.6796284539679149  0.1824587714372043  0.6703090358604555
  0.1180385451788766  0.6733624058317744  0.8168163322406556
  0.1513773226648709  0.3588557891180955  0.9537212522040193
  0.8581130453964150  0.4432233117448448  0.9685047202427342
  0.9974039540354482  0.9295874591651625  0.9026526287385650
  0.7385602422087274  0.2070916885038017  0.3835710563901245

  0.00000000E+00  0.00000000E+00  0.00000000E+00
  0.00000000E+00  0.00000000E+00  0.00000000E+00
  0.00000000E+00  0.00000000E+00  0.00000000E+00
  0.00000000E+00  0.00000000E+00  0.00000000E+00
  0.00000000E+00  0.00000000E+00  0.00000000E+00
  0.00000000E+00  0.00000000E+00  0.00000000E+00
  0.00000000E+00  0.00000000E+00  0.00000000E+00
  0.00000000E+00  0.00000000E+00  0.00000000E+00
  0.00000000E+00  0.00000000E+00  0.00000000E+00
  0.00000000E+00  0.00000000E+00  0.00000000E+00
  0.00000000E+00  0.00000000E+00  0.00000000E+00
  0.00000000E+00  0.00000000E+00  0.00000000E+00
  0.00000000E+00  0.00000000E+00  0.00000000E+00
  0.00000000E+00  0.00000000E+00  0.00000000E+00
  0.00000000E+00  0.00000000E+00  0.00000000E+00
  0.00000000E+00  0.00000000E+00  0.00000000E+00
  0.00000000E+00  0.00000000E+00  0.00000000E+00
  0.00000000E+00  0.00000000E+00  0.00000000E+00
  0.00000000E+00  0.00000000E+00  0.00000000E+00
  0.00000000E+00  0.00000000E+00  0.00000000E+00
  0.00000000E+00  0.00000000E+00  0.00000000E+00
  0.00000000E+00  0.00000000E+00  0.00000000E+00
  0.00000000E+00  0.00000000E+00  0.00000000E+00
  0.00000000E+00  0.00000000E+00  0.00000000E+00
