Ca1 In2 F8                              
   1.00000000000000     
     6.4217454325114156   -2.3532288975007591   -0.2210019989775375
     6.4217454325114156    2.3532288975007591   -0.2210019989775375
    -2.0939539799267375    0.0000000000000000    4.2058721456487369
   In   Ca   F 
     2     1     8
Direct
  0.3390059532134373  0.3390059532134373  0.2707541253382644
  0.6609940467865627  0.6609940467865627  0.7292458746617356
  0.0000000000000000  0.0000000000000000  0.0000000000000000
  0.4832206467039057  0.4832206467039057  0.7317097071089833
  0.0656607308994097  0.5683857711394964  0.8537577726920986
  0.5683857711394964  0.0656607308994097  0.8537577726920986
  0.8915656781465415  0.8915656781465415  0.4327829463898283
  0.1084343218534585  0.1084343218534585  0.5672170536101717
  0.4316142288605036  0.9343392691005832  0.1462422273079014
  0.9343392691005832  0.4316142288605036  0.1462422273079014
  0.5167793532960943  0.5167793532960943  0.2682902928910167
 
  0.00000000E+00  0.00000000E+00  0.00000000E+00
  0.00000000E+00  0.00000000E+00  0.00000000E+00
  0.00000000E+00  0.00000000E+00  0.00000000E+00
  0.00000000E+00  0.00000000E+00  0.00000000E+00
  0.00000000E+00  0.00000000E+00  0.00000000E+00
  0.00000000E+00  0.00000000E+00  0.00000000E+00
  0.00000000E+00  0.00000000E+00  0.00000000E+00
  0.00000000E+00  0.00000000E+00  0.00000000E+00
  0.00000000E+00  0.00000000E+00  0.00000000E+00
  0.00000000E+00  0.00000000E+00  0.00000000E+00
  0.00000000E+00  0.00000000E+00  0.00000000E+00
