Mg2 In7                                 
   1.0000000000000000     
     6.5960688443681637   -0.5354301146619529   -0.2282025281058162
    -3.7505009729791028    5.4659121218355358   -0.2301039509383467
    -0.2164313154871061   -0.4243501066015562    6.9727972761800725
   In   Mg
     7     2
Direct
  0.0000000000000000  0.0000000000000000  0.0000000000000000
  0.3504323193409888  0.9859021457169419  0.3125191369172029
  0.9861029026385353  0.3509436287044636  0.3127920425070698
  0.7017239057149425  0.7016344762998301  0.3645611683832968
  0.2982760942850646  0.2983655237001628  0.6354388316166961
  0.0138970973614576  0.6490563712955151  0.6872079574929373
  0.6495676806590183  0.0140978542830581  0.6874808630827971
  0.3606893770714308  0.6387087033409031  0.9998294798874738
  0.6393106229285621  0.3612912966590969  0.0001705201125262

  0.00000000E+00  0.00000000E+00  0.00000000E+00
  0.00000000E+00  0.00000000E+00  0.00000000E+00
  0.00000000E+00  0.00000000E+00  0.00000000E+00
  0.00000000E+00  0.00000000E+00  0.00000000E+00
  0.00000000E+00  0.00000000E+00  0.00000000E+00
  0.00000000E+00  0.00000000E+00  0.00000000E+00
  0.00000000E+00  0.00000000E+00  0.00000000E+00
  0.00000000E+00  0.00000000E+00  0.00000000E+00
  0.00000000E+00  0.00000000E+00  0.00000000E+00
