Sr6 Al33                                
   1.00000000000000     
     9.2826993798087845    0.0000000000000000    0.0000000000000000
     0.0000000000000000    9.2826993798087845    0.0000000000000000
     0.0000000000000000    0.0000000000000000    9.2826993798087845
   Sr   Al
     6    33
Direct
  0.2189135544164955  0.5000000000000000  0.0000000000000000
  0.7810864455835045  0.5000000000000000  0.0000000000000000
  0.5000000000000000  0.0000000000000000  0.2189135544164955
  0.0000000000000000  0.2189135544164955  0.5000000000000000
  0.0000000000000000  0.7810864455835045  0.5000000000000000
  0.5000000000000000  0.0000000000000000  0.7810864455835045
  0.0000000000000000  0.0000000000000000  0.0000000000000000
  0.2531506109768316  0.1475579157494522  0.0000000000000000
  0.7468493890231684  0.1475579157494522  0.0000000000000000
  0.5000000000000000  0.2992588788802024  0.0000000000000000
  0.5000000000000000  0.7007411211197976  0.0000000000000000
  0.2531506109768316  0.8524420842505478  0.0000000000000000
  0.7468493890231684  0.8524420842505478  0.0000000000000000
  0.0000000000000000  0.2531506109768316  0.1475579157494522
  0.0000000000000000  0.7468493890231684  0.1475579157494522
  0.5000000000000000  0.5000000000000000  0.2646379288538867
  0.1475579157494522  0.0000000000000000  0.2531506109768316
  0.8524420842505478  0.0000000000000000  0.2531506109768316
  0.2833999552665958  0.2833999552665958  0.2833999552665958
  0.7166000447334042  0.2833999552665958  0.2833999552665958
  0.2833999552665958  0.7166000447334042  0.2833999552665958
  0.7166000447334042  0.7166000447334042  0.2833999552665958
  0.0000000000000000  0.5000000000000000  0.2992588788802024
  0.2992588788802024  0.0000000000000000  0.5000000000000000
  0.7007411211197976  0.0000000000000000  0.5000000000000000
  0.5000000000000000  0.2646379288538867  0.5000000000000000
  0.2646379288538867  0.5000000000000000  0.5000000000000000
  0.7353620711461133  0.5000000000000000  0.5000000000000000
  0.5000000000000000  0.7353620711461133  0.5000000000000000
  0.0000000000000000  0.5000000000000000  0.7007411211197976
  0.2833999552665958  0.2833999552665958  0.7166000447334042
  0.7166000447334042  0.2833999552665958  0.7166000447334042
  0.2833999552665958  0.7166000447334042  0.7166000447334042
  0.7166000447334042  0.7166000447334042  0.7166000447334042
  0.1475579157494522  0.0000000000000000  0.7468493890231684
  0.8524420842505478  0.0000000000000000  0.7468493890231684
  0.5000000000000000  0.5000000000000000  0.7353620711461133
  0.0000000000000000  0.2531506109768316  0.8524420842505478
  0.0000000000000000  0.7468493890231684  0.8524420842505478
 
  0.00000000E+00  0.00000000E+00  0.00000000E+00
  0.00000000E+00  0.00000000E+00  0.00000000E+00
  0.00000000E+00  0.00000000E+00  0.00000000E+00
  0.00000000E+00  0.00000000E+00  0.00000000E+00
  0.00000000E+00  0.00000000E+00  0.00000000E+00
  0.00000000E+00  0.00000000E+00  0.00000000E+00
  0.00000000E+00  0.00000000E+00  0.00000000E+00
  0.00000000E+00  0.00000000E+00  0.00000000E+00
  0.00000000E+00  0.00000000E+00  0.00000000E+00
  0.00000000E+00  0.00000000E+00  0.00000000E+00
  0.00000000E+00  0.00000000E+00  0.00000000E+00
  0.00000000E+00  0.00000000E+00  0.00000000E+00
  0.00000000E+00  0.00000000E+00  0.00000000E+00
  0.00000000E+00  0.00000000E+00  0.00000000E+00
  0.00000000E+00  0.00000000E+00  0.00000000E+00
  0.00000000E+00  0.00000000E+00  0.00000000E+00
  0.00000000E+00  0.00000000E+00  0.00000000E+00
  0.00000000E+00  0.00000000E+00  0.00000000E+00
  0.00000000E+00  0.00000000E+00  0.00000000E+00
  0.00000000E+00  0.00000000E+00  0.00000000E+00
  0.00000000E+00  0.00000000E+00  0.00000000E+00
  0.00000000E+00  0.00000000E+00  0.00000000E+00
  0.00000000E+00  0.00000000E+00  0.00000000E+00
  0.00000000E+00  0.00000000E+00  0.00000000E+00
  0.00000000E+00  0.00000000E+00  0.00000000E+00
  0.00000000E+00  0.00000000E+00  0.00000000E+00
  0.00000000E+00  0.00000000E+00  0.00000000E+00
  0.00000000E+00  0.00000000E+00  0.00000000E+00
  0.00000000E+00  0.00000000E+00  0.00000000E+00
  0.00000000E+00  0.00000000E+00  0.00000000E+00
  0.00000000E+00  0.00000000E+00  0.00000000E+00
  0.00000000E+00  0.00000000E+00  0.00000000E+00
  0.00000000E+00  0.00000000E+00  0.00000000E+00
  0.00000000E+00  0.00000000E+00  0.00000000E+00
  0.00000000E+00  0.00000000E+00  0.00000000E+00
  0.00000000E+00  0.00000000E+00  0.00000000E+00
  0.00000000E+00  0.00000000E+00  0.00000000E+00
  0.00000000E+00  0.00000000E+00  0.00000000E+00
  0.00000000E+00  0.00000000E+00  0.00000000E+00
