Sr2TlBr5                                
   1.0000000000000000     
     8.6384412035681599    0.0010693169062383   -0.0211362999821842
     0.0010634317449477    8.6391402236246684   -0.0202705748911413
     4.3023498903495945    4.3034288612207137    7.2339070718883072
   Br   Sr   Tl
    10     4     2
Direct
  0.0003034526238466  0.0000070391501765  0.9993190940556005
  0.4997968466125329  0.5002980308217886  0.9995921648089308
  0.5152604849917068  0.0153448138159575  0.2665040466972997
  0.0162871470797867  0.2207032291656787  0.2654175566242927
  0.7211906590751767  0.5164813317844406  0.2651158721299893
  0.2210743412674887  0.7210845926262621  0.2642507270915786
  0.7788064604852707  0.2790530868343311  0.7354636731433786
  0.2782888446847736  0.4830728117135621  0.7347200782975136
  0.9830351568688940  0.7784138200778159  0.7345459922286963
  0.4845636373638627  0.9847239198883742  0.7334427052367758
  0.3412471442628302  0.1586768355338748  0.0000728994170558
  0.8402699987928912  0.3402532571774941  0.0015341525372534
  0.1594007404155136  0.6593284598698403  0.9986143606107660
  0.6588169127904777  0.8412780594380962  0.9999720225421598
  0.2500533490220391  0.2509009880545108  0.5007314002338248
  0.7513048236629061  0.7500797240478079  0.5007032543448986

  0.00000000E+00  0.00000000E+00  0.00000000E+00
  0.00000000E+00  0.00000000E+00  0.00000000E+00
  0.00000000E+00  0.00000000E+00  0.00000000E+00
  0.00000000E+00  0.00000000E+00  0.00000000E+00
  0.00000000E+00  0.00000000E+00  0.00000000E+00
  0.00000000E+00  0.00000000E+00  0.00000000E+00
  0.00000000E+00  0.00000000E+00  0.00000000E+00
  0.00000000E+00  0.00000000E+00  0.00000000E+00
  0.00000000E+00  0.00000000E+00  0.00000000E+00
  0.00000000E+00  0.00000000E+00  0.00000000E+00
  0.00000000E+00  0.00000000E+00  0.00000000E+00
  0.00000000E+00  0.00000000E+00  0.00000000E+00
  0.00000000E+00  0.00000000E+00  0.00000000E+00
  0.00000000E+00  0.00000000E+00  0.00000000E+00
  0.00000000E+00  0.00000000E+00  0.00000000E+00
  0.00000000E+00  0.00000000E+00  0.00000000E+00
