Mg16 Al6                                
   1.00000000000000     
     8.1591136725294273   -0.1202924612573900    0.0825342402140959
     3.9769605579188467    7.1757087506232731   -0.0390613830982159
     1.6507984214008788    2.3200863881336762    7.9221242303444583
   Mg   Al
    16     6
Direct
  0.6515404516560253  0.2768241741935071  0.1104103214230179
  0.0352397226387637  0.6223234799795492  0.1056845930309152
  0.3127749945149176  0.9832997341273568  0.1173435509208147
  0.6760861763448389  0.8303646830616955  0.2921251274050221
  0.8742687257899959  0.3506252667917735  0.3021854063090146
  0.3909840127928490  0.5578899040475704  0.3367619438718350
  0.3115578815629689  0.2225125361519673  0.3334883047115369
  0.9936133936636864  0.9032133774358542  0.3576623881836625
  0.0064093013515532  0.0968097357963913  0.6423335964321666
  0.6884700429239601  0.7775278306194622  0.6665033846150763
  0.6090547944123514  0.4421494977371765  0.6632251421253557
  0.1257770180106164  0.6493896850565122  0.6977967639085989
  0.3239373807498964  0.1696652740582039  0.7078659546050829
  0.6872457300173807  0.0167377251062888  0.8826497749934390
  0.9647848367748182  0.3777104860638261  0.8943034529098668
  0.3484844046148723  0.7232112860500308  0.8895808119855317
  0.0000114551826016  0.0000165653170470  0.9999978783782950
  0.6605012461103072  0.6603198295811836  0.0408307412728135
  0.3469882952107142  0.8417808797850981  0.5054545449831167
  0.0000080960487665  0.5000147886975768  0.4999972093067626
  0.6530364233909438  0.1582593575364299  0.4945373315187354
  0.3395256162371609  0.3397129028054806  0.9591617771093368
 
  0.00000000E+00  0.00000000E+00  0.00000000E+00
  0.00000000E+00  0.00000000E+00  0.00000000E+00
  0.00000000E+00  0.00000000E+00  0.00000000E+00
  0.00000000E+00  0.00000000E+00  0.00000000E+00
  0.00000000E+00  0.00000000E+00  0.00000000E+00
  0.00000000E+00  0.00000000E+00  0.00000000E+00
  0.00000000E+00  0.00000000E+00  0.00000000E+00
  0.00000000E+00  0.00000000E+00  0.00000000E+00
  0.00000000E+00  0.00000000E+00  0.00000000E+00
  0.00000000E+00  0.00000000E+00  0.00000000E+00
  0.00000000E+00  0.00000000E+00  0.00000000E+00
  0.00000000E+00  0.00000000E+00  0.00000000E+00
  0.00000000E+00  0.00000000E+00  0.00000000E+00
  0.00000000E+00  0.00000000E+00  0.00000000E+00
  0.00000000E+00  0.00000000E+00  0.00000000E+00
  0.00000000E+00  0.00000000E+00  0.00000000E+00
  0.00000000E+00  0.00000000E+00  0.00000000E+00
  0.00000000E+00  0.00000000E+00  0.00000000E+00
  0.00000000E+00  0.00000000E+00  0.00000000E+00
  0.00000000E+00  0.00000000E+00  0.00000000E+00
  0.00000000E+00  0.00000000E+00  0.00000000E+00
  0.00000000E+00  0.00000000E+00  0.00000000E+00
