Mg3 Tl33                                
   1.0000000000000000     
    10.5622839909334711    0.0000000000000000   -0.0000000000000000
    -0.0000000000000000   10.5622839909334711    0.0000000000000000
    -0.0000000000000000   -0.0000000000000000   10.5622839909334711
   Mg   Tl
     3    33
Direct
  0.5000000000000000  0.0000000000000000  0.0000000000000000
  0.0000000000000000  0.5000000000000000  0.0000000000000000
  0.0000000000000000  0.0000000000000000  0.5000000000000000
  0.3452688523427412  0.3452688523427412  0.0000000000000000
  0.6547311476572588  0.3452688523427412  0.0000000000000000
  0.3452688523427412  0.6547311476572588  0.0000000000000000
  0.6547311476572588  0.6547311476572588  0.0000000000000000
  0.1569890152792368  0.1569890152792368  0.1569890152792368
  0.8430109847207632  0.1569890152792368  0.1569890152792368
  0.1569890152792368  0.8430109847207632  0.1569890152792368
  0.8430109847207632  0.8430109847207632  0.1569890152792368
  0.5000000000000000  0.2590119446722952  0.2590119446722952
  0.2590119446722952  0.5000000000000000  0.2590119446722952
  0.7409880553277048  0.5000000000000000  0.2590119446722952
  0.5000000000000000  0.7409880553277048  0.2590119446722952
  0.3452688523427412  0.0000000000000000  0.3452688523427412
  0.6547311476572588  0.0000000000000000  0.3452688523427412
  0.0000000000000000  0.3452688523427412  0.3452688523427412
  0.0000000000000000  0.6547311476572588  0.3452688523427412
  0.2590119446722952  0.2590119446722952  0.5000000000000000
  0.7409880553277048  0.2590119446722952  0.5000000000000000
  0.5000000000000000  0.5000000000000000  0.5000000000000000
  0.2590119446722952  0.7409880553277048  0.5000000000000000
  0.7409880553277048  0.7409880553277048  0.5000000000000000
  0.3452688523427412  0.0000000000000000  0.6547311476572588
  0.6547311476572588  0.0000000000000000  0.6547311476572588
  0.0000000000000000  0.3452688523427412  0.6547311476572588
  0.0000000000000000  0.6547311476572588  0.6547311476572588
  0.5000000000000000  0.2590119446722952  0.7409880553277048
  0.2590119446722952  0.5000000000000000  0.7409880553277048
  0.7409880553277048  0.5000000000000000  0.7409880553277048
  0.5000000000000000  0.7409880553277048  0.7409880553277048
  0.1569890152792368  0.1569890152792368  0.8430109847207632
  0.8430109847207632  0.1569890152792368  0.8430109847207632
  0.1569890152792368  0.8430109847207632  0.8430109847207632
  0.8430109847207632  0.8430109847207632  0.8430109847207632

  0.00000000E+00  0.00000000E+00  0.00000000E+00
  0.00000000E+00  0.00000000E+00  0.00000000E+00
  0.00000000E+00  0.00000000E+00  0.00000000E+00
  0.00000000E+00  0.00000000E+00  0.00000000E+00
  0.00000000E+00  0.00000000E+00  0.00000000E+00
  0.00000000E+00  0.00000000E+00  0.00000000E+00
  0.00000000E+00  0.00000000E+00  0.00000000E+00
  0.00000000E+00  0.00000000E+00  0.00000000E+00
  0.00000000E+00  0.00000000E+00  0.00000000E+00
  0.00000000E+00  0.00000000E+00  0.00000000E+00
  0.00000000E+00  0.00000000E+00  0.00000000E+00
  0.00000000E+00  0.00000000E+00  0.00000000E+00
  0.00000000E+00  0.00000000E+00  0.00000000E+00
  0.00000000E+00  0.00000000E+00  0.00000000E+00
  0.00000000E+00  0.00000000E+00  0.00000000E+00
  0.00000000E+00  0.00000000E+00  0.00000000E+00
  0.00000000E+00  0.00000000E+00  0.00000000E+00
  0.00000000E+00  0.00000000E+00  0.00000000E+00
  0.00000000E+00  0.00000000E+00  0.00000000E+00
  0.00000000E+00  0.00000000E+00  0.00000000E+00
  0.00000000E+00  0.00000000E+00  0.00000000E+00
  0.00000000E+00  0.00000000E+00  0.00000000E+00
  0.00000000E+00  0.00000000E+00  0.00000000E+00
  0.00000000E+00  0.00000000E+00  0.00000000E+00
  0.00000000E+00  0.00000000E+00  0.00000000E+00
  0.00000000E+00  0.00000000E+00  0.00000000E+00
  0.00000000E+00  0.00000000E+00  0.00000000E+00
  0.00000000E+00  0.00000000E+00  0.00000000E+00
  0.00000000E+00  0.00000000E+00  0.00000000E+00
  0.00000000E+00  0.00000000E+00  0.00000000E+00
  0.00000000E+00  0.00000000E+00  0.00000000E+00
  0.00000000E+00  0.00000000E+00  0.00000000E+00
  0.00000000E+00  0.00000000E+00  0.00000000E+00
  0.00000000E+00  0.00000000E+00  0.00000000E+00
  0.00000000E+00  0.00000000E+00  0.00000000E+00
  0.00000000E+00  0.00000000E+00  0.00000000E+00
