CaAl5                                   
   1.00000000000000     
     5.6507799699824055   -0.0010553123548207    0.0000000000000000
    -2.8268067048692389    4.8929153154570333    0.0000000000000000
     0.0000000000000000    0.0000000000000000    4.3608378538622317
   Al   Ca
     5     1
Direct
  0.6670751564209283  0.3329265468212910  0.0000000000000000
  0.3329248435790717  0.6670734531787090  0.0000000000000000
  0.5000000000000000  0.0000000000000000  0.5000000000000000
  0.0000000000000000  0.5000000000000000  0.5000000000000000
  0.5000000000000000  0.5000000000000000  0.5000000000000000
  0.0000000000000000  0.0000000000000000  0.0000000000000000
 
  0.00000000E+00  0.00000000E+00  0.00000000E+00
  0.00000000E+00  0.00000000E+00  0.00000000E+00
  0.00000000E+00  0.00000000E+00  0.00000000E+00
  0.00000000E+00  0.00000000E+00  0.00000000E+00
  0.00000000E+00  0.00000000E+00  0.00000000E+00
  0.00000000E+00  0.00000000E+00  0.00000000E+00
