Ba13 In14                               
   1.0000000000000000     
     6.3303143619279929    6.3303143619279938    6.2574212531847087
     6.3303143619279938   -6.2574212531847087   -6.3303143619279929
    -6.2574212531847087    6.3303143619279929   -6.3303143619279938
   In   Ba
    14    13
Direct
  0.3145947815580001  0.0001035038418564  0.0001035038418564
  0.6854052184419999  0.9998964961581436  0.9998964961581436
  0.3129401278764803  0.3129401278764803  0.9957640725191013
  0.0001035038418564  0.3145947815580001  0.0001035038418564
  0.9998964961581436  0.6854052184419999  0.9998964961581436
  0.6870598721235197  0.6870598721235197  0.0042359274808987
  0.3129401278764803  0.9957640725191013  0.3129401278764803
  0.9957640725191013  0.3129401278764803  0.3129401278764803
  0.0001035038418564  0.0001035038418564  0.3145947815580001
  0.3031912261804379  0.3031912261804379  0.3031912261804379
  0.9998964961581436  0.9998964961581436  0.6854052184419999
  0.6968087738195621  0.6968087738195621  0.6968087738195621
  0.6870598721235197  0.0042359274808987  0.6870598721235197
  0.0042359274808987  0.6870598721235197  0.6870598721235197
  0.0000000000000000  0.0000000000000000  0.0000000000000000
  0.6829699112270831  0.3170300887729098  0.0000000000000000
  0.3170300887729098  0.6829699112270831  0.0000000000000000
  0.6859978750084466  0.6859978750084466  0.3752818303291150
  0.6829699112270831  0.0000000000000000  0.3170300887729098
  0.0000000000000000  0.6829699112270831  0.3170300887729098
  0.6247181696708850  0.3140021249915534  0.3140021249915534
  0.3140021249915534  0.6247181696708850  0.3140021249915534
  0.3170300887729098  0.0000000000000000  0.6829699112270831
  0.6859978750084466  0.3752818303291150  0.6859978750084466
  0.0000000000000000  0.3170300887729098  0.6829699112270831
  0.3752818303291150  0.6859978750084466  0.6859978750084466
  0.3140021249915534  0.3140021249915534  0.6247181696708850

  0.00000000E+00  0.00000000E+00  0.00000000E+00
  0.00000000E+00  0.00000000E+00  0.00000000E+00
  0.00000000E+00  0.00000000E+00  0.00000000E+00
  0.00000000E+00  0.00000000E+00  0.00000000E+00
  0.00000000E+00  0.00000000E+00  0.00000000E+00
  0.00000000E+00  0.00000000E+00  0.00000000E+00
  0.00000000E+00  0.00000000E+00  0.00000000E+00
  0.00000000E+00  0.00000000E+00  0.00000000E+00
  0.00000000E+00  0.00000000E+00  0.00000000E+00
  0.00000000E+00  0.00000000E+00  0.00000000E+00
  0.00000000E+00  0.00000000E+00  0.00000000E+00
  0.00000000E+00  0.00000000E+00  0.00000000E+00
  0.00000000E+00  0.00000000E+00  0.00000000E+00
  0.00000000E+00  0.00000000E+00  0.00000000E+00
  0.00000000E+00  0.00000000E+00  0.00000000E+00
  0.00000000E+00  0.00000000E+00  0.00000000E+00
  0.00000000E+00  0.00000000E+00  0.00000000E+00
  0.00000000E+00  0.00000000E+00  0.00000000E+00
  0.00000000E+00  0.00000000E+00  0.00000000E+00
  0.00000000E+00  0.00000000E+00  0.00000000E+00
  0.00000000E+00  0.00000000E+00  0.00000000E+00
  0.00000000E+00  0.00000000E+00  0.00000000E+00
  0.00000000E+00  0.00000000E+00  0.00000000E+00
  0.00000000E+00  0.00000000E+00  0.00000000E+00
  0.00000000E+00  0.00000000E+00  0.00000000E+00
  0.00000000E+00  0.00000000E+00  0.00000000E+00
  0.00000000E+00  0.00000000E+00  0.00000000E+00
