Ca18 Al11                               
   1.00000000000000     
     9.0779387137721947   -5.4543559695204031    3.6312998491765538
    -0.3900205767044571   10.0328434025784912    3.3082599082014172
    -8.2969047855505007   -4.5713219782160932    2.9847053977218114
   Al   Ca
    11    18
Direct
  0.7040646826111612  0.8159230392482613  0.0000075632995191
  0.3348534829178078  0.3734230046021310  0.1901270519713876
  0.8614274487361016  0.1601717848876021  0.1804890823469165
  0.2655363227925989  0.9266143076234954  0.2740701396789831
  0.3536299718866971  0.2357329887940054  0.3933700472138284
  0.1920402234739171  0.3757862804559053  0.3864499033595337
  0.8055892018939730  0.9893454833166260  0.6135523261856406
  0.9602288664459451  0.8423229210029604  0.6066208932038961
  0.9913434916428798  0.6524408229540342  0.7259188982558342
  0.6809570538409773  0.9796815119630580  0.8195001643755901
  0.1447130575536590  0.1832755120650802  0.8098603789079206
  0.2912919738263042  0.0165408880691658  0.9999369116168069
  0.6384709695155379  0.2472080738600013  0.9999660761467908
  0.0065571528909842  0.0048027877278756  0.0000379149778738
  0.8920728483443270  0.6333109935522216  0.0000953151185215
  0.9929799419450376  0.3162009543663018  0.0000264704297805
  0.2330437590395604  0.6320106252668225  0.9999920151641675
  0.6502224762704643  0.6518192376920169  0.2379594920540313
  0.6081134680856763  0.9751204366006192  0.2419420055736126
  0.0050252187410393  0.5695715225902589  0.3786886932354676
  0.0162353202442276  0.0181229705269601  0.3756549745683913
  0.4024945019827157  0.7404745662049876  0.4177135236101677
  0.6578667103275322  0.3667847663979202  0.3766589186757585
  0.2811546281414010  0.9900545298559251  0.6232150145108193
  0.9847761489461817  0.3227479891766194  0.5823232866580739
  0.6406299215075464  0.6424602698120978  0.6243689336907394
  0.6264152483082199  0.1910514843861080  0.6213706499798874
  0.3662106919710624  0.7331948509869477  0.7580799175647499
  0.4122572161164513  0.4138423960139335  0.7620034376252960
 
  0.00000000E+00  0.00000000E+00  0.00000000E+00
  0.00000000E+00  0.00000000E+00  0.00000000E+00
  0.00000000E+00  0.00000000E+00  0.00000000E+00
  0.00000000E+00  0.00000000E+00  0.00000000E+00
  0.00000000E+00  0.00000000E+00  0.00000000E+00
  0.00000000E+00  0.00000000E+00  0.00000000E+00
  0.00000000E+00  0.00000000E+00  0.00000000E+00
  0.00000000E+00  0.00000000E+00  0.00000000E+00
  0.00000000E+00  0.00000000E+00  0.00000000E+00
  0.00000000E+00  0.00000000E+00  0.00000000E+00
  0.00000000E+00  0.00000000E+00  0.00000000E+00
  0.00000000E+00  0.00000000E+00  0.00000000E+00
  0.00000000E+00  0.00000000E+00  0.00000000E+00
  0.00000000E+00  0.00000000E+00  0.00000000E+00
  0.00000000E+00  0.00000000E+00  0.00000000E+00
  0.00000000E+00  0.00000000E+00  0.00000000E+00
  0.00000000E+00  0.00000000E+00  0.00000000E+00
  0.00000000E+00  0.00000000E+00  0.00000000E+00
  0.00000000E+00  0.00000000E+00  0.00000000E+00
  0.00000000E+00  0.00000000E+00  0.00000000E+00
  0.00000000E+00  0.00000000E+00  0.00000000E+00
  0.00000000E+00  0.00000000E+00  0.00000000E+00
  0.00000000E+00  0.00000000E+00  0.00000000E+00
  0.00000000E+00  0.00000000E+00  0.00000000E+00
  0.00000000E+00  0.00000000E+00  0.00000000E+00
  0.00000000E+00  0.00000000E+00  0.00000000E+00
  0.00000000E+00  0.00000000E+00  0.00000000E+00
  0.00000000E+00  0.00000000E+00  0.00000000E+00
  0.00000000E+00  0.00000000E+00  0.00000000E+00
