Be1 Al2 Cl6                             
   1.00000000000000     
     3.1588424996916258    1.8235494591417307    5.1582485616801765
    -3.1588424996916258    1.8235494591417307    5.1582485616801765
     0.0000000000000000   -3.6473189914490902    5.1583263560157491
   Be   Cl   Al
     1     6     2
Direct
  0.0000000000000000  0.0000000000000000  0.0000000000000000
  0.7556070489806004  0.7556070489806004  0.2443996384205178
  0.7556094131803022  0.2443839940581043  0.2443937320219050
  0.2443839940581043  0.7556094131803022  0.2443937320219050
  0.2443929510193996  0.2443929510193996  0.7556003615794822
  0.7556160059418957  0.2443905868196978  0.7556062679780950
  0.2443905868196978  0.7556160059418957  0.7556062679780950
  0.2499977481203715  0.2499977481203715  0.2500153585727389
  0.7500022518796285  0.7500022518796285  0.7499846414272611
 
  0.00000000E+00  0.00000000E+00  0.00000000E+00
  0.00000000E+00  0.00000000E+00  0.00000000E+00
  0.00000000E+00  0.00000000E+00  0.00000000E+00
  0.00000000E+00  0.00000000E+00  0.00000000E+00
  0.00000000E+00  0.00000000E+00  0.00000000E+00
  0.00000000E+00  0.00000000E+00  0.00000000E+00
  0.00000000E+00  0.00000000E+00  0.00000000E+00
  0.00000000E+00  0.00000000E+00  0.00000000E+00
  0.00000000E+00  0.00000000E+00  0.00000000E+00
