Be6 B33                                 
   1.00000000000000     
     6.7515101228477938    0.0000000000000000    0.0000000000000000
     0.0000000000000000    6.7515101228477912    0.0000000000000000
     0.0000000000000000    0.0000000000000000    6.7515101228477912
   Be   B 
     6    33
Direct
  0.2301855557613877  0.5000000000000000  0.0000000000000000
  0.7698144442386123  0.5000000000000000  0.0000000000000000
  0.5000000000000000  0.0000000000000000  0.2301855557613877
  0.0000000000000000  0.2301855557613877  0.5000000000000000
  0.0000000000000000  0.7698144442386123  0.5000000000000000
  0.5000000000000000  0.0000000000000000  0.7698144442386123
  0.0000000000000000  0.0000000000000000  0.0000000000000000
  0.3566384622913006  0.1951559034029273  0.0000000000000000
  0.6433615377086994  0.1951559034029273  0.0000000000000000
  0.5000000000000000  0.3845125916031549  0.0000000000000000
  0.5000000000000000  0.6154874083968451  0.0000000000000000
  0.3566384622913006  0.8048440965970727  0.0000000000000000
  0.6433615377086994  0.8048440965970727  0.0000000000000000
  0.0000000000000000  0.3566384622913006  0.1951559034029273
  0.0000000000000000  0.6433615377086994  0.1951559034029273
  0.5000000000000000  0.5000000000000000  0.3177587298278155
  0.1951559034029273  0.0000000000000000  0.3566384622913006
  0.8048440965970727  0.0000000000000000  0.3566384622913006
  0.1511940667336589  0.1511940667336589  0.1511940667336589
  0.8488059332663411  0.1511940667336589  0.1511940667336589
  0.1511940667336589  0.8488059332663411  0.1511940667336589
  0.8488059332663411  0.8488059332663411  0.1511940667336589
  0.0000000000000000  0.5000000000000000  0.3845125916031549
  0.3845125916031549  0.0000000000000000  0.5000000000000000
  0.6154874083968451  0.0000000000000000  0.5000000000000000
  0.5000000000000000  0.3177587298278155  0.5000000000000000
  0.3177587298278155  0.5000000000000000  0.5000000000000000
  0.6822412701721845  0.5000000000000000  0.5000000000000000
  0.5000000000000000  0.6822412701721845  0.5000000000000000
  0.0000000000000000  0.5000000000000000  0.6154874083968451
  0.1511940667336589  0.1511940667336589  0.8488059332663411
  0.8488059332663411  0.1511940667336589  0.8488059332663411
  0.1511940667336589  0.8488059332663411  0.8488059332663411
  0.8488059332663411  0.8488059332663411  0.8488059332663411
  0.1951559034029273  0.0000000000000000  0.6433615377086994
  0.8048440965970727  0.0000000000000000  0.6433615377086994
  0.5000000000000000  0.5000000000000000  0.6822412701721845
  0.0000000000000000  0.3566384622913006  0.8048440965970727
  0.0000000000000000  0.6433615377086994  0.8048440965970727
 
  0.00000000E+00  0.00000000E+00  0.00000000E+00
  0.00000000E+00  0.00000000E+00  0.00000000E+00
  0.00000000E+00  0.00000000E+00  0.00000000E+00
  0.00000000E+00  0.00000000E+00  0.00000000E+00
  0.00000000E+00  0.00000000E+00  0.00000000E+00
  0.00000000E+00  0.00000000E+00  0.00000000E+00
  0.00000000E+00  0.00000000E+00  0.00000000E+00
  0.00000000E+00  0.00000000E+00  0.00000000E+00
  0.00000000E+00  0.00000000E+00  0.00000000E+00
  0.00000000E+00  0.00000000E+00  0.00000000E+00
  0.00000000E+00  0.00000000E+00  0.00000000E+00
  0.00000000E+00  0.00000000E+00  0.00000000E+00
  0.00000000E+00  0.00000000E+00  0.00000000E+00
  0.00000000E+00  0.00000000E+00  0.00000000E+00
  0.00000000E+00  0.00000000E+00  0.00000000E+00
  0.00000000E+00  0.00000000E+00  0.00000000E+00
  0.00000000E+00  0.00000000E+00  0.00000000E+00
  0.00000000E+00  0.00000000E+00  0.00000000E+00
  0.00000000E+00  0.00000000E+00  0.00000000E+00
  0.00000000E+00  0.00000000E+00  0.00000000E+00
  0.00000000E+00  0.00000000E+00  0.00000000E+00
  0.00000000E+00  0.00000000E+00  0.00000000E+00
  0.00000000E+00  0.00000000E+00  0.00000000E+00
  0.00000000E+00  0.00000000E+00  0.00000000E+00
  0.00000000E+00  0.00000000E+00  0.00000000E+00
  0.00000000E+00  0.00000000E+00  0.00000000E+00
  0.00000000E+00  0.00000000E+00  0.00000000E+00
  0.00000000E+00  0.00000000E+00  0.00000000E+00
  0.00000000E+00  0.00000000E+00  0.00000000E+00
  0.00000000E+00  0.00000000E+00  0.00000000E+00
  0.00000000E+00  0.00000000E+00  0.00000000E+00
  0.00000000E+00  0.00000000E+00  0.00000000E+00
  0.00000000E+00  0.00000000E+00  0.00000000E+00
  0.00000000E+00  0.00000000E+00  0.00000000E+00
  0.00000000E+00  0.00000000E+00  0.00000000E+00
  0.00000000E+00  0.00000000E+00  0.00000000E+00
  0.00000000E+00  0.00000000E+00  0.00000000E+00
  0.00000000E+00  0.00000000E+00  0.00000000E+00
  0.00000000E+00  0.00000000E+00  0.00000000E+00
