Ca2 Tl2 Cl10                            
   1.00000000000000     
     6.6006369217582845    0.3626339261939922    2.8822611892497498
     1.8002969745833450    6.3607259041917761    2.8822619367551590
    -0.3190422905161225   -0.2553308492621240   13.1048571341351767
   Ca   Tl   Cl
     2     2    10
Direct
  0.4020170642151299  0.5979829180186726  0.2500000124125563
  0.5979829357848701  0.4020170819813274  0.7499999875874437
  0.0000000000000000  0.0000000000000000  0.5000000000000000
  0.0000000000000000  0.0000000000000000  0.0000000000000000
  0.6659501178590617  0.7660363653425577  0.6378943135868127
  0.2339636432698171  0.3340488728117137  0.8621056868129884
  0.3340488821409409  0.2339636346574423  0.3621066864131919
  0.7660363567301758  0.6659501271882888  0.1378943131870116
  0.9333482552504080  0.0666517408504035  0.7500000029029366
  0.0666517447495920  0.9333482591495965  0.2499999970970563
  0.5917883337631338  0.5512519997664853  0.0292465983842831
  0.4487479931066289  0.4082116586888205  0.4707534138432550
  0.4082116662368662  0.4487480002335147  0.9707534016157169
  0.5512520068933711  0.5917883413111795  0.5292465861567450
 
  0.00000000E+00  0.00000000E+00  0.00000000E+00
  0.00000000E+00  0.00000000E+00  0.00000000E+00
  0.00000000E+00  0.00000000E+00  0.00000000E+00
  0.00000000E+00  0.00000000E+00  0.00000000E+00
  0.00000000E+00  0.00000000E+00  0.00000000E+00
  0.00000000E+00  0.00000000E+00  0.00000000E+00
  0.00000000E+00  0.00000000E+00  0.00000000E+00
  0.00000000E+00  0.00000000E+00  0.00000000E+00
  0.00000000E+00  0.00000000E+00  0.00000000E+00
  0.00000000E+00  0.00000000E+00  0.00000000E+00
  0.00000000E+00  0.00000000E+00  0.00000000E+00
  0.00000000E+00  0.00000000E+00  0.00000000E+00
  0.00000000E+00  0.00000000E+00  0.00000000E+00
  0.00000000E+00  0.00000000E+00  0.00000000E+00
