Sr10 In4 F32                            
   1.0000000000000000     
     3.7603740906959766   -6.4067979623686879    0.0000000000000000
     3.7603740906959766    6.4067979623686879    0.0000000000000000
     0.0000000000000000    0.0000000000000000   14.5646605538280998
   Sr   In   F 
    10     4    32
Direct
  0.0000000000000000  0.0000000000000000  0.7147566301814336
  0.0000000000000000  0.0000000000000000  0.2852433698185735
  0.5000000000000000  0.5000000000000000  0.7852433698185664
  0.5000000000000000  0.5000000000000000  0.2147566301814265
  0.5000000000000000  0.5000000000000000  0.5000000000000000
  0.0000000000000000  0.0000000000000000  0.0000000000000000
  0.0000000000000000  0.5000000000000000  0.6452080703332257
  0.5000000000000000  0.0000000000000000  0.3547919296667814
  0.5000000000000000  0.0000000000000000  0.8547919296667743
  0.0000000000000000  0.5000000000000000  0.1452080703332186
  0.5000000000000000  0.0000000000000000  0.6065259234613194
  0.0000000000000000  0.5000000000000000  0.3934740765386806
  0.0000000000000000  0.5000000000000000  0.8934740765386806
  0.5000000000000000  0.0000000000000000  0.1065259234613194
  0.5567414506176149  0.2157400302893180  0.7104440499371876
  0.4432585493823851  0.7842599697106820  0.7104440499371876
  0.2157400302893180  0.5567414506176149  0.2895559500628124
  0.7842599697106820  0.4432585493823851  0.2895559500628124
  0.9432585493823851  0.2842599697106820  0.7895559500628124
  0.0567414506176149  0.7157400302893180  0.7895559500628124
  0.2842599697106820  0.9432585493823851  0.2104440499371876
  0.7157400302893180  0.0567414506176149  0.2104440499371876
  0.1796326767279623  0.8744812803787951  0.6117056875510869
  0.8203673232720377  0.1255187196212049  0.6117056875510869
  0.8744812803787951  0.1796326767279623  0.3882943124489131
  0.1255187196212049  0.8203673232720377  0.3882943124489131
  0.3203673232720377  0.6255187196212049  0.8882943124489131
  0.6796326767279623  0.3744812803787951  0.8882943124489131
  0.6702820817280966  0.9827077781461426  0.9987039907379085
  0.3297179182719034  0.0172922218538574  0.9987039907379085
  0.9827077781461426  0.6702820817280966  0.0012960092620986
  0.0172922218538574  0.3297179182719034  0.0012960092620986
  0.8297179182719034  0.5172922218538574  0.5012960092620915
  0.1702820817280966  0.4827077781461426  0.5012960092620915
  0.5172922218538574  0.8297179182719034  0.4987039907378943
  0.4827077781461426  0.1702820817280966  0.4987039907378943
  0.8558552740035168  0.7608923984950025  0.1560057915811299
  0.1441447259964832  0.2391076015049975  0.1560057915811299
  0.7608923984950025  0.8558552740035168  0.8439942084188701
  0.2391076015049975  0.1441447259964832  0.8439942084188701
  0.6441447259964832  0.7391076015049975  0.3439942084188701
  0.3558552740035168  0.2608923984950025  0.3439942084188701
  0.7391076015049975  0.6441447259964832  0.6560057915811299
  0.2608923984950025  0.3558552740035168  0.6560057915811299
  0.3744812803787951  0.6796326767279623  0.1117056875510869
  0.6255187196212049  0.3203673232720377  0.1117056875510869

  0.00000000E+00  0.00000000E+00  0.00000000E+00
  0.00000000E+00  0.00000000E+00  0.00000000E+00
  0.00000000E+00  0.00000000E+00  0.00000000E+00
  0.00000000E+00  0.00000000E+00  0.00000000E+00
  0.00000000E+00  0.00000000E+00  0.00000000E+00
  0.00000000E+00  0.00000000E+00  0.00000000E+00
  0.00000000E+00  0.00000000E+00  0.00000000E+00
  0.00000000E+00  0.00000000E+00  0.00000000E+00
  0.00000000E+00  0.00000000E+00  0.00000000E+00
  0.00000000E+00  0.00000000E+00  0.00000000E+00
  0.00000000E+00  0.00000000E+00  0.00000000E+00
  0.00000000E+00  0.00000000E+00  0.00000000E+00
  0.00000000E+00  0.00000000E+00  0.00000000E+00
  0.00000000E+00  0.00000000E+00  0.00000000E+00
  0.00000000E+00  0.00000000E+00  0.00000000E+00
  0.00000000E+00  0.00000000E+00  0.00000000E+00
  0.00000000E+00  0.00000000E+00  0.00000000E+00
  0.00000000E+00  0.00000000E+00  0.00000000E+00
  0.00000000E+00  0.00000000E+00  0.00000000E+00
  0.00000000E+00  0.00000000E+00  0.00000000E+00
  0.00000000E+00  0.00000000E+00  0.00000000E+00
  0.00000000E+00  0.00000000E+00  0.00000000E+00
  0.00000000E+00  0.00000000E+00  0.00000000E+00
  0.00000000E+00  0.00000000E+00  0.00000000E+00
  0.00000000E+00  0.00000000E+00  0.00000000E+00
  0.00000000E+00  0.00000000E+00  0.00000000E+00
  0.00000000E+00  0.00000000E+00  0.00000000E+00
  0.00000000E+00  0.00000000E+00  0.00000000E+00
  0.00000000E+00  0.00000000E+00  0.00000000E+00
  0.00000000E+00  0.00000000E+00  0.00000000E+00
  0.00000000E+00  0.00000000E+00  0.00000000E+00
  0.00000000E+00  0.00000000E+00  0.00000000E+00
  0.00000000E+00  0.00000000E+00  0.00000000E+00
  0.00000000E+00  0.00000000E+00  0.00000000E+00
  0.00000000E+00  0.00000000E+00  0.00000000E+00
  0.00000000E+00  0.00000000E+00  0.00000000E+00
  0.00000000E+00  0.00000000E+00  0.00000000E+00
  0.00000000E+00  0.00000000E+00  0.00000000E+00
  0.00000000E+00  0.00000000E+00  0.00000000E+00
  0.00000000E+00  0.00000000E+00  0.00000000E+00
  0.00000000E+00  0.00000000E+00  0.00000000E+00
  0.00000000E+00  0.00000000E+00  0.00000000E+00
  0.00000000E+00  0.00000000E+00  0.00000000E+00
  0.00000000E+00  0.00000000E+00  0.00000000E+00
  0.00000000E+00  0.00000000E+00  0.00000000E+00
  0.00000000E+00  0.00000000E+00  0.00000000E+00
