Sr16 In12 I1                            
   1.0000000000000000     
     8.5432323056314736   -4.9336917862242355    3.4844503065928634
     0.3376660625305438   10.8402238108967133    4.0393372953119391
    -9.2196964649235351   -5.7159436268504216    4.0480697472061022
   In   I    Sr
    12     1    16
Direct
  0.8084149944612591  0.5966368051912383  0.0000460690288264
  0.5707715715886934  0.7247456067879128  0.9999684312616850
  0.3480916004966446  0.3722540418941378  0.1960104989846272
  0.1529528216170633  0.8041631774985163  0.1770019104603477
  0.8459099581432028  0.2753450318085555  0.2754043449785186
  0.3485081382258670  0.1957056340054422  0.3725890920500561
  0.2113689513246300  0.4033595500428859  0.4033166070892733
  0.8079134157209538  0.9999954244197298  0.5965424576926992
  0.9759957266538706  0.8234013906430562  0.6275017318865892
  0.5703082703387565  0.0000021703638211  0.7245804076492561
  0.9759410267150344  0.6274326771954577  0.8232699383165283
  0.1520336385360892  0.1761275247818759  0.8040380359592660
  0.4837991230013685  0.0002795073486368  0.9999535053273831
  0.9425619738366606  0.2152841781296928  0.0000450629825366
  0.5542020720569525  0.2959770946928515  0.9998528100105517
  0.2441992299476610  0.5397720331749198  0.9999721166681823
  0.1802914832389675  0.9998219886822852  0.0001074487337362
  0.7314340343266252  0.7128040773513931  0.2877647044267846
  0.5547260325922352  0.0000578558904181  0.2955716208571673
  0.0187448386982041  0.5750493545664099  0.2873876016504440
  0.9432347138360342  0.9999970371873559  0.2153182438589099
  0.7039367490040007  0.4600176134090930  0.4599947443374219
  0.4435443674574984  0.7124008400904316  0.4249093514527473
  0.0187593671775375  0.2873941060478131  0.5750757714597228
  0.2436746220111559  0.0000661450611901  0.5401077869419311
  0.7277786389260825  0.7848320642304429  0.7846559304395129
  0.7314575661704481  0.2876303130335671  0.7126271262299255
  0.2588267629029275  0.7044100366877188  0.7042723651147469
  0.4438183109935565  0.4250377197831412  0.7121152841506202

  0.00000000E+00  0.00000000E+00  0.00000000E+00
  0.00000000E+00  0.00000000E+00  0.00000000E+00
  0.00000000E+00  0.00000000E+00  0.00000000E+00
  0.00000000E+00  0.00000000E+00  0.00000000E+00
  0.00000000E+00  0.00000000E+00  0.00000000E+00
  0.00000000E+00  0.00000000E+00  0.00000000E+00
  0.00000000E+00  0.00000000E+00  0.00000000E+00
  0.00000000E+00  0.00000000E+00  0.00000000E+00
  0.00000000E+00  0.00000000E+00  0.00000000E+00
  0.00000000E+00  0.00000000E+00  0.00000000E+00
  0.00000000E+00  0.00000000E+00  0.00000000E+00
  0.00000000E+00  0.00000000E+00  0.00000000E+00
  0.00000000E+00  0.00000000E+00  0.00000000E+00
  0.00000000E+00  0.00000000E+00  0.00000000E+00
  0.00000000E+00  0.00000000E+00  0.00000000E+00
  0.00000000E+00  0.00000000E+00  0.00000000E+00
  0.00000000E+00  0.00000000E+00  0.00000000E+00
  0.00000000E+00  0.00000000E+00  0.00000000E+00
  0.00000000E+00  0.00000000E+00  0.00000000E+00
  0.00000000E+00  0.00000000E+00  0.00000000E+00
  0.00000000E+00  0.00000000E+00  0.00000000E+00
  0.00000000E+00  0.00000000E+00  0.00000000E+00
  0.00000000E+00  0.00000000E+00  0.00000000E+00
  0.00000000E+00  0.00000000E+00  0.00000000E+00
  0.00000000E+00  0.00000000E+00  0.00000000E+00
  0.00000000E+00  0.00000000E+00  0.00000000E+00
  0.00000000E+00  0.00000000E+00  0.00000000E+00
  0.00000000E+00  0.00000000E+00  0.00000000E+00
  0.00000000E+00  0.00000000E+00  0.00000000E+00
