Sr2 Al4 F16                             
   1.00000000000000     
    10.1808207959492343   -0.0156812052989686    0.4369528391307759
     0.0087817890997048    6.8970344828835408    0.0071597871974549
    -0.1659781091524976   -0.0035778854276168    3.7051254256769228
   Al   F    Sr
     4    16     2
Direct
  0.1641151006174013  0.7498498271091734  0.2483289196660508
  0.5712943413916776  0.2500238705270448  0.2502574473361889
  0.4286843479031646  0.7499573279464329  0.7497448903869497
  0.8358700174428861  0.2501317224106927  0.7516714327084415
  0.6037187556762547  0.0087847211258207  0.2504284231952099
  0.1779611164443864  0.0066020769922090  0.2485117860428971
  0.1779771846901497  0.4931311519254038  0.2485157819061428
  0.6037097669830089  0.4912885849526134  0.2504269714925798
  0.4036475499028285  0.2499458185129981  0.2495011392677355
  0.9961337792175371  0.7498414263679507  0.2476783535312848
  0.8067768218026572  0.2501260480023433  0.2514738112345043
  0.3678643105258672  0.7499360683110652  0.2494221987414278
  0.6321113078411358  0.2500468425380760  0.7505778118151269
  0.1932067423980968  0.7498569616009831  0.7485265520767470
  0.0038491624742534  0.2501408108260250  0.7523208573524514
  0.5963382664543246  0.7500342808450995  0.7504985023690338
  0.3962691172510020  0.5086972451092109  0.7495714793549269
  0.8220056065198023  0.5068545396415374  0.7514842271437558
  0.8220225390408089  0.9933752489587988  0.7514884962675694
  0.3962609163791484  0.9911932372620100  0.7495702085957419
  0.7649907575179995  0.7500947917605600  0.2514533296825689
  0.2349924915255741  0.2498873972740085  0.7485473798326510
 
  0.00000000E+00  0.00000000E+00  0.00000000E+00
  0.00000000E+00  0.00000000E+00  0.00000000E+00
  0.00000000E+00  0.00000000E+00  0.00000000E+00
  0.00000000E+00  0.00000000E+00  0.00000000E+00
  0.00000000E+00  0.00000000E+00  0.00000000E+00
  0.00000000E+00  0.00000000E+00  0.00000000E+00
  0.00000000E+00  0.00000000E+00  0.00000000E+00
  0.00000000E+00  0.00000000E+00  0.00000000E+00
  0.00000000E+00  0.00000000E+00  0.00000000E+00
  0.00000000E+00  0.00000000E+00  0.00000000E+00
  0.00000000E+00  0.00000000E+00  0.00000000E+00
  0.00000000E+00  0.00000000E+00  0.00000000E+00
  0.00000000E+00  0.00000000E+00  0.00000000E+00
  0.00000000E+00  0.00000000E+00  0.00000000E+00
  0.00000000E+00  0.00000000E+00  0.00000000E+00
  0.00000000E+00  0.00000000E+00  0.00000000E+00
  0.00000000E+00  0.00000000E+00  0.00000000E+00
  0.00000000E+00  0.00000000E+00  0.00000000E+00
  0.00000000E+00  0.00000000E+00  0.00000000E+00
  0.00000000E+00  0.00000000E+00  0.00000000E+00
  0.00000000E+00  0.00000000E+00  0.00000000E+00
  0.00000000E+00  0.00000000E+00  0.00000000E+00
