Be4 Al4 Cl20                            
   1.0000000000000000     
    11.6689815274291391    0.0000000000000000    0.0000000000000000
     0.0000000000000000    6.4383083487993478   -0.0508812943571902
     0.0000000000000000    2.9442550613641241    8.3839392156028207
   Be   Al   Cl
     4     4    20
Direct
  0.0691616767932146  0.6758437163581235  0.1850514588492160
  0.5691616767932146  0.3241562836418765  0.3149485411507840
  0.9308383232067854  0.3241562836418765  0.8149485411507840
  0.4308383232067854  0.6758437163581235  0.6850514588492160
  0.7426084722882109  0.9060048436406092  0.6633860450920324
  0.2426084722882109  0.0939951563593908  0.8366139549079676
  0.2573915277117891  0.0939951563593908  0.3366139549079747
  0.7573915277117891  0.9060048436406092  0.1633860450920324
  0.6053164383879803  0.1682950172697062  0.5485030267745188
  0.1053164383879803  0.8317049827302938  0.9514969732254812
  0.3946835616120197  0.8317049827302938  0.4514969732254812
  0.8946835616120197  0.1682950172697062  0.0485030267745188
  0.8195692496392155  0.9212489910349220  0.4144000974807653
  0.3195692496392155  0.0787510089650780  0.0855999025192347
  0.1804307503607845  0.0787510089650780  0.5855999025192347
  0.6804307503607845  0.9212489910349220  0.9144000974807653
  0.3841875533814445  0.3486805106062079  0.7224385930260482
  0.8841875533814445  0.6513194893937921  0.7775614069739518
  0.6158124466185555  0.6513194893937921  0.2775614069739518
  0.1158124466185555  0.3486805106062079  0.2224385930260482
  0.6087393206441476  0.6260905296211376  0.6939352937214522
  0.1087393206441476  0.3739094703788624  0.8060647062785478
  0.3912606793558524  0.3739094703788624  0.3060647062785478
  0.8912606793558524  0.6260905296211376  0.1939352937214522
  0.3786311185298885  0.7991643375491364  0.8534245131147742
  0.8786311185298885  0.2008356624508636  0.6465754868852258
  0.6213688814701115  0.2008356624508636  0.1465754868852258
  0.1213688814701115  0.7991643375491364  0.3534245131147742

  0.00000000E+00  0.00000000E+00  0.00000000E+00
  0.00000000E+00  0.00000000E+00  0.00000000E+00
  0.00000000E+00  0.00000000E+00  0.00000000E+00
  0.00000000E+00  0.00000000E+00  0.00000000E+00
  0.00000000E+00  0.00000000E+00  0.00000000E+00
  0.00000000E+00  0.00000000E+00  0.00000000E+00
  0.00000000E+00  0.00000000E+00  0.00000000E+00
  0.00000000E+00  0.00000000E+00  0.00000000E+00
  0.00000000E+00  0.00000000E+00  0.00000000E+00
  0.00000000E+00  0.00000000E+00  0.00000000E+00
  0.00000000E+00  0.00000000E+00  0.00000000E+00
  0.00000000E+00  0.00000000E+00  0.00000000E+00
  0.00000000E+00  0.00000000E+00  0.00000000E+00
  0.00000000E+00  0.00000000E+00  0.00000000E+00
  0.00000000E+00  0.00000000E+00  0.00000000E+00
  0.00000000E+00  0.00000000E+00  0.00000000E+00
  0.00000000E+00  0.00000000E+00  0.00000000E+00
  0.00000000E+00  0.00000000E+00  0.00000000E+00
  0.00000000E+00  0.00000000E+00  0.00000000E+00
  0.00000000E+00  0.00000000E+00  0.00000000E+00
  0.00000000E+00  0.00000000E+00  0.00000000E+00
  0.00000000E+00  0.00000000E+00  0.00000000E+00
  0.00000000E+00  0.00000000E+00  0.00000000E+00
  0.00000000E+00  0.00000000E+00  0.00000000E+00
  0.00000000E+00  0.00000000E+00  0.00000000E+00
  0.00000000E+00  0.00000000E+00  0.00000000E+00
  0.00000000E+00  0.00000000E+00  0.00000000E+00
  0.00000000E+00  0.00000000E+00  0.00000000E+00
