Sr2 B2 Br10                             
   1.00000000000000     
     9.3298540176072393   -0.1143506838072056    2.7086527957997593
     1.9329931010331680    9.1281288543340438    2.7086525509205677
     0.7187128350445141    0.5751969316716713    8.6144481436123019
   Sr   B    Br
     2     2    10
Direct
  0.4354797614820569  0.5645202358199626  0.2500000021983197
  0.5645202385179502  0.4354797641800374  0.7499999978016803
  0.0000000000000000  0.0000000000000000  0.5000000000000000
  0.0000000000000000  0.0000000000000000  0.0000000000000000
  0.8840250138882766  0.8558494173237392  0.6249115822722899
  0.1441505759952264  0.1159739774611452  0.8750884291086223
  0.1159739861117259  0.1441505826762608  0.3750894177277146
  0.8558494240047736  0.8840250225388573  0.1249115708913777
  0.8159448512710981  0.1840551505884847  0.7500000005839311
  0.1840551487289019  0.8159448494115153  0.2499999994160689
  0.6879077447026134  0.5844937186904247  0.9204993567092714
  0.4155062827718723  0.3120922581097858  0.5795006422015803
  0.3120922552973866  0.4155062813095753  0.0795006432907286
  0.5844937172281277  0.6879077418902213  0.4204993577984126
 
  0.00000000E+00  0.00000000E+00  0.00000000E+00
  0.00000000E+00  0.00000000E+00  0.00000000E+00
  0.00000000E+00  0.00000000E+00  0.00000000E+00
  0.00000000E+00  0.00000000E+00  0.00000000E+00
  0.00000000E+00  0.00000000E+00  0.00000000E+00
  0.00000000E+00  0.00000000E+00  0.00000000E+00
  0.00000000E+00  0.00000000E+00  0.00000000E+00
  0.00000000E+00  0.00000000E+00  0.00000000E+00
  0.00000000E+00  0.00000000E+00  0.00000000E+00
  0.00000000E+00  0.00000000E+00  0.00000000E+00
  0.00000000E+00  0.00000000E+00  0.00000000E+00
  0.00000000E+00  0.00000000E+00  0.00000000E+00
  0.00000000E+00  0.00000000E+00  0.00000000E+00
  0.00000000E+00  0.00000000E+00  0.00000000E+00
