Mg4 B10 I2                              
   1.00000000000000     
     6.3656511147121542   -1.0946205112493335    0.0788408477572382
    -4.5157214188042536    7.3016725967016729   -0.9541223495914496
    -2.1808203917972775   -2.8421742889349053    6.1483112546081040
   I    Mg   B 
     2     4    10
Direct
  0.3296083561830230  0.2888031316083399  0.2370763086011110
  0.5527159430800452  0.6120375231013853  0.8530445281747845
  0.8912096285728026  0.7252981264108627  0.3005656547972180
  0.7638702757861466  0.1884352528782216  0.2470393313713402
  0.8199575743229346  0.0126567327729958  0.7803410437521094
  0.9906386668459106  0.5642503831582957  0.7680847191745386
  0.3570038990889799  0.9173009627296551  0.7191643781300741
  0.3931480410940935  0.7911531186759575  0.1985007693905985
  0.0388136317561987  0.5404241802186434  0.1735454204920686
  0.4191956417851372  0.7193231674022869  0.3871920560514397
  0.7565845366455832  0.9478110645012237  0.4123225140745319
  0.1625224806554968  0.6371392072852160  0.4798971173896760
  0.1218970369359837  0.0942251667619942  0.5970613864481109
  0.4684233940680400  0.1840388280487772  0.6692475307107841
  0.6948616177039284  0.2405864150018289  0.9070375437919296
  0.2395492754756816  0.0363167394443167  0.7696796976496643
 
  0.00000000E+00  0.00000000E+00  0.00000000E+00
  0.00000000E+00  0.00000000E+00  0.00000000E+00
  0.00000000E+00  0.00000000E+00  0.00000000E+00
  0.00000000E+00  0.00000000E+00  0.00000000E+00
  0.00000000E+00  0.00000000E+00  0.00000000E+00
  0.00000000E+00  0.00000000E+00  0.00000000E+00
  0.00000000E+00  0.00000000E+00  0.00000000E+00
  0.00000000E+00  0.00000000E+00  0.00000000E+00
  0.00000000E+00  0.00000000E+00  0.00000000E+00
  0.00000000E+00  0.00000000E+00  0.00000000E+00
  0.00000000E+00  0.00000000E+00  0.00000000E+00
  0.00000000E+00  0.00000000E+00  0.00000000E+00
  0.00000000E+00  0.00000000E+00  0.00000000E+00
  0.00000000E+00  0.00000000E+00  0.00000000E+00
  0.00000000E+00  0.00000000E+00  0.00000000E+00
  0.00000000E+00  0.00000000E+00  0.00000000E+00
