BaTl                                    
   1.0000000000000000     
     4.2641570535282378   -6.2427977565129185   -0.0000000000000000
     4.2641570535282378    6.2427977565129185    0.0000000000000000
     0.0000000000000000   -0.0000000000000000    5.9163970811737139
   Ba   Tl
     4     4
Direct
  0.8452636544671179  0.1547363455328821  0.2500000000000000
  0.3706007614513283  0.6293992385486717  0.2500000000000000
  0.6293992385486717  0.3706007614513283  0.7500000000000000
  0.1547363455328821  0.8452636544671179  0.7500000000000000
  0.3166934012031106  0.1318793948975951  0.2500000000000000
  0.8681206051024049  0.6833065987968894  0.2500000000000000
  0.1318793948975951  0.3166934012031106  0.7500000000000000
  0.6833065987968894  0.8681206051024049  0.7500000000000000

  0.00000000E+00  0.00000000E+00  0.00000000E+00
  0.00000000E+00  0.00000000E+00  0.00000000E+00
  0.00000000E+00  0.00000000E+00  0.00000000E+00
  0.00000000E+00  0.00000000E+00  0.00000000E+00
  0.00000000E+00  0.00000000E+00  0.00000000E+00
  0.00000000E+00  0.00000000E+00  0.00000000E+00
  0.00000000E+00  0.00000000E+00  0.00000000E+00
  0.00000000E+00  0.00000000E+00  0.00000000E+00
