Ba6 Al4 I24                             
   1.00000000000000     
     0.0000000000000000    0.0000000000000000    8.1215942690419123
    14.0989264018584937    0.0006876747000844    0.0000000000000000
    -0.0008711199666791   13.8927533987585559    0.0000000000000000
   Ba   I    Al
     6    24     4
Direct
  0.0000000000000000  0.9999532215506264  0.9999801441509959
  0.5000000000000000  0.3218092870207983  0.0782268489346265
  0.5000000000000000  0.8220012825843881  0.4219287047893090
  0.0000000000000000  0.5000736677325577  0.4999805361347498
  0.5000000000000000  0.1782024309501793  0.5782234163106281
  0.5000000000000000  0.6780331317033514  0.9219343229001922
  0.2621594926193467  0.4999083195919667  0.9999402187507869
  0.7378405073806533  0.4999083195919667  0.9999402187507869
  0.2363914082352139  0.7956804257219474  0.0967910543896977
  0.7636085917647861  0.7956804257219474  0.0967910543896977
  0.0000000000000000  0.3538112128506370  0.1572011029093758
  0.2392793577642038  0.1043769793639413  0.2014056231490784
  0.7607206422357962  0.1043769793639413  0.2014056231490784
  0.2392766339711159  0.6040278809519748  0.2984940455208402
  0.7607233660288841  0.6040278809519748  0.2984940455208402
  0.0000000000000000  0.8535206400524586  0.3429264958529430
  0.2364783207710559  0.2958005959015111  0.4032627475276485
  0.7635216792289441  0.2958005959015111  0.4032627475276485
  0.2621655870365984  0.0001103303133618  0.4999375935538950
  0.7378344129634016  0.0001103303133618  0.4999375935538950
  0.2364025285389388  0.7043278371655504  0.5967861768264200
  0.7635974714610612  0.7043278371655504  0.5967861768264200
  0.0000000000000000  0.1461759827042002  0.6572128841348928
  0.2393029383967900  0.3956368828361647  0.7013995604393699
  0.7606970616032100  0.3956368828361647  0.7013995604393699
  0.2392510899694358  0.8959676785455670  0.7984955459309617
  0.7607489100305642  0.8959676785455670  0.7984955459309617
  0.0000000000000000  0.6464929467947087  0.8429166550009910
  0.2364713971420045  0.2042173722143659  0.9032672653009968
  0.7635286028579955  0.2042173722143659  0.9032672653009968
  0.0000000000000000  0.7178985326407954  0.2244448387149092
  0.0000000000000000  0.2181639401627677  0.2755765693560193
  0.0000000000000000  0.7821268782315798  0.7244759000260430
  0.0000000000000000  0.2818282398082488  0.7756119180049481
 
  0.00000000E+00  0.00000000E+00  0.00000000E+00
  0.00000000E+00  0.00000000E+00  0.00000000E+00
  0.00000000E+00  0.00000000E+00  0.00000000E+00
  0.00000000E+00  0.00000000E+00  0.00000000E+00
  0.00000000E+00  0.00000000E+00  0.00000000E+00
  0.00000000E+00  0.00000000E+00  0.00000000E+00
  0.00000000E+00  0.00000000E+00  0.00000000E+00
  0.00000000E+00  0.00000000E+00  0.00000000E+00
  0.00000000E+00  0.00000000E+00  0.00000000E+00
  0.00000000E+00  0.00000000E+00  0.00000000E+00
  0.00000000E+00  0.00000000E+00  0.00000000E+00
  0.00000000E+00  0.00000000E+00  0.00000000E+00
  0.00000000E+00  0.00000000E+00  0.00000000E+00
  0.00000000E+00  0.00000000E+00  0.00000000E+00
  0.00000000E+00  0.00000000E+00  0.00000000E+00
  0.00000000E+00  0.00000000E+00  0.00000000E+00
  0.00000000E+00  0.00000000E+00  0.00000000E+00
  0.00000000E+00  0.00000000E+00  0.00000000E+00
  0.00000000E+00  0.00000000E+00  0.00000000E+00
  0.00000000E+00  0.00000000E+00  0.00000000E+00
  0.00000000E+00  0.00000000E+00  0.00000000E+00
  0.00000000E+00  0.00000000E+00  0.00000000E+00
  0.00000000E+00  0.00000000E+00  0.00000000E+00
  0.00000000E+00  0.00000000E+00  0.00000000E+00
  0.00000000E+00  0.00000000E+00  0.00000000E+00
  0.00000000E+00  0.00000000E+00  0.00000000E+00
  0.00000000E+00  0.00000000E+00  0.00000000E+00
  0.00000000E+00  0.00000000E+00  0.00000000E+00
  0.00000000E+00  0.00000000E+00  0.00000000E+00
  0.00000000E+00  0.00000000E+00  0.00000000E+00
  0.00000000E+00  0.00000000E+00  0.00000000E+00
  0.00000000E+00  0.00000000E+00  0.00000000E+00
  0.00000000E+00  0.00000000E+00  0.00000000E+00
  0.00000000E+00  0.00000000E+00  0.00000000E+00
