Mg6 Ga33                                
   1.00000000000000     
     9.1567840278437469    0.0000000000000000    0.0000000000000000
     0.0000000000000000    9.1567840278437451    0.0000000000000000
     0.0000000000000000    0.0000000000000000    9.1567840278437469
   Mg   Ga
     6    33
Direct
  0.2053080850568989  0.5000000000000000  0.0000000000000000
  0.7946919149431011  0.5000000000000000  0.0000000000000000
  0.5000000000000000  0.0000000000000000  0.2053080850568989
  0.0000000000000000  0.2053080850568989  0.5000000000000000
  0.0000000000000000  0.7946919149431011  0.5000000000000000
  0.5000000000000000  0.0000000000000000  0.7946919149431011
  0.0000000000000000  0.0000000000000000  0.0000000000000000
  0.2843538456522410  0.1496239046865426  0.0000000000000000
  0.7156461543477590  0.1496239046865426  0.0000000000000000
  0.5000000000000000  0.3463907750541750  0.0000000000000000
  0.5000000000000000  0.6536092249458250  0.0000000000000000
  0.2843538456522410  0.8503760953134503  0.0000000000000000
  0.7156461543477590  0.8503760953134503  0.0000000000000000
  0.0000000000000000  0.2843538456522410  0.1496239046865426
  0.0000000000000000  0.7156461543477590  0.1496239046865426
  0.5000000000000000  0.5000000000000000  0.2672494725649628
  0.1496239046865426  0.0000000000000000  0.2843538456522410
  0.8503760953134503  0.0000000000000000  0.2843538456522410
  0.2803977453815705  0.2803977453815705  0.2803977453815705
  0.7196022546184295  0.2803977453815705  0.2803977453815705
  0.2803977453815705  0.7196022546184295  0.2803977453815705
  0.7196022546184295  0.7196022546184295  0.2803977453815705
  0.0000000000000000  0.5000000000000000  0.3463907750541750
  0.3463907750541750  0.0000000000000000  0.5000000000000000
  0.6536092249458250  0.0000000000000000  0.5000000000000000
  0.5000000000000000  0.2672494725649628  0.5000000000000000
  0.2672494725649628  0.5000000000000000  0.5000000000000000
  0.7327505274350301  0.5000000000000000  0.5000000000000000
  0.5000000000000000  0.7327505274350301  0.5000000000000000
  0.0000000000000000  0.5000000000000000  0.6536092249458250
  0.2803977453815705  0.2803977453815705  0.7196022546184295
  0.7196022546184295  0.2803977453815705  0.7196022546184295
  0.2803977453815705  0.7196022546184295  0.7196022546184295
  0.7196022546184295  0.7196022546184295  0.7196022546184295
  0.1496239046865426  0.0000000000000000  0.7156461543477590
  0.8503760953134503  0.0000000000000000  0.7156461543477590
  0.5000000000000000  0.5000000000000000  0.7327505274350301
  0.0000000000000000  0.2843538456522410  0.8503760953134503
  0.0000000000000000  0.7156461543477590  0.8503760953134503
 
  0.00000000E+00  0.00000000E+00  0.00000000E+00
  0.00000000E+00  0.00000000E+00  0.00000000E+00
  0.00000000E+00  0.00000000E+00  0.00000000E+00
  0.00000000E+00  0.00000000E+00  0.00000000E+00
  0.00000000E+00  0.00000000E+00  0.00000000E+00
  0.00000000E+00  0.00000000E+00  0.00000000E+00
  0.00000000E+00  0.00000000E+00  0.00000000E+00
  0.00000000E+00  0.00000000E+00  0.00000000E+00
  0.00000000E+00  0.00000000E+00  0.00000000E+00
  0.00000000E+00  0.00000000E+00  0.00000000E+00
  0.00000000E+00  0.00000000E+00  0.00000000E+00
  0.00000000E+00  0.00000000E+00  0.00000000E+00
  0.00000000E+00  0.00000000E+00  0.00000000E+00
  0.00000000E+00  0.00000000E+00  0.00000000E+00
  0.00000000E+00  0.00000000E+00  0.00000000E+00
  0.00000000E+00  0.00000000E+00  0.00000000E+00
  0.00000000E+00  0.00000000E+00  0.00000000E+00
  0.00000000E+00  0.00000000E+00  0.00000000E+00
  0.00000000E+00  0.00000000E+00  0.00000000E+00
  0.00000000E+00  0.00000000E+00  0.00000000E+00
  0.00000000E+00  0.00000000E+00  0.00000000E+00
  0.00000000E+00  0.00000000E+00  0.00000000E+00
  0.00000000E+00  0.00000000E+00  0.00000000E+00
  0.00000000E+00  0.00000000E+00  0.00000000E+00
  0.00000000E+00  0.00000000E+00  0.00000000E+00
  0.00000000E+00  0.00000000E+00  0.00000000E+00
  0.00000000E+00  0.00000000E+00  0.00000000E+00
  0.00000000E+00  0.00000000E+00  0.00000000E+00
  0.00000000E+00  0.00000000E+00  0.00000000E+00
  0.00000000E+00  0.00000000E+00  0.00000000E+00
  0.00000000E+00  0.00000000E+00  0.00000000E+00
  0.00000000E+00  0.00000000E+00  0.00000000E+00
  0.00000000E+00  0.00000000E+00  0.00000000E+00
  0.00000000E+00  0.00000000E+00  0.00000000E+00
  0.00000000E+00  0.00000000E+00  0.00000000E+00
  0.00000000E+00  0.00000000E+00  0.00000000E+00
  0.00000000E+00  0.00000000E+00  0.00000000E+00
  0.00000000E+00  0.00000000E+00  0.00000000E+00
  0.00000000E+00  0.00000000E+00  0.00000000E+00
