Mg4 Ga4 Cl20                            
   1.0000000000000000     
     6.8713373883929298   -0.0000000000000000    0.0000000000000005
    -0.0000000000000005    6.2639853446593294    0.0000000000000005
     0.0000000000000005   -0.0000000000000000   19.9995022097182336
   Mg   Ga   Cl
     4     4    20
Direct
  0.5846591499227358  0.4102667082630802  0.4600974152871586
  0.0846591499227429  0.0897332917369198  0.5399025847128414
  0.4153408500772500  0.9102667082630802  0.0399025847128414
  0.9153408500772571  0.5897332917369198  0.9600974152871586
  0.3373282326851310  0.8722895188528668  0.3646586566541288
  0.8373282326851239  0.6277104811471332  0.6353413433458641
  0.6626717673148761  0.3722895188528597  0.1353413433458641
  0.1626717673148690  0.1277104811471474  0.8646586566541288
  0.6951254081161125  0.7194435779736423  0.5384960660211320
  0.1951254081161053  0.7805564220263577  0.4615039339788680
  0.3048745918838875  0.2194435779736423  0.9615039339788680
  0.8048745918838875  0.2805564220263577  0.0384960660211320
  0.1688788757791002  0.7823769046983600  0.2795102698726524
  0.6688788757791002  0.7176230953016400  0.7204897301273476
  0.8311211242208998  0.2823769046983600  0.2204897301273476
  0.3311211242208998  0.2176230953016400  0.7795102698726524
  0.1124845361352627  0.7298480277110073  0.0481578701944798
  0.6124845361352627  0.7701519722889927  0.9518421298055202
  0.8875154638647373  0.2298480277110073  0.4518421298055202
  0.3875154638647373  0.2701519722889927  0.5481578701944798
  0.5959341879261331  0.7205457563927311  0.1356355102286457
  0.0959341879261331  0.7794542436072689  0.8643644897713614
  0.4040658120738598  0.2205457563927311  0.3643644897713543
  0.9040658120738669  0.2794542436072689  0.6356355102286386
  0.8777165443094006  0.3050113971242112  0.8715606104480571
  0.3777165443094006  0.1949886028757888  0.1284393895519429
  0.1222834556905994  0.8050113971242112  0.6284393895519429
  0.6222834556905994  0.6949886028757888  0.3715606104480571

  0.00000000E+00  0.00000000E+00  0.00000000E+00
  0.00000000E+00  0.00000000E+00  0.00000000E+00
  0.00000000E+00  0.00000000E+00  0.00000000E+00
  0.00000000E+00  0.00000000E+00  0.00000000E+00
  0.00000000E+00  0.00000000E+00  0.00000000E+00
  0.00000000E+00  0.00000000E+00  0.00000000E+00
  0.00000000E+00  0.00000000E+00  0.00000000E+00
  0.00000000E+00  0.00000000E+00  0.00000000E+00
  0.00000000E+00  0.00000000E+00  0.00000000E+00
  0.00000000E+00  0.00000000E+00  0.00000000E+00
  0.00000000E+00  0.00000000E+00  0.00000000E+00
  0.00000000E+00  0.00000000E+00  0.00000000E+00
  0.00000000E+00  0.00000000E+00  0.00000000E+00
  0.00000000E+00  0.00000000E+00  0.00000000E+00
  0.00000000E+00  0.00000000E+00  0.00000000E+00
  0.00000000E+00  0.00000000E+00  0.00000000E+00
  0.00000000E+00  0.00000000E+00  0.00000000E+00
  0.00000000E+00  0.00000000E+00  0.00000000E+00
  0.00000000E+00  0.00000000E+00  0.00000000E+00
  0.00000000E+00  0.00000000E+00  0.00000000E+00
  0.00000000E+00  0.00000000E+00  0.00000000E+00
  0.00000000E+00  0.00000000E+00  0.00000000E+00
  0.00000000E+00  0.00000000E+00  0.00000000E+00
  0.00000000E+00  0.00000000E+00  0.00000000E+00
  0.00000000E+00  0.00000000E+00  0.00000000E+00
  0.00000000E+00  0.00000000E+00  0.00000000E+00
  0.00000000E+00  0.00000000E+00  0.00000000E+00
  0.00000000E+00  0.00000000E+00  0.00000000E+00
