Sr2 B2 Br6                              
   1.00000000000000     
    -4.6256857370789302   -0.0808134167154640    0.0689595079772448
    -2.3466491014686861    3.9725263010611496    0.0564071322429597
     0.2004298538527554   -0.1484576344256310  -23.3345280050634294
   Br   Sr   B 
     6     2     2
Direct
  0.1605035049195322  0.6401289458827506  0.0695371608286450
  0.4083545831817972  0.0728786286098142  0.2782512407791131
  0.1737471286326695  0.6972588980142191  0.4366177126414357
  0.8536494754024773  0.3740683571191070  0.5697873500795509
  0.5907748079119983  0.9283444290481171  0.7766131032593577
  0.8186241022749670  0.2982099870980122  0.9364495468701364
  0.4903361702366524  0.9695953503440862  0.0046964049872074
  0.5132744163784224  0.0351423566147986  0.5048829766075400
  0.6023068801777072  0.1404324567804309  0.2123562244287740
  0.3884289308837836  0.8439405904886712  0.7111082795182497
 
  0.00000000E+00  0.00000000E+00  0.00000000E+00
  0.00000000E+00  0.00000000E+00  0.00000000E+00
  0.00000000E+00  0.00000000E+00  0.00000000E+00
  0.00000000E+00  0.00000000E+00  0.00000000E+00
  0.00000000E+00  0.00000000E+00  0.00000000E+00
  0.00000000E+00  0.00000000E+00  0.00000000E+00
  0.00000000E+00  0.00000000E+00  0.00000000E+00
  0.00000000E+00  0.00000000E+00  0.00000000E+00
  0.00000000E+00  0.00000000E+00  0.00000000E+00
  0.00000000E+00  0.00000000E+00  0.00000000E+00
