Sr21 Tl40                               
   1.0000000000000000     
     5.5264078526170541   -9.5720193244308938    0.0000000000000000
     5.5264078526170541    9.5720193244308938    0.0000000000000000
    -0.0000000000000000    0.0000000000000000   19.8563535362871875
   Sr   Tl
    21    40
Direct
  0.9999999999978613  0.3354609280700558  0.3848270825182496
  0.6666669999999968  0.3333330000000032  0.3018435675405726
  0.6746332238998249  0.0000000000034674  0.6821541141384557
  0.3253667760967076  0.3253667760967076  0.6821541141384557
  0.0000000000000000  0.0000000000000000  0.1314431468644486
  0.0000000000000284  0.3353608424158026  0.5898154722019200
  0.3221652323544504  0.0000000000009379  0.0203332576521973
  0.0000000000034674  0.6746332238998249  0.6821541141384557
  0.6645390719320829  0.6645390719320829  0.3848270825182496
  0.3353608424158026  0.0000000000000284  0.5898154722019200
  0.3333330000000032  0.6666669999999968  0.1047637814419957
  0.0000000000033396  0.6338530453794249  0.8864565263797459
  0.6646391575841761  0.6646391575841761  0.5898154722019200
  0.3661469546172356  0.3661469546172356  0.8864565263797459
  0.6666669999999968  0.3333330000000032  0.1047637814419957
  0.3333330000000032  0.6666669999999968  0.3018435675405726
  0.0000000000009379  0.3221652323544504  0.0203332576521973
  0.3354609280700558  0.9999999999978613  0.3848270825182496
  0.6778347676446117  0.6778347676446117  0.0203332576521973
  0.6338530453794249  0.0000000000033396  0.8864565263797459
  0.0000000000000000  0.0000000000000000  0.3130508258807296
  0.3325549117183115  0.4990984628375585  0.4912945976014882
  0.1663539486973065  0.3358033663745985  0.2083179572332767
  0.4839511175446418  0.1689507284349645  0.7741494734462009
  0.8305505823247472  0.6641966336272560  0.2083179572332767
  0.4930999932584683  0.0000000000021743  0.1878216372699484
  0.0000000000000000  0.0000000000000000  0.6057753287257697
  0.3333330000000032  0.6666669999999968  0.9283266624798401
  0.1694494176754304  0.8336460513006472  0.2083179572332767
  0.2054207818623155  0.9999999999946141  0.8590853891132468
  0.0000000000067928  0.6429034559373505  0.3399249761318330
  0.3358033663745985  0.1663539486973065  0.2083179572332767
  0.1685398112955454  0.1685398112955454  0.4734422142750745
  0.7945792181430562  0.7945792181430562  0.8590853891132468
  0.6666669999999968  0.3333330000000032  0.9283266624798401
  0.9999999999888445  0.8314601887156101  0.4734422142750745
  0.5069000067393574  0.5069000067393574  0.1878216372699484
  0.8334564488750331  0.5009015371579295  0.4912945976014882
  0.5160488824524094  0.6849996108837786  0.7741494734462009
  0.0000000000021743  0.4930999932584683  0.1878216372699484
  0.8336460513006472  0.1694494176754304  0.2083179572332767
  0.9999999999956017  0.6748940585337522  0.0576162925023169
  0.3570965440558567  0.3570965440558567  0.3399249761318330
  0.3333330000000032  0.6666669999999968  0.6360171857206112
  0.9999999999946141  0.2054207818623155  0.8590853891132468
  0.6666669999999968  0.3333330000000032  0.6360171857206112
  0.1689507284349645  0.4839511175446418  0.7741494734462009
  0.5009015371579295  0.8334564488750331  0.4912945976014882
  0.1665435511237590  0.6674450882874154  0.4912945976014882
  0.6748940585337522  0.9999999999956017  0.0576162925023169
  0.3251059414706390  0.3251059414706390  0.0576162925023169
  0.8310492715715796  0.3150003891126261  0.7741494734462009
  0.6429034559373505  0.0000000000067928  0.3399249761318330
  0.4990984628375585  0.3325549117183115  0.4912945976014882
  0.6641966336272560  0.8305505823247472  0.2083179572332767
  0.8314601887156101  0.9999999999888445  0.4734422142750745
  0.6674450882874154  0.1665435511237590  0.4912945976014882
  0.3150003891126261  0.8310492715715796  0.7741494734462009
  0.0000000000000000  0.0000000000000000  0.9719148507356294
  0.6849996108837786  0.5160488824524094  0.7741494734462009
  0.0000000000000000  0.0000000000000000  0.7526753971924904

  0.00000000E+00  0.00000000E+00  0.00000000E+00
  0.00000000E+00  0.00000000E+00  0.00000000E+00
  0.00000000E+00  0.00000000E+00  0.00000000E+00
  0.00000000E+00  0.00000000E+00  0.00000000E+00
  0.00000000E+00  0.00000000E+00  0.00000000E+00
  0.00000000E+00  0.00000000E+00  0.00000000E+00
  0.00000000E+00  0.00000000E+00  0.00000000E+00
  0.00000000E+00  0.00000000E+00  0.00000000E+00
  0.00000000E+00  0.00000000E+00  0.00000000E+00
  0.00000000E+00  0.00000000E+00  0.00000000E+00
  0.00000000E+00  0.00000000E+00  0.00000000E+00
  0.00000000E+00  0.00000000E+00  0.00000000E+00
  0.00000000E+00  0.00000000E+00  0.00000000E+00
  0.00000000E+00  0.00000000E+00  0.00000000E+00
  0.00000000E+00  0.00000000E+00  0.00000000E+00
  0.00000000E+00  0.00000000E+00  0.00000000E+00
  0.00000000E+00  0.00000000E+00  0.00000000E+00
  0.00000000E+00  0.00000000E+00  0.00000000E+00
  0.00000000E+00  0.00000000E+00  0.00000000E+00
  0.00000000E+00  0.00000000E+00  0.00000000E+00
  0.00000000E+00  0.00000000E+00  0.00000000E+00
  0.00000000E+00  0.00000000E+00  0.00000000E+00
  0.00000000E+00  0.00000000E+00  0.00000000E+00
  0.00000000E+00  0.00000000E+00  0.00000000E+00
  0.00000000E+00  0.00000000E+00  0.00000000E+00
  0.00000000E+00  0.00000000E+00  0.00000000E+00
  0.00000000E+00  0.00000000E+00  0.00000000E+00
  0.00000000E+00  0.00000000E+00  0.00000000E+00
  0.00000000E+00  0.00000000E+00  0.00000000E+00
  0.00000000E+00  0.00000000E+00  0.00000000E+00
  0.00000000E+00  0.00000000E+00  0.00000000E+00
  0.00000000E+00  0.00000000E+00  0.00000000E+00
  0.00000000E+00  0.00000000E+00  0.00000000E+00
  0.00000000E+00  0.00000000E+00  0.00000000E+00
  0.00000000E+00  0.00000000E+00  0.00000000E+00
  0.00000000E+00  0.00000000E+00  0.00000000E+00
  0.00000000E+00  0.00000000E+00  0.00000000E+00
  0.00000000E+00  0.00000000E+00  0.00000000E+00
  0.00000000E+00  0.00000000E+00  0.00000000E+00
  0.00000000E+00  0.00000000E+00  0.00000000E+00
  0.00000000E+00  0.00000000E+00  0.00000000E+00
  0.00000000E+00  0.00000000E+00  0.00000000E+00
  0.00000000E+00  0.00000000E+00  0.00000000E+00
  0.00000000E+00  0.00000000E+00  0.00000000E+00
  0.00000000E+00  0.00000000E+00  0.00000000E+00
  0.00000000E+00  0.00000000E+00  0.00000000E+00
  0.00000000E+00  0.00000000E+00  0.00000000E+00
  0.00000000E+00  0.00000000E+00  0.00000000E+00
  0.00000000E+00  0.00000000E+00  0.00000000E+00
  0.00000000E+00  0.00000000E+00  0.00000000E+00
  0.00000000E+00  0.00000000E+00  0.00000000E+00
  0.00000000E+00  0.00000000E+00  0.00000000E+00
  0.00000000E+00  0.00000000E+00  0.00000000E+00
  0.00000000E+00  0.00000000E+00  0.00000000E+00
  0.00000000E+00  0.00000000E+00  0.00000000E+00
  0.00000000E+00  0.00000000E+00  0.00000000E+00
  0.00000000E+00  0.00000000E+00  0.00000000E+00
  0.00000000E+00  0.00000000E+00  0.00000000E+00
  0.00000000E+00  0.00000000E+00  0.00000000E+00
  0.00000000E+00  0.00000000E+00  0.00000000E+00
  0.00000000E+00  0.00000000E+00  0.00000000E+00
