Ba4 Tl4 Cl20                            
   1.0000000000000000     
     7.8257368324673635   -0.0000000000000001    0.0000000000000004
    -0.0000000000000006    8.4596553753187997    0.0000000000000004
     0.0000000000000003    0.0000000000000001   14.9058469204205828
   Ba   Tl   Cl
     4     4    20
Direct
  0.7452594332135263  0.7324394967014740  0.6689659974145670
  0.2452594332135263  0.7675605032985260  0.3310340025854330
  0.2547405667864737  0.2324394967014811  0.8310340025854330
  0.7547405667864737  0.2675605032985189  0.1689659974145670
  0.2962095151194788  0.0547782331633400  0.5808236615928664
  0.7962095151194717  0.4452217668366600  0.4191763384071336
  0.7037904848805283  0.5547782331633400  0.9191763384071336
  0.2037904848805212  0.9452217668366600  0.0808236615928664
  0.9331275542222599  0.7151157893407500  0.4729669525862761
  0.4331275542222599  0.7848842106592500  0.5270330474137239
  0.0668724457777401  0.2151157893407500  0.0270330474137239
  0.5668724457777401  0.2848842106592500  0.9729669525862761
  0.5745733604659335  0.5513700141966495  0.3051326700479393
  0.0745733604659335  0.9486299858033505  0.6948673299520536
  0.4254266395340665  0.0513700141966495  0.1948673299520536
  0.9254266395340665  0.4486299858033505  0.8051326700479393
  0.2251380573070705  0.3372788182338553  0.6280059507580873
  0.7251380573070705  0.1627211817661447  0.3719940492419056
  0.7748619426929295  0.8372788182338553  0.8719940492419127
  0.2748619426929295  0.6627211817661447  0.1280059507580873
  0.5353758901341337  0.0543863096870680  0.7020642141990905
  0.0353758901341337  0.4456136903129320  0.2979357858009166
  0.4646241098658663  0.5543863096870680  0.7979357858009095
  0.9646241098658663  0.9456136903129320  0.2020642141990905
  0.7030089438340994  0.3996899765910911  0.5768807433478713
  0.2030089438340994  0.1003100234089089  0.4231192566521287
  0.2969910561659006  0.8996899765910911  0.9231192566521287
  0.7969910561659006  0.6003100234089089  0.0768807433478713

  0.00000000E+00  0.00000000E+00  0.00000000E+00
  0.00000000E+00  0.00000000E+00  0.00000000E+00
  0.00000000E+00  0.00000000E+00  0.00000000E+00
  0.00000000E+00  0.00000000E+00  0.00000000E+00
  0.00000000E+00  0.00000000E+00  0.00000000E+00
  0.00000000E+00  0.00000000E+00  0.00000000E+00
  0.00000000E+00  0.00000000E+00  0.00000000E+00
  0.00000000E+00  0.00000000E+00  0.00000000E+00
  0.00000000E+00  0.00000000E+00  0.00000000E+00
  0.00000000E+00  0.00000000E+00  0.00000000E+00
  0.00000000E+00  0.00000000E+00  0.00000000E+00
  0.00000000E+00  0.00000000E+00  0.00000000E+00
  0.00000000E+00  0.00000000E+00  0.00000000E+00
  0.00000000E+00  0.00000000E+00  0.00000000E+00
  0.00000000E+00  0.00000000E+00  0.00000000E+00
  0.00000000E+00  0.00000000E+00  0.00000000E+00
  0.00000000E+00  0.00000000E+00  0.00000000E+00
  0.00000000E+00  0.00000000E+00  0.00000000E+00
  0.00000000E+00  0.00000000E+00  0.00000000E+00
  0.00000000E+00  0.00000000E+00  0.00000000E+00
  0.00000000E+00  0.00000000E+00  0.00000000E+00
  0.00000000E+00  0.00000000E+00  0.00000000E+00
  0.00000000E+00  0.00000000E+00  0.00000000E+00
  0.00000000E+00  0.00000000E+00  0.00000000E+00
  0.00000000E+00  0.00000000E+00  0.00000000E+00
  0.00000000E+00  0.00000000E+00  0.00000000E+00
  0.00000000E+00  0.00000000E+00  0.00000000E+00
  0.00000000E+00  0.00000000E+00  0.00000000E+00
