Sr4 B4 F20                              
   1.0000000000000000     
     4.7775024890108355   -0.0000000000000000    0.0000000000000003
    -0.0000000000000003    4.1876896225373059    0.0000000000000003
     0.0000000000000000   -0.0000000000000002   15.9297942277455196
   Sr   B    F 
     4     4    20
Direct
  0.7523784128563591  0.4979259851676545  0.4223715130173105
  0.2523784128563591  0.0020740148323455  0.5776284869826895
  0.2476215871436338  0.9979259851676545  0.0776284869826895
  0.7476215871436338  0.5020740148323455  0.9223715130173105
  0.2613706477152107  0.9014456319791790  0.3192424160966780
  0.7613706477152107  0.5985543680208210  0.6807575839033149
  0.7386293522847893  0.4014456319791790  0.1807575839033149
  0.2386293522847893  0.0985543680208210  0.8192424160966780
  0.2429975352415283  0.5019732641020056  0.4889875200688678
  0.7429975352415212  0.9980267358979944  0.5110124799311322
  0.7570024647584717  0.0019732641020056  0.0110124799311322
  0.2570024647584717  0.4980267358979944  0.9889875200688678
  0.2271868202585381  0.0121936201099260  0.2383477556942353
  0.7271868202585310  0.4878063798900740  0.7616522443057647
  0.7728131797414690  0.5121936201099260  0.2616522443057647
  0.2728131797414619  0.9878063798900740  0.7383477556942353
  0.9599776804507556  0.5078738121368502  0.1279735525823327
  0.4599776804507556  0.9921261878631498  0.8720264474176744
  0.0400223195492444  0.0078738121368502  0.3720264474176673
  0.5400223195492444  0.4921261878631498  0.6279735525823256
  0.4855133497197670  0.5136953318886128  0.1446964780459652
  0.9855133497197670  0.9863046681113872  0.8553035219540419
  0.5144866502802330  0.0136953318886128  0.3553035219540348
  0.0144866502802259  0.4863046681113872  0.6446964780459581
  0.2324397371763638  0.4300458653939501  0.8236632667463581
  0.7324397371763567  0.0699541346060499  0.1763367332536347
  0.7675602628236433  0.9300458653939501  0.6763367332536419
  0.2675602628236362  0.5699541346060499  0.3236632667463653

  0.00000000E+00  0.00000000E+00  0.00000000E+00
  0.00000000E+00  0.00000000E+00  0.00000000E+00
  0.00000000E+00  0.00000000E+00  0.00000000E+00
  0.00000000E+00  0.00000000E+00  0.00000000E+00
  0.00000000E+00  0.00000000E+00  0.00000000E+00
  0.00000000E+00  0.00000000E+00  0.00000000E+00
  0.00000000E+00  0.00000000E+00  0.00000000E+00
  0.00000000E+00  0.00000000E+00  0.00000000E+00
  0.00000000E+00  0.00000000E+00  0.00000000E+00
  0.00000000E+00  0.00000000E+00  0.00000000E+00
  0.00000000E+00  0.00000000E+00  0.00000000E+00
  0.00000000E+00  0.00000000E+00  0.00000000E+00
  0.00000000E+00  0.00000000E+00  0.00000000E+00
  0.00000000E+00  0.00000000E+00  0.00000000E+00
  0.00000000E+00  0.00000000E+00  0.00000000E+00
  0.00000000E+00  0.00000000E+00  0.00000000E+00
  0.00000000E+00  0.00000000E+00  0.00000000E+00
  0.00000000E+00  0.00000000E+00  0.00000000E+00
  0.00000000E+00  0.00000000E+00  0.00000000E+00
  0.00000000E+00  0.00000000E+00  0.00000000E+00
  0.00000000E+00  0.00000000E+00  0.00000000E+00
  0.00000000E+00  0.00000000E+00  0.00000000E+00
  0.00000000E+00  0.00000000E+00  0.00000000E+00
  0.00000000E+00  0.00000000E+00  0.00000000E+00
  0.00000000E+00  0.00000000E+00  0.00000000E+00
  0.00000000E+00  0.00000000E+00  0.00000000E+00
  0.00000000E+00  0.00000000E+00  0.00000000E+00
  0.00000000E+00  0.00000000E+00  0.00000000E+00
