Al20 Cl4                                
   1.00000000000000     
     6.7495374132124910    3.1835346379149856    0.0287368094241395
    -6.7495374132124910    3.1835346379149860    0.0287368094241395
     0.0000000000000000    2.0785216618609574   11.0225576443181961
   Al   Cl
    20     4
Direct
  0.8233126517848532  0.7898682413568423  0.7110802578229070
  0.2101317586431577  0.1766873482151468  0.7889197421770930
  0.1766873482151468  0.2101317586431577  0.2889197421771001
  0.7898682413568423  0.8233126517848532  0.2110802578229070
  0.3804455895160928  0.6022270060282153  0.8698710669216965
  0.3977729939717847  0.6195544104839072  0.6301289330783035
  0.6195544104839072  0.3977729939717847  0.1301289330783035
  0.6022270060282153  0.3804455895160928  0.3698710669216965
  0.1930180965158144  0.1956999478238259  0.5354955434799251
  0.8043000521761741  0.8069819034841856  0.9645044565200749
  0.8069819034841856  0.8043000521761741  0.4645044565200749
  0.1956999478238259  0.1930180965158144  0.0354955434799251
  0.6063763471354306  0.3785881380327609  0.6199706375240623
  0.6214118619672391  0.3936236528645694  0.8800293624759377
  0.3936236528645694  0.6214118619672391  0.3800293624759377
  0.3785881380327609  0.6063763471354306  0.1199706375240623
  0.1586890815915254  0.7876046568662716  0.8823693846252354
  0.2123953431337284  0.8413109184084746  0.6176306153747646
  0.8413109184084746  0.2123953431337284  0.1176306153747646
  0.7876046568662716  0.1586890815915254  0.3823693846252425
  0.8066314238831680  0.2412112439365188  0.6070567015761910
  0.7587887560634812  0.1933685761168320  0.8929432984238090
  0.1933685761168320  0.7587887560634812  0.3929432984238090
  0.2412112439365188  0.8066314238831680  0.1070567015761910
 
  0.00000000E+00  0.00000000E+00  0.00000000E+00
  0.00000000E+00  0.00000000E+00  0.00000000E+00
  0.00000000E+00  0.00000000E+00  0.00000000E+00
  0.00000000E+00  0.00000000E+00  0.00000000E+00
  0.00000000E+00  0.00000000E+00  0.00000000E+00
  0.00000000E+00  0.00000000E+00  0.00000000E+00
  0.00000000E+00  0.00000000E+00  0.00000000E+00
  0.00000000E+00  0.00000000E+00  0.00000000E+00
  0.00000000E+00  0.00000000E+00  0.00000000E+00
  0.00000000E+00  0.00000000E+00  0.00000000E+00
  0.00000000E+00  0.00000000E+00  0.00000000E+00
  0.00000000E+00  0.00000000E+00  0.00000000E+00
  0.00000000E+00  0.00000000E+00  0.00000000E+00
  0.00000000E+00  0.00000000E+00  0.00000000E+00
  0.00000000E+00  0.00000000E+00  0.00000000E+00
  0.00000000E+00  0.00000000E+00  0.00000000E+00
  0.00000000E+00  0.00000000E+00  0.00000000E+00
  0.00000000E+00  0.00000000E+00  0.00000000E+00
  0.00000000E+00  0.00000000E+00  0.00000000E+00
  0.00000000E+00  0.00000000E+00  0.00000000E+00
  0.00000000E+00  0.00000000E+00  0.00000000E+00
  0.00000000E+00  0.00000000E+00  0.00000000E+00
  0.00000000E+00  0.00000000E+00  0.00000000E+00
  0.00000000E+00  0.00000000E+00  0.00000000E+00
