Sr3 Al33                                
   1.00000000000000     
     8.8338085783116700    0.0000000000000000    0.0000000000000000
     0.0000000000000000    8.8338085783116700    0.0000000000000000
     0.0000000000000000    0.0000000000000000    8.8338085783116700
   Sr   Al
     3    33
Direct
  0.5000000000000000  0.0000000000000000  0.0000000000000000
  0.0000000000000000  0.5000000000000000  0.0000000000000000
  0.0000000000000000  0.0000000000000000  0.5000000000000000
  0.3488941314853164  0.3488941314853164  0.0000000000000000
  0.6511058685146836  0.3488941314853164  0.0000000000000000
  0.3488941314853164  0.6511058685146836  0.0000000000000000
  0.6511058685146836  0.6511058685146836  0.0000000000000000
  0.1608393052041990  0.1608393052041990  0.1608393052041990
  0.8391606947958010  0.1608393052041990  0.1608393052041990
  0.1608393052041990  0.8391606947958010  0.1608393052041990
  0.8391606947958010  0.8391606947958010  0.1608393052041990
  0.5000000000000000  0.2720649815540668  0.2720649815540668
  0.2720649815540668  0.5000000000000000  0.2720649815540668
  0.7279350184459332  0.5000000000000000  0.2720649815540668
  0.5000000000000000  0.7279350184459332  0.2720649815540668
  0.3488941314853164  0.0000000000000000  0.3488941314853164
  0.6511058685146836  0.0000000000000000  0.3488941314853164
  0.0000000000000000  0.3488941314853164  0.3488941314853164
  0.0000000000000000  0.6511058685146836  0.3488941314853164
  0.2720649815540668  0.2720649815540668  0.5000000000000000
  0.7279350184459332  0.2720649815540668  0.5000000000000000
  0.5000000000000000  0.5000000000000000  0.5000000000000000
  0.2720649815540668  0.7279350184459332  0.5000000000000000
  0.7279350184459332  0.7279350184459332  0.5000000000000000
  0.3488941314853164  0.0000000000000000  0.6511058685146836
  0.6511058685146836  0.0000000000000000  0.6511058685146836
  0.0000000000000000  0.3488941314853164  0.6511058685146836
  0.0000000000000000  0.6511058685146836  0.6511058685146836
  0.5000000000000000  0.2720649815540668  0.7279350184459332
  0.2720649815540668  0.5000000000000000  0.7279350184459332
  0.7279350184459332  0.5000000000000000  0.7279350184459332
  0.5000000000000000  0.7279350184459332  0.7279350184459332
  0.1608393052041990  0.1608393052041990  0.8391606947958010
  0.8391606947958010  0.1608393052041990  0.8391606947958010
  0.1608393052041990  0.8391606947958010  0.8391606947958010
  0.8391606947958010  0.8391606947958010  0.8391606947958010
 
  0.00000000E+00  0.00000000E+00  0.00000000E+00
  0.00000000E+00  0.00000000E+00  0.00000000E+00
  0.00000000E+00  0.00000000E+00  0.00000000E+00
  0.00000000E+00  0.00000000E+00  0.00000000E+00
  0.00000000E+00  0.00000000E+00  0.00000000E+00
  0.00000000E+00  0.00000000E+00  0.00000000E+00
  0.00000000E+00  0.00000000E+00  0.00000000E+00
  0.00000000E+00  0.00000000E+00  0.00000000E+00
  0.00000000E+00  0.00000000E+00  0.00000000E+00
  0.00000000E+00  0.00000000E+00  0.00000000E+00
  0.00000000E+00  0.00000000E+00  0.00000000E+00
  0.00000000E+00  0.00000000E+00  0.00000000E+00
  0.00000000E+00  0.00000000E+00  0.00000000E+00
  0.00000000E+00  0.00000000E+00  0.00000000E+00
  0.00000000E+00  0.00000000E+00  0.00000000E+00
  0.00000000E+00  0.00000000E+00  0.00000000E+00
  0.00000000E+00  0.00000000E+00  0.00000000E+00
  0.00000000E+00  0.00000000E+00  0.00000000E+00
  0.00000000E+00  0.00000000E+00  0.00000000E+00
  0.00000000E+00  0.00000000E+00  0.00000000E+00
  0.00000000E+00  0.00000000E+00  0.00000000E+00
  0.00000000E+00  0.00000000E+00  0.00000000E+00
  0.00000000E+00  0.00000000E+00  0.00000000E+00
  0.00000000E+00  0.00000000E+00  0.00000000E+00
  0.00000000E+00  0.00000000E+00  0.00000000E+00
  0.00000000E+00  0.00000000E+00  0.00000000E+00
  0.00000000E+00  0.00000000E+00  0.00000000E+00
  0.00000000E+00  0.00000000E+00  0.00000000E+00
  0.00000000E+00  0.00000000E+00  0.00000000E+00
  0.00000000E+00  0.00000000E+00  0.00000000E+00
  0.00000000E+00  0.00000000E+00  0.00000000E+00
  0.00000000E+00  0.00000000E+00  0.00000000E+00
  0.00000000E+00  0.00000000E+00  0.00000000E+00
  0.00000000E+00  0.00000000E+00  0.00000000E+00
  0.00000000E+00  0.00000000E+00  0.00000000E+00
  0.00000000E+00  0.00000000E+00  0.00000000E+00
