Sr41 Al67                               
   1.00000000000000     
    14.6589636159855310    0.0000000000000000    0.0000000000000000
     0.0000000000000000   14.6589636159855310    0.0000000000000000
     0.0000000000000000    0.0000000000000000   14.6589636159855310
   Al   Sr
    67    41
Direct
  0.3426304832863707  0.1542068781255352  0.0000000000000000
  0.6573695167136293  0.1542068781255352  0.0000000000000000
  0.5000000000000000  0.2459623945179885  0.0000000000000000
  0.1542068781255352  0.3426304832863707  0.0000000000000000
  0.8457931218744648  0.3426304832863707  0.0000000000000000
  0.2459623945179885  0.5000000000000000  0.0000000000000000
  0.7540376054820115  0.5000000000000000  0.0000000000000000
  0.1542068781255352  0.6573695167136293  0.0000000000000000
  0.8457931218744648  0.6573695167136293  0.0000000000000000
  0.5000000000000000  0.7540376054820115  0.0000000000000000
  0.3426304832863707  0.8457931218744648  0.0000000000000000
  0.6573695167136293  0.8457931218744648  0.0000000000000000
  0.5000000000000000  0.1632814966040144  0.1632814966040144
  0.1632814966040144  0.5000000000000000  0.1632814966040144
  0.8367185033959927  0.5000000000000000  0.1632814966040144
  0.5000000000000000  0.8367185033959927  0.1632814966040144
  0.5000000000000000  0.5000000000000000  0.2449222411517127
  0.3426304832863707  0.0000000000000000  0.1542068781255352
  0.6573695167136293  0.0000000000000000  0.1542068781255352
  0.0000000000000000  0.3426304832863707  0.1542068781255352
  0.0000000000000000  0.6573695167136293  0.1542068781255352
  0.5000000000000000  0.0000000000000000  0.2459623945179885
  0.0000000000000000  0.5000000000000000  0.2459623945179885
  0.5000000000000000  0.3592038436978058  0.3592038436978058
  0.3592038436978058  0.5000000000000000  0.3592038436978058
  0.6407961563021942  0.5000000000000000  0.3592038436978058
  0.5000000000000000  0.6407961563021942  0.3592038436978058
  0.1542068781255352  0.0000000000000000  0.3426304832863707
  0.8457931218744648  0.0000000000000000  0.3426304832863707
  0.0000000000000000  0.1542068781255352  0.3426304832863707
  0.0000000000000000  0.8457931218744648  0.3426304832863707
  0.2459623945179885  0.0000000000000000  0.5000000000000000
  0.7540376054820115  0.0000000000000000  0.5000000000000000
  0.1632814966040144  0.1632814966040144  0.5000000000000000
  0.8367185033959927  0.1632814966040144  0.5000000000000000
  0.5000000000000000  0.2449222411517127  0.5000000000000000
  0.0000000000000000  0.2459623945179885  0.5000000000000000
  0.3592038436978058  0.3592038436978058  0.5000000000000000
  0.6407961563021942  0.3592038436978058  0.5000000000000000
  0.2449222411517127  0.5000000000000000  0.5000000000000000
  0.5000000000000000  0.5000000000000000  0.5000000000000000
  0.7550777588482873  0.5000000000000000  0.5000000000000000
  0.3592038436978058  0.6407961563021942  0.5000000000000000
  0.6407961563021942  0.6407961563021942  0.5000000000000000
  0.0000000000000000  0.7540376054820115  0.5000000000000000
  0.5000000000000000  0.7550777588482873  0.5000000000000000
  0.1632814966040144  0.8367185033959927  0.5000000000000000
  0.8367185033959927  0.8367185033959927  0.5000000000000000
  0.1542068781255352  0.0000000000000000  0.6573695167136293
  0.8457931218744648  0.0000000000000000  0.6573695167136293
  0.0000000000000000  0.1542068781255352  0.6573695167136293
  0.0000000000000000  0.8457931218744648  0.6573695167136293
  0.5000000000000000  0.3592038436978058  0.6407961563021942
  0.3592038436978058  0.5000000000000000  0.6407961563021942
  0.6407961563021942  0.5000000000000000  0.6407961563021942
  0.5000000000000000  0.6407961563021942  0.6407961563021942
  0.5000000000000000  0.0000000000000000  0.7540376054820115
  0.0000000000000000  0.5000000000000000  0.7540376054820115
  0.3426304832863707  0.0000000000000000  0.8457931218744648
  0.6573695167136293  0.0000000000000000  0.8457931218744648
  0.0000000000000000  0.3426304832863707  0.8457931218744648
  0.0000000000000000  0.6573695167136293  0.8457931218744648
  0.5000000000000000  0.5000000000000000  0.7550777588482873
  0.5000000000000000  0.1632814966040144  0.8367185033959927
  0.1632814966040144  0.5000000000000000  0.8367185033959927
  0.8367185033959927  0.5000000000000000  0.8367185033959927
  0.5000000000000000  0.8367185033959927  0.8367185033959927
  0.1904325867553069  0.0000000000000000  0.0000000000000000
  0.5000000000000000  0.0000000000000000  0.0000000000000000
  0.8095674132446860  0.0000000000000000  0.0000000000000000
  0.0000000000000000  0.1904325867553069  0.0000000000000000
  0.0000000000000000  0.5000000000000000  0.0000000000000000
  0.0000000000000000  0.8095674132446860  0.0000000000000000
  0.3628051861201911  0.3628051861201911  0.1448981938425362
  0.6371948138798089  0.3628051861201911  0.1448981938425362
  0.3628051861201911  0.6371948138798089  0.1448981938425362
  0.6371948138798089  0.6371948138798089  0.1448981938425362
  0.1787800056851552  0.1787800056851552  0.1787800056851552
  0.8212199943148448  0.1787800056851552  0.1787800056851552
  0.1787800056851552  0.8212199943148448  0.1787800056851552
  0.8212199943148448  0.8212199943148448  0.1787800056851552
  0.0000000000000000  0.0000000000000000  0.1904325867553069
  0.3628051861201911  0.1448981938425362  0.3628051861201911
  0.6371948138798089  0.1448981938425362  0.3628051861201911
  0.1448981938425362  0.3628051861201911  0.3628051861201911
  0.8551018061574638  0.3628051861201911  0.3628051861201911
  0.1448981938425362  0.6371948138798089  0.3628051861201911
  0.8551018061574638  0.6371948138798089  0.3628051861201911
  0.3628051861201911  0.8551018061574638  0.3628051861201911
  0.6371948138798089  0.8551018061574638  0.3628051861201911
  0.0000000000000000  0.0000000000000000  0.5000000000000000
  0.3628051861201911  0.1448981938425362  0.6371948138798089
  0.6371948138798089  0.1448981938425362  0.6371948138798089
  0.1448981938425362  0.3628051861201911  0.6371948138798089
  0.8551018061574638  0.3628051861201911  0.6371948138798089
  0.1448981938425362  0.6371948138798089  0.6371948138798089
  0.8551018061574638  0.6371948138798089  0.6371948138798089
  0.3628051861201911  0.8551018061574638  0.6371948138798089
  0.6371948138798089  0.8551018061574638  0.6371948138798089
  0.0000000000000000  0.0000000000000000  0.8095674132446931
  0.1787800056851552  0.1787800056851552  0.8212199943148448
  0.8212199943148448  0.1787800056851552  0.8212199943148448
  0.1787800056851552  0.8212199943148448  0.8212199943148448
  0.8212199943148448  0.8212199943148448  0.8212199943148448
  0.3628051861201911  0.3628051861201911  0.8551018061574638
  0.6371948138798089  0.3628051861201911  0.8551018061574638
  0.3628051861201911  0.6371948138798089  0.8551018061574638
  0.6371948138798089  0.6371948138798089  0.8551018061574638
 
  0.00000000E+00  0.00000000E+00  0.00000000E+00
  0.00000000E+00  0.00000000E+00  0.00000000E+00
  0.00000000E+00  0.00000000E+00  0.00000000E+00
  0.00000000E+00  0.00000000E+00  0.00000000E+00
  0.00000000E+00  0.00000000E+00  0.00000000E+00
  0.00000000E+00  0.00000000E+00  0.00000000E+00
  0.00000000E+00  0.00000000E+00  0.00000000E+00
  0.00000000E+00  0.00000000E+00  0.00000000E+00
  0.00000000E+00  0.00000000E+00  0.00000000E+00
  0.00000000E+00  0.00000000E+00  0.00000000E+00
  0.00000000E+00  0.00000000E+00  0.00000000E+00
  0.00000000E+00  0.00000000E+00  0.00000000E+00
  0.00000000E+00  0.00000000E+00  0.00000000E+00
  0.00000000E+00  0.00000000E+00  0.00000000E+00
  0.00000000E+00  0.00000000E+00  0.00000000E+00
  0.00000000E+00  0.00000000E+00  0.00000000E+00
  0.00000000E+00  0.00000000E+00  0.00000000E+00
  0.00000000E+00  0.00000000E+00  0.00000000E+00
  0.00000000E+00  0.00000000E+00  0.00000000E+00
  0.00000000E+00  0.00000000E+00  0.00000000E+00
  0.00000000E+00  0.00000000E+00  0.00000000E+00
  0.00000000E+00  0.00000000E+00  0.00000000E+00
  0.00000000E+00  0.00000000E+00  0.00000000E+00
  0.00000000E+00  0.00000000E+00  0.00000000E+00
  0.00000000E+00  0.00000000E+00  0.00000000E+00
  0.00000000E+00  0.00000000E+00  0.00000000E+00
  0.00000000E+00  0.00000000E+00  0.00000000E+00
  0.00000000E+00  0.00000000E+00  0.00000000E+00
  0.00000000E+00  0.00000000E+00  0.00000000E+00
  0.00000000E+00  0.00000000E+00  0.00000000E+00
  0.00000000E+00  0.00000000E+00  0.00000000E+00
  0.00000000E+00  0.00000000E+00  0.00000000E+00
  0.00000000E+00  0.00000000E+00  0.00000000E+00
  0.00000000E+00  0.00000000E+00  0.00000000E+00
  0.00000000E+00  0.00000000E+00  0.00000000E+00
  0.00000000E+00  0.00000000E+00  0.00000000E+00
  0.00000000E+00  0.00000000E+00  0.00000000E+00
  0.00000000E+00  0.00000000E+00  0.00000000E+00
  0.00000000E+00  0.00000000E+00  0.00000000E+00
  0.00000000E+00  0.00000000E+00  0.00000000E+00
  0.00000000E+00  0.00000000E+00  0.00000000E+00
  0.00000000E+00  0.00000000E+00  0.00000000E+00
  0.00000000E+00  0.00000000E+00  0.00000000E+00
  0.00000000E+00  0.00000000E+00  0.00000000E+00
  0.00000000E+00  0.00000000E+00  0.00000000E+00
  0.00000000E+00  0.00000000E+00  0.00000000E+00
  0.00000000E+00  0.00000000E+00  0.00000000E+00
  0.00000000E+00  0.00000000E+00  0.00000000E+00
  0.00000000E+00  0.00000000E+00  0.00000000E+00
  0.00000000E+00  0.00000000E+00  0.00000000E+00
  0.00000000E+00  0.00000000E+00  0.00000000E+00
  0.00000000E+00  0.00000000E+00  0.00000000E+00
  0.00000000E+00  0.00000000E+00  0.00000000E+00
  0.00000000E+00  0.00000000E+00  0.00000000E+00
  0.00000000E+00  0.00000000E+00  0.00000000E+00
  0.00000000E+00  0.00000000E+00  0.00000000E+00
  0.00000000E+00  0.00000000E+00  0.00000000E+00
  0.00000000E+00  0.00000000E+00  0.00000000E+00
  0.00000000E+00  0.00000000E+00  0.00000000E+00
  0.00000000E+00  0.00000000E+00  0.00000000E+00
  0.00000000E+00  0.00000000E+00  0.00000000E+00
  0.00000000E+00  0.00000000E+00  0.00000000E+00
  0.00000000E+00  0.00000000E+00  0.00000000E+00
  0.00000000E+00  0.00000000E+00  0.00000000E+00
  0.00000000E+00  0.00000000E+00  0.00000000E+00
  0.00000000E+00  0.00000000E+00  0.00000000E+00
  0.00000000E+00  0.00000000E+00  0.00000000E+00
  0.00000000E+00  0.00000000E+00  0.00000000E+00
  0.00000000E+00  0.00000000E+00  0.00000000E+00
  0.00000000E+00  0.00000000E+00  0.00000000E+00
  0.00000000E+00  0.00000000E+00  0.00000000E+00
  0.00000000E+00  0.00000000E+00  0.00000000E+00
  0.00000000E+00  0.00000000E+00  0.00000000E+00
  0.00000000E+00  0.00000000E+00  0.00000000E+00
  0.00000000E+00  0.00000000E+00  0.00000000E+00
  0.00000000E+00  0.00000000E+00  0.00000000E+00
  0.00000000E+00  0.00000000E+00  0.00000000E+00
  0.00000000E+00  0.00000000E+00  0.00000000E+00
  0.00000000E+00  0.00000000E+00  0.00000000E+00
  0.00000000E+00  0.00000000E+00  0.00000000E+00
  0.00000000E+00  0.00000000E+00  0.00000000E+00
  0.00000000E+00  0.00000000E+00  0.00000000E+00
  0.00000000E+00  0.00000000E+00  0.00000000E+00
  0.00000000E+00  0.00000000E+00  0.00000000E+00
  0.00000000E+00  0.00000000E+00  0.00000000E+00
  0.00000000E+00  0.00000000E+00  0.00000000E+00
  0.00000000E+00  0.00000000E+00  0.00000000E+00
  0.00000000E+00  0.00000000E+00  0.00000000E+00
  0.00000000E+00  0.00000000E+00  0.00000000E+00
  0.00000000E+00  0.00000000E+00  0.00000000E+00
  0.00000000E+00  0.00000000E+00  0.00000000E+00
  0.00000000E+00  0.00000000E+00  0.00000000E+00
  0.00000000E+00  0.00000000E+00  0.00000000E+00
  0.00000000E+00  0.00000000E+00  0.00000000E+00
  0.00000000E+00  0.00000000E+00  0.00000000E+00
  0.00000000E+00  0.00000000E+00  0.00000000E+00
  0.00000000E+00  0.00000000E+00  0.00000000E+00
  0.00000000E+00  0.00000000E+00  0.00000000E+00
  0.00000000E+00  0.00000000E+00  0.00000000E+00
  0.00000000E+00  0.00000000E+00  0.00000000E+00
  0.00000000E+00  0.00000000E+00  0.00000000E+00
  0.00000000E+00  0.00000000E+00  0.00000000E+00
  0.00000000E+00  0.00000000E+00  0.00000000E+00
  0.00000000E+00  0.00000000E+00  0.00000000E+00
  0.00000000E+00  0.00000000E+00  0.00000000E+00
  0.00000000E+00  0.00000000E+00  0.00000000E+00
  0.00000000E+00  0.00000000E+00  0.00000000E+00
  0.00000000E+00  0.00000000E+00  0.00000000E+00
