Sr10 In4 Cl32                           
   1.00000000000000     
     4.7033303904417449   -7.7631613666024313    0.0000000000000000
     4.7033303904417449    7.7631613666024313    0.0000000000000000
     0.0000000000000000    0.0000000000000000   17.9018722569513002
   Sr   In   Cl
    10     4    32
Direct
  0.0000000000000000  0.0000000000000000  0.7184656681995705
  0.0000000000000000  0.0000000000000000  0.2815343318004295
  0.5000000000000000  0.5000000000000000  0.7815343318004295
  0.5000000000000000  0.5000000000000000  0.2184656681995705
  0.5000000000000000  0.5000000000000000  0.5000000000000000
  0.0000000000000000  0.0000000000000000  0.0000000000000000
  0.0000000000000000  0.5000000000000000  0.6418070878224427
  0.5000000000000000  0.0000000000000000  0.3581929121775573
  0.5000000000000000  0.0000000000000000  0.8581929121775573
  0.0000000000000000  0.5000000000000000  0.1418070878224427
  0.5000000000000000  0.0000000000000000  0.6118811385146685
  0.0000000000000000  0.5000000000000000  0.3881188614853315
  0.0000000000000000  0.5000000000000000  0.8881188614853315
  0.5000000000000000  0.0000000000000000  0.1118811385146685
  0.5458396333358451  0.2060088476245880  0.7144569049305787
  0.4541603666641549  0.7939911523754120  0.7144569049305787
  0.2060088476245880  0.5458396333358451  0.2855430950694213
  0.7939911523754120  0.4541603666641549  0.2855430950694213
  0.9541603666641549  0.2939911523754120  0.7855430950694213
  0.0458396333358451  0.7060088476245880  0.7855430950694213
  0.2939911523754120  0.9541603666641549  0.2144569049305787
  0.7060088476245880  0.0458396333358451  0.2144569049305787
  0.1764155913334591  0.8718009434612384  0.6114123464900700
  0.8235844086665409  0.1281990565387616  0.6114123464900700
  0.8718009434612384  0.1764155913334591  0.3885876535099300
  0.1281990565387616  0.8235844086665409  0.3885876535099300
  0.3235844086665409  0.6281990565387616  0.8885876535099300
  0.6764155913334591  0.3718009434612384  0.8885876535099300
  0.6684303307730062  0.9747754778608595  0.0055023084981514
  0.3315696692269938  0.0252245221391405  0.0055023084981514
  0.9747754778608595  0.6684303307730062  0.9944976915018486
  0.0252245221391405  0.3315696692269938  0.9944976915018486
  0.8315696692269938  0.5252245221391405  0.4944976915018486
  0.1684303307730062  0.4747754778608595  0.4944976915018486
  0.5252245221391405  0.8315696692269938  0.5055023084981514
  0.4747754778608595  0.1684303307730062  0.5055023084981514
  0.8605592979922676  0.7636397934763650  0.1551473539645727
  0.1394407020077324  0.2363602065236350  0.1551473539645727
  0.7636397934763650  0.8605592979922676  0.8448526460354273
  0.2363602065236350  0.1394407020077324  0.8448526460354273
  0.6394407020077324  0.7363602065236350  0.3448526460354273
  0.3605592979922676  0.2636397934763650  0.3448526460354273
  0.7363602065236350  0.6394407020077324  0.6551473539645727
  0.2636397934763650  0.3605592979922676  0.6551473539645727
  0.3718009434612384  0.6764155913334591  0.1114123464900700
  0.6281990565387616  0.3235844086665409  0.1114123464900700
 
  0.00000000E+00  0.00000000E+00  0.00000000E+00
  0.00000000E+00  0.00000000E+00  0.00000000E+00
  0.00000000E+00  0.00000000E+00  0.00000000E+00
  0.00000000E+00  0.00000000E+00  0.00000000E+00
  0.00000000E+00  0.00000000E+00  0.00000000E+00
  0.00000000E+00  0.00000000E+00  0.00000000E+00
  0.00000000E+00  0.00000000E+00  0.00000000E+00
  0.00000000E+00  0.00000000E+00  0.00000000E+00
  0.00000000E+00  0.00000000E+00  0.00000000E+00
  0.00000000E+00  0.00000000E+00  0.00000000E+00
  0.00000000E+00  0.00000000E+00  0.00000000E+00
  0.00000000E+00  0.00000000E+00  0.00000000E+00
  0.00000000E+00  0.00000000E+00  0.00000000E+00
  0.00000000E+00  0.00000000E+00  0.00000000E+00
  0.00000000E+00  0.00000000E+00  0.00000000E+00
  0.00000000E+00  0.00000000E+00  0.00000000E+00
  0.00000000E+00  0.00000000E+00  0.00000000E+00
  0.00000000E+00  0.00000000E+00  0.00000000E+00
  0.00000000E+00  0.00000000E+00  0.00000000E+00
  0.00000000E+00  0.00000000E+00  0.00000000E+00
  0.00000000E+00  0.00000000E+00  0.00000000E+00
  0.00000000E+00  0.00000000E+00  0.00000000E+00
  0.00000000E+00  0.00000000E+00  0.00000000E+00
  0.00000000E+00  0.00000000E+00  0.00000000E+00
  0.00000000E+00  0.00000000E+00  0.00000000E+00
  0.00000000E+00  0.00000000E+00  0.00000000E+00
  0.00000000E+00  0.00000000E+00  0.00000000E+00
  0.00000000E+00  0.00000000E+00  0.00000000E+00
  0.00000000E+00  0.00000000E+00  0.00000000E+00
  0.00000000E+00  0.00000000E+00  0.00000000E+00
  0.00000000E+00  0.00000000E+00  0.00000000E+00
  0.00000000E+00  0.00000000E+00  0.00000000E+00
  0.00000000E+00  0.00000000E+00  0.00000000E+00
  0.00000000E+00  0.00000000E+00  0.00000000E+00
  0.00000000E+00  0.00000000E+00  0.00000000E+00
  0.00000000E+00  0.00000000E+00  0.00000000E+00
  0.00000000E+00  0.00000000E+00  0.00000000E+00
  0.00000000E+00  0.00000000E+00  0.00000000E+00
  0.00000000E+00  0.00000000E+00  0.00000000E+00
  0.00000000E+00  0.00000000E+00  0.00000000E+00
  0.00000000E+00  0.00000000E+00  0.00000000E+00
  0.00000000E+00  0.00000000E+00  0.00000000E+00
  0.00000000E+00  0.00000000E+00  0.00000000E+00
  0.00000000E+00  0.00000000E+00  0.00000000E+00
  0.00000000E+00  0.00000000E+00  0.00000000E+00
  0.00000000E+00  0.00000000E+00  0.00000000E+00
