Be4 In4 F20                             
   1.0000000000000000     
     5.2823645676337714   -0.0000000000000000    0.0000000000000003
    -0.0000000000000003    5.5393310990213811    0.0000000000000003
     0.0000000000000000   -0.0000000000000000   11.4895359786810776
   Be   In   F 
     4     4    20
Direct
  0.6085810107113616  0.3247693074872515  0.3828680594495850
  0.1085810107113616  0.1752306925127485  0.6171319405504150
  0.3914189892886384  0.8247693074872444  0.1171319405504150
  0.8914189892886384  0.6752306925127556  0.8828680594495850
  0.2377324622823380  0.8392066309803212  0.3891071038928331
  0.7377324622823380  0.6607933690196788  0.6108928961071598
  0.7622675377176620  0.3392066309803283  0.1108928961071598
  0.2622675377176620  0.1607933690196788  0.8891071038928331
  0.8822713867206602  0.7336023075053291  0.4405225728160005
  0.3822713867206531  0.7663976924946709  0.5594774271840066
  0.1177286132793398  0.2336023075053291  0.0594774271839995
  0.6177286132793398  0.2663976924946638  0.9405225728159934
  0.1696244403838705  0.8769575757681167  0.2095055700637616
  0.6696244403838705  0.6230424242318833  0.7904944299362313
  0.8303755596161295  0.3769575757681167  0.2904944299362384
  0.3303755596161295  0.1230424242318833  0.7095055700637687
  0.8496255714131280  0.6558360105411936  0.0160358162277419
  0.3496255714131351  0.8441639894588064  0.9839641837722581
  0.1503744285868649  0.1558360105411865  0.4839641837722581
  0.6503744285868720  0.3441639894588135  0.5160358162277419
  0.4471154505824870  0.5534909920741384  0.1406182402122909
  0.9471154505824941  0.9465090079258616  0.8593817597877091
  0.5528845494175059  0.0534909920741384  0.3593817597877091
  0.0528845494175130  0.4465090079258616  0.6406182402122909
  0.1178415178617556  0.5038947129877656  0.8538868480849970
  0.6178415178617556  0.9961052870122344  0.1461131519149959
  0.8821584821382444  0.0038947129877727  0.6461131519150030
  0.3821584821382444  0.4961052870122273  0.3538868480850041

  0.00000000E+00  0.00000000E+00  0.00000000E+00
  0.00000000E+00  0.00000000E+00  0.00000000E+00
  0.00000000E+00  0.00000000E+00  0.00000000E+00
  0.00000000E+00  0.00000000E+00  0.00000000E+00
  0.00000000E+00  0.00000000E+00  0.00000000E+00
  0.00000000E+00  0.00000000E+00  0.00000000E+00
  0.00000000E+00  0.00000000E+00  0.00000000E+00
  0.00000000E+00  0.00000000E+00  0.00000000E+00
  0.00000000E+00  0.00000000E+00  0.00000000E+00
  0.00000000E+00  0.00000000E+00  0.00000000E+00
  0.00000000E+00  0.00000000E+00  0.00000000E+00
  0.00000000E+00  0.00000000E+00  0.00000000E+00
  0.00000000E+00  0.00000000E+00  0.00000000E+00
  0.00000000E+00  0.00000000E+00  0.00000000E+00
  0.00000000E+00  0.00000000E+00  0.00000000E+00
  0.00000000E+00  0.00000000E+00  0.00000000E+00
  0.00000000E+00  0.00000000E+00  0.00000000E+00
  0.00000000E+00  0.00000000E+00  0.00000000E+00
  0.00000000E+00  0.00000000E+00  0.00000000E+00
  0.00000000E+00  0.00000000E+00  0.00000000E+00
  0.00000000E+00  0.00000000E+00  0.00000000E+00
  0.00000000E+00  0.00000000E+00  0.00000000E+00
  0.00000000E+00  0.00000000E+00  0.00000000E+00
  0.00000000E+00  0.00000000E+00  0.00000000E+00
  0.00000000E+00  0.00000000E+00  0.00000000E+00
  0.00000000E+00  0.00000000E+00  0.00000000E+00
  0.00000000E+00  0.00000000E+00  0.00000000E+00
  0.00000000E+00  0.00000000E+00  0.00000000E+00
