Be4 Tl2 Br10                            
   1.0000000000000000     
     9.1165967272990454    0.0010903485390448   -0.1437579830247038
     0.0005603508874368    9.5556418883886920   -0.0530139360038546
     4.4553224690555009    4.7451683872709705    7.2611937659040615
   Br   Be   Tl
    10     4     2
Direct
  0.9645868118134189  0.0028849790946737  0.0055699475687305
  0.4660904267045751  0.4910498510966050  0.0043357997879454
  0.5443470272053617  0.0368376434659012  0.2479438859606518
  0.0468489953656572  0.2189648101533521  0.2430660418064363
  0.7022684920160955  0.5878477222599301  0.2466600011402491
  0.2011806093510771  0.6622673722378636  0.2528889030309429
  0.7954317472580996  0.2904885497851168  0.7485329204631412
  0.2972666049501669  0.4633452344521771  0.7438020245255217
  0.9518101190327073  0.8384609636310429  0.7459087020161164
  0.4521997199912988  0.9123279654853249  0.7524128468518256
  0.2600875541370016  0.3827460978170478  0.9968339213395865
  0.7577500642957986  0.1185263113295463  0.0008614593291796
  0.3690314017995959  0.7031334599571721  0.0032857287300487
  0.8685745578635036  0.7954602736484446  0.9989069822128869
  0.1609776872614859  0.2492751190889564  0.5045960403723910
  0.6612481809541464  0.7460836464968210  0.5043947948643179

  0.00000000E+00  0.00000000E+00  0.00000000E+00
  0.00000000E+00  0.00000000E+00  0.00000000E+00
  0.00000000E+00  0.00000000E+00  0.00000000E+00
  0.00000000E+00  0.00000000E+00  0.00000000E+00
  0.00000000E+00  0.00000000E+00  0.00000000E+00
  0.00000000E+00  0.00000000E+00  0.00000000E+00
  0.00000000E+00  0.00000000E+00  0.00000000E+00
  0.00000000E+00  0.00000000E+00  0.00000000E+00
  0.00000000E+00  0.00000000E+00  0.00000000E+00
  0.00000000E+00  0.00000000E+00  0.00000000E+00
  0.00000000E+00  0.00000000E+00  0.00000000E+00
  0.00000000E+00  0.00000000E+00  0.00000000E+00
  0.00000000E+00  0.00000000E+00  0.00000000E+00
  0.00000000E+00  0.00000000E+00  0.00000000E+00
  0.00000000E+00  0.00000000E+00  0.00000000E+00
  0.00000000E+00  0.00000000E+00  0.00000000E+00
