Sr2                                     
   1.00000000000000     
     4.2408569732545001    0.0000000107007989    0.0000000000000000
    -2.1204279718730517    3.6726887190615054    0.0000000000000000
     0.0000000000000000    0.0000000000000000    7.1769018918906422
   Sr
     2
Direct
  0.3333330000000032  0.6666669999999968  0.2500000000000000
  0.6666669999999968  0.3333330000000032  0.7500000000000000
 
  0.00000000E+00  0.00000000E+00  0.00000000E+00
  0.00000000E+00  0.00000000E+00  0.00000000E+00
