Sr1 B2 Cl6                              
   1.00000000000000     
     5.2834388452242989    5.3198849498740586    9.1390603753508977
    -5.2834388452242989    5.3198849498740586    9.1390603753508977
     0.0000000000000000   -0.9133785228855714    5.3278340334292080
   Sr   Cl   B 
     1     6     2
Direct
  0.0000000000000000  0.0000000000000000  0.0000000000000000
  0.6655402725321267  0.6655402725321267  0.1793584682373819
  0.7648261568101304  0.2389909563295092  0.2492699852446876
  0.2389909563295092  0.7648261568101304  0.2492699852446876
  0.3344597274678733  0.3344597274678733  0.8206415317626181
  0.7610090436704908  0.2351738431898696  0.7507300147553124
  0.2351738431898696  0.7610090436704908  0.7507300147553124
  0.2154974338373421  0.2154974338373421  0.2558563864276948
  0.7845025661626579  0.7845025661626579  0.7441436135723052
 
  0.00000000E+00  0.00000000E+00  0.00000000E+00
  0.00000000E+00  0.00000000E+00  0.00000000E+00
  0.00000000E+00  0.00000000E+00  0.00000000E+00
  0.00000000E+00  0.00000000E+00  0.00000000E+00
  0.00000000E+00  0.00000000E+00  0.00000000E+00
  0.00000000E+00  0.00000000E+00  0.00000000E+00
  0.00000000E+00  0.00000000E+00  0.00000000E+00
  0.00000000E+00  0.00000000E+00  0.00000000E+00
  0.00000000E+00  0.00000000E+00  0.00000000E+00
