Ba1 Ga2 Br8                             
   1.00000000000000     
     4.0412190308463884   11.7909292871072537    4.1169242455318269
    -4.0412190308463884   11.7909292871072555    4.1169242455318269
     0.0000000000000000    6.1168839042882892    7.6608212967580522
   Ba   Ga   Br
     1     2     8
Direct
  0.0000000000000000  0.0000000000000000  0.0000000000000000
  0.2850882123521856  0.2850882123521856  0.7114762381804312
  0.7149117876478144  0.7149117876478144  0.2885237618195688
  0.5774671281151598  0.0993734534843469  0.4702896179731653
  0.8943492394537884  0.8943492394537884  0.9204393714132664
  0.0993734534843469  0.5774671281151598  0.4702896179731653
  0.3414662097049401  0.3414662097049401  0.8106910642041072
  0.9006265465156531  0.4225328718848402  0.5297103820268347
  0.4225328718848402  0.9006265465156531  0.5297103820268347
  0.1056507605462116  0.1056507605462116  0.0795606285867336
  0.6585337902950599  0.6585337902950599  0.1893089357958999
 
  0.00000000E+00  0.00000000E+00  0.00000000E+00
  0.00000000E+00  0.00000000E+00  0.00000000E+00
  0.00000000E+00  0.00000000E+00  0.00000000E+00
  0.00000000E+00  0.00000000E+00  0.00000000E+00
  0.00000000E+00  0.00000000E+00  0.00000000E+00
  0.00000000E+00  0.00000000E+00  0.00000000E+00
  0.00000000E+00  0.00000000E+00  0.00000000E+00
  0.00000000E+00  0.00000000E+00  0.00000000E+00
  0.00000000E+00  0.00000000E+00  0.00000000E+00
  0.00000000E+00  0.00000000E+00  0.00000000E+00
  0.00000000E+00  0.00000000E+00  0.00000000E+00
