Ba2                                     
   1.00000000000000     
     0.0000000000000000    4.4615831444772738   -0.0000000036376254
     0.0000000000000000   -2.2307920952355103    3.8621551248421464
     7.3094283685013792    0.0000000000000000    0.0000000000000000
   Ba
     2
Direct
  0.8329729205365908  0.1659468410731719  0.7500000000000000
  0.1670270794634092  0.8340531589268281  0.2500000000000000
 
  0.00000000E+00  0.00000000E+00  0.00000000E+00
  0.00000000E+00  0.00000000E+00  0.00000000E+00
