Ba4 B4 Cl20                             
   1.0000000000000000     
     7.6675154044328870   -0.0000000000000001    0.0000000000000005
    -0.0000000000000006    7.6122597057412609    0.0000000000000004
     0.0000000000000006    0.0000000000000003   15.6297242591911427
   Ba   B    Cl
     4     4    20
Direct
  0.5529138099596551  0.6178402831562195  0.5944383814387209
  0.0529138099596551  0.8821597168437805  0.4055616185612791
  0.4470861900403449  0.1178402831562195  0.9055616185612791
  0.9470861900403449  0.3821597168437805  0.0944383814387209
  0.3002949577500473  0.1632289529138973  0.6580353073178813
  0.8002949577500473  0.3367710470861098  0.3419646926821258
  0.6997050422499527  0.6632289529138973  0.8419646926821187
  0.1997050422499527  0.8367710470861027  0.1580353073178813
  0.8398766108592213  0.4952892331171839  0.4327538621384619
  0.3398766108592213  0.0047107668828161  0.5672461378615381
  0.1601233891407787  0.9952892331171839  0.0672461378615381
  0.6601233891407787  0.5047107668828161  0.9327538621384619
  0.6688023388669535  0.4414165793831160  0.2581061402193043
  0.1688023388669535  0.0585834206168840  0.7418938597806886
  0.3311976611330465  0.9414165793831160  0.2418938597806886
  0.8311976611330465  0.5585834206168840  0.7581061402193043
  0.1951681040941722  0.3631941491632347  0.6157561321475882
  0.6951681040941722  0.1368058508367724  0.3842438678524118
  0.8048318959058278  0.8631941491632276  0.8842438678524118
  0.3048318959058278  0.6368058508367724  0.1157561321475882
  0.5234683089757937  0.2258423001403145  0.7022878796952412
  0.0234683089757937  0.2741576998596855  0.2977121203047659
  0.4765316910242063  0.7258423001403145  0.7977121203047588
  0.9765316910242063  0.7741576998596855  0.2022878796952341
  0.3478715964151746  0.6396496544613726  0.4345923303792176
  0.8478715964151746  0.8603503455386274  0.5654076696207824
  0.6521284035848254  0.1396496544613584  0.0654076696207824
  0.1521284035848254  0.3603503455386345  0.9345923303792176

  0.00000000E+00  0.00000000E+00  0.00000000E+00
  0.00000000E+00  0.00000000E+00  0.00000000E+00
  0.00000000E+00  0.00000000E+00  0.00000000E+00
  0.00000000E+00  0.00000000E+00  0.00000000E+00
  0.00000000E+00  0.00000000E+00  0.00000000E+00
  0.00000000E+00  0.00000000E+00  0.00000000E+00
  0.00000000E+00  0.00000000E+00  0.00000000E+00
  0.00000000E+00  0.00000000E+00  0.00000000E+00
  0.00000000E+00  0.00000000E+00  0.00000000E+00
  0.00000000E+00  0.00000000E+00  0.00000000E+00
  0.00000000E+00  0.00000000E+00  0.00000000E+00
  0.00000000E+00  0.00000000E+00  0.00000000E+00
  0.00000000E+00  0.00000000E+00  0.00000000E+00
  0.00000000E+00  0.00000000E+00  0.00000000E+00
  0.00000000E+00  0.00000000E+00  0.00000000E+00
  0.00000000E+00  0.00000000E+00  0.00000000E+00
  0.00000000E+00  0.00000000E+00  0.00000000E+00
  0.00000000E+00  0.00000000E+00  0.00000000E+00
  0.00000000E+00  0.00000000E+00  0.00000000E+00
  0.00000000E+00  0.00000000E+00  0.00000000E+00
  0.00000000E+00  0.00000000E+00  0.00000000E+00
  0.00000000E+00  0.00000000E+00  0.00000000E+00
  0.00000000E+00  0.00000000E+00  0.00000000E+00
  0.00000000E+00  0.00000000E+00  0.00000000E+00
  0.00000000E+00  0.00000000E+00  0.00000000E+00
  0.00000000E+00  0.00000000E+00  0.00000000E+00
  0.00000000E+00  0.00000000E+00  0.00000000E+00
  0.00000000E+00  0.00000000E+00  0.00000000E+00
