Tl8 I14                                 
   1.0000000000000000     
     4.2594628326435400   -7.7075856596915271   -0.2581557303420677
    -4.2594628326435400   -7.7075856596915271   -0.2581557303420677
     0.0000000000000000    4.4980230097411544  -16.7924977874056154
   I    Tl
    14     8
Direct
  0.3330374521009958  0.3330374521009958  0.0612752404204286
  0.8838997682471188  0.3597915066082749  0.1637541499033333
  0.3597915066082749  0.8838997682471188  0.1637541499033333
  0.8892523436144444  0.8892523436144444  0.1647529589572585
  0.6734679325393671  0.1594940183705802  0.3857139600604853
  0.1594940183705802  0.6734679325393671  0.3857139600604853
  0.6593306042216582  0.6593306042216582  0.4184113667444578
  0.3420616804656902  0.3420616804656902  0.5814869366871491
  0.8419756274375771  0.3282490473471711  0.6147270304851205
  0.3282490473471711  0.8419756274375771  0.6147270304851205
  0.1095378552063337  0.1095378552063337  0.8359619469976920
  0.6387441524952635  0.1149921986516986  0.8354505011076085
  0.1149921986516986  0.6387441524952635  0.8354505011076085
  0.6674538537254904  0.6674538537254904  0.9386820525853068
  0.9982643002173219  0.9982643002173219  0.9997549383443385
  0.7026836768706772  0.7026836768706772  0.1041954518331636
  0.4913066376033015  0.4913066376033015  0.2518897580796917
  0.1228027778005085  0.1228027778005085  0.4668491314060574
  0.5008309375218758  0.5008309375218758  0.5002318722958634
  0.8779333886587750  0.8779333886587750  0.5331831965644014
  0.5093543384479062  0.5093543384479062  0.7481335864333758
  0.2963359018479608  0.2963359018479608  0.8956002795377245

  0.00000000E+00  0.00000000E+00 -0.00000000E+00
  0.00000000E+00  0.00000000E+00 -0.00000000E+00
  0.00000000E+00  0.00000000E+00 -0.00000000E+00
  0.00000000E+00  0.00000000E+00 -0.00000000E+00
  0.00000000E+00  0.00000000E+00 -0.00000000E+00
  0.00000000E+00  0.00000000E+00 -0.00000000E+00
  0.00000000E+00  0.00000000E+00 -0.00000000E+00
  0.00000000E+00  0.00000000E+00 -0.00000000E+00
  0.00000000E+00  0.00000000E+00 -0.00000000E+00
  0.00000000E+00  0.00000000E+00 -0.00000000E+00
  0.00000000E+00  0.00000000E+00 -0.00000000E+00
  0.00000000E+00  0.00000000E+00 -0.00000000E+00
  0.00000000E+00  0.00000000E+00 -0.00000000E+00
  0.00000000E+00  0.00000000E+00 -0.00000000E+00
  0.00000000E+00  0.00000000E+00 -0.00000000E+00
  0.00000000E+00  0.00000000E+00 -0.00000000E+00
  0.00000000E+00  0.00000000E+00 -0.00000000E+00
  0.00000000E+00  0.00000000E+00 -0.00000000E+00
  0.00000000E+00  0.00000000E+00 -0.00000000E+00
  0.00000000E+00  0.00000000E+00 -0.00000000E+00
  0.00000000E+00  0.00000000E+00 -0.00000000E+00
  0.00000000E+00  0.00000000E+00 -0.00000000E+00
