Ba10 Al12                               
   1.00000000000000     
    -3.9842430446680299   -6.9011746962942970    0.0000000000000000
    -3.9847434329590814    6.9014631902249191    0.0000000000000000
     0.0000000000000000    0.0000000000000000  -14.3375696177265173
   Ba   Al
    10    12
Direct
  0.7085122886257764  0.6665647711558620  0.2500000000000000
  0.9580569603794729  0.2914949090155545  0.2500000000000000
  0.3334431893036509  0.0419449362983428  0.2500000000000000
  0.9563275294305171  0.6667049242311478  0.7500000000000000
  0.3332867570352747  0.2896110982407620  0.7500000000000000
  0.7103785244832608  0.0436653325759622  0.7500000000000000
  0.0000007486886773  0.9999993910980223  0.0001931484539668
  0.0000007486886773  0.9999993910980223  0.4998068515460332
  0.6666723538079893  0.3333327848360881  0.9999029845130778
  0.6666723538079893  0.3333327848360881  0.5000970154869222
  0.5313615390886994  0.8648117776533866  0.0794905370786765
  0.3334627218552484  0.4686344284903043  0.0794958874486724
  0.1351889207097798  0.6665404505305048  0.0794927593627150
  0.5313615390886994  0.8648117776533866  0.4205094629213235
  0.3334627218552484  0.4686344284903043  0.4205041125513276
  0.1351889207097798  0.6665404505305048  0.4205072406372850
  0.3331983954214834  0.8648061984224356  0.5803102203599124
  0.1352003669454689  0.4683865694887928  0.5803081969849444
  0.5316123288536687  0.6667954137216583  0.5803102264063611
  0.3331983954214834  0.8648061984224356  0.9196897796400876
  0.1352003669454689  0.4683865694887928  0.9196918030150556
  0.5316123288536687  0.6667954137216583  0.9196897735936389
 
  0.00000000E+00  0.00000000E+00  0.00000000E+00
  0.00000000E+00  0.00000000E+00  0.00000000E+00
  0.00000000E+00  0.00000000E+00  0.00000000E+00
  0.00000000E+00  0.00000000E+00  0.00000000E+00
  0.00000000E+00  0.00000000E+00  0.00000000E+00
  0.00000000E+00  0.00000000E+00  0.00000000E+00
  0.00000000E+00  0.00000000E+00  0.00000000E+00
  0.00000000E+00  0.00000000E+00  0.00000000E+00
  0.00000000E+00  0.00000000E+00  0.00000000E+00
  0.00000000E+00  0.00000000E+00  0.00000000E+00
  0.00000000E+00  0.00000000E+00  0.00000000E+00
  0.00000000E+00  0.00000000E+00  0.00000000E+00
  0.00000000E+00  0.00000000E+00  0.00000000E+00
  0.00000000E+00  0.00000000E+00  0.00000000E+00
  0.00000000E+00  0.00000000E+00  0.00000000E+00
  0.00000000E+00  0.00000000E+00  0.00000000E+00
  0.00000000E+00  0.00000000E+00  0.00000000E+00
  0.00000000E+00  0.00000000E+00  0.00000000E+00
  0.00000000E+00  0.00000000E+00  0.00000000E+00
  0.00000000E+00  0.00000000E+00  0.00000000E+00
  0.00000000E+00  0.00000000E+00  0.00000000E+00
  0.00000000E+00  0.00000000E+00  0.00000000E+00
