Sr1 B2 I10                              
   1.00000000000000     
     5.8236281462252180    5.7329279904487720    0.8602961954427252
    -5.8236281462252180    5.7329279904487720    0.8602961954427252
     0.0000000000000000    5.5595200568594922    9.7687371304363086
   Sr   B    I 
     1     2    10
Direct
  0.6515907694959679  0.3484092305040321  0.0000000000000000
  0.0202220275982725  0.8672872458435705  0.7116597585191045
  0.1327127541564295  0.9797779724017275  0.2883402414808955
  0.1696013405572785  0.1424214930786363  0.6584646734737234
  0.8575785069213637  0.8303986594427215  0.3415353265262766
  0.7201333175153692  0.8457263748903827  0.7854503759532676
  0.1542736251096173  0.2798666824846308  0.2145496240467324
  0.9612541671199963  0.0387458328800037  0.0000000000000000
  0.1751144820872952  0.8248855179127048  0.5000000000000000
  0.6651559937012763  0.4113169222495117  0.6955326549628253
  0.5886830777504883  0.3348440062987237  0.3044673450371747
  0.0755365897898486  0.6278576518032324  0.8742588409045098
  0.3721423481967676  0.9244634102101514  0.1257411590954902
 
  0.00000000E+00  0.00000000E+00  0.00000000E+00
  0.00000000E+00  0.00000000E+00  0.00000000E+00
  0.00000000E+00  0.00000000E+00  0.00000000E+00
  0.00000000E+00  0.00000000E+00  0.00000000E+00
  0.00000000E+00  0.00000000E+00  0.00000000E+00
  0.00000000E+00  0.00000000E+00  0.00000000E+00
  0.00000000E+00  0.00000000E+00  0.00000000E+00
  0.00000000E+00  0.00000000E+00  0.00000000E+00
  0.00000000E+00  0.00000000E+00  0.00000000E+00
  0.00000000E+00  0.00000000E+00  0.00000000E+00
  0.00000000E+00  0.00000000E+00  0.00000000E+00
  0.00000000E+00  0.00000000E+00  0.00000000E+00
  0.00000000E+00  0.00000000E+00  0.00000000E+00
