Ca10 Tl6 Cl38                           
   1.0000000000000000     
    -9.1732283461807711    9.1732273978825027    4.8421455486417608
     9.1732283461807711   -9.1732273978825027    4.8421455486417608
     9.1732273978825027    9.1732283461807711   -4.8421455486417608
   Ca   Tl   Cl
    10     6    38
Direct
  0.7760588662745818  0.9768450928303878  0.7529039591049695
  0.2239411337254182  0.0231549071696122  0.2470960408950305
  0.9768450928303878  0.2239411337254182  0.2007862265558060
  0.0231549071696122  0.7760588662745818  0.7992137734441940
  0.5813953286686697  0.2012395131157874  0.7826348417844642
  0.4186046713313303  0.7987604868842126  0.2173651582155358
  0.2012395131157874  0.4186046713313303  0.6198441844471105
  0.7987604868842126  0.5813953286686697  0.3801558155528895
  0.7500000000000000  0.2500000000000000  0.5000000000000000
  0.2500000000000000  0.7500000000000000  0.5000000000000000
  0.7962814787230954  0.3668619262304418  0.1631424049535539
  0.2037185212769046  0.6331380737695582  0.8368575950464461
  0.3668619262304418  0.2037185212769046  0.5705804475073606
  0.6331380737695582  0.7962814787230954  0.4294195524926394
  0.7522244135610876  0.7522244135610876  0.0000000000000000
  0.2477755864389124  0.2477755864389124  0.0000000000000000
  0.4227713528263877  0.7100427270651437  0.7901013375422750
  0.5772286471736123  0.2899572729348563  0.2098986624577250
  0.9199403895228784  0.6326700152841127  0.2098986624577250
  0.7100427270651437  0.9199403895228784  0.2872713742387631
  0.0800596104771216  0.3673299847158873  0.7901013375422750
  0.2899572729348563  0.0800596104771216  0.7127286257612298
  0.6326700152841127  0.4227713528263877  0.7127286257612298
  0.3673299847158873  0.5772286471736123  0.2872713742387631
  0.7187773855187771  0.9180439982051212  0.0523166952559819
  0.2812226144812229  0.0819560017948859  0.9476833047440181
  0.8657273029491463  0.6664606902627952  0.9476833047440181
  0.9180439982051141  0.8657273029491463  0.1992666126863512
  0.1342726970508537  0.3335393097372048  0.0523166952559819
  0.0819560017948859  0.1342726970508537  0.8007333873136488
  0.6664606902627952  0.7187773855187771  0.8007333873136488
  0.3335393097372048  0.2812226144812229  0.1992666126863512
  0.6642592949545332  0.0747463840363451  0.7390056789908783
  0.3357407050454668  0.9252536159636549  0.2609943210091217
  0.0747463840363451  0.3357407050454668  0.4104870890818262
  0.9252536159636549  0.6642592949545332  0.5895129109181738
  0.0000000000000000  0.0000000000000000  0.0000000000000000
  0.9162198352602644  0.4828682938337465  0.3990881290940251
  0.0837801647397356  0.5171317061662535  0.6009118709059749
  0.4828682938337465  0.0837801647397356  0.5666474585734846
  0.5171317061662535  0.9162198352602644  0.4333525414265154
  0.7112288217673424  0.1338193682996405  0.2086721735504895
  0.2887711782326576  0.8661806317003595  0.7913278264495105
  0.9251471947491510  0.5025566482168458  0.7913278264495105
  0.1338193682996405  0.9251471947491510  0.4225915465323098
  0.0748528052508490  0.4974433517831542  0.2086721735504895
  0.8661806317003595  0.0748528052508490  0.5774084534676902
  0.5025566482168458  0.7112288217673424  0.5774084534676902
  0.4974433517831542  0.2887711782326576  0.4225915465323098
  0.7218974949092427  0.2516673662945763  0.9735648612038403
  0.2781025050907573  0.7483326337054237  0.0264351387961597
  0.2516673662945763  0.2781025050907573  0.5297698713853265
  0.7483326337054237  0.7218974949092427  0.4702301286146735
  0.5000000000000000  0.5000000000000000  0.0000000000000000

  0.00000000E+00  0.00000000E+00  0.00000000E+00
  0.00000000E+00  0.00000000E+00  0.00000000E+00
  0.00000000E+00  0.00000000E+00  0.00000000E+00
  0.00000000E+00  0.00000000E+00  0.00000000E+00
  0.00000000E+00  0.00000000E+00  0.00000000E+00
  0.00000000E+00  0.00000000E+00  0.00000000E+00
  0.00000000E+00  0.00000000E+00  0.00000000E+00
  0.00000000E+00  0.00000000E+00  0.00000000E+00
  0.00000000E+00  0.00000000E+00  0.00000000E+00
  0.00000000E+00  0.00000000E+00  0.00000000E+00
  0.00000000E+00  0.00000000E+00  0.00000000E+00
  0.00000000E+00  0.00000000E+00  0.00000000E+00
  0.00000000E+00  0.00000000E+00  0.00000000E+00
  0.00000000E+00  0.00000000E+00  0.00000000E+00
  0.00000000E+00  0.00000000E+00  0.00000000E+00
  0.00000000E+00  0.00000000E+00  0.00000000E+00
  0.00000000E+00  0.00000000E+00  0.00000000E+00
  0.00000000E+00  0.00000000E+00  0.00000000E+00
  0.00000000E+00  0.00000000E+00  0.00000000E+00
  0.00000000E+00  0.00000000E+00  0.00000000E+00
  0.00000000E+00  0.00000000E+00  0.00000000E+00
  0.00000000E+00  0.00000000E+00  0.00000000E+00
  0.00000000E+00  0.00000000E+00  0.00000000E+00
  0.00000000E+00  0.00000000E+00  0.00000000E+00
  0.00000000E+00  0.00000000E+00  0.00000000E+00
  0.00000000E+00  0.00000000E+00  0.00000000E+00
  0.00000000E+00  0.00000000E+00  0.00000000E+00
  0.00000000E+00  0.00000000E+00  0.00000000E+00
  0.00000000E+00  0.00000000E+00  0.00000000E+00
  0.00000000E+00  0.00000000E+00  0.00000000E+00
  0.00000000E+00  0.00000000E+00  0.00000000E+00
  0.00000000E+00  0.00000000E+00  0.00000000E+00
  0.00000000E+00  0.00000000E+00  0.00000000E+00
  0.00000000E+00  0.00000000E+00  0.00000000E+00
  0.00000000E+00  0.00000000E+00  0.00000000E+00
  0.00000000E+00  0.00000000E+00  0.00000000E+00
  0.00000000E+00  0.00000000E+00  0.00000000E+00
  0.00000000E+00  0.00000000E+00  0.00000000E+00
  0.00000000E+00  0.00000000E+00  0.00000000E+00
  0.00000000E+00  0.00000000E+00  0.00000000E+00
  0.00000000E+00  0.00000000E+00  0.00000000E+00
  0.00000000E+00  0.00000000E+00  0.00000000E+00
  0.00000000E+00  0.00000000E+00  0.00000000E+00
  0.00000000E+00  0.00000000E+00  0.00000000E+00
  0.00000000E+00  0.00000000E+00  0.00000000E+00
  0.00000000E+00  0.00000000E+00  0.00000000E+00
  0.00000000E+00  0.00000000E+00  0.00000000E+00
  0.00000000E+00  0.00000000E+00  0.00000000E+00
  0.00000000E+00  0.00000000E+00  0.00000000E+00
  0.00000000E+00  0.00000000E+00  0.00000000E+00
  0.00000000E+00  0.00000000E+00  0.00000000E+00
  0.00000000E+00  0.00000000E+00  0.00000000E+00
  0.00000000E+00  0.00000000E+00  0.00000000E+00
  0.00000000E+00  0.00000000E+00  0.00000000E+00
