Sr16 Al6                                
   1.00000000000000     
    10.1829200715498978    0.0164578285490565    0.0090931900142299
     5.1111254268747821    8.8713258355895377    0.0038975263986162
     2.0178305944737587    2.9808100818238912    9.6423480242621586
   Sr   Al
    16     6
Direct
  0.6483998165523417  0.2667880218456915  0.1051468668502906
  0.0525155174299528  0.6184314661381833  0.1127579441945059
  0.2898606894290694  0.0088218553843475  0.1108785248178492
  0.6641635107003978  0.7841407647019807  0.2957116222966008
  0.8743594953877221  0.3493581429254178  0.2986950790580636
  0.4017186949566707  0.5613222991506888  0.3312356842563560
  0.3307005857847471  0.1994849467299531  0.3529539444538372
  0.9726637321873213  0.9017820224637561  0.3516922336916011
  0.0273682997298010  0.0982930677306939  0.6482876838771645
  0.6693077954784528  0.8005390412374140  0.6470331564346310
  0.5983246443453112  0.4386715404519066  0.6687847066092303
  0.1256530961646902  0.6506919816905565  0.7012698805941255
  0.3358740290498829  0.2158856398649291  0.7042886080030470
  0.7102130618338833  0.9911689148663498  0.8890953508411528
  0.9475247698160629  0.3816199553262578  0.8872575868558101
  0.3516013993176514  0.7332445884002396  0.8948187072743607
  0.0000115985248357  0.0000311845472893  0.9999967954899347
  0.6632320326585770  0.6602754109821873  0.0257902056747525
  0.3371638164351225  0.8343055125089478  0.4990636246349069
  0.0000291687478082  0.5000191659127680  0.4999899443477176
  0.6628716506337753  0.1657098774917074  0.5009296176886977
  0.3367425948359255  0.3397735996487370  0.9742222320553751
 
  0.00000000E+00  0.00000000E+00  0.00000000E+00
  0.00000000E+00  0.00000000E+00  0.00000000E+00
  0.00000000E+00  0.00000000E+00  0.00000000E+00
  0.00000000E+00  0.00000000E+00  0.00000000E+00
  0.00000000E+00  0.00000000E+00  0.00000000E+00
  0.00000000E+00  0.00000000E+00  0.00000000E+00
  0.00000000E+00  0.00000000E+00  0.00000000E+00
  0.00000000E+00  0.00000000E+00  0.00000000E+00
  0.00000000E+00  0.00000000E+00  0.00000000E+00
  0.00000000E+00  0.00000000E+00  0.00000000E+00
  0.00000000E+00  0.00000000E+00  0.00000000E+00
  0.00000000E+00  0.00000000E+00  0.00000000E+00
  0.00000000E+00  0.00000000E+00  0.00000000E+00
  0.00000000E+00  0.00000000E+00  0.00000000E+00
  0.00000000E+00  0.00000000E+00  0.00000000E+00
  0.00000000E+00  0.00000000E+00  0.00000000E+00
  0.00000000E+00  0.00000000E+00  0.00000000E+00
  0.00000000E+00  0.00000000E+00  0.00000000E+00
  0.00000000E+00  0.00000000E+00  0.00000000E+00
  0.00000000E+00  0.00000000E+00  0.00000000E+00
  0.00000000E+00  0.00000000E+00  0.00000000E+00
  0.00000000E+00  0.00000000E+00  0.00000000E+00
