Mg10 Tl6                                
   1.0000000000000000     
     6.2381941008524597    0.0000000000000000    0.0000000000000000
     0.0000000000000000    8.5078145783666290    0.0524114912326333
     0.0000000000000000   -4.2065960017853152    7.3915232403791125
   Mg   Tl
    10     6
Direct
  0.2500000000000000  0.2253412693544590  0.9945418109588218
  0.7500000000000000  0.7746587306455410  0.0054581890411782
  0.2500000000000000  0.9949204425531946  0.2247135636896189
  0.7500000000000000  0.2303962974515343  0.2307701372426365
  0.5000050531213418  0.6674450628192403  0.3324781894570066
  0.9999949468786582  0.6674450628192403  0.3324781894570066
  0.4999949468786582  0.3325549371807597  0.6675218105429934
  0.0000050531213418  0.3325549371807597  0.6675218105429934
  0.7500000000000000  0.0050795574468054  0.7752864363103811
  0.2500000000000000  0.7696037025484657  0.7692298627573635
  0.7500000000000000  0.4019988636966474  0.0043152099699242
  0.2500000000000000  0.5980011363033526  0.9956847900300758
  0.7500000000000000  0.0041892509359513  0.4024766564323272
  0.2500000000000000  0.3949915984518810  0.3948663457946608
  0.7500000000000000  0.6050084015481190  0.6051336542053392
  0.2500000000000000  0.9958107490640487  0.5975233435676728

  0.00000000E+00  0.00000000E+00  0.00000000E+00
  0.00000000E+00  0.00000000E+00  0.00000000E+00
  0.00000000E+00  0.00000000E+00  0.00000000E+00
  0.00000000E+00  0.00000000E+00  0.00000000E+00
  0.00000000E+00  0.00000000E+00  0.00000000E+00
  0.00000000E+00  0.00000000E+00  0.00000000E+00
  0.00000000E+00  0.00000000E+00  0.00000000E+00
  0.00000000E+00  0.00000000E+00  0.00000000E+00
  0.00000000E+00  0.00000000E+00  0.00000000E+00
  0.00000000E+00  0.00000000E+00  0.00000000E+00
  0.00000000E+00  0.00000000E+00  0.00000000E+00
  0.00000000E+00  0.00000000E+00  0.00000000E+00
  0.00000000E+00  0.00000000E+00  0.00000000E+00
  0.00000000E+00  0.00000000E+00  0.00000000E+00
  0.00000000E+00  0.00000000E+00  0.00000000E+00
  0.00000000E+00  0.00000000E+00  0.00000000E+00
