Ca22 Al14                               
   1.00000000000000     
    -8.1857622394735916    8.1859683056211221    0.0000231975738257
     8.1857850742142588    0.0000000000000000   -8.1860935188554400
    -8.1857622394735916   -8.1859683056211221    0.0000231975738257
   Ca   Al
    22    14
Direct
  0.9999855315761721  0.0000006395828080  0.9999855315761721
  0.3869247401808167  0.2580127712250970  0.1289775247634921
  0.8710554253347880  0.2580173993161097  0.1289981857876938
  0.8709678808193786  0.7419726534995021  0.1289117740221428
  0.4999828113437133  0.0000035648481287  0.1649306048978758
  0.1649411218986003  0.6650381483417078  0.1649411218986003
  0.5000308212996956  0.6650103476848486  0.1649505737887083
  0.1289775247634921  0.2580127712250970  0.3869247401808167
  0.1649306048978758  0.0000035648481287  0.4999828113437133
  0.4999906807220782  0.0000015648518428  0.4999906807220782
  0.8350555865784770  0.0000089649186137  0.4999959700371619
  0.4999452005865379  0.3349979025027210  0.4999452005865379
  0.8350330614636405  0.3349875941143949  0.4999426278274228
  0.1649505737887083  0.6650103476848486  0.5000308212996956
  0.5000171555738433  0.6649972568312847  0.5000171555738433
  0.8709844393364961  0.7419897198335903  0.6130482122868770
  0.4999959700371619  0.0000089649186137  0.8350555865784770
  0.4999426278274228  0.3349875941143949  0.8350330614636405
  0.8350204349843011  0.3349671556708742  0.8350204349843011
  0.1289981857876938  0.2580173993161097  0.8710554253347880
  0.1289117740221428  0.7419726534995021  0.8709678808193786
  0.6130482122868770  0.7419897198335903  0.8709844393364961
  0.6917082477211309  0.3834254070467153  0.0751352009635227
  0.2197041002246820  0.0000497739614218  0.2197041002246820
  0.7802194635528465  0.9999767050551895  0.2197338976886059
  0.2199657026001347  0.4400250452453847  0.2199657026001347
  0.6917109242941635  0.3834390932496419  0.3083223203473722
  0.6916918210414025  0.6165716158249808  0.3082836879083217
  0.9249079540843894  0.6165885959602093  0.3083110959597519
  0.0751352009635227  0.3834254070467153  0.6917082477211309
  0.3083223203473722  0.3834390932496419  0.6917109242941635
  0.3082836879083217  0.6165716158249808  0.6916918210414025
  0.2197338976886059  0.9999767050551895  0.7802194635528465
  0.7802358482325289  0.9999386120627918  0.7802358482325289
  0.7799793702712208  0.5599750357950981  0.7799793702712208
  0.3083110959597519  0.6165885959602093  0.9249079540843894
 
  0.00000000E+00  0.00000000E+00  0.00000000E+00
  0.00000000E+00  0.00000000E+00  0.00000000E+00
  0.00000000E+00  0.00000000E+00  0.00000000E+00
  0.00000000E+00  0.00000000E+00  0.00000000E+00
  0.00000000E+00  0.00000000E+00  0.00000000E+00
  0.00000000E+00  0.00000000E+00  0.00000000E+00
  0.00000000E+00  0.00000000E+00  0.00000000E+00
  0.00000000E+00  0.00000000E+00  0.00000000E+00
  0.00000000E+00  0.00000000E+00  0.00000000E+00
  0.00000000E+00  0.00000000E+00  0.00000000E+00
  0.00000000E+00  0.00000000E+00  0.00000000E+00
  0.00000000E+00  0.00000000E+00  0.00000000E+00
  0.00000000E+00  0.00000000E+00  0.00000000E+00
  0.00000000E+00  0.00000000E+00  0.00000000E+00
  0.00000000E+00  0.00000000E+00  0.00000000E+00
  0.00000000E+00  0.00000000E+00  0.00000000E+00
  0.00000000E+00  0.00000000E+00  0.00000000E+00
  0.00000000E+00  0.00000000E+00  0.00000000E+00
  0.00000000E+00  0.00000000E+00  0.00000000E+00
  0.00000000E+00  0.00000000E+00  0.00000000E+00
  0.00000000E+00  0.00000000E+00  0.00000000E+00
  0.00000000E+00  0.00000000E+00  0.00000000E+00
  0.00000000E+00  0.00000000E+00  0.00000000E+00
  0.00000000E+00  0.00000000E+00  0.00000000E+00
  0.00000000E+00  0.00000000E+00  0.00000000E+00
  0.00000000E+00  0.00000000E+00  0.00000000E+00
  0.00000000E+00  0.00000000E+00  0.00000000E+00
  0.00000000E+00  0.00000000E+00  0.00000000E+00
  0.00000000E+00  0.00000000E+00  0.00000000E+00
  0.00000000E+00  0.00000000E+00  0.00000000E+00
  0.00000000E+00  0.00000000E+00  0.00000000E+00
  0.00000000E+00  0.00000000E+00  0.00000000E+00
  0.00000000E+00  0.00000000E+00  0.00000000E+00
  0.00000000E+00  0.00000000E+00  0.00000000E+00
  0.00000000E+00  0.00000000E+00  0.00000000E+00
  0.00000000E+00  0.00000000E+00  0.00000000E+00
