Be4 B4 Cl20                             
   1.0000000000000000     
     7.6297793258329420   -0.0000000000000001    0.0000000000000008
    -0.0000000000000006    6.6702850252345334    0.0000000000000006
     0.0000000000000009    0.0000000000000002   21.4278575889382203
   Be   B    Cl
     4     4    20
Direct
  0.5090362942484177  0.2953632298720521  0.3459256975117384
  0.0090362942484248  0.2046367701279479  0.6540743024882616
  0.4909637057515681  0.7953632298720521  0.1540743024882616
  0.9909637057515681  0.7046367701279408  0.8459256975117384
  0.0106448922377993  0.8377616683861220  0.3834934270123043
  0.5106448922377993  0.6622383316138780  0.6165065729876886
  0.9893551077622007  0.3377616683861220  0.1165065729876886
  0.4893551077622078  0.1622383316138780  0.8834934270123043
  0.9918450242860999  0.6720412119752623  0.4460986476629500
  0.4918450242860928  0.8279587880247377  0.5539013523370500
  0.0081549757139001  0.1720412119752552  0.0539013523370500
  0.5081549757139001  0.3279587880247448  0.9460986476629500
  0.0091490495266981  0.7476684301554855  0.3070863268588084
  0.5091490495266981  0.7523315698445145  0.6929136731411916
  0.9908509504733019  0.2476684301554855  0.1929136731411916
  0.4908509504733019  0.2523315698445145  0.8070863268588084
  0.9695480763061894  0.5953438637715962  0.1024510914171088
  0.4695480763061894  0.9046561362284038  0.8975489085828912
  0.0304519236938106  0.0953438637715962  0.3975489085828912
  0.5304519236938106  0.4046561362284038  0.6024510914171088
  0.4728507968839111  0.5610399918598574  0.1959986260604865
  0.9728507968839111  0.9389600081401426  0.8040013739395135
  0.5271492031160889  0.0610399918598574  0.3040013739395135
  0.0271492031160889  0.4389600081401426  0.6959986260604865
  0.0075618401055664  0.4822089209605807  0.8932717856363084
  0.5075618401055664  0.0177910790394193  0.1067282143636916
  0.9924381598944336  0.9822089209605807  0.6067282143636916
  0.4924381598944336  0.5177910790394193  0.3932717856363084

  0.00000000E+00  0.00000000E+00  0.00000000E+00
  0.00000000E+00  0.00000000E+00  0.00000000E+00
  0.00000000E+00  0.00000000E+00  0.00000000E+00
  0.00000000E+00  0.00000000E+00  0.00000000E+00
  0.00000000E+00  0.00000000E+00  0.00000000E+00
  0.00000000E+00  0.00000000E+00  0.00000000E+00
  0.00000000E+00  0.00000000E+00  0.00000000E+00
  0.00000000E+00  0.00000000E+00  0.00000000E+00
  0.00000000E+00  0.00000000E+00  0.00000000E+00
  0.00000000E+00  0.00000000E+00  0.00000000E+00
  0.00000000E+00  0.00000000E+00  0.00000000E+00
  0.00000000E+00  0.00000000E+00  0.00000000E+00
  0.00000000E+00  0.00000000E+00  0.00000000E+00
  0.00000000E+00  0.00000000E+00  0.00000000E+00
  0.00000000E+00  0.00000000E+00  0.00000000E+00
  0.00000000E+00  0.00000000E+00  0.00000000E+00
  0.00000000E+00  0.00000000E+00  0.00000000E+00
  0.00000000E+00  0.00000000E+00  0.00000000E+00
  0.00000000E+00  0.00000000E+00  0.00000000E+00
  0.00000000E+00  0.00000000E+00  0.00000000E+00
  0.00000000E+00  0.00000000E+00  0.00000000E+00
  0.00000000E+00  0.00000000E+00  0.00000000E+00
  0.00000000E+00  0.00000000E+00  0.00000000E+00
  0.00000000E+00  0.00000000E+00  0.00000000E+00
  0.00000000E+00  0.00000000E+00  0.00000000E+00
  0.00000000E+00  0.00000000E+00  0.00000000E+00
  0.00000000E+00  0.00000000E+00  0.00000000E+00
  0.00000000E+00  0.00000000E+00  0.00000000E+00
