Ca4 B4 I20                              
   1.0000000000000000     
     9.1799765626853578    0.0000000000000001    0.0000000000000007
    -0.0000000000000007    8.6831025036269995    0.0000000000000006
     0.0000000000000006    0.0000000000000003   19.9945383041273246
   Ca   B    I 
     4     4    20
Direct
  0.6326275511365935  0.3615312903291539  0.2917714019769093
  0.1326275511365935  0.1384687096708461  0.7082285980230907
  0.3673724488633994  0.8615312903291539  0.2082285980230907
  0.8673724488633994  0.6384687096708461  0.7917714019769093
  0.0940536680116182  0.7992394148943234  0.3806579960026397
  0.5940536680116111  0.7007605851056766  0.6193420039973461
  0.9059463319883889  0.2992394148943234  0.1193420039973461
  0.4059463319883818  0.2007605851056766  0.8806579960026468
  0.6724991360713446  0.5320688951197283  0.5529501772046643
  0.1724991360713375  0.9679311048802717  0.4470498227953357
  0.3275008639286625  0.0320688951197283  0.9470498227953357
  0.8275008639286554  0.4679311048802717  0.0529501772046643
  0.0480701557696079  0.8632555038851280  0.2769085603790060
  0.5480701557696079  0.6367444961148720  0.7230914396209869
  0.9519298442303921  0.3632555038851280  0.2230914396209940
  0.4519298442303921  0.1367444961148720  0.7769085603790131
  0.2809930124195219  0.7096722949385068  0.0865492003050079
  0.7809930124195219  0.7903277050614932  0.9134507996949992
  0.7190069875804781  0.2096722949385068  0.4134507996949992
  0.2190069875804781  0.2903277050614932  0.5865492003050008
  0.5504425465264333  0.6963034777361372  0.3114060704478661
  0.0504425465264404  0.8036965222638628  0.6885939295521339
  0.4495574534735596  0.1963034777361372  0.1885939295521339
  0.9495574534735667  0.3036965222638628  0.8114060704478661
  0.4549460130314174  0.4288501559237474  0.9103667077689366
  0.9549460130314174  0.0711498440762526  0.0896332922310705
  0.5450539869685826  0.9288501559237474  0.5896332922310634
  0.0450539869685826  0.5711498440762526  0.4103667077689295

  0.00000000E+00  0.00000000E+00  0.00000000E+00
  0.00000000E+00  0.00000000E+00  0.00000000E+00
  0.00000000E+00  0.00000000E+00  0.00000000E+00
  0.00000000E+00  0.00000000E+00  0.00000000E+00
  0.00000000E+00  0.00000000E+00  0.00000000E+00
  0.00000000E+00  0.00000000E+00  0.00000000E+00
  0.00000000E+00  0.00000000E+00  0.00000000E+00
  0.00000000E+00  0.00000000E+00  0.00000000E+00
  0.00000000E+00  0.00000000E+00  0.00000000E+00
  0.00000000E+00  0.00000000E+00  0.00000000E+00
  0.00000000E+00  0.00000000E+00  0.00000000E+00
  0.00000000E+00  0.00000000E+00  0.00000000E+00
  0.00000000E+00  0.00000000E+00  0.00000000E+00
  0.00000000E+00  0.00000000E+00  0.00000000E+00
  0.00000000E+00  0.00000000E+00  0.00000000E+00
  0.00000000E+00  0.00000000E+00  0.00000000E+00
  0.00000000E+00  0.00000000E+00  0.00000000E+00
  0.00000000E+00  0.00000000E+00  0.00000000E+00
  0.00000000E+00  0.00000000E+00  0.00000000E+00
  0.00000000E+00  0.00000000E+00  0.00000000E+00
  0.00000000E+00  0.00000000E+00  0.00000000E+00
  0.00000000E+00  0.00000000E+00  0.00000000E+00
  0.00000000E+00  0.00000000E+00  0.00000000E+00
  0.00000000E+00  0.00000000E+00  0.00000000E+00
  0.00000000E+00  0.00000000E+00  0.00000000E+00
  0.00000000E+00  0.00000000E+00  0.00000000E+00
  0.00000000E+00  0.00000000E+00  0.00000000E+00
  0.00000000E+00  0.00000000E+00  0.00000000E+00
