Ba16 Al6                                
   1.00000000000000     
    10.6373267854730802    0.0007154850561894   -0.0354073078295652
     5.3249053977606140    9.2343733134809103   -0.0038743182486735
     2.0600456766585382    3.1181468534183101   10.0354639506766397
   Ba   Al
    16     6
Direct
  0.6521852337263496  0.2651747133908771  0.1050229001008205
  0.0529859160503818  0.6208267877213842  0.1134032206238871
  0.2909423382481364  0.0076891389773976  0.1102917470867055
  0.6680900515640502  0.7826452493361771  0.2964343077816167
  0.8770786966267821  0.3507878395357977  0.2971841266900555
  0.4006077361125548  0.5615274114089530  0.3320591818096545
  0.3336526088176797  0.1974319884479456  0.3529103265132179
  0.9761629099320928  0.9023508617146234  0.3518020993771316
  0.0238970588330432  0.0976701253138188  0.6481762946463476
  0.6663730733015427  0.8025908188552009  0.6470879799016629
  0.5994355438412526  0.4384956080305784  0.6678975854440026
  0.1229062556336586  0.6492677780100848  0.7027943123573692
  0.3319551626485548  0.2173538925334810  0.7035971815966562
  0.7091113227280488  0.9923587665192173  0.8897101407192807
  0.9470328791952412  0.3792102799503070  0.8865832433681859
  0.3478356745900939  0.7348343886120787  0.8949727443890723
  0.0000373831657328  0.0000272167112598  0.9999902280796036
  0.6629083112436760  0.6593801611748873  0.0272001613002217
  0.3411037723954919  0.8302445632626032  0.5024926600164932
  0.0000191305616468  0.4999344035477620  0.5000530414044775
  0.6589062445235925  0.1698110413295382  0.4974870969153500
  0.3370726962604209  0.3407459656160228  0.9727494198781912
 
  0.00000000E+00  0.00000000E+00  0.00000000E+00
  0.00000000E+00  0.00000000E+00  0.00000000E+00
  0.00000000E+00  0.00000000E+00  0.00000000E+00
  0.00000000E+00  0.00000000E+00  0.00000000E+00
  0.00000000E+00  0.00000000E+00  0.00000000E+00
  0.00000000E+00  0.00000000E+00  0.00000000E+00
  0.00000000E+00  0.00000000E+00  0.00000000E+00
  0.00000000E+00  0.00000000E+00  0.00000000E+00
  0.00000000E+00  0.00000000E+00  0.00000000E+00
  0.00000000E+00  0.00000000E+00  0.00000000E+00
  0.00000000E+00  0.00000000E+00  0.00000000E+00
  0.00000000E+00  0.00000000E+00  0.00000000E+00
  0.00000000E+00  0.00000000E+00  0.00000000E+00
  0.00000000E+00  0.00000000E+00  0.00000000E+00
  0.00000000E+00  0.00000000E+00  0.00000000E+00
  0.00000000E+00  0.00000000E+00  0.00000000E+00
  0.00000000E+00  0.00000000E+00  0.00000000E+00
  0.00000000E+00  0.00000000E+00  0.00000000E+00
  0.00000000E+00  0.00000000E+00  0.00000000E+00
  0.00000000E+00  0.00000000E+00  0.00000000E+00
  0.00000000E+00  0.00000000E+00  0.00000000E+00
  0.00000000E+00  0.00000000E+00  0.00000000E+00
