Al10 Br18                               
   1.00000000000000     
    -0.1029899875850320   -6.9511946482025699   10.1763572814598664
     6.0756175892810287   -3.3915701608944770  -10.1891898679271531
     5.8046772537258411    3.3528353151644232   10.0174681740002303
   Br   Al
    18    10
Direct
  0.3047972746363641  0.0172462377311149  0.1523795311662184
  0.8231436127536398  0.3262884131730246  0.0455986226826042
  0.4135726326670621  0.7527172651317855  0.0820951340453746
  0.3476608159973225  0.4946203600986507  0.1903941216045126
  0.0822720131414485  0.5876957998562418  0.2560760094973986
  0.9518972415100606  0.8429169311317466  0.3439146231675068
  0.2450022526832640  0.9185649385981733  0.4141165707922241
  0.8344626132788804  0.3683754384834401  0.4835396989481779
  0.5244824318160255  0.8482155683437611  0.3598549857554616
  0.4830956130592057  0.1945775147255091  0.6499844586399774
  0.1747221669237859  0.6755381184151901  0.5443680151671728
  0.7474631549864696  0.0871453717520083  0.5821311831855951
  0.0052565768111990  0.1534662359823997  0.6917360071348782
  0.9119293246508917  0.4183061048157697  0.7569738099695158
  0.6566218595555000  0.5469248572753429  0.8415649929400359
  0.5806171348663014  0.2550339184587500  0.9134201761952951
  0.1305522609163603  0.6668607158223381  0.9850098945429338
  0.6514812548833504  0.9764984671307104  0.8598417394200553
  0.8452023790870626  0.5778069766639362  0.0625551325643698
  0.1682334822008329  0.8075232614993411  0.2066697313513828
  0.5593190001185633  0.0584048998703963  0.1494065298290863
  0.3075350643638046  0.7101462380943531  0.3201226210937804
  0.0437069875172966  0.1385807175263807  0.4356105236079628
  0.9229815873888256  0.6534154180255953  0.5612990513296410
  0.6925552116680365  0.3309647563105855  0.7051927619978926
  0.4413803237766913  0.9420523966022216  0.6500039260719745
  0.7896444670254681  0.1936491607791169  0.8207142996693619
  0.3605112617162831  0.4565639177021197  0.9355258476295987
 
  0.00000000E+00  0.00000000E+00  0.00000000E+00
  0.00000000E+00  0.00000000E+00  0.00000000E+00
  0.00000000E+00  0.00000000E+00  0.00000000E+00
  0.00000000E+00  0.00000000E+00  0.00000000E+00
  0.00000000E+00  0.00000000E+00  0.00000000E+00
  0.00000000E+00  0.00000000E+00  0.00000000E+00
  0.00000000E+00  0.00000000E+00  0.00000000E+00
  0.00000000E+00  0.00000000E+00  0.00000000E+00
  0.00000000E+00  0.00000000E+00  0.00000000E+00
  0.00000000E+00  0.00000000E+00  0.00000000E+00
  0.00000000E+00  0.00000000E+00  0.00000000E+00
  0.00000000E+00  0.00000000E+00  0.00000000E+00
  0.00000000E+00  0.00000000E+00  0.00000000E+00
  0.00000000E+00  0.00000000E+00  0.00000000E+00
  0.00000000E+00  0.00000000E+00  0.00000000E+00
  0.00000000E+00  0.00000000E+00  0.00000000E+00
  0.00000000E+00  0.00000000E+00  0.00000000E+00
  0.00000000E+00  0.00000000E+00  0.00000000E+00
  0.00000000E+00  0.00000000E+00  0.00000000E+00
  0.00000000E+00  0.00000000E+00  0.00000000E+00
  0.00000000E+00  0.00000000E+00  0.00000000E+00
  0.00000000E+00  0.00000000E+00  0.00000000E+00
  0.00000000E+00  0.00000000E+00  0.00000000E+00
  0.00000000E+00  0.00000000E+00  0.00000000E+00
  0.00000000E+00  0.00000000E+00  0.00000000E+00
  0.00000000E+00  0.00000000E+00  0.00000000E+00
  0.00000000E+00  0.00000000E+00  0.00000000E+00
  0.00000000E+00  0.00000000E+00  0.00000000E+00
