Be13 Ga14                               
   1.00000000000000     
     7.7007835589843898   -3.7297539823850268   -1.3587343433669827
     7.7007835589843898    3.7297539823850268   -1.3587343433669827
    -4.3371957410911053    0.0000000000000000    7.3293085905311521
   Ga   Be
    14    13
Direct
  0.6847779982847797  0.3133873378699050  0.9935881293978284
  0.3133873378699050  0.6847779982847797  0.9935881293978284
  0.9206566556863720  0.4680123654068353  0.0998118692978025
  0.4680123654068353  0.9206566556863720  0.0998118692978025
  0.0148669757675748  0.0148669757675748  0.1957092796694155
  0.8067906467925354  0.8067906467925354  0.4144006916674030
  0.3035827899485426  0.3035827899485426  0.4232749978969395
  0.6708808782972469  0.3270358733860235  0.4990210637336361
  0.3270358733860235  0.6708808782972469  0.4990210637336361
  0.6945846283435699  0.6945846283435699  0.5787120062030837
  0.1913128492352314  0.1913128492352314  0.5845474184625061
  0.9840677250896874  0.9840677250896874  0.8003308153219209
  0.5315041897622379  0.0845986928605527  0.9048784082265158
  0.0845986928605527  0.5315041897622379  0.9048784082265158
  0.2845436633548459  0.2845436633548459  0.1013764065071996
  0.4758810403220366  0.4758810403220366  0.2194570699478078
  0.7337735376327075  0.0167414800309871  0.2121740253034972
  0.0167414800309871  0.7337735376327075  0.2121740253034972
  0.9031910044911129  0.4268500190206694  0.3450056429558543
  0.4268500190206694  0.9031910044911129  0.3450056429558543
  0.0002086168014870  0.0002086168014870  0.5010385957477936
  0.5715918594549052  0.0846241703304145  0.6489968191603950
  0.0846241703304145  0.5715918594549052  0.6489968191603950
  0.9828350756787074  0.2682757881875233  0.7897535769591144
  0.2682757881875233  0.9828350756787074  0.7897535769591144
  0.5343302020826712  0.5343302020826712  0.7865731243260825
  0.7216339358808952  0.7216339358808952  0.9075205241806259
 
  0.00000000E+00  0.00000000E+00  0.00000000E+00
  0.00000000E+00  0.00000000E+00  0.00000000E+00
  0.00000000E+00  0.00000000E+00  0.00000000E+00
  0.00000000E+00  0.00000000E+00  0.00000000E+00
  0.00000000E+00  0.00000000E+00  0.00000000E+00
  0.00000000E+00  0.00000000E+00  0.00000000E+00
  0.00000000E+00  0.00000000E+00  0.00000000E+00
  0.00000000E+00  0.00000000E+00  0.00000000E+00
  0.00000000E+00  0.00000000E+00  0.00000000E+00
  0.00000000E+00  0.00000000E+00  0.00000000E+00
  0.00000000E+00  0.00000000E+00  0.00000000E+00
  0.00000000E+00  0.00000000E+00  0.00000000E+00
  0.00000000E+00  0.00000000E+00  0.00000000E+00
  0.00000000E+00  0.00000000E+00  0.00000000E+00
  0.00000000E+00  0.00000000E+00  0.00000000E+00
  0.00000000E+00  0.00000000E+00  0.00000000E+00
  0.00000000E+00  0.00000000E+00  0.00000000E+00
  0.00000000E+00  0.00000000E+00  0.00000000E+00
  0.00000000E+00  0.00000000E+00  0.00000000E+00
  0.00000000E+00  0.00000000E+00  0.00000000E+00
  0.00000000E+00  0.00000000E+00  0.00000000E+00
  0.00000000E+00  0.00000000E+00  0.00000000E+00
  0.00000000E+00  0.00000000E+00  0.00000000E+00
  0.00000000E+00  0.00000000E+00  0.00000000E+00
  0.00000000E+00  0.00000000E+00  0.00000000E+00
  0.00000000E+00  0.00000000E+00  0.00000000E+00
  0.00000000E+00  0.00000000E+00  0.00000000E+00
