Be2 In2 Cl10                            
   1.00000000000000     
     7.2099141390346269    1.6510708730146977    2.5438593706270476
     3.1909316289764460    6.6728456701135057    2.5438585110123992
     0.0425218418178135    0.0340291599330010   10.2050070457027307
   Be   In   Cl
     2     2    10
Direct
  0.5316290587056471  0.4683709410993657  0.2500000005084502
  0.4683709412943529  0.5316290589006343  0.7499999994915498
  0.0000000000000000  0.0000000000000000  0.5000000000000000
  0.0000000000000000  0.0000000000000000  0.0000000000000000
  0.9570386756684002  0.7199013729993453  0.6262065226953553
  0.2800986310440550  0.0429603218460670  0.8737934764369015
  0.0429603243316024  0.2800986270006547  0.3737944773046493
  0.7199013689559450  0.9570386781539355  0.1262065235630985
  0.7749288974080102  0.2250711032115476  0.7499999996508038
  0.2250711025919898  0.7749288967884524  0.2500000003491962
  0.7500469627798623  0.4191279853595375  0.0790148807414894
  0.5808719886136586  0.2499530583465557  0.4209851229493751
  0.2499530372201377  0.5808720146404553  0.9209851192585106
  0.4191280113863485  0.7500469416534443  0.5790148770506249
 
  0.00000000E+00  0.00000000E+00  0.00000000E+00
  0.00000000E+00  0.00000000E+00  0.00000000E+00
  0.00000000E+00  0.00000000E+00  0.00000000E+00
  0.00000000E+00  0.00000000E+00  0.00000000E+00
  0.00000000E+00  0.00000000E+00  0.00000000E+00
  0.00000000E+00  0.00000000E+00  0.00000000E+00
  0.00000000E+00  0.00000000E+00  0.00000000E+00
  0.00000000E+00  0.00000000E+00  0.00000000E+00
  0.00000000E+00  0.00000000E+00  0.00000000E+00
  0.00000000E+00  0.00000000E+00  0.00000000E+00
  0.00000000E+00  0.00000000E+00  0.00000000E+00
  0.00000000E+00  0.00000000E+00  0.00000000E+00
  0.00000000E+00  0.00000000E+00  0.00000000E+00
  0.00000000E+00  0.00000000E+00  0.00000000E+00
