Mg8 Al48                                
   1.00000000000000     
    10.2765644445443360   -0.0973683019891702   -0.3515861633651046
    -0.0973683019891702   10.2765644445443360    0.3515861633651046
    -0.3307870969562178    0.3307870969562177    9.4641126084900922
   Al   Mg
    48     8
Direct
  0.0903800056097523  0.4097543357071416  0.0768527163275863
  0.8958030034486484  0.6043280744859842  0.0886574700973881
  0.0383120625130005  0.1343970484493227  0.1043031981997444
  0.3657006334374202  0.4617297177106678  0.1042892150416961
  0.6204918587842201  0.5503761810911669  0.1099364830290668
  0.9496760543383829  0.8796322032995079  0.1098763725231322
  0.7527198985473547  0.0603505288980770  0.1633109174760605
  0.5579637459897029  0.2728679181907125  0.1648079725012366
  0.4396705033375810  0.7472963610241052  0.1632326212248572
  0.2271018338037081  0.9420738144615655  0.1647122065837792
  0.4851554817312191  0.0148445397206629  0.1696246300397490
  0.2500338945886753  0.2500338945886753  0.2500000000000000
  0.7500538474992950  0.7500538474992950  0.2500000000000000
  0.0148445397206629  0.4851554817312191  0.3303753699602510
  0.9420738144615655  0.2271018338037081  0.3352877934162208
  0.7472963610241052  0.4396705033375810  0.3367673787751428
  0.2728679181907125  0.5579637459897029  0.3351920274987634
  0.0603505288980770  0.7527198985473547  0.3366890825239395
  0.1343970484493227  0.0383120625130005  0.3956968018002556
  0.4617297177106678  0.3657006334374202  0.3957107849583039
  0.5503761810911669  0.6204918587842201  0.3900635169709332
  0.8796322032995079  0.9496760543383829  0.3901236274768678
  0.4097543357071416  0.0903800056097523  0.4231472836724137
  0.6043280744859842  0.8958030034486484  0.4113425299026119
  0.9161382231133217  0.3855773482057074  0.5785507222178978
  0.1144352645645554  0.5839146345144002  0.5785679355141440
  0.9732426777206484  0.1126870135651217  0.6178887414801650
  0.6436082110429595  0.4517606095508455  0.6060844936001430
  0.3873055626094200  0.5268314457292291  0.6178029096005346
  0.0483728675945869  0.8563591031098596  0.6061360356068164
  0.2625935139111064  0.0364559085175600  0.6645569026155300
  0.4635946905900141  0.2374755098167682  0.6645912451823577
  0.5713813402157726  0.7231275603532694  0.6537491903714283
  0.7769203148727826  0.9286105650502776  0.6537606238445832
  0.5229185865846873  0.9771139777145166  0.6816101301595765
  0.7500688397901101  0.2502584511469337  0.7501948226909150
  0.2502584511469337  0.7500688397901101  0.7498051773090850
  0.9771139777145166  0.5229185865846873  0.8183898698404235
  0.0364559085175600  0.2625935139111064  0.8354430973844700
  0.2374755098167682  0.4635946905900141  0.8354087548176423
  0.7231275603532694  0.5713813402157726  0.8462508096285717
  0.9286105650502776  0.7769203148727826  0.8462393761554168
  0.8563591031098596  0.0483728675945869  0.8938639643931836
  0.5268314457292291  0.3873055626094200  0.8821970903994654
  0.4517606095508455  0.6436082110429595  0.8939155063998570
  0.1126870135651217  0.9732426777206484  0.8821112585198350
  0.5839146345144002  0.1144352645645554  0.9214320644858560
  0.3855773482057074  0.9161382231133217  0.9214492777821022
  0.8124432021166612  0.3302664245865117  0.0395987035461332
  0.1698465651116052  0.6876890646188016  0.0392415837974980
  0.6876890646188016  0.1698465651116052  0.4607584162025020
  0.3302664245865117  0.8124432021166612  0.4604012964538668
  0.1930448820868023  0.3069931531697279  0.5475328004193187
  0.8355757972632745  0.6644751444942614  0.5467542363261089
  0.3069931531697279  0.1930448820868023  0.9524671995806813
  0.6644751444942614  0.8355757972632745  0.9532457636738911
 
  0.00000000E+00  0.00000000E+00  0.00000000E+00
  0.00000000E+00  0.00000000E+00  0.00000000E+00
  0.00000000E+00  0.00000000E+00  0.00000000E+00
  0.00000000E+00  0.00000000E+00  0.00000000E+00
  0.00000000E+00  0.00000000E+00  0.00000000E+00
  0.00000000E+00  0.00000000E+00  0.00000000E+00
  0.00000000E+00  0.00000000E+00  0.00000000E+00
  0.00000000E+00  0.00000000E+00  0.00000000E+00
  0.00000000E+00  0.00000000E+00  0.00000000E+00
  0.00000000E+00  0.00000000E+00  0.00000000E+00
  0.00000000E+00  0.00000000E+00  0.00000000E+00
  0.00000000E+00  0.00000000E+00  0.00000000E+00
  0.00000000E+00  0.00000000E+00  0.00000000E+00
  0.00000000E+00  0.00000000E+00  0.00000000E+00
  0.00000000E+00  0.00000000E+00  0.00000000E+00
  0.00000000E+00  0.00000000E+00  0.00000000E+00
  0.00000000E+00  0.00000000E+00  0.00000000E+00
  0.00000000E+00  0.00000000E+00  0.00000000E+00
  0.00000000E+00  0.00000000E+00  0.00000000E+00
  0.00000000E+00  0.00000000E+00  0.00000000E+00
  0.00000000E+00  0.00000000E+00  0.00000000E+00
  0.00000000E+00  0.00000000E+00  0.00000000E+00
  0.00000000E+00  0.00000000E+00  0.00000000E+00
  0.00000000E+00  0.00000000E+00  0.00000000E+00
  0.00000000E+00  0.00000000E+00  0.00000000E+00
  0.00000000E+00  0.00000000E+00  0.00000000E+00
  0.00000000E+00  0.00000000E+00  0.00000000E+00
  0.00000000E+00  0.00000000E+00  0.00000000E+00
  0.00000000E+00  0.00000000E+00  0.00000000E+00
  0.00000000E+00  0.00000000E+00  0.00000000E+00
  0.00000000E+00  0.00000000E+00  0.00000000E+00
  0.00000000E+00  0.00000000E+00  0.00000000E+00
  0.00000000E+00  0.00000000E+00  0.00000000E+00
  0.00000000E+00  0.00000000E+00  0.00000000E+00
  0.00000000E+00  0.00000000E+00  0.00000000E+00
  0.00000000E+00  0.00000000E+00  0.00000000E+00
  0.00000000E+00  0.00000000E+00  0.00000000E+00
  0.00000000E+00  0.00000000E+00  0.00000000E+00
  0.00000000E+00  0.00000000E+00  0.00000000E+00
  0.00000000E+00  0.00000000E+00  0.00000000E+00
  0.00000000E+00  0.00000000E+00  0.00000000E+00
  0.00000000E+00  0.00000000E+00  0.00000000E+00
  0.00000000E+00  0.00000000E+00  0.00000000E+00
  0.00000000E+00  0.00000000E+00  0.00000000E+00
  0.00000000E+00  0.00000000E+00  0.00000000E+00
  0.00000000E+00  0.00000000E+00  0.00000000E+00
  0.00000000E+00  0.00000000E+00  0.00000000E+00
  0.00000000E+00  0.00000000E+00  0.00000000E+00
  0.00000000E+00  0.00000000E+00  0.00000000E+00
  0.00000000E+00  0.00000000E+00  0.00000000E+00
  0.00000000E+00  0.00000000E+00  0.00000000E+00
  0.00000000E+00  0.00000000E+00  0.00000000E+00
  0.00000000E+00  0.00000000E+00  0.00000000E+00
  0.00000000E+00  0.00000000E+00  0.00000000E+00
  0.00000000E+00  0.00000000E+00  0.00000000E+00
  0.00000000E+00  0.00000000E+00  0.00000000E+00
