Sr2 In2 Br10                            
   1.00000000000000     
    -6.0343679794890095   -4.2394763690855513    0.0210309624594322
     6.0630363283236681   -4.2794377019577068   -0.0027506643830074
    -4.3395438642181663   -0.0090432687284670    9.8329679067180731
   In   Sr   Br
     2     2    10
Direct
  0.9999391436134744  0.9991521589365462  0.9998678332084339
  0.9995352956215982  0.0006789136798133  0.5000541993724426
  0.4627426648869886  0.4640932160522837  0.2524072834644642
  0.5369108933151594  0.5357706978904488  0.7476538591730204
  0.7648965589243844  0.6292244423611493  0.0080608866710463
  0.6765868617500246  0.1285872661319445  0.1256514117846166
  0.0871434956829233  0.1018693043251986  0.2539271917790344
  0.1255293236168029  0.6789282049681660  0.3649434717883153
  0.6227319046357067  0.7682594598041277  0.4963495152228674
  0.3767947451878086  0.2324294814290724  0.5035444406683993
  0.8749347329407797  0.3225651734975514  0.6352788593138925
  0.9123410536045711  0.8984162854012254  0.7462040969978929
  0.3236347009780616  0.8704901093757158  0.8739413456768474
  0.2361776252417158  0.3694352861467678  0.9918136048787289
 
  0.00000000E+00  0.00000000E+00  0.00000000E+00
  0.00000000E+00  0.00000000E+00  0.00000000E+00
  0.00000000E+00  0.00000000E+00  0.00000000E+00
  0.00000000E+00  0.00000000E+00  0.00000000E+00
  0.00000000E+00  0.00000000E+00  0.00000000E+00
  0.00000000E+00  0.00000000E+00  0.00000000E+00
  0.00000000E+00  0.00000000E+00  0.00000000E+00
  0.00000000E+00  0.00000000E+00  0.00000000E+00
  0.00000000E+00  0.00000000E+00  0.00000000E+00
  0.00000000E+00  0.00000000E+00  0.00000000E+00
  0.00000000E+00  0.00000000E+00  0.00000000E+00
  0.00000000E+00  0.00000000E+00  0.00000000E+00
  0.00000000E+00  0.00000000E+00  0.00000000E+00
  0.00000000E+00  0.00000000E+00  0.00000000E+00
