Sr1 B2 Br6                              
   1.00000000000000     
     4.2381145923602128    1.9369974443384517    7.2781334268590010
    -4.2381145923602137    1.9369974443384517    7.2781334268590010
     0.0000000000000002   -4.9757321367349920    7.8965806560763374
   Sr   Br   B 
     1     6     2
Direct
  0.0000000000000000  0.0000000000000000  0.0000000000000000
  0.7414741316105591  0.7414741316105591  0.2807386294861161
  0.8049948735187584  0.1961398303915090  0.3057789667745112
  0.1961398303915090  0.8049948735187584  0.3057789667745112
  0.2585258683894409  0.2585258683894409  0.7192613705138839
  0.8038601696084839  0.1950051264812416  0.6942210332254888
  0.1950051264812416  0.8038601696084839  0.6942210332254888
  0.0006554050866683  0.0006554050866683  0.4083953482728759
  0.9993445949133317  0.9993445949133317  0.5916046517271241
 
  0.00000000E+00  0.00000000E+00  0.00000000E+00
  0.00000000E+00  0.00000000E+00  0.00000000E+00
  0.00000000E+00  0.00000000E+00  0.00000000E+00
  0.00000000E+00  0.00000000E+00  0.00000000E+00
  0.00000000E+00  0.00000000E+00  0.00000000E+00
  0.00000000E+00  0.00000000E+00  0.00000000E+00
  0.00000000E+00  0.00000000E+00  0.00000000E+00
  0.00000000E+00  0.00000000E+00  0.00000000E+00
  0.00000000E+00  0.00000000E+00  0.00000000E+00
