Be2 Al2 I10                             
   1.0000000000000000     
     5.7265936732189306   -0.0000000000000002    0.0000000000000003
    -0.0000000000000010   13.9188136591136900    0.0000000000000006
     0.0000000000000002    0.0000000000000005    8.5943186101185916
   Be   Al   I 
     2     2    10
Direct
  0.0000000000000000  0.0000000000000000  0.5000000000000000
  0.5000000000000000  0.5000000000000000  0.0000000000000000
  0.5000000000000000  0.0000000000000000  0.0000000000000000
  0.0000000000000000  0.5000000000000000  0.5000000000000000
  0.5000000000000000  0.7095344973610409  0.5000000000000000
  0.5000000000000000  0.2904655026389591  0.5000000000000000
  0.5000000000000000  0.0000000000000000  0.3088165293863909
  0.5000000000000000  0.0000000000000000  0.6911834706136091
  0.0000000000000000  0.0000000000000000  0.0000000000000000
  0.0000000000000000  0.2095344973610409  0.0000000000000000
  0.0000000000000000  0.7904655026389591  0.0000000000000000
  0.0000000000000000  0.5000000000000000  0.8088165293863909
  0.0000000000000000  0.5000000000000000  0.1911834706136091
  0.5000000000000000  0.5000000000000000  0.5000000000000000

  0.00000000E+00  0.00000000E+00  0.00000000E+00
  0.00000000E+00  0.00000000E+00  0.00000000E+00
  0.00000000E+00  0.00000000E+00  0.00000000E+00
  0.00000000E+00  0.00000000E+00  0.00000000E+00
  0.00000000E+00  0.00000000E+00  0.00000000E+00
  0.00000000E+00  0.00000000E+00  0.00000000E+00
  0.00000000E+00  0.00000000E+00  0.00000000E+00
  0.00000000E+00  0.00000000E+00  0.00000000E+00
  0.00000000E+00  0.00000000E+00  0.00000000E+00
  0.00000000E+00  0.00000000E+00  0.00000000E+00
  0.00000000E+00  0.00000000E+00  0.00000000E+00
  0.00000000E+00  0.00000000E+00  0.00000000E+00
  0.00000000E+00  0.00000000E+00  0.00000000E+00
  0.00000000E+00  0.00000000E+00  0.00000000E+00
