Sr2 Tl2 I10                             
   1.0000000000000000     
     6.0552874879661376   -0.0000000000000003    0.0000000000000003
    -0.0000000000000013   13.0807469094597657    0.0000000000000008
     0.0000000000000002    0.0000000000000005   10.8356193402625909
   Sr   Tl   I 
     2     2    10
Direct
  0.0000000000000000  0.0000000000000000  0.5000000000000000
  0.5000000000000000  0.5000000000000000  0.0000000000000000
  0.5000000000000000  0.0000000000000000  0.0000000000000000
  0.0000000000000000  0.5000000000000000  0.5000000000000000
  0.5000000000000000  0.7255975096427889  0.5000000000000000
  0.5000000000000000  0.2744024903572111  0.5000000000000000
  0.5000000000000000  0.0000000000000000  0.6769702643337467
  0.5000000000000000  0.0000000000000000  0.3230297356662462
  0.0000000000000000  0.0000000000000000  0.0000000000000000
  0.0000000000000000  0.2255975096427889  0.0000000000000000
  0.0000000000000000  0.7744024903572111  0.0000000000000000
  0.0000000000000000  0.5000000000000000  0.1769702643337538
  0.0000000000000000  0.5000000000000000  0.8230297356662533
  0.5000000000000000  0.5000000000000000  0.5000000000000000

  0.00000000E+00  0.00000000E+00  0.00000000E+00
  0.00000000E+00  0.00000000E+00  0.00000000E+00
  0.00000000E+00  0.00000000E+00  0.00000000E+00
  0.00000000E+00  0.00000000E+00  0.00000000E+00
  0.00000000E+00  0.00000000E+00  0.00000000E+00
  0.00000000E+00  0.00000000E+00  0.00000000E+00
  0.00000000E+00  0.00000000E+00  0.00000000E+00
  0.00000000E+00  0.00000000E+00  0.00000000E+00
  0.00000000E+00  0.00000000E+00  0.00000000E+00
  0.00000000E+00  0.00000000E+00  0.00000000E+00
  0.00000000E+00  0.00000000E+00  0.00000000E+00
  0.00000000E+00  0.00000000E+00  0.00000000E+00
  0.00000000E+00  0.00000000E+00  0.00000000E+00
  0.00000000E+00  0.00000000E+00  0.00000000E+00
