Ca2In                                   
   1.00000000000000     
     7.2090005633092078    0.0000000000000000    0.0001325709753370
     0.0000000000000000    5.4227658690727605    0.0000000000000000
     0.0001839612174681    0.0000000000000000    9.9499666391353703
   Ca   In
     8     4
Direct
  0.1746397098952031  0.2500000000000000  0.0666916577954453
  0.4659476395036677  0.7500000000000000  0.2036577605636580
  0.9659462431075241  0.7500000000000000  0.2963039394929439
  0.6746642304079700  0.2500000000000000  0.4332601573828399
  0.3254099564820905  0.7500000000000000  0.5667003425026067
  0.0341171889622274  0.2500000000000000  0.7036754586238416
  0.5341060270679421  0.2500000000000000  0.7963191890970549
  0.8254057740587584  0.7500000000000000  0.9332658506160882
  0.7221635554603196  0.2500000000000000  0.1084132217986067
  0.2221477242456089  0.2500000000000000  0.3915471374680592
  0.7779274206820972  0.7500000000000000  0.6083998483846784
  0.2779245301265831  0.7500000000000000  0.8915654362741634
 
  0.00000000E+00  0.00000000E+00  0.00000000E+00
  0.00000000E+00  0.00000000E+00  0.00000000E+00
  0.00000000E+00  0.00000000E+00  0.00000000E+00
  0.00000000E+00  0.00000000E+00  0.00000000E+00
  0.00000000E+00  0.00000000E+00  0.00000000E+00
  0.00000000E+00  0.00000000E+00  0.00000000E+00
  0.00000000E+00  0.00000000E+00  0.00000000E+00
  0.00000000E+00  0.00000000E+00  0.00000000E+00
  0.00000000E+00  0.00000000E+00  0.00000000E+00
  0.00000000E+00  0.00000000E+00  0.00000000E+00
  0.00000000E+00  0.00000000E+00  0.00000000E+00
  0.00000000E+00  0.00000000E+00  0.00000000E+00
