Ba8 Al50                                
   1.00000000000000     
    13.9298151694837422    0.0000000000000000    0.0000000000000000
     0.0000000000000000    8.0497066166879545   -0.2131555372709687
     0.0000000000000000    7.6176677207238210   13.9766490161109367
   Ba   Al
     8    50
Direct
  0.6647259082297623  0.1328401384495450  0.3477924287505374
  0.3352740917702448  0.1328401384495450  0.8477924287505303
  0.1532313137841683  0.3424896937301085  0.6597329613303771
  0.8467686862158388  0.3424896937301085  0.1597329613303771
  0.3352740917702448  0.8671598615504550  0.6522075712494697
  0.6647259082297623  0.8671598615504550  0.1522075712494697
  0.8467686862158388  0.6575103062698915  0.3402670386696229
  0.1532313137841683  0.6575103062698915  0.8402670386696229
  0.6657529970110261  0.6444459998353764  0.5485872355725832
  0.3342470029889739  0.6444459998353764  0.0485872355725832
  0.1683612756182029  0.1978441984731560  0.4390366840553526
  0.8316387243817971  0.1978441984731560  0.9390366840553526
  0.3342470029889739  0.3555540001646236  0.4514127644274168
  0.6657529970110261  0.3555540001646236  0.9514127644274168
  0.8316387243817971  0.8021558015268440  0.5609633159446474
  0.1683612756182029  0.8021558015268440  0.0609633159446474
  0.0865574828180584  0.9933973156258418  0.1645842056481754
  0.6088514066683715  0.7103583933688213  0.8622327406021597
  0.9134425171819416  0.9933973156258418  0.6645842056481754
  0.3911485933316285  0.7103583933688213  0.3622327406021597
  0.9134425171819416  0.0066026843741582  0.8354157943518246
  0.3911485933316285  0.2896416066311787  0.1377672593978403
  0.0865574828180584  0.0066026843741582  0.3354157943518246
  0.6088514066683715  0.2896416066311787  0.6377672593978403
  0.5904977085742260  0.7224915436117385  0.3786384386599408
  0.4095022914257740  0.7224915436117385  0.8786384386599408
  0.1001290099457108  0.9900523388788400  0.6173838524868245
  0.8998709900542892  0.9900523388788400  0.1173838524868245
  0.4095022914257740  0.2775084563882615  0.6213615613400592
  0.5904977085742260  0.2775084563882615  0.1213615613400592
  0.8998709900542892  0.0099476611211600  0.3826161475131755
  0.1001290099457108  0.0099476611211600  0.8826161475131755
  0.4948734881956440  0.5320995087862457  0.6590628287912565
  0.5051265118043560  0.5320995087862457  0.1590628287912565
  0.0071153163782540  0.3254068021433980  0.3342543928183375
  0.9928846836217460  0.3254068021433980  0.8342543928183375
  0.5051265118043560  0.4679004912137543  0.3409371712087435
  0.4948734881956440  0.4679004912137543  0.8409371712087435
  0.9928846836217460  0.6745931978566020  0.6657456071816625
  0.0071153163782540  0.6745931978566020  0.1657456071816625
  0.1638273351315789  0.1818308826766639  0.9875236406850547
  0.6670389376491244  0.6216524134073254  0.0324111290165803
  0.8361726648684140  0.1818308826766639  0.4875236406850547
  0.3329610623508756  0.6216524134073254  0.5324111290165803
  0.8361726648684140  0.8181691173233361  0.0124763593149453
  0.3329610623508756  0.3783475865926746  0.9675888709834197
  0.1638273351315789  0.8181691173233361  0.5124763593149453
  0.6670389376491244  0.3783475865926746  0.4675888709834197
  0.4894627320194189  0.8428881652708213  0.4856431183187340
  0.5105372679805811  0.8428881652708213  0.9856431183187340
  0.0026770753301051  0.3193035994978146  0.5044383328071689
  0.9973229246698949  0.3193035994978146  0.0044383328071689
  0.5105372679805811  0.1571118347291787  0.5143568816812660
  0.4894627320194189  0.1571118347291787  0.0143568816812660
  0.9973229246698949  0.6806964005021854  0.4955616671928311
  0.0026770753301051  0.6806964005021854  0.9955616671928311
  0.4800745469874954  0.0000000000000000  0.2500000000000000
  0.5199254530125046  0.0000000000000000  0.7500000000000000
 
  0.00000000E+00  0.00000000E+00  0.00000000E+00
  0.00000000E+00  0.00000000E+00  0.00000000E+00
  0.00000000E+00  0.00000000E+00  0.00000000E+00
  0.00000000E+00  0.00000000E+00  0.00000000E+00
  0.00000000E+00  0.00000000E+00  0.00000000E+00
  0.00000000E+00  0.00000000E+00  0.00000000E+00
  0.00000000E+00  0.00000000E+00  0.00000000E+00
  0.00000000E+00  0.00000000E+00  0.00000000E+00
  0.00000000E+00  0.00000000E+00  0.00000000E+00
  0.00000000E+00  0.00000000E+00  0.00000000E+00
  0.00000000E+00  0.00000000E+00  0.00000000E+00
  0.00000000E+00  0.00000000E+00  0.00000000E+00
  0.00000000E+00  0.00000000E+00  0.00000000E+00
  0.00000000E+00  0.00000000E+00  0.00000000E+00
  0.00000000E+00  0.00000000E+00  0.00000000E+00
  0.00000000E+00  0.00000000E+00  0.00000000E+00
  0.00000000E+00  0.00000000E+00  0.00000000E+00
  0.00000000E+00  0.00000000E+00  0.00000000E+00
  0.00000000E+00  0.00000000E+00  0.00000000E+00
  0.00000000E+00  0.00000000E+00  0.00000000E+00
  0.00000000E+00  0.00000000E+00  0.00000000E+00
  0.00000000E+00  0.00000000E+00  0.00000000E+00
  0.00000000E+00  0.00000000E+00  0.00000000E+00
  0.00000000E+00  0.00000000E+00  0.00000000E+00
  0.00000000E+00  0.00000000E+00  0.00000000E+00
  0.00000000E+00  0.00000000E+00  0.00000000E+00
  0.00000000E+00  0.00000000E+00  0.00000000E+00
  0.00000000E+00  0.00000000E+00  0.00000000E+00
  0.00000000E+00  0.00000000E+00  0.00000000E+00
  0.00000000E+00  0.00000000E+00  0.00000000E+00
  0.00000000E+00  0.00000000E+00  0.00000000E+00
  0.00000000E+00  0.00000000E+00  0.00000000E+00
  0.00000000E+00  0.00000000E+00  0.00000000E+00
  0.00000000E+00  0.00000000E+00  0.00000000E+00
  0.00000000E+00  0.00000000E+00  0.00000000E+00
  0.00000000E+00  0.00000000E+00  0.00000000E+00
  0.00000000E+00  0.00000000E+00  0.00000000E+00
  0.00000000E+00  0.00000000E+00  0.00000000E+00
  0.00000000E+00  0.00000000E+00  0.00000000E+00
  0.00000000E+00  0.00000000E+00  0.00000000E+00
  0.00000000E+00  0.00000000E+00  0.00000000E+00
  0.00000000E+00  0.00000000E+00  0.00000000E+00
  0.00000000E+00  0.00000000E+00  0.00000000E+00
  0.00000000E+00  0.00000000E+00  0.00000000E+00
  0.00000000E+00  0.00000000E+00  0.00000000E+00
  0.00000000E+00  0.00000000E+00  0.00000000E+00
  0.00000000E+00  0.00000000E+00  0.00000000E+00
  0.00000000E+00  0.00000000E+00  0.00000000E+00
  0.00000000E+00  0.00000000E+00  0.00000000E+00
  0.00000000E+00  0.00000000E+00  0.00000000E+00
  0.00000000E+00  0.00000000E+00  0.00000000E+00
  0.00000000E+00  0.00000000E+00  0.00000000E+00
  0.00000000E+00  0.00000000E+00  0.00000000E+00
  0.00000000E+00  0.00000000E+00  0.00000000E+00
  0.00000000E+00  0.00000000E+00  0.00000000E+00
  0.00000000E+00  0.00000000E+00  0.00000000E+00
  0.00000000E+00  0.00000000E+00  0.00000000E+00
  0.00000000E+00  0.00000000E+00  0.00000000E+00
