GaF2                                    
   1.00000000000000     
     3.1989849392082248    1.8463204551787507    5.2263790898802034
    -3.1989849392082248    1.8463204551787507    5.2263790898802034
     0.0000000000000000   -3.6938345689983660    5.2264382737614943
   F    Ga
     4     2
Direct
  0.3750000000000000  0.3750000000000000  0.3750000000000000
  0.8750000000000000  0.3750000000000000  0.3750000000000000
  0.3750000000000000  0.8750000000000000  0.3750000000000000
  0.3750000000000000  0.3750000000000000  0.8750000000000000
  0.2500186036633920  0.2500186036633920  0.2500316138192105
  0.4999813963366080  0.4999813963366080  0.4999683861807895
 
  0.00000000E+00  0.00000000E+00  0.00000000E+00
  0.00000000E+00  0.00000000E+00  0.00000000E+00
  0.00000000E+00  0.00000000E+00  0.00000000E+00
  0.00000000E+00  0.00000000E+00  0.00000000E+00
  0.00000000E+00  0.00000000E+00  0.00000000E+00
  0.00000000E+00  0.00000000E+00  0.00000000E+00
