Mg15 Ga1                                
   1.00000000000000     
     3.1278065474622538   -5.4175203158732934    0.0000000000000000
     3.1278065474622538    5.4175203158732934    0.0000000000000000
     0.0000000000000000    0.0000000000000000   10.4930245297470179
   Mg   Ga
    15     1
Direct
  0.3333330000000032  0.6666669999999968  0.5000000000000000
  0.8320325589981437  0.6640651179963442  0.0000000000000000
  0.8338893022798075  0.6677776045595110  0.5000000000000000
  0.8320325589982076  0.1679674410017924  0.0000000000000000
  0.8338893022796938  0.1661106977203062  0.5000000000000000
  0.3359348820036558  0.1679674410018563  0.0000000000000000
  0.3322223954404890  0.1661106977201925  0.5000000000000000
  0.6651515317144074  0.8325762658571421  0.2464389607977537
  0.6651515317144074  0.8325762658571421  0.7535610392022463
  0.1674237341427443  0.8325762658572557  0.2464389607977537
  0.1674237341427443  0.8325762658572557  0.7535610392022463
  0.1674237341428579  0.3348484682855926  0.2464389607977537
  0.1674237341428579  0.3348484682855926  0.7535610392022463
  0.6666669999999968  0.3333330000000032  0.2514354150223284
  0.6666669999999968  0.3333330000000032  0.7485645849776716
  0.3333330000000032  0.6666669999999968  0.0000000000000000
 
  0.00000000E+00  0.00000000E+00  0.00000000E+00
  0.00000000E+00  0.00000000E+00  0.00000000E+00
  0.00000000E+00  0.00000000E+00  0.00000000E+00
  0.00000000E+00  0.00000000E+00  0.00000000E+00
  0.00000000E+00  0.00000000E+00  0.00000000E+00
  0.00000000E+00  0.00000000E+00  0.00000000E+00
  0.00000000E+00  0.00000000E+00  0.00000000E+00
  0.00000000E+00  0.00000000E+00  0.00000000E+00
  0.00000000E+00  0.00000000E+00  0.00000000E+00
  0.00000000E+00  0.00000000E+00  0.00000000E+00
  0.00000000E+00  0.00000000E+00  0.00000000E+00
  0.00000000E+00  0.00000000E+00  0.00000000E+00
  0.00000000E+00  0.00000000E+00  0.00000000E+00
  0.00000000E+00  0.00000000E+00  0.00000000E+00
  0.00000000E+00  0.00000000E+00  0.00000000E+00
  0.00000000E+00  0.00000000E+00  0.00000000E+00
