Ca4 Tl2 I10                             
   1.0000000000000000     
     8.8973769657275081    0.0002488843189018   -0.0001876153135509
     0.0002527561558141    8.8986341416445178   -0.0018465397300493
     4.4486538608297739    4.4478074402045653    7.7007434705675095
   I    Ca   Tl
    10     4     2
Direct
  0.0005405248510613  0.0004079530100256  0.9993239093826105
  0.4995728587785067  0.4995245032462563  0.0005776783205249
  0.5193677136616373  0.0191307109073193  0.2644946005318900
  0.0180008936479155  0.2146948619946230  0.2662734651483518
  0.7147661138389125  0.5188912508525902  0.2661446386623680
  0.2138570969635296  0.7139713953142959  0.2678895134159944
  0.7860316670718532  0.2860637525907777  0.7320900099190482
  0.2854172385083942  0.4817126774230331  0.7337775789575858
  0.9813299173115766  0.7848677372095096  0.7339526122788058
  0.4810088648205095  0.9804868017441208  0.7353999228890657
  0.3428638655482459  0.1570629106423880  0.0000671397394498
  0.8438365878731275  0.3438045846428963  0.9981922753873178
  0.1561547167749708  0.6561116970417373  0.0017969826617303
  0.6569592845293570  0.8430853251146786  0.9999112553084970
  0.2498384756247489  0.2501126848828648  0.5000998138568775
  0.7501541801956435  0.7497711533828877  0.5000086035398965

  0.00000000E+00  0.00000000E+00  0.00000000E+00
  0.00000000E+00  0.00000000E+00  0.00000000E+00
  0.00000000E+00  0.00000000E+00  0.00000000E+00
  0.00000000E+00  0.00000000E+00  0.00000000E+00
  0.00000000E+00  0.00000000E+00  0.00000000E+00
  0.00000000E+00  0.00000000E+00  0.00000000E+00
  0.00000000E+00  0.00000000E+00  0.00000000E+00
  0.00000000E+00  0.00000000E+00  0.00000000E+00
  0.00000000E+00  0.00000000E+00  0.00000000E+00
  0.00000000E+00  0.00000000E+00  0.00000000E+00
  0.00000000E+00  0.00000000E+00  0.00000000E+00
  0.00000000E+00  0.00000000E+00  0.00000000E+00
  0.00000000E+00  0.00000000E+00  0.00000000E+00
  0.00000000E+00  0.00000000E+00  0.00000000E+00
  0.00000000E+00  0.00000000E+00  0.00000000E+00
  0.00000000E+00  0.00000000E+00  0.00000000E+00
