Ca1 In2 I6                              
   1.0000000000000000     
     4.4613945890832341    1.7053528385234393    8.0899788141168596
    -4.4613945890832341    1.7053528385234393    8.0899788141168596
     0.0000000000000000   -4.0343540244372678    8.0810684608214789
   Ca   I    In
     1     6     2
Direct
  0.0000000000000000  0.0000000000000000  0.0000000000000000
  0.7103684184134593  0.7103684184134593  0.3137338178581714
  0.7840257227784093  0.2703932504968236  0.2106114834874120
  0.2703932504968236  0.7840257227784093  0.2106114834874120
  0.2896315815865407  0.2896315815865407  0.6862661821418286
  0.7296067495031764  0.2159742772215907  0.7893885165125880
  0.2159742772215907  0.7296067495031764  0.7893885165125880
  0.2060763460753208  0.2060763460753208  0.1739178553013048
  0.7939236539246792  0.7939236539246792  0.8260821446986952

  0.00000000E+00  0.00000000E+00  0.00000000E+00
  0.00000000E+00  0.00000000E+00  0.00000000E+00
  0.00000000E+00  0.00000000E+00  0.00000000E+00
  0.00000000E+00  0.00000000E+00  0.00000000E+00
  0.00000000E+00  0.00000000E+00  0.00000000E+00
  0.00000000E+00  0.00000000E+00  0.00000000E+00
  0.00000000E+00  0.00000000E+00  0.00000000E+00
  0.00000000E+00  0.00000000E+00  0.00000000E+00
  0.00000000E+00  0.00000000E+00  0.00000000E+00
