Mg2Ga5                                  
   1.00000000000000     
     4.3301719904135565    4.3301719904135565   -3.5985997680496036
     4.3301719904135565   -4.3301719904135565    3.5985997680496036
    -4.3301719904135565   -4.3301719904135565   -3.5985997680496036
   Ga   Mg
    10     4
Direct
  0.8182443132689770  0.2977125042957809  0.1159568175647507
  0.4794681910268039  0.2977125042957809  0.1817556867310230
  0.8840431824352493  0.7022874957042191  0.1817556867310230
  0.2902225588158416  0.0000000000000000  0.2902225588158416
  0.1817556867310230  0.2977125042957809  0.4794681910268039
  0.8182443132689770  0.7022874957042191  0.5205318089731961
  0.7097774411841584  0.0000000000000000  0.7097774411841584
  0.1159568175647507  0.2977125042957809  0.8182443132689770
  0.5205318089731961  0.7022874957042191  0.8182443132689770
  0.1817556867310230  0.7022874957042191  0.8840431824352493
  0.7002099067099152  0.0000000000000000  0.2997900932900848
  0.2997900932900848  0.5995801865801553  0.2997900932900848
  0.2997900932900848  0.0000000000000000  0.7002099067099152
  0.7002099067099152  0.4004198134198447  0.7002099067099152
 
  0.00000000E+00  0.00000000E+00  0.00000000E+00
  0.00000000E+00  0.00000000E+00  0.00000000E+00
  0.00000000E+00  0.00000000E+00  0.00000000E+00
  0.00000000E+00  0.00000000E+00  0.00000000E+00
  0.00000000E+00  0.00000000E+00  0.00000000E+00
  0.00000000E+00  0.00000000E+00  0.00000000E+00
  0.00000000E+00  0.00000000E+00  0.00000000E+00
  0.00000000E+00  0.00000000E+00  0.00000000E+00
  0.00000000E+00  0.00000000E+00  0.00000000E+00
  0.00000000E+00  0.00000000E+00  0.00000000E+00
  0.00000000E+00  0.00000000E+00  0.00000000E+00
  0.00000000E+00  0.00000000E+00  0.00000000E+00
  0.00000000E+00  0.00000000E+00  0.00000000E+00
  0.00000000E+00  0.00000000E+00  0.00000000E+00
