CaBr2                                   
   1.00000000000000     
     3.7219996875104360   -2.1482705172308445   -0.0009556662318682
     3.7219996875104360    2.1482705172308445   -0.0009556662318682
    -0.0026283988326862    0.0000000000000000    7.0198623604802775
   Br   Ca
     2     1
Direct
  0.6666120153034854  0.6666120153034854  0.2220140243103970
  0.3333879846965146  0.3333879846965146  0.7779859756896101
  0.0000000000000000  0.0000000000000000  0.0000000000000000
 
  0.00000000E+00  0.00000000E+00  0.00000000E+00
  0.00000000E+00  0.00000000E+00  0.00000000E+00
  0.00000000E+00  0.00000000E+00  0.00000000E+00
