Mg4 B4 Cl20                             
   1.0000000000000000     
     6.3022649757228644    0.0000000000000000    0.0000000000000006
    -0.0000000000000004    6.7659987475450034    0.0000000000000005
     0.0000000000000004    0.0000000000000001   20.1079343513477511
   Mg   B    Cl
     4     4    20
Direct
  0.5444488871206232  0.5985323984460962  0.3101070046408623
  0.0444488871206232  0.9014676015539038  0.6898929953591377
  0.4555511128793697  0.0985323984460962  0.1898929953591377
  0.9555511128793697  0.4014676015539038  0.8101070046408623
  0.9892431090533336  0.7387717615063281  0.3698632958891039
  0.4892431090533336  0.7612282384936719  0.6301367041108890
  0.0107568909466664  0.2387717615063281  0.1301367041108890
  0.5107568909466664  0.2612282384936719  0.8698632958891039
  0.7498895551988056  0.6435432405626358  0.4177806046125099
  0.2498895551987914  0.8564567594373642  0.5822193953874830
  0.2501104448011944  0.1435432405626358  0.0822193953874901
  0.7501104448011944  0.3564567594373642  0.9177806046125170
  0.8984740658863615  0.7474522398417776  0.2809752106289523
  0.3984740658863615  0.7525477601582224  0.7190247893710406
  0.1015259341136385  0.2474522398417776  0.2190247893710477
  0.6015259341136385  0.2525477601582296  0.7809752106289594
  0.9212424437934104  0.4745598309372383  0.1003978516748845
  0.4212424437934104  0.0254401690627617  0.8996021483251155
  0.0787575562065896  0.9745598309372383  0.3996021483251155
  0.5787575562065896  0.5254401690627617  0.6003978516748845
  0.4003257237634870  0.7580817050808832  0.2141025239352601
  0.9003257237634870  0.7419182949191168  0.7858974760647399
  0.5996742762365130  0.2580817050808832  0.2858974760647399
  0.0996742762365130  0.2419182949191168  0.7141025239352601
  0.2938559973750685  0.4566389698717188  0.8782280714018995
  0.7938559973750685  0.0433610301282812  0.1217719285981005
  0.7061440026249315  0.9566389698717188  0.6217719285981005
  0.2061440026249315  0.5433610301282812  0.3782280714018995

  0.00000000E+00  0.00000000E+00  0.00000000E+00
  0.00000000E+00  0.00000000E+00  0.00000000E+00
  0.00000000E+00  0.00000000E+00  0.00000000E+00
  0.00000000E+00  0.00000000E+00  0.00000000E+00
  0.00000000E+00  0.00000000E+00  0.00000000E+00
  0.00000000E+00  0.00000000E+00  0.00000000E+00
  0.00000000E+00  0.00000000E+00  0.00000000E+00
  0.00000000E+00  0.00000000E+00  0.00000000E+00
  0.00000000E+00  0.00000000E+00  0.00000000E+00
  0.00000000E+00  0.00000000E+00  0.00000000E+00
  0.00000000E+00  0.00000000E+00  0.00000000E+00
  0.00000000E+00  0.00000000E+00  0.00000000E+00
  0.00000000E+00  0.00000000E+00  0.00000000E+00
  0.00000000E+00  0.00000000E+00  0.00000000E+00
  0.00000000E+00  0.00000000E+00  0.00000000E+00
  0.00000000E+00  0.00000000E+00  0.00000000E+00
  0.00000000E+00  0.00000000E+00  0.00000000E+00
  0.00000000E+00  0.00000000E+00  0.00000000E+00
  0.00000000E+00  0.00000000E+00  0.00000000E+00
  0.00000000E+00  0.00000000E+00  0.00000000E+00
  0.00000000E+00  0.00000000E+00  0.00000000E+00
  0.00000000E+00  0.00000000E+00  0.00000000E+00
  0.00000000E+00  0.00000000E+00  0.00000000E+00
  0.00000000E+00  0.00000000E+00  0.00000000E+00
  0.00000000E+00  0.00000000E+00  0.00000000E+00
  0.00000000E+00  0.00000000E+00  0.00000000E+00
  0.00000000E+00  0.00000000E+00  0.00000000E+00
  0.00000000E+00  0.00000000E+00  0.00000000E+00
