Be4 In4 Cl20                            
   1.0000000000000000     
     6.3241487627100206   -0.0000000000000001    0.0000000000000005
    -0.0000000000000005    7.3344175498039847    0.0000000000000005
     0.0000000000000003    0.0000000000000003   18.6741465454313058
   Be   In   Cl
     4     4    20
Direct
  0.0385258132500184  0.6285132972967276  0.5821001050557939
  0.5385258132500184  0.8714867027032724  0.4178998949442132
  0.9614741867499816  0.1285132972967276  0.9178998949442061
  0.4614741867499816  0.3714867027032724  0.0821001050557868
  0.2799578813354415  0.1307491191596526  0.5819665193137098
  0.7799578813354415  0.3692508808403474  0.4180334806862902
  0.7200421186645585  0.6307491191596526  0.9180334806862902
  0.2200421186645585  0.8692508808403474  0.0819665193137098
  0.0199607679952791  0.6293802626111358  0.4783594546549139
  0.5199607679952791  0.8706197373888642  0.5216405453450861
  0.9800392320047209  0.1293802626111358  0.0216405453450861
  0.4800392320047209  0.3706197373888642  0.9783594546549139
  0.5396121927845030  0.6462923033868364  0.3639883517093807
  0.0396121927845030  0.8537076966131636  0.6360116482906122
  0.4603878072154970  0.1462923033868435  0.1360116482906122
  0.9603878072154970  0.3537076966131565  0.8639883517093807
  0.0511137534480426  0.4051467510368454  0.6374320428988440
  0.5511137534480426  0.0948532489631546  0.3625679571011560
  0.9488862465519574  0.9051467510368454  0.8625679571011560
  0.4488862465519574  0.5948532489631546  0.1374320428988440
  0.4819755959999341  0.1235240754668041  0.6871957051120745
  0.9819755959999341  0.3764759245331959  0.3128042948879255
  0.5180244040000659  0.6235240754668041  0.8128042948879255
  0.0180244040000659  0.8764759245331959  0.1871957051120745
  0.5514635929269929  0.3784695470942054  0.5250998209973901
  0.0514635929269929  0.1215304529057946  0.4749001790026099
  0.4485364070730071  0.8784695470942054  0.9749001790026099
  0.9485364070730071  0.6215304529057946  0.0250998209973901

  0.00000000E+00  0.00000000E+00  0.00000000E+00
  0.00000000E+00  0.00000000E+00  0.00000000E+00
  0.00000000E+00  0.00000000E+00  0.00000000E+00
  0.00000000E+00  0.00000000E+00  0.00000000E+00
  0.00000000E+00  0.00000000E+00  0.00000000E+00
  0.00000000E+00  0.00000000E+00  0.00000000E+00
  0.00000000E+00  0.00000000E+00  0.00000000E+00
  0.00000000E+00  0.00000000E+00  0.00000000E+00
  0.00000000E+00  0.00000000E+00  0.00000000E+00
  0.00000000E+00  0.00000000E+00  0.00000000E+00
  0.00000000E+00  0.00000000E+00  0.00000000E+00
  0.00000000E+00  0.00000000E+00  0.00000000E+00
  0.00000000E+00  0.00000000E+00  0.00000000E+00
  0.00000000E+00  0.00000000E+00  0.00000000E+00
  0.00000000E+00  0.00000000E+00  0.00000000E+00
  0.00000000E+00  0.00000000E+00  0.00000000E+00
  0.00000000E+00  0.00000000E+00  0.00000000E+00
  0.00000000E+00  0.00000000E+00  0.00000000E+00
  0.00000000E+00  0.00000000E+00  0.00000000E+00
  0.00000000E+00  0.00000000E+00  0.00000000E+00
  0.00000000E+00  0.00000000E+00  0.00000000E+00
  0.00000000E+00  0.00000000E+00  0.00000000E+00
  0.00000000E+00  0.00000000E+00  0.00000000E+00
  0.00000000E+00  0.00000000E+00  0.00000000E+00
  0.00000000E+00  0.00000000E+00  0.00000000E+00
  0.00000000E+00  0.00000000E+00  0.00000000E+00
  0.00000000E+00  0.00000000E+00  0.00000000E+00
  0.00000000E+00  0.00000000E+00  0.00000000E+00
