Be4 Tl2 I10                             
   1.0000000000000000     
     7.6279249151507056   -7.2335379305338199    0.0182010375951471
     7.6279249151507056    7.2335379305338199    0.0182010375951471
    -7.6141020478485402    0.0000000000000000    7.4508675333024383
   I    Be   Tl
    10     4     2
Direct
  0.4734270000248770  0.9730546378409031  0.9996217953272577
  0.9730546378409031  0.4734270000248770  0.9996217953272577
  0.9882109159025774  0.9882109159025774  0.2897422374845178
  0.8082262851758912  0.4824093070481865  0.2685216596013476
  0.4824093070481865  0.8082262851758912  0.2685216596013476
  0.2963967290004348  0.2963967290004348  0.2914709170225649
  0.6958921992264280  0.6958921992264280  0.7075143292715822
  0.5414371031698479  0.2158269563626192  0.7352456066107393
  0.2158269563626192  0.5414371031698479  0.7352456066107393
  0.0053360762895807  0.0053360762895807  0.7059750646507013
  0.7734567276900890  0.3909315486662024  0.0011994565279068
  0.1637205323143718  0.1637205323143718  0.9987503136977907
  0.8328177754865536  0.8328177754865536  0.9988000158514510
  0.3909315486662024  0.7734567276900890  0.0011994565279068
  0.6787436439178833  0.1800125618835509  0.4992850429434483
  0.1800125618835509  0.6787436439178833  0.4992850429434483

  0.00000000E+00  0.00000000E+00  0.00000000E+00
  0.00000000E+00  0.00000000E+00  0.00000000E+00
  0.00000000E+00  0.00000000E+00  0.00000000E+00
  0.00000000E+00  0.00000000E+00  0.00000000E+00
  0.00000000E+00  0.00000000E+00  0.00000000E+00
  0.00000000E+00  0.00000000E+00  0.00000000E+00
  0.00000000E+00  0.00000000E+00  0.00000000E+00
  0.00000000E+00  0.00000000E+00  0.00000000E+00
  0.00000000E+00  0.00000000E+00  0.00000000E+00
  0.00000000E+00  0.00000000E+00  0.00000000E+00
  0.00000000E+00  0.00000000E+00  0.00000000E+00
  0.00000000E+00  0.00000000E+00  0.00000000E+00
  0.00000000E+00  0.00000000E+00  0.00000000E+00
  0.00000000E+00  0.00000000E+00  0.00000000E+00
  0.00000000E+00  0.00000000E+00  0.00000000E+00
  0.00000000E+00  0.00000000E+00  0.00000000E+00
