MgB                                     
   1.00000000000000     
     6.5358272583806425    0.0000123600951380    0.0000000000000000
     0.0000095710109844    4.9241497490064194    0.0000000000000000
     0.0000000000000000    0.0000000000000000    3.1240052097439350
   B    Mg
     4     4
Direct
  0.9310266455498137  0.4389153465783195  0.0000000000000000
  0.4310026133003575  0.8111195557021986  0.0000000000000000
  0.9024236187028194  0.3111252645488420  0.5000000000000000
  0.4024040103763795  0.9389078671870905  0.5000000000000000
  0.5904455905712922  0.2503208776255050  0.0000000000000000
  0.0903991949387262  0.9996446121831397  0.0000000000000000
  0.2430204044150912  0.4996490348953557  0.5000000000000000
  0.7429779221455277  0.7503174412795417  0.5000000000000000
 
  0.00000000E+00  0.00000000E+00  0.00000000E+00
  0.00000000E+00  0.00000000E+00  0.00000000E+00
  0.00000000E+00  0.00000000E+00  0.00000000E+00
  0.00000000E+00  0.00000000E+00  0.00000000E+00
  0.00000000E+00  0.00000000E+00  0.00000000E+00
  0.00000000E+00  0.00000000E+00  0.00000000E+00
  0.00000000E+00  0.00000000E+00  0.00000000E+00
  0.00000000E+00  0.00000000E+00  0.00000000E+00
