Ba2 Tl2 I10                             
   1.00000000000000     
     7.6763191357936087   -0.0357100239038418    2.8914771729329702
     1.6473630574187432    7.4975554214137752    2.8914772568904090
    -0.2917575023143203   -0.2334943983018934   12.2482837561245823
   Ba   Tl   I 
     2     2    10
Direct
  0.4339914179121251  0.5660085817438443  0.2500000000907363
  0.5660085820878749  0.4339914182561557  0.7499999999092637
  0.0000000000000000  0.0000000000000000  0.5000000000000000
  0.0000000000000000  0.0000000000000000  0.0000000000000000
  0.6906369468302813  0.8338988075262463  0.5947589856819064
  0.1661011923505313  0.3093620526842429  0.9052410144028471
  0.3093620531697283  0.1661011924737537  0.4052420143180981
  0.8338988076494687  0.6906369473157525  0.0947589855971529
  0.9268515391547325  0.0731484611292004  0.7499999999681108
  0.0731484608452675  0.9268515388707996  0.2500000000318892
  0.6432564902006348  0.2686796441586097  0.0443501543963905
  0.7313203556853125  0.3567435098321212  0.4556498457377458
  0.3567435097993652  0.7313203558413903  0.9556498456036095
  0.2686796443146875  0.6432564901678717  0.5443501542622542
 
  0.00000000E+00  0.00000000E+00  0.00000000E+00
  0.00000000E+00  0.00000000E+00  0.00000000E+00
  0.00000000E+00  0.00000000E+00  0.00000000E+00
  0.00000000E+00  0.00000000E+00  0.00000000E+00
  0.00000000E+00  0.00000000E+00  0.00000000E+00
  0.00000000E+00  0.00000000E+00  0.00000000E+00
  0.00000000E+00  0.00000000E+00  0.00000000E+00
  0.00000000E+00  0.00000000E+00  0.00000000E+00
  0.00000000E+00  0.00000000E+00  0.00000000E+00
  0.00000000E+00  0.00000000E+00  0.00000000E+00
  0.00000000E+00  0.00000000E+00  0.00000000E+00
  0.00000000E+00  0.00000000E+00  0.00000000E+00
  0.00000000E+00  0.00000000E+00  0.00000000E+00
  0.00000000E+00  0.00000000E+00  0.00000000E+00
