SrGa                                    
   1.00000000000000     
     3.9125070558869575    0.0000000000000000    0.0000000000000000
     0.0000000000000000    3.9125070558869575    0.0000000000000000
     0.0000000000000000    0.0000000000000000    3.9125070558869575
   Ga   Sr
     1     1
Direct
  0.0000000000000000  0.0000000000000000  0.0000000000000000
  0.5000000000000000  0.5000000000000000  0.5000000000000000
 
  0.00000000E+00  0.00000000E+00  0.00000000E+00
  0.00000000E+00  0.00000000E+00  0.00000000E+00
