Be1 Tl2 F10                             
   1.0000000000000000     
     3.1910588019313209    4.1263710668043059    0.8216539662464859
    -3.1910588019313209    4.1263710668043059    0.8216539662464859
     0.0000000000000000    4.4182139154357074    6.9199474097144504
   Be   Tl   F 
     1     2    10
Direct
  0.4623669413596545  0.5376330586403455  0.0000000000000000
  0.0692220308377642  0.0375255569316124  0.7045787373640948
  0.9624744430683876  0.9307779691622287  0.2954212626358981
  0.5669093008700017  0.5849581314443952  0.3794284074046601
  0.4150418685555906  0.4330906991299912  0.6205715925953399
  0.7832303826139295  0.6106877081100421  0.9415549182279861
  0.3893122918899579  0.2167696173860634  0.0584450817720068
  0.9435639076200744  0.0564360923799327  0.0000000000000000
  0.8990101362088581  0.1009898637911490  0.5000000000000000
  0.9130323224305741  0.5007109237360936  0.6100627775510148
  0.4992890762639064  0.0869676775694117  0.3899372224489781
  0.4020002969664702  0.7614539986850772  0.8008275442149682
  0.2385460013149157  0.5979997030335298  0.1991724557849963

  0.00000000E+00  0.00000000E+00  0.00000000E+00
  0.00000000E+00  0.00000000E+00  0.00000000E+00
  0.00000000E+00  0.00000000E+00  0.00000000E+00
  0.00000000E+00  0.00000000E+00  0.00000000E+00
  0.00000000E+00  0.00000000E+00  0.00000000E+00
  0.00000000E+00  0.00000000E+00  0.00000000E+00
  0.00000000E+00  0.00000000E+00  0.00000000E+00
  0.00000000E+00  0.00000000E+00  0.00000000E+00
  0.00000000E+00  0.00000000E+00  0.00000000E+00
  0.00000000E+00  0.00000000E+00  0.00000000E+00
  0.00000000E+00  0.00000000E+00  0.00000000E+00
  0.00000000E+00  0.00000000E+00  0.00000000E+00
  0.00000000E+00  0.00000000E+00  0.00000000E+00
