Ca23 Al30                               
   1.00000000000000     
     0.0002294484017683   -7.8920348120929589    7.8472311464626321
     6.8343934776866462   -3.9461434889510092   -7.8466121896538716
     6.8343996411182397    3.9458824870416218    7.8467491341703939
   Al   Ca
    30    23
Direct
  0.2157773571335824  0.6853285223841326  0.0756797819602042
  0.4886680465314228  0.7712741284094804  0.0805055826233456
  0.7693513648348684  0.8587882186052553  0.0897022281599860
  0.3290285570775993  0.1543765426815398  0.1340763688919040
  0.0897041158763088  0.2306676373859986  0.1412304496274075
  0.8659411578602416  0.3290378966650067  0.1543801556378739
  0.3146922106985173  0.9243429752504397  0.2157797023442498
  0.8587901894204180  0.0897079319256306  0.2306708889680067
  0.0805018640235744  0.5113512240774583  0.2287481623778120
  0.6430842144457785  0.6841304689645042  0.2544887835381289
  0.0756748898285551  0.7842404773754410  0.3146952176207449
  0.2544873320500116  0.3569412582997700  0.3158877617167377
  0.8456460190605597  0.8659452571193711  0.3290345401045229
  0.6841286916816642  0.2544909676283993  0.3569412449358254
  0.2287502634834908  0.9195145238471767  0.4886719093444754
  0.7712748988914058  0.0805017809319466  0.5113521659855849
  0.3158922144222487  0.7455381960821867  0.6430799168316881
  0.1543753110738137  0.1340754225199916  0.6709860403952419
  0.7455332191551776  0.6430778728527926  0.6841309602433867
  0.9243504152309185  0.2157800628901398  0.6853306357365270
  0.3569440728795712  0.3158985280974775  0.7455265197821745
  0.9195170098484837  0.4886735910023177  0.7712757856095038
  0.1412290209017328  0.9103179516538162  0.7693520650744148
  0.6853343559160834  0.0756760949880402  0.7842415615968648
  0.1340754461038927  0.6709918289051586  0.8456415258836500
  0.9103169566712737  0.7693560640965273  0.8587918347565662
  0.6709918906269294  0.8456416158778808  0.8659463261313007
  0.2306695732800179  0.1412383108612829  0.9103172007466469
  0.5113541089251896  0.2287451248504908  0.9195222786617805
  0.7842438826232510  0.3146939505831412  0.9243490294823360
  0.3395620642366950  0.4338969060038735  0.0505442597779151
  0.0780423029944401  0.9219758643406450  0.0780419577512532
  0.9101420976360686  0.6159406199891606  0.0805242166287456
  0.6159404673600690  0.0805230308208351  0.0898825211362180
  0.5727810087728145  0.3821524299967791  0.1862422663823580
  0.3366686467702991  0.6633467435599556  0.3366674432946652
  0.5661225815336834  0.9494752291569029  0.3395666821344889
  0.8137874986808882  0.5727847070762095  0.3821425776394065
  0.0805197486077063  0.0898781907922768  0.3840775392357401
  0.3821473260948807  0.1862369454606210  0.4272345235432624
  0.9494715710921753  0.3395607703971777  0.4338989959030002
  0.5000253779220145  0.4999988887121987  0.5000253381212190
  0.0505455464287081  0.6604602917094482  0.5661218741167247
  0.6178726675118469  0.8137790697990184  0.5727820192978186
  0.9195005578776190  0.9101426722118759  0.6159415971730624
  0.1862394939027894  0.4272470747991619  0.6178739531895445
  0.4339010595516868  0.0505492486330752  0.6604579454315598
  0.6633641288632433  0.3366646742832415  0.6633633992668422
  0.4272352233768331  0.6178782420071585  0.8137822890027024
  0.3840808982738935  0.9195001531847424  0.9101406754091599
  0.0898804252012582  0.3840881497958648  0.9194980543200728
  0.9219793321775782  0.0780457786079936  0.9219791968669497
  0.6604613245761897  0.5661298918489805  0.9494740496084262
 
  0.00000000E+00  0.00000000E+00  0.00000000E+00
  0.00000000E+00  0.00000000E+00  0.00000000E+00
  0.00000000E+00  0.00000000E+00  0.00000000E+00
  0.00000000E+00  0.00000000E+00  0.00000000E+00
  0.00000000E+00  0.00000000E+00  0.00000000E+00
  0.00000000E+00  0.00000000E+00  0.00000000E+00
  0.00000000E+00  0.00000000E+00  0.00000000E+00
  0.00000000E+00  0.00000000E+00  0.00000000E+00
  0.00000000E+00  0.00000000E+00  0.00000000E+00
  0.00000000E+00  0.00000000E+00  0.00000000E+00
  0.00000000E+00  0.00000000E+00  0.00000000E+00
  0.00000000E+00  0.00000000E+00  0.00000000E+00
  0.00000000E+00  0.00000000E+00  0.00000000E+00
  0.00000000E+00  0.00000000E+00  0.00000000E+00
  0.00000000E+00  0.00000000E+00  0.00000000E+00
  0.00000000E+00  0.00000000E+00  0.00000000E+00
  0.00000000E+00  0.00000000E+00  0.00000000E+00
  0.00000000E+00  0.00000000E+00  0.00000000E+00
  0.00000000E+00  0.00000000E+00  0.00000000E+00
  0.00000000E+00  0.00000000E+00  0.00000000E+00
  0.00000000E+00  0.00000000E+00  0.00000000E+00
  0.00000000E+00  0.00000000E+00  0.00000000E+00
  0.00000000E+00  0.00000000E+00  0.00000000E+00
  0.00000000E+00  0.00000000E+00  0.00000000E+00
  0.00000000E+00  0.00000000E+00  0.00000000E+00
  0.00000000E+00  0.00000000E+00  0.00000000E+00
  0.00000000E+00  0.00000000E+00  0.00000000E+00
  0.00000000E+00  0.00000000E+00  0.00000000E+00
  0.00000000E+00  0.00000000E+00  0.00000000E+00
  0.00000000E+00  0.00000000E+00  0.00000000E+00
  0.00000000E+00  0.00000000E+00  0.00000000E+00
  0.00000000E+00  0.00000000E+00  0.00000000E+00
  0.00000000E+00  0.00000000E+00  0.00000000E+00
  0.00000000E+00  0.00000000E+00  0.00000000E+00
  0.00000000E+00  0.00000000E+00  0.00000000E+00
  0.00000000E+00  0.00000000E+00  0.00000000E+00
  0.00000000E+00  0.00000000E+00  0.00000000E+00
  0.00000000E+00  0.00000000E+00  0.00000000E+00
  0.00000000E+00  0.00000000E+00  0.00000000E+00
  0.00000000E+00  0.00000000E+00  0.00000000E+00
  0.00000000E+00  0.00000000E+00  0.00000000E+00
  0.00000000E+00  0.00000000E+00  0.00000000E+00
  0.00000000E+00  0.00000000E+00  0.00000000E+00
  0.00000000E+00  0.00000000E+00  0.00000000E+00
  0.00000000E+00  0.00000000E+00  0.00000000E+00
  0.00000000E+00  0.00000000E+00  0.00000000E+00
  0.00000000E+00  0.00000000E+00  0.00000000E+00
  0.00000000E+00  0.00000000E+00  0.00000000E+00
  0.00000000E+00  0.00000000E+00  0.00000000E+00
  0.00000000E+00  0.00000000E+00  0.00000000E+00
  0.00000000E+00  0.00000000E+00  0.00000000E+00
  0.00000000E+00  0.00000000E+00  0.00000000E+00
  0.00000000E+00  0.00000000E+00  0.00000000E+00
