Sr2 In4 Br16                            
   1.00000000000000     
     8.2965708542270029    0.6647624359427191    0.0495551402094533
    -0.9990593818403278    8.2547269708555042    0.0475107938521670
    -3.5329410160282926   -4.3110279955290425   14.5009664841934889
   In   Br   Sr
     4    16     2
Direct
  0.8745573358445213  0.1242442390703928  0.2490259905639931
  0.3754970623473568  0.6251200622744904  0.2509558885818066
  0.6245757145810700  0.3750204964030175  0.7491950471489801
  0.1253068224084828  0.8757952134997211  0.7508195095677266
  0.6213191543455068  0.9344958153428422  0.1365674349556230
  0.0217522017548433  0.2070590402018766  0.1366009193570292
  0.4691782471113797  0.3888469620702182  0.1405982796419210
  0.1773534227510609  0.7569746177895240  0.1405944812876072
  0.7427426484120332  0.3222477224290756  0.3594034604708867
  0.1106983320997585  0.0304452749964241  0.3594042779559175
  0.5651327117108877  0.8784467684865334  0.3634473420599491
  0.2926393439518904  0.4779143077063281  0.3633973351224213
  0.7074607495308101  0.5221233862728241  0.6366769409129418
  0.4349908731274539  0.1216819286717694  0.6365640504984498
  0.8891529355409205  0.9696147505958166  0.6405119654477716
  0.2572957484972420  0.6777501333191935  0.6405947484868051
  0.8227999741225460  0.2431101519529122  0.8594575416399408
  0.5308589240526231  0.6113500601683128  0.8594601441052347
  0.9783078283562432  0.7929646893215505  0.8633421336125622
  0.3786278531125120  0.0654295214236100  0.8633807144595949
  0.3751852932804098  0.1244128531434043  0.2500106513237625
  0.6248668230604011  0.8756520048601857  0.7499911427990398
 
  0.00000000E+00  0.00000000E+00  0.00000000E+00
  0.00000000E+00  0.00000000E+00  0.00000000E+00
  0.00000000E+00  0.00000000E+00  0.00000000E+00
  0.00000000E+00  0.00000000E+00  0.00000000E+00
  0.00000000E+00  0.00000000E+00  0.00000000E+00
  0.00000000E+00  0.00000000E+00  0.00000000E+00
  0.00000000E+00  0.00000000E+00  0.00000000E+00
  0.00000000E+00  0.00000000E+00  0.00000000E+00
  0.00000000E+00  0.00000000E+00  0.00000000E+00
  0.00000000E+00  0.00000000E+00  0.00000000E+00
  0.00000000E+00  0.00000000E+00  0.00000000E+00
  0.00000000E+00  0.00000000E+00  0.00000000E+00
  0.00000000E+00  0.00000000E+00  0.00000000E+00
  0.00000000E+00  0.00000000E+00  0.00000000E+00
  0.00000000E+00  0.00000000E+00  0.00000000E+00
  0.00000000E+00  0.00000000E+00  0.00000000E+00
  0.00000000E+00  0.00000000E+00  0.00000000E+00
  0.00000000E+00  0.00000000E+00  0.00000000E+00
  0.00000000E+00  0.00000000E+00  0.00000000E+00
  0.00000000E+00  0.00000000E+00  0.00000000E+00
  0.00000000E+00  0.00000000E+00  0.00000000E+00
  0.00000000E+00  0.00000000E+00  0.00000000E+00
