BaBr3                                   
   1.00000000000000     
    -2.3552865759744646    2.3552865759744646    5.7764996798103043
     2.3552865759744646   -2.3552865759744646    5.7764996798103043
     2.3552865759744646    2.3552865759744646   -5.7764996798103043
   Ba   Br
     1     3
Direct
  0.0000000000000000  0.0000000000000000  0.0000000000000000
  0.7500000000000000  0.2500000000000000  0.5000000000000000
  0.2500000000000000  0.7500000000000000  0.5000000000000000
  0.5000000000000000  0.5000000000000000  0.0000000000000000
 
  0.00000000E+00  0.00000000E+00  0.00000000E+00
  0.00000000E+00  0.00000000E+00  0.00000000E+00
  0.00000000E+00  0.00000000E+00  0.00000000E+00
  0.00000000E+00  0.00000000E+00  0.00000000E+00
