Mg4 Al4 F20                             
   1.0000000000000000     
     9.2693609257808927    0.0000000000000000    0.0000000000000000
     0.0000000000000000    4.8964005998849318    0.0386183161944859
     0.0000000000000000    2.3314591134912201    6.5439138391604796
   Mg   Al   F 
     4     4    20
Direct
  0.9856181488112554  0.4729934514929539  0.2514854457588029
  0.4856181488112554  0.5270065485070461  0.2485145542411971
  0.0143818511887446  0.5270065485070461  0.7485145542411971
  0.5143818511887446  0.4729934514929539  0.7514854457588029
  0.7557415214663550  0.0979182062728157  0.6050348785750259
  0.2557415214663550  0.9020817937271843  0.8949651214249741
  0.2442584785336450  0.9020817937271843  0.3949651214249741
  0.7442584785336450  0.0979182062728157  0.1050348785750259
  0.6089828277776519  0.3453966860881579  0.4973722032458170
  0.1089828277776519  0.6546033139118421  0.0026277967541830
  0.3910171722223481  0.6546033139118421  0.5026277967541830
  0.8910171722223481  0.3453966860881579  0.9973722032458170
  0.8057670333588760  0.1337615167666684  0.3442994965619377
  0.3057670333588831  0.8662384832333316  0.1557005034380623
  0.1942329666411169  0.8662384832333316  0.6557005034380694
  0.6942329666411240  0.1337615167666684  0.8442994965619306
  0.4071366922773052  0.1220193782186101  0.7957524208487143
  0.9071366922773052  0.8779806217813899  0.7042475791512857
  0.5928633077226948  0.8779806217813899  0.2042475791512857
  0.0928633077226948  0.1220193782186101  0.2957524208487143
  0.6452862130208814  0.7905038245422560  0.6479705616003741
  0.1452862130208814  0.2094961754577440  0.8520294383996259
  0.3547137869791186  0.2094961754577440  0.3520294383996330
  0.8547137869791186  0.7905038245422560  0.1479705616003670
  0.3789111623290111  0.5927027543279522  0.9370700036919999
  0.8789111623290111  0.4072972456720478  0.5629299963080001
  0.6210888376709889  0.4072972456720478  0.0629299963080001
  0.1210888376709889  0.5927027543279522  0.4370700036919999

  0.00000000E+00  0.00000000E+00  0.00000000E+00
  0.00000000E+00  0.00000000E+00  0.00000000E+00
  0.00000000E+00  0.00000000E+00  0.00000000E+00
  0.00000000E+00  0.00000000E+00  0.00000000E+00
  0.00000000E+00  0.00000000E+00  0.00000000E+00
  0.00000000E+00  0.00000000E+00  0.00000000E+00
  0.00000000E+00  0.00000000E+00  0.00000000E+00
  0.00000000E+00  0.00000000E+00  0.00000000E+00
  0.00000000E+00  0.00000000E+00  0.00000000E+00
  0.00000000E+00  0.00000000E+00  0.00000000E+00
  0.00000000E+00  0.00000000E+00  0.00000000E+00
  0.00000000E+00  0.00000000E+00  0.00000000E+00
  0.00000000E+00  0.00000000E+00  0.00000000E+00
  0.00000000E+00  0.00000000E+00  0.00000000E+00
  0.00000000E+00  0.00000000E+00  0.00000000E+00
  0.00000000E+00  0.00000000E+00  0.00000000E+00
  0.00000000E+00  0.00000000E+00  0.00000000E+00
  0.00000000E+00  0.00000000E+00  0.00000000E+00
  0.00000000E+00  0.00000000E+00  0.00000000E+00
  0.00000000E+00  0.00000000E+00  0.00000000E+00
  0.00000000E+00  0.00000000E+00  0.00000000E+00
  0.00000000E+00  0.00000000E+00  0.00000000E+00
  0.00000000E+00  0.00000000E+00  0.00000000E+00
  0.00000000E+00  0.00000000E+00  0.00000000E+00
  0.00000000E+00  0.00000000E+00  0.00000000E+00
  0.00000000E+00  0.00000000E+00  0.00000000E+00
  0.00000000E+00  0.00000000E+00  0.00000000E+00
  0.00000000E+00  0.00000000E+00  0.00000000E+00
