Be17 Al11 I1                            
   1.00000000000000     
     6.7192778013579897   -2.6034286532005555    2.9507363008466130
     1.5453072824866694    8.5384884738245610    3.7718038861382590
    -6.9290710039987955   -4.5406307840853879    0.8950461176998736
   Al   I    Be
    11     1    17
Direct
  0.6817300407681728  0.7791829717292060  0.0519468638175979
  0.3208938200184548  0.4187137574739879  0.1929402301164487
  0.7482499422216122  0.1356516804117334  0.2351210620392621
  0.2453524836157186  0.9010129949832830  0.2389714149521822
  0.0973190657023864  0.3021124211695394  0.2927908000595494
  0.4385015697046626  0.2205070511299212  0.3622186073454046
  0.0592089118402299  0.8186432941893642  0.6226110133108733
  0.7956895938119075  0.0490290883874493  0.7747907373580531
  0.9782840808959747  0.6436825535071264  0.7678006924836396
  0.4852583079955934  0.8456760047947824  0.7392097609205805
  0.0443516082838755  0.1509615900348038  0.6769971155663299
  0.6915588629647473  0.3764675890399545  0.9819072554137165
  0.1299086155850659  0.5325126354227478  0.9915614832820694
  0.3584902120690643  0.9039932249045961  0.0041656489029620
  0.3866973833204028  0.1249685790236796  0.9720063452989507
  0.8937133193111180  0.9344783094855273  0.0050281813870896
  0.3823424918999194  0.6829060460414240  0.0337064466738823
  0.7164102410924542  0.8091996518789983  0.3842481184448374
  0.6276446486245959  0.0173995542570893  0.3784009356834233
  0.1286944150818101  0.6129659805183536  0.3157340011140448
  0.1503497484101288  0.1329907097728196  0.4384258952766515
  0.4291874575200012  0.7530777233240968  0.3702408256819893
  0.6566413623532767  0.4043756691072957  0.3695329105579717
  0.2471104374522994  0.9496168163053937  0.5485072203707801
  0.1113453769113804  0.3903682534367405  0.6502382468661381
  0.7058235442865879  0.7104854874237887  0.5633563934405714
  0.8197149655476679  0.3402323489830081  0.6279621196097409
  0.2538783250067596  0.6211990575992914  0.6809253028151829
  0.4166051677041622  0.4369289556639870  0.7286553712100599
 
  0.00000000E+00  0.00000000E+00  0.00000000E+00
  0.00000000E+00  0.00000000E+00  0.00000000E+00
  0.00000000E+00  0.00000000E+00  0.00000000E+00
  0.00000000E+00  0.00000000E+00  0.00000000E+00
  0.00000000E+00  0.00000000E+00  0.00000000E+00
  0.00000000E+00  0.00000000E+00  0.00000000E+00
  0.00000000E+00  0.00000000E+00  0.00000000E+00
  0.00000000E+00  0.00000000E+00  0.00000000E+00
  0.00000000E+00  0.00000000E+00  0.00000000E+00
  0.00000000E+00  0.00000000E+00  0.00000000E+00
  0.00000000E+00  0.00000000E+00  0.00000000E+00
  0.00000000E+00  0.00000000E+00  0.00000000E+00
  0.00000000E+00  0.00000000E+00  0.00000000E+00
  0.00000000E+00  0.00000000E+00  0.00000000E+00
  0.00000000E+00  0.00000000E+00  0.00000000E+00
  0.00000000E+00  0.00000000E+00  0.00000000E+00
  0.00000000E+00  0.00000000E+00  0.00000000E+00
  0.00000000E+00  0.00000000E+00  0.00000000E+00
  0.00000000E+00  0.00000000E+00  0.00000000E+00
  0.00000000E+00  0.00000000E+00  0.00000000E+00
  0.00000000E+00  0.00000000E+00  0.00000000E+00
  0.00000000E+00  0.00000000E+00  0.00000000E+00
  0.00000000E+00  0.00000000E+00  0.00000000E+00
  0.00000000E+00  0.00000000E+00  0.00000000E+00
  0.00000000E+00  0.00000000E+00  0.00000000E+00
  0.00000000E+00  0.00000000E+00  0.00000000E+00
  0.00000000E+00  0.00000000E+00  0.00000000E+00
  0.00000000E+00  0.00000000E+00  0.00000000E+00
  0.00000000E+00  0.00000000E+00  0.00000000E+00
