Tl20 F4                                 
   1.0000000000000000     
     7.5118450794724865    3.3702903646011499    0.4183509562597507
    -7.5118450794724865    3.3702903646011499    0.4183509562597507
     0.0000000000000000    3.5315291305434626   14.5589648369867994
   Tl   F 
    20     4
Direct
  0.7110827744151749  0.7595939320590048  0.7635537818450544
  0.2404060679409952  0.2889172255848251  0.7364462181549456
  0.2889172255848251  0.2404060679409952  0.2364462181549456
  0.7595939320590048  0.7110827744151749  0.2635537818450544
  0.2122105188680123  0.5014004698442562  0.9329079381245151
  0.4985995301557438  0.7877894811319877  0.5670920618754849
  0.7877894811319877  0.4985995301557438  0.0670920618754849
  0.5014004698442562  0.2122105188680123  0.4329079381245151
  0.1397418746502410  0.2500751246478217  0.5266677762707914
  0.7499248753521783  0.8602581253497590  0.9733322237292086
  0.8602581253497590  0.7499248753521783  0.4733322237292086
  0.2500751246478217  0.1397418746502410  0.0266677762707914
  0.6431587160344279  0.2731377848141037  0.6429225285463644
  0.7268622151858963  0.3568412839655721  0.8570774714536356
  0.3568412839655721  0.7268622151858963  0.3570774714536356
  0.2731377848141037  0.6431587160344279  0.1429225285463644
  0.2106640537524669  0.8883903427314621  0.8570490589789230
  0.1116096572685379  0.7893359462475331  0.6429509410210770
  0.7893359462475331  0.1116096572685379  0.1429509410210770
  0.8883903427314621  0.2106640537524669  0.3570490589789230
  0.7710137028705546  0.0768769375428846  0.6591110583142026
  0.9231230624571154  0.2289862971294454  0.8408889416857974
  0.2289862971294454  0.9231230624571154  0.3408889416857974
  0.0768769375428846  0.7710137028705546  0.1591110583142026

  0.00000000E+00  0.00000000E+00  0.00000000E+00
  0.00000000E+00  0.00000000E+00  0.00000000E+00
  0.00000000E+00  0.00000000E+00  0.00000000E+00
  0.00000000E+00  0.00000000E+00  0.00000000E+00
  0.00000000E+00  0.00000000E+00  0.00000000E+00
  0.00000000E+00  0.00000000E+00  0.00000000E+00
  0.00000000E+00  0.00000000E+00  0.00000000E+00
  0.00000000E+00  0.00000000E+00  0.00000000E+00
  0.00000000E+00  0.00000000E+00  0.00000000E+00
  0.00000000E+00  0.00000000E+00  0.00000000E+00
  0.00000000E+00  0.00000000E+00  0.00000000E+00
  0.00000000E+00  0.00000000E+00  0.00000000E+00
  0.00000000E+00  0.00000000E+00  0.00000000E+00
  0.00000000E+00  0.00000000E+00  0.00000000E+00
  0.00000000E+00  0.00000000E+00  0.00000000E+00
  0.00000000E+00  0.00000000E+00  0.00000000E+00
  0.00000000E+00  0.00000000E+00  0.00000000E+00
  0.00000000E+00  0.00000000E+00  0.00000000E+00
  0.00000000E+00  0.00000000E+00  0.00000000E+00
  0.00000000E+00  0.00000000E+00  0.00000000E+00
  0.00000000E+00  0.00000000E+00  0.00000000E+00
  0.00000000E+00  0.00000000E+00  0.00000000E+00
  0.00000000E+00  0.00000000E+00  0.00000000E+00
  0.00000000E+00  0.00000000E+00  0.00000000E+00
