Sr6 Tl4 F24                             
   1.0000000000000000     
    -0.0000000000000000    0.0000000000000000    5.5622450760911857
     9.1068354390502790    0.0000285592891668   -0.0000000000000000
     0.0000288848804031    9.1073573330849715   -0.0000000000000000
   Sr   F    Tl
     6    24     4
Direct
  0.0000000000000000  0.0000053446201207  0.0000043266934213
  0.5000000000000000  0.3211923872739391  0.1788145193211719
  0.5000000000000000  0.8211894966545756  0.3211980445962652
  0.0000000000000000  0.5000053830434510  0.5000037021014450
  0.5000000000000000  0.1788183862875030  0.6788156897869015
  0.5000000000000000  0.6788172953442455  0.8211952082808693
  0.2624945618887153  0.5000058614543619  0.0000053758997183
  0.7375054381112847  0.5000058614543619  0.0000053758997183
  0.2732450344345878  0.7916032725841973  0.0623183358601764
  0.7267549655654122  0.7916032725841973  0.0623183358601764
  0.0000000000000000  0.3170793007641990  0.1829393873143772
  0.2732480895717515  0.0623147452094557  0.2084037005214583
  0.7267519104282485  0.0623147452094557  0.2084037005214583
  0.2732489020520461  0.5623142859776706  0.2916056028093905
  0.7267510979479539  0.5623142859776706  0.2916056028093905
  0.0000000000000000  0.8170747176362596  0.3170740195654247
  0.2732436129720739  0.2916020750895427  0.4376956663647888
  0.7267563870279261  0.2916020750895427  0.4376956663647888
  0.2624934338933116  0.0000059963612671  0.5000055085336470
  0.7375065661066884  0.0000059963612671  0.5000055085336470
  0.2732444210465985  0.7084074250351620  0.5623199540002588
  0.7267555789534015  0.7084074250351620  0.5623199540002588
  0.0000000000000000  0.1829353395246756  0.6829418080420098
  0.2732476251892919  0.4376990707826280  0.7084043766504067
  0.7267523748107081  0.4376990707826280  0.7084043766504067
  0.2732488858338797  0.9376995472033940  0.7916049910928891
  0.7267511141661203  0.9376995472033940  0.7916049910928891
  0.0000000000000000  0.6829372474572253  0.8170750388830328
  0.2732446176532122  0.2084086666612848  0.9376960196094259
  0.7267553823467878  0.2084086666612848  0.9376960196094259
  0.0000000000000000  0.6347140871713250  0.1347223709076317
  0.0000000000000000  0.1347145602545936  0.3652856594512315
  0.0000000000000000  0.8652973909560302  0.6347236482731731
  0.0000000000000000  0.3652971702939070  0.8652875140987675

  0.00000000E+00  0.00000000E+00  0.00000000E+00
  0.00000000E+00  0.00000000E+00  0.00000000E+00
  0.00000000E+00  0.00000000E+00  0.00000000E+00
  0.00000000E+00  0.00000000E+00  0.00000000E+00
  0.00000000E+00  0.00000000E+00  0.00000000E+00
  0.00000000E+00  0.00000000E+00  0.00000000E+00
  0.00000000E+00  0.00000000E+00  0.00000000E+00
  0.00000000E+00  0.00000000E+00  0.00000000E+00
  0.00000000E+00  0.00000000E+00  0.00000000E+00
  0.00000000E+00  0.00000000E+00  0.00000000E+00
  0.00000000E+00  0.00000000E+00  0.00000000E+00
  0.00000000E+00  0.00000000E+00  0.00000000E+00
  0.00000000E+00  0.00000000E+00  0.00000000E+00
  0.00000000E+00  0.00000000E+00  0.00000000E+00
  0.00000000E+00  0.00000000E+00  0.00000000E+00
  0.00000000E+00  0.00000000E+00  0.00000000E+00
  0.00000000E+00  0.00000000E+00  0.00000000E+00
  0.00000000E+00  0.00000000E+00  0.00000000E+00
  0.00000000E+00  0.00000000E+00  0.00000000E+00
  0.00000000E+00  0.00000000E+00  0.00000000E+00
  0.00000000E+00  0.00000000E+00  0.00000000E+00
  0.00000000E+00  0.00000000E+00  0.00000000E+00
  0.00000000E+00  0.00000000E+00  0.00000000E+00
  0.00000000E+00  0.00000000E+00  0.00000000E+00
  0.00000000E+00  0.00000000E+00  0.00000000E+00
  0.00000000E+00  0.00000000E+00  0.00000000E+00
  0.00000000E+00  0.00000000E+00  0.00000000E+00
  0.00000000E+00  0.00000000E+00  0.00000000E+00
  0.00000000E+00  0.00000000E+00  0.00000000E+00
  0.00000000E+00  0.00000000E+00  0.00000000E+00
  0.00000000E+00  0.00000000E+00  0.00000000E+00
  0.00000000E+00  0.00000000E+00  0.00000000E+00
  0.00000000E+00  0.00000000E+00  0.00000000E+00
  0.00000000E+00  0.00000000E+00  0.00000000E+00
