BaI3                                    
   1.00000000000000     
    -2.5493063024522535    2.5493063024522535    6.2447983163377572
     2.5493063024522535   -2.5493063024522535    6.2447983163377572
     2.5493063024522535    2.5493063024522535   -6.2447983163377572
   Ba   I 
     1     3
Direct
  0.0000000000000000  0.0000000000000000  0.0000000000000000
  0.7500000000000000  0.2500000000000000  0.5000000000000000
  0.2500000000000000  0.7500000000000000  0.5000000000000000
  0.5000000000000000  0.5000000000000000  0.0000000000000000
 
  0.00000000E+00  0.00000000E+00  0.00000000E+00
  0.00000000E+00  0.00000000E+00  0.00000000E+00
  0.00000000E+00  0.00000000E+00  0.00000000E+00
  0.00000000E+00  0.00000000E+00  0.00000000E+00
