Ga28 Cl36                               
   1.00000000000000     
    11.9148813039903452    0.0000375116802809    0.0000374859947646
     0.0000374859947646   11.9148813039903434    0.0000375116802809
     0.0000375116802809    0.0000374859947646   11.9148813039903434
   Cl   Ga
    36    28
Direct
  0.9999948073916158  0.9999948073916158  0.9999948073916158
  0.4999783191847698  0.4999803594180250  0.9999750709342408
  0.4552201798992144  0.1934310430066191  0.0385087539526907
  0.0447359592181300  0.6934350212129416  0.0385196375662034
  0.6934350212129416  0.0385196375662034  0.0447359592181300
  0.8065352485925956  0.5385097489616655  0.0447468995906206
  0.1700876593264695  0.1700876593264695  0.1700876593264695
  0.3298826432641775  0.6700972759956514  0.1700749643609285
  0.0385087539526907  0.4552201798992144  0.1934310430066191
  0.4614751820564891  0.9552207567420652  0.1934293765650636
  0.5385013221534010  0.4552147066282899  0.3065229229961233
  0.9614539058477050  0.9552337434777343  0.3065459271595543
  0.6700972759956514  0.1700749643609285  0.3298826432641775
  0.8298835543199345  0.6700829798784653  0.3298867217331747
  0.1934310430066191  0.0385087539526907  0.4552201798992144
  0.3065229229961233  0.5385013221534010  0.4552147066282899
  0.9552207567420652  0.1934293765650636  0.4614751820564891
  0.5447309414443637  0.6934146476246283  0.4614466719035661
  0.4999803594180250  0.9999750709342408  0.4999783191847698
  0.9999750709342408  0.4999783191847698  0.4999803594180250
  0.4552147066282899  0.3065229229961233  0.5385013221534010
  0.0447468995906206  0.8065352485925956  0.5385097489616655
  0.6934146476246283  0.4614466719035661  0.5447309414443637
  0.8065465822534463  0.9614558397407507  0.5447486986215182
  0.1700749643609285  0.3298826432641775  0.6700972759956514
  0.3298867217331747  0.8298835543199345  0.6700829798784653
  0.0385196375662034  0.0447359592181300  0.6934350212129416
  0.4614466719035661  0.5447309414443637  0.6934146476246283
  0.5385097489616655  0.0447468995906206  0.8065352485925956
  0.9614558397407507  0.5447486986215182  0.8065465822534463
  0.6700829798784653  0.3298867217331747  0.8298835543199345
  0.8298935661629159  0.8298935661629159  0.8298935661629159
  0.1934293765650636  0.4614751820564891  0.9552207567420652
  0.3065459271595543  0.9614539058477050  0.9552337434777343
  0.9552337434777343  0.3065459271595543  0.9614539058477050
  0.5447486986215182  0.8065465822534463  0.9614558397407507
  0.4999912822743582  0.9999797475406069  0.9999788091386108
  0.9999788091386108  0.4999912822743582  0.9999797475406069
  0.6657113389351110  0.3151640372359807  0.0571834728566927
  0.8342507046467205  0.8151460947161695  0.0571946166059902
  0.3151339106915785  0.4427980034002914  0.1657014729121471
  0.1848102009359849  0.9427832417717354  0.1657267203020538
  0.9427832417717354  0.1657267203020538  0.1848102009359849
  0.5571836788537254  0.6657219134403434  0.1848299716585089
  0.4427980034002914  0.1657014729121471  0.3151339106915785
  0.0571834728566927  0.6657113389351110  0.3151640372359807
  0.8151489052711938  0.4427745256656337  0.3342671483285500
  0.6848510990676715  0.9427668069185415  0.3342623605131649
  0.1657014729121471  0.3151339106915785  0.4427980034002914
  0.3342671483285500  0.8151489052711938  0.4427745256656337
  0.9999797475406069  0.9999788091386108  0.4999912822743582
  0.4999767682588327  0.4999767682588327  0.4999767682588327
  0.6657219134403434  0.1848299716585089  0.5571836788537254
  0.8342573050038453  0.6848130611410497  0.5571911627291186
  0.3151640372359807  0.0571834728566927  0.6657113389351110
  0.1848299716585089  0.5571836788537254  0.6657219134403434
  0.9427668069185415  0.3342623605131649  0.6848510990676715
  0.5571911627291186  0.8342573050038453  0.6848130611410497
  0.4427745256656337  0.3342671483285500  0.8151489052711938
  0.0571946166059902  0.8342507046467205  0.8151460947161695
  0.8151460947161695  0.0571946166059902  0.8342507046467205
  0.6848130611410497  0.5571911627291186  0.8342573050038453
  0.1657267203020538  0.1848102009359849  0.9427832417717354
  0.3342623605131649  0.6848510990676715  0.9427668069185415
 
  0.00000000E+00  0.00000000E+00  0.00000000E+00
  0.00000000E+00  0.00000000E+00  0.00000000E+00
  0.00000000E+00  0.00000000E+00  0.00000000E+00
  0.00000000E+00  0.00000000E+00  0.00000000E+00
  0.00000000E+00  0.00000000E+00  0.00000000E+00
  0.00000000E+00  0.00000000E+00  0.00000000E+00
  0.00000000E+00  0.00000000E+00  0.00000000E+00
  0.00000000E+00  0.00000000E+00  0.00000000E+00
  0.00000000E+00  0.00000000E+00  0.00000000E+00
  0.00000000E+00  0.00000000E+00  0.00000000E+00
  0.00000000E+00  0.00000000E+00  0.00000000E+00
  0.00000000E+00  0.00000000E+00  0.00000000E+00
  0.00000000E+00  0.00000000E+00  0.00000000E+00
  0.00000000E+00  0.00000000E+00  0.00000000E+00
  0.00000000E+00  0.00000000E+00  0.00000000E+00
  0.00000000E+00  0.00000000E+00  0.00000000E+00
  0.00000000E+00  0.00000000E+00  0.00000000E+00
  0.00000000E+00  0.00000000E+00  0.00000000E+00
  0.00000000E+00  0.00000000E+00  0.00000000E+00
  0.00000000E+00  0.00000000E+00  0.00000000E+00
  0.00000000E+00  0.00000000E+00  0.00000000E+00
  0.00000000E+00  0.00000000E+00  0.00000000E+00
  0.00000000E+00  0.00000000E+00  0.00000000E+00
  0.00000000E+00  0.00000000E+00  0.00000000E+00
  0.00000000E+00  0.00000000E+00  0.00000000E+00
  0.00000000E+00  0.00000000E+00  0.00000000E+00
  0.00000000E+00  0.00000000E+00  0.00000000E+00
  0.00000000E+00  0.00000000E+00  0.00000000E+00
  0.00000000E+00  0.00000000E+00  0.00000000E+00
  0.00000000E+00  0.00000000E+00  0.00000000E+00
  0.00000000E+00  0.00000000E+00  0.00000000E+00
  0.00000000E+00  0.00000000E+00  0.00000000E+00
  0.00000000E+00  0.00000000E+00  0.00000000E+00
  0.00000000E+00  0.00000000E+00  0.00000000E+00
  0.00000000E+00  0.00000000E+00  0.00000000E+00
  0.00000000E+00  0.00000000E+00  0.00000000E+00
  0.00000000E+00  0.00000000E+00  0.00000000E+00
  0.00000000E+00  0.00000000E+00  0.00000000E+00
  0.00000000E+00  0.00000000E+00  0.00000000E+00
  0.00000000E+00  0.00000000E+00  0.00000000E+00
  0.00000000E+00  0.00000000E+00  0.00000000E+00
  0.00000000E+00  0.00000000E+00  0.00000000E+00
  0.00000000E+00  0.00000000E+00  0.00000000E+00
  0.00000000E+00  0.00000000E+00  0.00000000E+00
  0.00000000E+00  0.00000000E+00  0.00000000E+00
  0.00000000E+00  0.00000000E+00  0.00000000E+00
  0.00000000E+00  0.00000000E+00  0.00000000E+00
  0.00000000E+00  0.00000000E+00  0.00000000E+00
  0.00000000E+00  0.00000000E+00  0.00000000E+00
  0.00000000E+00  0.00000000E+00  0.00000000E+00
  0.00000000E+00  0.00000000E+00  0.00000000E+00
  0.00000000E+00  0.00000000E+00  0.00000000E+00
  0.00000000E+00  0.00000000E+00  0.00000000E+00
  0.00000000E+00  0.00000000E+00  0.00000000E+00
  0.00000000E+00  0.00000000E+00  0.00000000E+00
  0.00000000E+00  0.00000000E+00  0.00000000E+00
  0.00000000E+00  0.00000000E+00  0.00000000E+00
  0.00000000E+00  0.00000000E+00  0.00000000E+00
  0.00000000E+00  0.00000000E+00  0.00000000E+00
  0.00000000E+00  0.00000000E+00  0.00000000E+00
  0.00000000E+00  0.00000000E+00  0.00000000E+00
  0.00000000E+00  0.00000000E+00  0.00000000E+00
  0.00000000E+00  0.00000000E+00  0.00000000E+00
  0.00000000E+00  0.00000000E+00  0.00000000E+00
