Be2 Tl2 Cl10                            
   1.0000000000000000     
     5.1040905119334941   -0.0000000000000002    0.0000000000000002
    -0.0000000000000011   11.6972100354655826    0.0000000000000006
     0.0000000000000001    0.0000000000000003    8.7822444065889762
   Be   Tl   Cl
     2     2    10
Direct
  0.0000000000000000  0.0000000000000000  0.5000000000000000
  0.5000000000000000  0.5000000000000000  0.0000000000000000
  0.5000000000000000  0.0000000000000000  0.0000000000000000
  0.0000000000000000  0.5000000000000000  0.5000000000000000
  0.5000000000000000  0.6967570453583676  0.5000000000000000
  0.5000000000000000  0.3032429546416324  0.5000000000000000
  0.5000000000000000  0.0000000000000000  0.3326096405606194
  0.5000000000000000  0.0000000000000000  0.6673903594393806
  0.0000000000000000  0.0000000000000000  0.0000000000000000
  0.0000000000000000  0.1967570453583676  0.0000000000000000
  0.0000000000000000  0.8032429546416324  0.0000000000000000
  0.0000000000000000  0.5000000000000000  0.8326096405606194
  0.0000000000000000  0.5000000000000000  0.1673903594393806
  0.5000000000000000  0.5000000000000000  0.5000000000000000

  0.00000000E+00  0.00000000E+00  0.00000000E+00
  0.00000000E+00  0.00000000E+00  0.00000000E+00
  0.00000000E+00  0.00000000E+00  0.00000000E+00
  0.00000000E+00  0.00000000E+00  0.00000000E+00
  0.00000000E+00  0.00000000E+00  0.00000000E+00
  0.00000000E+00  0.00000000E+00  0.00000000E+00
  0.00000000E+00  0.00000000E+00  0.00000000E+00
  0.00000000E+00  0.00000000E+00  0.00000000E+00
  0.00000000E+00  0.00000000E+00  0.00000000E+00
  0.00000000E+00  0.00000000E+00  0.00000000E+00
  0.00000000E+00  0.00000000E+00  0.00000000E+00
  0.00000000E+00  0.00000000E+00  0.00000000E+00
  0.00000000E+00  0.00000000E+00  0.00000000E+00
  0.00000000E+00  0.00000000E+00  0.00000000E+00
