Be18 Ga11                               
   1.00000000000000     
     5.8586180546082476   -4.4415048169353861    2.4584372047154091
    -0.5003854956788111    7.6158886758657651    2.2646209033518261
    -5.8444607840911331   -3.6604758581288466    3.3422997411294744
   Ga   Be
    11    18
Direct
  0.7394926103022357  0.9401777315107154  0.9961430446526194
  0.2697044021153800  0.3693854887324477  0.1966353845489195
  0.9414062328063224  0.3429065204246982  0.3300432695687334
  0.2224307999588220  0.7359520671218291  0.2068795409880479
  0.3854593501394064  0.1512738393300523  0.4383719350409976
  0.4062779410803685  0.5799032398291004  0.5679900661904753
  0.8801873396570343  0.0378711494920267  0.4246290962301060
  0.9633290147227243  0.7274276054616848  0.5303393073973695
  0.9535816288101557  0.5131433688151148  0.8186146774698884
  0.5397727161335979  0.9633177468494267  0.6904557892464425
  0.0755768469547604  0.1628788066256419  0.8081808485322597
  0.3221778320286575  0.0694268578380033  0.0977604801502920
  0.4990542714046882  0.3659488591780331  0.0223546822186478
  0.9956668793284678  0.8493858457472925  0.8733229791361197
  0.7188548012801732  0.6251928075571271  0.9543057485949191
  0.8936789775445249  0.2710650241730903  0.9747767035640962
  0.4460116606735980  0.6349741963674091  0.0418972786303868
  0.7203636250856604  0.6789370500655778  0.2534597233396525
  0.5589232063612073  0.0015630508398203  0.2167503179465484
  0.8563302306095153  0.5212754847705554  0.1403851542855037
  0.0206146441099762  0.8922197686048676  0.1963804547654036
  0.5248256129577484  0.7763496596424488  0.3745790504229021
  0.6414472464279726  0.3770125835347855  0.3120546668820978
  0.2899999550162846  0.0264460517424467  0.7860688778984510
  0.1350715935631470  0.4110349858847897  0.6706270283372291
  0.6751347072120950  0.5113714863407566  0.6430908239121820
  0.6114990911337230  0.2907199862784609  0.7980107266402072
  0.3182093580780574  0.7961699125305088  0.8903824750571445
  0.3951194245037044  0.3767058247113368  0.7455098683523573
 
  0.00000000E+00  0.00000000E+00  0.00000000E+00
  0.00000000E+00  0.00000000E+00  0.00000000E+00
  0.00000000E+00  0.00000000E+00  0.00000000E+00
  0.00000000E+00  0.00000000E+00  0.00000000E+00
  0.00000000E+00  0.00000000E+00  0.00000000E+00
  0.00000000E+00  0.00000000E+00  0.00000000E+00
  0.00000000E+00  0.00000000E+00  0.00000000E+00
  0.00000000E+00  0.00000000E+00  0.00000000E+00
  0.00000000E+00  0.00000000E+00  0.00000000E+00
  0.00000000E+00  0.00000000E+00  0.00000000E+00
  0.00000000E+00  0.00000000E+00  0.00000000E+00
  0.00000000E+00  0.00000000E+00  0.00000000E+00
  0.00000000E+00  0.00000000E+00  0.00000000E+00
  0.00000000E+00  0.00000000E+00  0.00000000E+00
  0.00000000E+00  0.00000000E+00  0.00000000E+00
  0.00000000E+00  0.00000000E+00  0.00000000E+00
  0.00000000E+00  0.00000000E+00  0.00000000E+00
  0.00000000E+00  0.00000000E+00  0.00000000E+00
  0.00000000E+00  0.00000000E+00  0.00000000E+00
  0.00000000E+00  0.00000000E+00  0.00000000E+00
  0.00000000E+00  0.00000000E+00  0.00000000E+00
  0.00000000E+00  0.00000000E+00  0.00000000E+00
  0.00000000E+00  0.00000000E+00  0.00000000E+00
  0.00000000E+00  0.00000000E+00  0.00000000E+00
  0.00000000E+00  0.00000000E+00  0.00000000E+00
  0.00000000E+00  0.00000000E+00  0.00000000E+00
  0.00000000E+00  0.00000000E+00  0.00000000E+00
  0.00000000E+00  0.00000000E+00  0.00000000E+00
  0.00000000E+00  0.00000000E+00  0.00000000E+00
