Ca2 Ga2 Cl6                             
   1.00000000000000     
     7.2038333902325533    0.0012183844438574   -0.0014553482306908
    -3.6003674627767732    6.2369083898981570    0.0017602245855604
    -3.6033485447120230   -2.0792298755409964    6.7582851970076616
   Ca   Cl   Ga
     2     6     2
Direct
  0.6816689624669507  0.3408228390863499  0.0224102887894020
  0.3183275161276740  0.6590982258877744  0.9774896235205475
  0.7765713640174994  0.0613902090619973  0.2297324989770928
  0.5146051665534017  0.4528735013049427  0.2296401121953977
  0.1680148590607402  0.7152289365869464  0.2293913402695438
  0.8319732942013118  0.2846907057414683  0.7704974188086808
  0.4854098157021909  0.5470627204612981  0.7702687659543059
  0.2234165133701111  0.9385290575215848  0.7701543880581809
  0.2824078021792502  0.1411393368042297  0.4236816721461238
  0.7176047063208841  0.8587644675434447  0.5762338912806584
 
  0.00000000E+00  0.00000000E+00  0.00000000E+00
  0.00000000E+00  0.00000000E+00  0.00000000E+00
  0.00000000E+00  0.00000000E+00  0.00000000E+00
  0.00000000E+00  0.00000000E+00  0.00000000E+00
  0.00000000E+00  0.00000000E+00  0.00000000E+00
  0.00000000E+00  0.00000000E+00  0.00000000E+00
  0.00000000E+00  0.00000000E+00  0.00000000E+00
  0.00000000E+00  0.00000000E+00  0.00000000E+00
  0.00000000E+00  0.00000000E+00  0.00000000E+00
  0.00000000E+00  0.00000000E+00  0.00000000E+00
