Ca1 Tl2 Cl10                            
   1.0000000000000000     
     4.3273338463403732    6.1520608698982979    0.0576608361565505
    -4.3273338463403732    6.1520608698982979    0.0576608361565505
     0.0000000000000000    4.4984451010823472    8.7809149393705930
   Ca   Tl   Cl
     1     2    10
Direct
  0.5772194929412748  0.4227805070587252  0.0000000000000000
  0.0408004124797756  0.8470924468187420  0.7979314540768812
  0.1529075531812651  0.9591995875202244  0.2020685459231188
  0.9242826926813521  0.2956098504840980  0.5776129182828313
  0.7043901495159020  0.0757173073186479  0.4223870817171687
  0.8414750916309330  0.5835655085038596  0.0147134939943641
  0.4164344914961404  0.1585249083690670  0.9852865060056359
  0.9214017596742536  0.0785982403257464  0.0000000000000000
  0.1180518558896324  0.8819481441103676  0.5000000000000000
  0.7060095018572099  0.5153578041215994  0.6651518669964105
  0.4846421958784006  0.2939904981427830  0.3348481330035895
  0.4277720743131681  0.7713882715393225  0.8019699422452362
  0.2286117284606775  0.5722279256868319  0.1980300577547638

  0.00000000E+00  0.00000000E+00  0.00000000E+00
  0.00000000E+00  0.00000000E+00  0.00000000E+00
  0.00000000E+00  0.00000000E+00  0.00000000E+00
  0.00000000E+00  0.00000000E+00  0.00000000E+00
  0.00000000E+00  0.00000000E+00  0.00000000E+00
  0.00000000E+00  0.00000000E+00  0.00000000E+00
  0.00000000E+00  0.00000000E+00  0.00000000E+00
  0.00000000E+00  0.00000000E+00  0.00000000E+00
  0.00000000E+00  0.00000000E+00  0.00000000E+00
  0.00000000E+00  0.00000000E+00  0.00000000E+00
  0.00000000E+00  0.00000000E+00  0.00000000E+00
  0.00000000E+00  0.00000000E+00  0.00000000E+00
  0.00000000E+00  0.00000000E+00  0.00000000E+00
