B6 F4                                   
   1.00000000000000     
    -2.8594797007468786   -0.5689166086327865   -0.5773683773616056
     0.9914565672609182   -2.9352018205166566    0.3453812950698757
     0.2159373816864562    0.6637139866215790   11.3342396265346270
   F    B 
     4     6
Direct
  0.3365737932749227  0.7319579404662022  0.0851571204296775
  0.1693596628520453  0.7561955640093529  0.4134175954863721
  0.8307720238931040  0.2439218329092583  0.5866810877999740
  0.6632513960320523  0.2679215496990963  0.9149220850546484
  0.0926566039603358  0.9232747408717827  0.2976375904993986
  0.4801310818148750  0.6813090695746737  0.2062429389653531
  0.6099034453160783  0.1915733513486160  0.2632044033024670
  0.3901822132300339  0.8084403316412008  0.7368640907042092
  0.5197925926523368  0.3186882930638006  0.7938305930616636
  0.9073771869742160  0.0767173264160093  0.7024424946962213
 
  0.00000000E+00  0.00000000E+00  0.00000000E+00
  0.00000000E+00  0.00000000E+00  0.00000000E+00
  0.00000000E+00  0.00000000E+00  0.00000000E+00
  0.00000000E+00  0.00000000E+00  0.00000000E+00
  0.00000000E+00  0.00000000E+00  0.00000000E+00
  0.00000000E+00  0.00000000E+00  0.00000000E+00
  0.00000000E+00  0.00000000E+00  0.00000000E+00
  0.00000000E+00  0.00000000E+00  0.00000000E+00
  0.00000000E+00  0.00000000E+00  0.00000000E+00
  0.00000000E+00  0.00000000E+00  0.00000000E+00
