Mg3Tl2                                  
   1.0000000000000000     
    -5.5290104271812899    5.5270042230736918    8.1325796237560652
     5.5280967010555724   -5.5294799807011152    8.1336816406174304
     5.5285914545795647    5.5290591357319521   -8.1342191359903158
   Mg   Tl
    24    16
Direct
  0.5745578203490567  0.3026453172143775  0.1416778953047668
  0.0679354399187488  0.3390796982436015  0.1413744190076969
  0.8394782571956725  0.5680245999656535  0.1416170288292307
  0.8028429896557228  0.0746471596604721  0.1414272408956094
  0.3264666507475766  0.8265663900702052  0.1531444432984088
  0.3380840392928519  0.1969385048359271  0.2708082674377721
  0.4323498610507812  0.5735888977802688  0.2713218215922382
  0.6975227998446769  0.8388487620543472  0.2716421241290021
  0.0739009786168481  0.9328290152070906  0.2707381638232320
  0.6438793674505376  0.1440181556964788  0.4999324081074690
  0.1737078445049534  0.3267781969638506  0.5005671225590547
  0.8555627032938347  0.3555521834901541  0.4993331780441181
  0.1447123549217864  0.6447022859025608  0.5011876422117609
  0.8267055462221862  0.6736909048053761  0.5002144561062920
  0.3559154195989862  0.8562918861064688  0.5000146269750232
  0.9259085880973714  0.0674124236558384  0.7281787815926677
  0.3032090094270572  0.1618048680314246  0.7287751088475716
  0.5675043129889090  0.4261620865114608  0.7289897936934153
  0.6606960965784694  0.8022691225295588  0.7281575527782138
  0.6736331233752040  0.1735061459530343  0.8469946335054317
  0.1617051292594240  0.4324635822001071  0.8588525936012914
  0.9321584823166162  0.6612923525938186  0.8585983580122942
  0.4254452955693466  0.6966300401578209  0.8588155694297726
  0.1967152635242684  0.9252480557114779  0.8585209521466481
  0.9988388154035874  0.0000250996924436  0.9988503306433785
  0.2502211131178811  0.2490801712245556  0.9992977498940689
  0.5012051929856369  0.5001016481334517  0.0012731809987656
  0.7495065423906908  0.7505825537197737  0.0000731433851371
  0.5255150268998889  0.0254794676752468  0.1582027640574850
  0.1328977007418217  0.6329358739893536  0.1581639599153135
  0.8825053075958209  0.3825741792732131  0.2641897585111010
  0.3820139323236091  0.1181920946902864  0.4999449327637393
  0.9744321239365306  0.1327398856751003  0.4999232084375507
  0.6325862277799317  0.4741322371107302  0.4999157313244353
  0.3672126923608729  0.5254050520669225  0.5001211979558420
  0.0262621148992608  0.8675938569824453  0.5001510304993246
  0.6179787996077053  0.8817725337585642  0.4999016417138265
  0.1174699016987475  0.6175551119468281  0.7359051451533318
  0.8672788683434831  0.3672529894814289  0.8416782742559832
  0.4740782661136436  0.9741866092382736  0.8415237685617356

  0.00000000E+00  0.00000000E+00  0.00000000E+00
  0.00000000E+00  0.00000000E+00  0.00000000E+00
  0.00000000E+00  0.00000000E+00  0.00000000E+00
  0.00000000E+00  0.00000000E+00  0.00000000E+00
  0.00000000E+00  0.00000000E+00  0.00000000E+00
  0.00000000E+00  0.00000000E+00  0.00000000E+00
  0.00000000E+00  0.00000000E+00  0.00000000E+00
  0.00000000E+00  0.00000000E+00  0.00000000E+00
  0.00000000E+00  0.00000000E+00  0.00000000E+00
  0.00000000E+00  0.00000000E+00  0.00000000E+00
  0.00000000E+00  0.00000000E+00  0.00000000E+00
  0.00000000E+00  0.00000000E+00  0.00000000E+00
  0.00000000E+00  0.00000000E+00  0.00000000E+00
  0.00000000E+00  0.00000000E+00  0.00000000E+00
  0.00000000E+00  0.00000000E+00  0.00000000E+00
  0.00000000E+00  0.00000000E+00  0.00000000E+00
  0.00000000E+00  0.00000000E+00  0.00000000E+00
  0.00000000E+00  0.00000000E+00  0.00000000E+00
  0.00000000E+00  0.00000000E+00  0.00000000E+00
  0.00000000E+00  0.00000000E+00  0.00000000E+00
  0.00000000E+00  0.00000000E+00  0.00000000E+00
  0.00000000E+00  0.00000000E+00  0.00000000E+00
  0.00000000E+00  0.00000000E+00  0.00000000E+00
  0.00000000E+00  0.00000000E+00  0.00000000E+00
  0.00000000E+00  0.00000000E+00  0.00000000E+00
  0.00000000E+00  0.00000000E+00  0.00000000E+00
  0.00000000E+00  0.00000000E+00  0.00000000E+00
  0.00000000E+00  0.00000000E+00  0.00000000E+00
  0.00000000E+00  0.00000000E+00  0.00000000E+00
  0.00000000E+00  0.00000000E+00  0.00000000E+00
  0.00000000E+00  0.00000000E+00  0.00000000E+00
  0.00000000E+00  0.00000000E+00  0.00000000E+00
  0.00000000E+00  0.00000000E+00  0.00000000E+00
  0.00000000E+00  0.00000000E+00  0.00000000E+00
  0.00000000E+00  0.00000000E+00  0.00000000E+00
  0.00000000E+00  0.00000000E+00  0.00000000E+00
  0.00000000E+00  0.00000000E+00  0.00000000E+00
  0.00000000E+00  0.00000000E+00  0.00000000E+00
  0.00000000E+00  0.00000000E+00  0.00000000E+00
  0.00000000E+00  0.00000000E+00  0.00000000E+00
