Mg4 B4 Cl20                             
   1.0000000000000000     
     6.7505827185679932   -0.0000000000000001    0.0000000000000005
    -0.0000000000000005    6.5503571292815828    0.0000000000000004
     0.0000000000000004    0.0000000000000001   18.7498733694681334
   Mg   B    Cl
     4     4    20
Direct
  0.8008175637713961  0.5356701949558555  0.7539461459011676
  0.3008175637714032  0.9643298050441445  0.2460538540988324
  0.1991824362285968  0.0356701949558555  0.7460538540988324
  0.6991824362286039  0.4643298050441445  0.2539461459011676
  0.5193971603118683  0.1648608853102900  0.6273992875844598
  0.0193971603118683  0.3351391146897100  0.3726007124155331
  0.4806028396881317  0.6648608853102900  0.8726007124155402
  0.9806028396881317  0.8351391146897100  0.1273992875844598
  0.0688943731526521  0.4843773795785111  0.4502522593413545
  0.5688943731526521  0.0156226204214889  0.5497477406586455
  0.9311056268473479  0.9843773795785111  0.0497477406586455
  0.4311056268473479  0.5156226204214889  0.9502522593413545
  0.5248970895446234  0.7417554241741442  0.3061887923112678
  0.0248970895446234  0.7582445758258558  0.6938112076887251
  0.4751029104553766  0.2417554241741513  0.1938112076887251
  0.9751029104553766  0.2582445758258487  0.8061887923112678
  0.2530141188538622  0.2520028813443815  0.6327924977397785
  0.7530141188538622  0.2479971186556185  0.3672075022602215
  0.7469858811461378  0.7520028813443815  0.8672075022602215
  0.2469858811461378  0.7479971186556185  0.1327924977397785
  0.5558835385808152  0.0114488808781772  0.7131995308732115
  0.0558835385808152  0.4885511191218228  0.2868004691267885
  0.4441164614191848  0.5114488808781772  0.7868004691267885
  0.9441164614191848  0.9885511191218228  0.2131995308732115
  0.6916302570014352  0.3941725264882479  0.6306692474494469
  0.1916302570014352  0.1058274735117521  0.3693307525505531
  0.3083697429985648  0.8941725264882479  0.8693307525505531
  0.8083697429985648  0.6058274735117521  0.1306692474494469

  0.00000000E+00  0.00000000E+00  0.00000000E+00
  0.00000000E+00  0.00000000E+00  0.00000000E+00
  0.00000000E+00  0.00000000E+00  0.00000000E+00
  0.00000000E+00  0.00000000E+00  0.00000000E+00
  0.00000000E+00  0.00000000E+00  0.00000000E+00
  0.00000000E+00  0.00000000E+00  0.00000000E+00
  0.00000000E+00  0.00000000E+00  0.00000000E+00
  0.00000000E+00  0.00000000E+00  0.00000000E+00
  0.00000000E+00  0.00000000E+00  0.00000000E+00
  0.00000000E+00  0.00000000E+00  0.00000000E+00
  0.00000000E+00  0.00000000E+00  0.00000000E+00
  0.00000000E+00  0.00000000E+00  0.00000000E+00
  0.00000000E+00  0.00000000E+00  0.00000000E+00
  0.00000000E+00  0.00000000E+00  0.00000000E+00
  0.00000000E+00  0.00000000E+00  0.00000000E+00
  0.00000000E+00  0.00000000E+00  0.00000000E+00
  0.00000000E+00  0.00000000E+00  0.00000000E+00
  0.00000000E+00  0.00000000E+00  0.00000000E+00
  0.00000000E+00  0.00000000E+00  0.00000000E+00
  0.00000000E+00  0.00000000E+00  0.00000000E+00
  0.00000000E+00  0.00000000E+00  0.00000000E+00
  0.00000000E+00  0.00000000E+00  0.00000000E+00
  0.00000000E+00  0.00000000E+00  0.00000000E+00
  0.00000000E+00  0.00000000E+00  0.00000000E+00
  0.00000000E+00  0.00000000E+00  0.00000000E+00
  0.00000000E+00  0.00000000E+00  0.00000000E+00
  0.00000000E+00  0.00000000E+00  0.00000000E+00
  0.00000000E+00  0.00000000E+00  0.00000000E+00
