Ca4 Tl2 Cl10                            
   1.0000000000000000     
     7.8438108145949244   -0.0030776382083265   -0.0042028472836947
    -0.0030778600653542    7.8439527795092401   -0.0041795086382773
     3.9168175246377586    3.9168806334373318    7.0207474527607383
   Cl   Ca   Tl
    10     4     2
Direct
  0.0000589571393093  0.0000501295646202  0.9999094678629561
  0.4999055308566795  0.4998975053698658  0.0001119789795325
  0.5244802638761854  0.0243728310696909  0.2466618022438212
  0.0243744723994652  0.2291584568957816  0.2467827932868758
  0.7291528323794267  0.5244661315520460  0.2468309701805964
  0.2289153129892227  0.7289430297900736  0.2469708505145860
  0.7709963736689573  0.2710240199541829  0.7530253523475068
  0.2708430979108627  0.4755651887188392  0.7531634805593015
  0.9755202442497861  0.7707690730192240  0.7532026492359236
  0.4755602705384803  0.9754832087152394  0.7533327165617933
  0.3384650974993590  0.1615006200027622  0.9999950999492455
  0.8384954670868865  0.3385013664434453  0.9999763554423424
  0.1614536122886392  0.6614736226140039  0.0000198325668990
  0.6614889099832055  0.8384787897026413  0.0000098365461412
  0.2500183471246231  0.2499904727136695  0.5000032615228633
  0.7499712100089084  0.7500255538738969  0.5000035521996082

  0.00000000E+00  0.00000000E+00  0.00000000E+00
  0.00000000E+00  0.00000000E+00  0.00000000E+00
  0.00000000E+00  0.00000000E+00  0.00000000E+00
  0.00000000E+00  0.00000000E+00  0.00000000E+00
  0.00000000E+00  0.00000000E+00  0.00000000E+00
  0.00000000E+00  0.00000000E+00  0.00000000E+00
  0.00000000E+00  0.00000000E+00  0.00000000E+00
  0.00000000E+00  0.00000000E+00  0.00000000E+00
  0.00000000E+00  0.00000000E+00  0.00000000E+00
  0.00000000E+00  0.00000000E+00  0.00000000E+00
  0.00000000E+00  0.00000000E+00  0.00000000E+00
  0.00000000E+00  0.00000000E+00  0.00000000E+00
  0.00000000E+00  0.00000000E+00  0.00000000E+00
  0.00000000E+00  0.00000000E+00  0.00000000E+00
  0.00000000E+00  0.00000000E+00  0.00000000E+00
  0.00000000E+00  0.00000000E+00  0.00000000E+00
