Ba13 Ga14                               
   1.00000000000000     
     6.1893624548004507    6.1893624548004516    5.0186689645918801
     6.1893624548004516   -5.0186689645918774   -6.1893624548004524
    -5.0186689645918774    6.1893624548004524   -6.1893624548004507
   Ga   Ba
    14    13
Direct
  0.4559304910484911  0.1699824492777608  0.1699824492777608
  0.5440695089515089  0.8300175507222392  0.8300175507222392
  0.2732953450407933  0.2732953450407933  0.0025721994164272
  0.1699824492777608  0.4559304910484911  0.1699824492777608
  0.8300175507222392  0.5440695089515089  0.8300175507222392
  0.7267046549592067  0.7267046549592067  0.9974278005835728
  0.2732953450407933  0.0025721994164272  0.2732953450407933
  0.0025721994164272  0.2732953450407933  0.2732953450407933
  0.1699824492777608  0.1699824492777608  0.4559304910484911
  0.3187276645295825  0.3187276645295825  0.3187276645295825
  0.8300175507222392  0.8300175507222392  0.5440695089515089
  0.6812723354704175  0.6812723354704175  0.6812723354704175
  0.7267046549592067  0.9974278005835728  0.7267046549592067
  0.9974278005835728  0.7267046549592067  0.7267046549592067
  0.0000000000000000  0.0000000000000000  0.0000000000000000
  0.7333219241898519  0.2666780758101481  0.0000000000000000
  0.2666780758101481  0.7333219241898519  0.0000000000000000
  0.5466742397321482  0.5466742397321482  0.2132756114986094
  0.7333219241898519  0.0000000000000000  0.2666780758101481
  0.0000000000000000  0.7333219241898519  0.2666780758101481
  0.7867243885013906  0.4533257602678518  0.4533257602678518
  0.4533257602678518  0.7867243885013906  0.4533257602678518
  0.2666780758101481  0.0000000000000000  0.7333219241898519
  0.5466742397321482  0.2132756114986094  0.5466742397321482
  0.0000000000000000  0.2666780758101481  0.7333219241898519
  0.2132756114986094  0.5466742397321482  0.5466742397321482
  0.4533257602678518  0.4533257602678518  0.7867243885013906
 
  0.00000000E+00  0.00000000E+00  0.00000000E+00
  0.00000000E+00  0.00000000E+00  0.00000000E+00
  0.00000000E+00  0.00000000E+00  0.00000000E+00
  0.00000000E+00  0.00000000E+00  0.00000000E+00
  0.00000000E+00  0.00000000E+00  0.00000000E+00
  0.00000000E+00  0.00000000E+00  0.00000000E+00
  0.00000000E+00  0.00000000E+00  0.00000000E+00
  0.00000000E+00  0.00000000E+00  0.00000000E+00
  0.00000000E+00  0.00000000E+00  0.00000000E+00
  0.00000000E+00  0.00000000E+00  0.00000000E+00
  0.00000000E+00  0.00000000E+00  0.00000000E+00
  0.00000000E+00  0.00000000E+00  0.00000000E+00
  0.00000000E+00  0.00000000E+00  0.00000000E+00
  0.00000000E+00  0.00000000E+00  0.00000000E+00
  0.00000000E+00  0.00000000E+00  0.00000000E+00
  0.00000000E+00  0.00000000E+00  0.00000000E+00
  0.00000000E+00  0.00000000E+00  0.00000000E+00
  0.00000000E+00  0.00000000E+00  0.00000000E+00
  0.00000000E+00  0.00000000E+00  0.00000000E+00
  0.00000000E+00  0.00000000E+00  0.00000000E+00
  0.00000000E+00  0.00000000E+00  0.00000000E+00
  0.00000000E+00  0.00000000E+00  0.00000000E+00
  0.00000000E+00  0.00000000E+00  0.00000000E+00
  0.00000000E+00  0.00000000E+00  0.00000000E+00
  0.00000000E+00  0.00000000E+00  0.00000000E+00
  0.00000000E+00  0.00000000E+00  0.00000000E+00
  0.00000000E+00  0.00000000E+00  0.00000000E+00
