Be2 B2 Br10                             
   1.0000000000000000     
     4.1576868751687588   -0.0000000000000001    0.0000000000000003
    -0.0000000000000010   11.8396786214645537    0.0000000000000010
     0.0000000000000001    0.0000000000000004   11.1132835110519483
   Be   B    Br
     2     2    10
Direct
  0.0000000000000000  0.0000000000000000  0.5000000000000000
  0.5000000000000000  0.5000000000000000  0.0000000000000000
  0.5000000000000000  0.0000000000000000  0.0000000000000000
  0.0000000000000000  0.5000000000000000  0.5000000000000000
  0.5000000000000000  0.8664293338118014  0.5000000000000000
  0.5000000000000000  0.1335706661881986  0.5000000000000000
  0.5000000000000000  0.0000000000000000  0.1860793316650771
  0.5000000000000000  0.0000000000000000  0.8139206683349229
  0.0000000000000000  0.0000000000000000  0.0000000000000000
  0.0000000000000000  0.3664293338118014  0.0000000000000000
  0.0000000000000000  0.6335706661881986  0.0000000000000000
  0.0000000000000000  0.5000000000000000  0.6860793316650771
  0.0000000000000000  0.5000000000000000  0.3139206683349229
  0.5000000000000000  0.5000000000000000  0.5000000000000000

  0.00000000E+00  0.00000000E+00  0.00000000E+00
  0.00000000E+00  0.00000000E+00  0.00000000E+00
  0.00000000E+00  0.00000000E+00  0.00000000E+00
  0.00000000E+00  0.00000000E+00  0.00000000E+00
  0.00000000E+00  0.00000000E+00  0.00000000E+00
  0.00000000E+00  0.00000000E+00  0.00000000E+00
  0.00000000E+00  0.00000000E+00  0.00000000E+00
  0.00000000E+00  0.00000000E+00  0.00000000E+00
  0.00000000E+00  0.00000000E+00  0.00000000E+00
  0.00000000E+00  0.00000000E+00  0.00000000E+00
  0.00000000E+00  0.00000000E+00  0.00000000E+00
  0.00000000E+00  0.00000000E+00  0.00000000E+00
  0.00000000E+00  0.00000000E+00  0.00000000E+00
  0.00000000E+00  0.00000000E+00  0.00000000E+00
