Ca2 B2 I10                              
   1.00000000000000     
     7.7425889098432839   -6.8269527926686058    1.5277584728078766
     7.7425889098432839    6.8269527926686058    1.5277584728078766
    -4.0766958074545263    0.0000000000000000    7.2771342949472970
   Ca   I    B 
     2    10     2
Direct
  0.5424631683418326  0.4583003731573427  0.2474653413367776
  0.4583003731573427  0.5424631683418326  0.7474653413367776
  0.2991122989174784  0.4554565680592475  0.9628645017132698
  0.2279426070648185  0.9577353876779782  0.1841855007180655
  0.8211706152489953  0.2514458915314108  0.2432110735530486
  0.7866996725172442  0.9507344849509920  0.3865309525097658
  0.5549984591653541  0.6995446269426679  0.5336398257332746
  0.4554565680592475  0.2991122989174784  0.4628645017132698
  0.9577353876779782  0.2279426070648185  0.6841855007180655
  0.2514458915314108  0.8211706152489953  0.7432110735530486
  0.9507344849509920  0.7866996725172442  0.8865309525097658
  0.6995446269426679  0.5549984591653541  0.0336398257332675
  0.1407640177453118  0.8532318286793270  0.9421028044358053
  0.8532318286793270  0.1407640177453118  0.4421028044358053
 
  0.00000000E+00  0.00000000E+00  0.00000000E+00
  0.00000000E+00  0.00000000E+00  0.00000000E+00
  0.00000000E+00  0.00000000E+00  0.00000000E+00
  0.00000000E+00  0.00000000E+00  0.00000000E+00
  0.00000000E+00  0.00000000E+00  0.00000000E+00
  0.00000000E+00  0.00000000E+00  0.00000000E+00
  0.00000000E+00  0.00000000E+00  0.00000000E+00
  0.00000000E+00  0.00000000E+00  0.00000000E+00
  0.00000000E+00  0.00000000E+00  0.00000000E+00
  0.00000000E+00  0.00000000E+00  0.00000000E+00
  0.00000000E+00  0.00000000E+00  0.00000000E+00
  0.00000000E+00  0.00000000E+00  0.00000000E+00
  0.00000000E+00  0.00000000E+00  0.00000000E+00
  0.00000000E+00  0.00000000E+00  0.00000000E+00
