Mg2 In2 F10                             
   1.0000000000000000     
     3.7098982674047920    0.0000000000000000    0.0000000000000002
    -0.0000000000000005    7.4755884958962904    0.0000000000000005
    -0.0000000000000000    0.0000000000000000    8.4505166926143662
   Mg   In   F 
     2     2    10
Direct
  0.0000000000000000  0.0000000000000000  0.5000000000000000
  0.5000000000000000  0.5000000000000000  0.0000000000000000
  0.5000000000000000  0.0000000000000000  0.0000000000000000
  0.0000000000000000  0.5000000000000000  0.5000000000000000
  0.5000000000000000  0.8340714171589028  0.5000000000000000
  0.5000000000000000  0.1659285828410901  0.5000000000000000
  0.5000000000000000  0.0000000000000000  0.2356869252629252
  0.5000000000000000  0.0000000000000000  0.7643130747370748
  0.0000000000000000  0.0000000000000000  0.0000000000000000
  0.0000000000000000  0.3340714171589099  0.0000000000000000
  0.0000000000000000  0.6659285828410972  0.0000000000000000
  0.0000000000000000  0.5000000000000000  0.7356869252629252
  0.0000000000000000  0.5000000000000000  0.2643130747370748
  0.5000000000000000  0.5000000000000000  0.5000000000000000

  0.00000000E+00  0.00000000E+00  0.00000000E+00
  0.00000000E+00  0.00000000E+00  0.00000000E+00
  0.00000000E+00  0.00000000E+00  0.00000000E+00
  0.00000000E+00  0.00000000E+00  0.00000000E+00
  0.00000000E+00  0.00000000E+00  0.00000000E+00
  0.00000000E+00  0.00000000E+00  0.00000000E+00
  0.00000000E+00  0.00000000E+00  0.00000000E+00
  0.00000000E+00  0.00000000E+00  0.00000000E+00
  0.00000000E+00  0.00000000E+00  0.00000000E+00
  0.00000000E+00  0.00000000E+00  0.00000000E+00
  0.00000000E+00  0.00000000E+00  0.00000000E+00
  0.00000000E+00  0.00000000E+00  0.00000000E+00
  0.00000000E+00  0.00000000E+00  0.00000000E+00
  0.00000000E+00  0.00000000E+00  0.00000000E+00
