Be16 Al12 I1                            
   1.00000000000000     
     5.5154835358234600   -2.3702649746123479    1.9087548469023621
     1.5810668172809581    8.4694980187377933    3.6831769589080738
    -7.4334790847898775   -5.0856473147248380    2.4071491152340863
   Al   I    Be
    12     1    16
Direct
  0.8774658709204459  0.5474820794488195  0.0352017655159358
  0.5675556430743569  0.7899200154939265  0.9803312450943906
  0.6150106102092963  0.6697441238802782  0.4021097654563519
  0.3297434424803924  0.7710292077917344  0.1694259273220240
  0.5683038111882510  0.3167393976015873  0.2499356469714940
  0.7308098528507472  0.3677248101215298  0.6517742405578772
  0.2163505036081901  0.2435728654845803  0.3413191320275502
  0.8228435655434367  0.0421837466295116  0.5402271396442799
  0.2122606194372381  0.8285246958650205  0.4460836301198867
  0.4679324651454593  0.0311491744669397  0.8533859412710285
  0.1570785784273738  0.3191023504292616  0.9621570392682699
  0.2929050425935955  0.2459529854945330  0.6792556854933238
  0.9502392690126058  0.8551839362226730  0.8232314666411895
  0.8809139791690228  0.2767108580181770  0.0907620049359608
  0.5650475580514396  0.3578080663502092  0.0145186487824063
  0.4254936704326582  0.5398241495483589  0.9609439882486299
  0.7702529257198805  0.0954749285221723  0.1616947037651641
  0.7625550723144130  0.7452120068129275  0.2554742065444344
  0.5463467139719356  0.0752240877260988  0.2800496284530780
  0.9085172385394742  0.5516728153009254  0.3192465068139967
  0.9791957994523344  0.9960268173384748  0.3219488143160447
  0.9393083567876133  0.5534762986737931  0.5795680428712799
  0.2344523682576067  0.4986265015469016  0.3120960343694037
  0.9399483639998465  0.2730861661551316  0.4755773653374789
  0.4118840705508120  0.0615958624005728  0.4514991274829967
  0.5552978906179646  0.5547021055046244  0.5779657151283217
  0.6907889873907322  0.2041056983547094  0.7854042978754592
  0.2754426978913145  0.6842091199792080  0.6033551341834595
  0.2992550323615220  0.5039361288373314  0.6754581555082950
 
  0.00000000E+00  0.00000000E+00  0.00000000E+00
  0.00000000E+00  0.00000000E+00  0.00000000E+00
  0.00000000E+00  0.00000000E+00  0.00000000E+00
  0.00000000E+00  0.00000000E+00  0.00000000E+00
  0.00000000E+00  0.00000000E+00  0.00000000E+00
  0.00000000E+00  0.00000000E+00  0.00000000E+00
  0.00000000E+00  0.00000000E+00  0.00000000E+00
  0.00000000E+00  0.00000000E+00  0.00000000E+00
  0.00000000E+00  0.00000000E+00  0.00000000E+00
  0.00000000E+00  0.00000000E+00  0.00000000E+00
  0.00000000E+00  0.00000000E+00  0.00000000E+00
  0.00000000E+00  0.00000000E+00  0.00000000E+00
  0.00000000E+00  0.00000000E+00  0.00000000E+00
  0.00000000E+00  0.00000000E+00  0.00000000E+00
  0.00000000E+00  0.00000000E+00  0.00000000E+00
  0.00000000E+00  0.00000000E+00  0.00000000E+00
  0.00000000E+00  0.00000000E+00  0.00000000E+00
  0.00000000E+00  0.00000000E+00  0.00000000E+00
  0.00000000E+00  0.00000000E+00  0.00000000E+00
  0.00000000E+00  0.00000000E+00  0.00000000E+00
  0.00000000E+00  0.00000000E+00  0.00000000E+00
  0.00000000E+00  0.00000000E+00  0.00000000E+00
  0.00000000E+00  0.00000000E+00  0.00000000E+00
  0.00000000E+00  0.00000000E+00  0.00000000E+00
  0.00000000E+00  0.00000000E+00  0.00000000E+00
  0.00000000E+00  0.00000000E+00  0.00000000E+00
  0.00000000E+00  0.00000000E+00  0.00000000E+00
  0.00000000E+00  0.00000000E+00  0.00000000E+00
  0.00000000E+00  0.00000000E+00  0.00000000E+00
