Mg4 Al4 Cl20                            
   1.0000000000000000     
     6.8813836016697296   -0.0000000000000001    0.0000000000000006
    -0.0000000000000005    6.2384739988094200    0.0000000000000005
     0.0000000000000006    0.0000000000000001   19.9709171652055595
   Mg   Al   Cl
     4     4    20
Direct
  0.9150368386099430  0.5905934308976839  0.5396671899933096
  0.4150368386099359  0.9094065691023161  0.4603328100066904
  0.0849631613900570  0.0905934308976839  0.9603328100066904
  0.5849631613900570  0.4094065691023161  0.0396671899933096
  0.1579963719290376  0.1292539309368763  0.6342613334398663
  0.6579963719290376  0.3707460690631237  0.3657386665601337
  0.8420036280709624  0.6292539309368763  0.8657386665601337
  0.3420036280709624  0.8707460690631237  0.1342613334398663
  0.1134922002134573  0.7274908446629311  0.4514051505141126
  0.6134922002134644  0.7725091553370689  0.5485948494858874
  0.8865077997865356  0.2274908446629240  0.0485948494858874
  0.3865077997865427  0.2725091553370689  0.9514051505141126
  0.5955255341397745  0.7136913015354551  0.3657253856268596
  0.0955255341397745  0.7863086984645449  0.6342746143731262
  0.4044744658602255  0.2136913015354551  0.1342746143731333
  0.9044744658602255  0.2863086984645449  0.8657253856268667
  0.8799178807750465  0.3027130689474262  0.6275552749435533
  0.3799178807750465  0.1972869310525738  0.3724447250564467
  0.1200821192249535  0.8027130689474262  0.8724447250564467
  0.6200821192249535  0.6972869310525738  0.1275552749435533
  0.3206734552217938  0.2167885861432168  0.7185174228926883
  0.8206734552217938  0.2832114138567903  0.2814825771073117
  0.6793265447782062  0.7167885861432168  0.7814825771073117
  0.1793265447782062  0.7832114138567832  0.2185174228926883
  0.8013854770521718  0.2820079396594650  0.4598412192802073
  0.3013854770521718  0.2179920603405350  0.5401587807197927
  0.1986145229478211  0.7820079396594650  0.0401587807197927
  0.6986145229478282  0.7179920603405350  0.9598412192802073

  0.00000000E+00  0.00000000E+00  0.00000000E+00
  0.00000000E+00  0.00000000E+00  0.00000000E+00
  0.00000000E+00  0.00000000E+00  0.00000000E+00
  0.00000000E+00  0.00000000E+00  0.00000000E+00
  0.00000000E+00  0.00000000E+00  0.00000000E+00
  0.00000000E+00  0.00000000E+00  0.00000000E+00
  0.00000000E+00  0.00000000E+00  0.00000000E+00
  0.00000000E+00  0.00000000E+00  0.00000000E+00
  0.00000000E+00  0.00000000E+00  0.00000000E+00
  0.00000000E+00  0.00000000E+00  0.00000000E+00
  0.00000000E+00  0.00000000E+00  0.00000000E+00
  0.00000000E+00  0.00000000E+00  0.00000000E+00
  0.00000000E+00  0.00000000E+00  0.00000000E+00
  0.00000000E+00  0.00000000E+00  0.00000000E+00
  0.00000000E+00  0.00000000E+00  0.00000000E+00
  0.00000000E+00  0.00000000E+00  0.00000000E+00
  0.00000000E+00  0.00000000E+00  0.00000000E+00
  0.00000000E+00  0.00000000E+00  0.00000000E+00
  0.00000000E+00  0.00000000E+00  0.00000000E+00
  0.00000000E+00  0.00000000E+00  0.00000000E+00
  0.00000000E+00  0.00000000E+00  0.00000000E+00
  0.00000000E+00  0.00000000E+00  0.00000000E+00
  0.00000000E+00  0.00000000E+00  0.00000000E+00
  0.00000000E+00  0.00000000E+00  0.00000000E+00
  0.00000000E+00  0.00000000E+00  0.00000000E+00
  0.00000000E+00  0.00000000E+00  0.00000000E+00
  0.00000000E+00  0.00000000E+00  0.00000000E+00
  0.00000000E+00  0.00000000E+00  0.00000000E+00
