Sr6 Tl4 I24                             
   1.0000000000000000     
     0.0000000000000000    0.0000000000000000    6.6690377804238423
    15.1023269079098341   -0.0609224418550786    0.0000000000000000
    -0.0693788310704486   16.5081926190111901    0.0000000000000000
   Sr   I    Tl
     6    24     4
Direct
  0.0000000000000000  0.9911229588937047  0.0111411305687739
  0.5000000000000000  0.3337354794102865  0.0891670322577198
  0.5000000000000000  0.9070810812944785  0.3216895214247941
  0.0000000000000000  0.5049134646408362  0.5114319785869981
  0.5000000000000000  0.1625921709003677  0.5791355447596516
  0.5000000000000000  0.6662069574920153  0.9160892123879094
  0.2478671342990637  0.4965058802760609  0.9977965739317511
  0.7521328657009363  0.4965058802760609  0.9977965739317511
  0.2516107498419160  0.7956648535985522  0.0488337863371271
  0.7483892501580840  0.7956648535985522  0.0488337863371271
  0.0000000000000000  0.3234725907252951  0.1738789351947929
  0.2523286480333269  0.0361341708536713  0.1882971380803227
  0.7476713519666660  0.0361341708536713  0.1882971380803227
  0.2538742606539230  0.5329546825293363  0.3311873936728560
  0.7461257393460841  0.5329546825293363  0.3311873936728560
  0.0000000000000000  0.8155463601161870  0.3092397138330014
  0.2517393643100476  0.3085573786302263  0.4685046194617541
  0.7482606356899524  0.3085573786302263  0.4685046194617541
  0.2480015822664825  0.0115331039613196  0.4705585768713547
  0.7519984177335175  0.0115331039613196  0.4705585768713547
  0.2528876881872648  0.6986777893974931  0.5421645415327419
  0.7471123118127352  0.6986777893974931  0.5421645415327419
  0.0000000000000000  0.1662898181153025  0.6695891103664167
  0.2536836437193699  0.4632081829394181  0.6874663372850947
  0.7463163562806301  0.4632081829394181  0.6874663372850947
  0.2536176486476833  0.9567632506565644  0.8355757158903003
  0.7463823513523167  0.9567632506565644  0.8355757158903003
  0.0000000000000000  0.6803850560623985  0.8319938287118376
  0.2513398266870652  0.1900900063581972  0.9695930144100942
  0.7486601733129348  0.1900900063581972  0.9695930144100942
  0.0000000000000000  0.6454858456158519  0.1771590356799351
  0.0000000000000000  0.1747969787821120  0.3257019184669474
  0.0000000000000000  0.8283953912043316  0.6872651847693731
  0.0000000000000000  0.3199972483452456  0.8167624580451260

  0.00000000E+00  0.00000000E+00  0.00000000E+00
  0.00000000E+00  0.00000000E+00  0.00000000E+00
  0.00000000E+00  0.00000000E+00  0.00000000E+00
  0.00000000E+00  0.00000000E+00  0.00000000E+00
  0.00000000E+00  0.00000000E+00  0.00000000E+00
  0.00000000E+00  0.00000000E+00  0.00000000E+00
  0.00000000E+00  0.00000000E+00  0.00000000E+00
  0.00000000E+00  0.00000000E+00  0.00000000E+00
  0.00000000E+00  0.00000000E+00  0.00000000E+00
  0.00000000E+00  0.00000000E+00  0.00000000E+00
  0.00000000E+00  0.00000000E+00  0.00000000E+00
  0.00000000E+00  0.00000000E+00  0.00000000E+00
  0.00000000E+00  0.00000000E+00  0.00000000E+00
  0.00000000E+00  0.00000000E+00  0.00000000E+00
  0.00000000E+00  0.00000000E+00  0.00000000E+00
  0.00000000E+00  0.00000000E+00  0.00000000E+00
  0.00000000E+00  0.00000000E+00  0.00000000E+00
  0.00000000E+00  0.00000000E+00  0.00000000E+00
  0.00000000E+00  0.00000000E+00  0.00000000E+00
  0.00000000E+00  0.00000000E+00  0.00000000E+00
  0.00000000E+00  0.00000000E+00  0.00000000E+00
  0.00000000E+00  0.00000000E+00  0.00000000E+00
  0.00000000E+00  0.00000000E+00  0.00000000E+00
  0.00000000E+00  0.00000000E+00  0.00000000E+00
  0.00000000E+00  0.00000000E+00  0.00000000E+00
  0.00000000E+00  0.00000000E+00  0.00000000E+00
  0.00000000E+00  0.00000000E+00  0.00000000E+00
  0.00000000E+00  0.00000000E+00  0.00000000E+00
  0.00000000E+00  0.00000000E+00  0.00000000E+00
  0.00000000E+00  0.00000000E+00  0.00000000E+00
  0.00000000E+00  0.00000000E+00  0.00000000E+00
  0.00000000E+00  0.00000000E+00  0.00000000E+00
  0.00000000E+00  0.00000000E+00  0.00000000E+00
  0.00000000E+00  0.00000000E+00  0.00000000E+00
