Ba17 In12                               
   1.0000000000000000     
    -6.5833885869361470   -6.5833885869361470    6.5775618020974820
    -6.5833885869361470    6.5775618020974820   -6.5833885869361470
     6.5775618020974820   -6.5833885869361470   -6.5833885869361470
   In   Ba
    12    17
Direct
  0.3715590212903734  0.1697415169742840  0.0000245986956671
  0.1697415169742840  0.3715590212903734  0.0000245986956671
  0.8307915295955510  0.8307915295955510  0.2025219488866341
  0.3715590212903734  0.0000245986956671  0.1697415169742840
  0.0000245986956671  0.3715590212903734  0.1697415169742840
  0.1697415169742840  0.0000245986956671  0.3715590212903734
  0.0000245986956671  0.1697415169742840  0.3715590212903734
  0.7976096555702625  0.6280776789590803  0.6280776789590803
  0.6280776789590803  0.7976096555702625  0.6280776789590803
  0.8307915295955510  0.2025219488866341  0.8307915295955510
  0.2025219488866341  0.8307915295955510  0.8307915295955510
  0.6280776789590803  0.6280776789590803  0.7976096555702625
  0.0002051680157535  0.0002051680157535  0.0002051680157535
  0.6809071311288548  0.9998574053705909  0.9998574053705909
  0.6982699136923216  0.4230757041082001  0.9998755846524787
  0.9998574053705909  0.6809071311288548  0.9998574053705909
  0.4230757041082001  0.6982699136923216  0.9998755846524787
  0.5770999267253885  0.5770999267253885  0.2752459440432560
  0.7244269533309264  0.3015166527565469  0.3015166527565469
  0.3015166527565469  0.7244269533309264  0.3015166527565469
  0.3193041333833264  0.3193041333833264  0.3193041333833264
  0.6982699136923216  0.9998755846524787  0.4230757041082001
  0.9998755846524787  0.6982699136923216  0.4230757041082001
  0.5770999267253885  0.2752459440432560  0.5770999267253885
  0.2752459440432560  0.5770999267253885  0.5770999267253885
  0.9998574053705909  0.9998574053705909  0.6809071311288548
  0.4230757041082001  0.9998755846524787  0.6982699136923216
  0.9998755846524787  0.4230757041082001  0.6982699136923216
  0.3015166527565469  0.3015166527565469  0.7244269533309264

  0.00000000E+00  0.00000000E+00  0.00000000E+00
  0.00000000E+00  0.00000000E+00  0.00000000E+00
  0.00000000E+00  0.00000000E+00  0.00000000E+00
  0.00000000E+00  0.00000000E+00  0.00000000E+00
  0.00000000E+00  0.00000000E+00  0.00000000E+00
  0.00000000E+00  0.00000000E+00  0.00000000E+00
  0.00000000E+00  0.00000000E+00  0.00000000E+00
  0.00000000E+00  0.00000000E+00  0.00000000E+00
  0.00000000E+00  0.00000000E+00  0.00000000E+00
  0.00000000E+00  0.00000000E+00  0.00000000E+00
  0.00000000E+00  0.00000000E+00  0.00000000E+00
  0.00000000E+00  0.00000000E+00  0.00000000E+00
  0.00000000E+00  0.00000000E+00  0.00000000E+00
  0.00000000E+00  0.00000000E+00  0.00000000E+00
  0.00000000E+00  0.00000000E+00  0.00000000E+00
  0.00000000E+00  0.00000000E+00  0.00000000E+00
  0.00000000E+00  0.00000000E+00  0.00000000E+00
  0.00000000E+00  0.00000000E+00  0.00000000E+00
  0.00000000E+00  0.00000000E+00  0.00000000E+00
  0.00000000E+00  0.00000000E+00  0.00000000E+00
  0.00000000E+00  0.00000000E+00  0.00000000E+00
  0.00000000E+00  0.00000000E+00  0.00000000E+00
  0.00000000E+00  0.00000000E+00  0.00000000E+00
  0.00000000E+00  0.00000000E+00  0.00000000E+00
  0.00000000E+00  0.00000000E+00  0.00000000E+00
  0.00000000E+00  0.00000000E+00  0.00000000E+00
  0.00000000E+00  0.00000000E+00  0.00000000E+00
  0.00000000E+00  0.00000000E+00  0.00000000E+00
  0.00000000E+00  0.00000000E+00  0.00000000E+00
