Be4 Tl4 F20                             
   1.0000000000000000     
     9.3037064476190974    0.0000000000000000    0.0000000000000000
     0.0000000000000000    4.7293627230919553   -0.0374139270621777
     0.0000000000000000    2.1083767742140966    7.4922129563457256
   Be   Tl   F 
     4     4    20
Direct
  0.0327649110415109  0.5435864227019778  0.2197681040117558
  0.5327649110415109  0.4564135772980151  0.2802318959882442
  0.9672350889584891  0.4564135772980151  0.7802318959882442
  0.4672350889584891  0.5435864227019778  0.7197681040117558
  0.7411096187192641  0.0283213302929184  0.6646163252278825
  0.2411096187192641  0.9716786697070816  0.8353836747721175
  0.2588903812807288  0.9716786697070816  0.3353836747721033
  0.7588903812807359  0.0283213302929184  0.1646163252278896
  0.6019614550997829  0.2310844229079265  0.4432359429993866
  0.1019614550997829  0.7689155770920735  0.0567640570006134
  0.3980385449002171  0.7689155770920735  0.5567640570006134
  0.8980385449002171  0.2310844229079265  0.9432359429993866
  0.8484531092563756  0.9616859082938518  0.4237458313187688
  0.3484531092563756  0.0383140917061482  0.0762541686812384
  0.1515468907436244  0.0383140917061482  0.5762541686812312
  0.6515468907436244  0.9616859082938518  0.9237458313187688
  0.4306897285576810  0.2297223018403471  0.7120508963297070
  0.9306897285576738  0.7702776981596529  0.7879491036702930
  0.5693102714423262  0.7702776981596529  0.2879491036702930
  0.0693102714423190  0.2297223018403471  0.2120508963297070
  0.6335257066556537  0.5840821556898561  0.7042248400842226
  0.1335257066556537  0.4159178443101439  0.7957751599157774
  0.3664742933443463  0.4159178443101439  0.2957751599157774
  0.8664742933443463  0.5840821556898561  0.2042248400842226
  0.3973293612194055  0.6154333645424046  0.8846993594063619
  0.8973293612193984  0.3845666354576096  0.6153006405936381
  0.6026706387806016  0.3845666354576025  0.1153006405936310
  0.1026706387805945  0.6154333645424046  0.3846993594063761

  0.00000000E+00  0.00000000E+00  0.00000000E+00
  0.00000000E+00  0.00000000E+00  0.00000000E+00
  0.00000000E+00  0.00000000E+00  0.00000000E+00
  0.00000000E+00  0.00000000E+00  0.00000000E+00
  0.00000000E+00  0.00000000E+00  0.00000000E+00
  0.00000000E+00  0.00000000E+00  0.00000000E+00
  0.00000000E+00  0.00000000E+00  0.00000000E+00
  0.00000000E+00  0.00000000E+00  0.00000000E+00
  0.00000000E+00  0.00000000E+00  0.00000000E+00
  0.00000000E+00  0.00000000E+00  0.00000000E+00
  0.00000000E+00  0.00000000E+00  0.00000000E+00
  0.00000000E+00  0.00000000E+00  0.00000000E+00
  0.00000000E+00  0.00000000E+00  0.00000000E+00
  0.00000000E+00  0.00000000E+00  0.00000000E+00
  0.00000000E+00  0.00000000E+00  0.00000000E+00
  0.00000000E+00  0.00000000E+00  0.00000000E+00
  0.00000000E+00  0.00000000E+00  0.00000000E+00
  0.00000000E+00  0.00000000E+00  0.00000000E+00
  0.00000000E+00  0.00000000E+00  0.00000000E+00
  0.00000000E+00  0.00000000E+00  0.00000000E+00
  0.00000000E+00  0.00000000E+00  0.00000000E+00
  0.00000000E+00  0.00000000E+00  0.00000000E+00
  0.00000000E+00  0.00000000E+00  0.00000000E+00
  0.00000000E+00  0.00000000E+00  0.00000000E+00
  0.00000000E+00  0.00000000E+00  0.00000000E+00
  0.00000000E+00  0.00000000E+00  0.00000000E+00
  0.00000000E+00  0.00000000E+00  0.00000000E+00
  0.00000000E+00  0.00000000E+00  0.00000000E+00
