Be2 Tl4 I16                             
   1.0000000000000000     
    14.2534783644623744    0.0000000000000000    1.1666870068777440
     0.0000000000000000   13.4128502208110927    0.0000000000000000
    -1.4109810979001405    0.0000000000000000    8.9103561893710133
   Tl   Be   I 
     4     2    16
Direct
  0.5230095634445320  0.2577291372460451  0.3249356348295507
  0.0230391627584297  0.7421656125610028  0.3249213385916434
  0.9769904365554680  0.2577291372460451  0.6750643651704493
  0.4769608372415703  0.7421656125610028  0.6750786614083566
  0.7500000000000000  0.2035586353823504  0.5000000000000000
  0.2500000000000000  0.7965656404919059  0.5000000000000000
  0.6699771028157429  0.1011089257493367  0.3064668278171752
  0.1699434483538553  0.8988554965152105  0.3064501713034886
  0.8502273560959637  0.8209091199908514  0.3766708229027742
  0.3501897029827248  0.1790335664358835  0.3766632285000995
  0.5484521986707307  0.4059506614459991  0.1173203908120257
  0.0484752491720357  0.5939388445802152  0.1173233965727150
  0.8681903662685997  0.3069294402208342  0.3913091516600673
  0.3681366999840634  0.6930170573174763  0.3912768034143141
  0.6318096337314003  0.3069294402208342  0.6086908483399327
  0.1318633000159366  0.6930170573174763  0.6087231965856859
  0.9515478013292693  0.4059506614459991  0.8826796091879743
  0.4515247508279643  0.5939388445802152  0.8826766034272850
  0.6497726439040363  0.8209091199908514  0.6233291770972187
  0.1498102970172752  0.1790335664358835  0.6233367714998934
  0.8300228971842571  0.1011089257493367  0.6935331721828248
  0.3300565516461447  0.8988554965152105  0.6935498286965114

  0.00000000E+00  0.00000000E+00  0.00000000E+00
  0.00000000E+00  0.00000000E+00  0.00000000E+00
  0.00000000E+00  0.00000000E+00  0.00000000E+00
  0.00000000E+00  0.00000000E+00  0.00000000E+00
  0.00000000E+00  0.00000000E+00  0.00000000E+00
  0.00000000E+00  0.00000000E+00  0.00000000E+00
  0.00000000E+00  0.00000000E+00  0.00000000E+00
  0.00000000E+00  0.00000000E+00  0.00000000E+00
  0.00000000E+00  0.00000000E+00  0.00000000E+00
  0.00000000E+00  0.00000000E+00  0.00000000E+00
  0.00000000E+00  0.00000000E+00  0.00000000E+00
  0.00000000E+00  0.00000000E+00  0.00000000E+00
  0.00000000E+00  0.00000000E+00  0.00000000E+00
  0.00000000E+00  0.00000000E+00  0.00000000E+00
  0.00000000E+00  0.00000000E+00  0.00000000E+00
  0.00000000E+00  0.00000000E+00  0.00000000E+00
  0.00000000E+00  0.00000000E+00  0.00000000E+00
  0.00000000E+00  0.00000000E+00  0.00000000E+00
  0.00000000E+00  0.00000000E+00  0.00000000E+00
  0.00000000E+00  0.00000000E+00  0.00000000E+00
  0.00000000E+00  0.00000000E+00  0.00000000E+00
  0.00000000E+00  0.00000000E+00  0.00000000E+00
