Ba4 Ga4 Cl20                            
   1.0000000000000000     
    10.3629085965591283    0.0000000000000000    0.0000000000000000
     0.0000000000000000    7.7012628639543852    1.6738458839243859
     0.0000000000000000    6.1627381574823881   12.2784156447707620
   Ba   Ga   Cl
     4     4    20
Direct
  0.0415179991614352  0.6211019061553529  0.2722526989304512
  0.5415179991614352  0.3788980938446471  0.2277473010695488
  0.9584820008385648  0.3788980938446471  0.7277473010695488
  0.4584820008385648  0.6211019061553529  0.7722526989304512
  0.7823942453695523  0.1208975584236853  0.5524590360868018
  0.2823942453695523  0.8791024415763218  0.9475409639131982
  0.2176057546304477  0.8791024415763218  0.4475409639131982
  0.7176057546304477  0.1208975584236853  0.0524590360868018
  0.5705975882119745  0.1939788879976021  0.5185511102978495
  0.0705975882119745  0.8060211120023979  0.9814488897021505
  0.4294024117880255  0.8060211120023979  0.4814488897021505
  0.9294024117880255  0.1939788879976021  0.0185511102978495
  0.8729160532713820  0.1855249008804805  0.3828536977309582
  0.3729160532713820  0.8144750991195195  0.1171463022690418
  0.1270839467286180  0.8144750991195195  0.6171463022690418
  0.6270839467286180  0.1855249008804805  0.8828536977309582
  0.3744791050242569  0.0184761333620784  0.7646421879986462
  0.8744791050242569  0.9815238666379287  0.7353578120013538
  0.6255208949757431  0.9815238666379287  0.2353578120013538
  0.1255208949757431  0.0184761333620784  0.2646421879986462
  0.7380354805531297  0.7353140685067530  0.6386053269289746
  0.2380354805531297  0.2646859314932470  0.8613946730710254
  0.2619645194468703  0.2646859314932470  0.3613946730710254
  0.7619645194468703  0.7353140685067530  0.1386053269289746
  0.3322506023040219  0.5131977408017292  0.0216034449419809
  0.8322506023040219  0.4868022591982637  0.4783965550580191
  0.6677493976959781  0.4868022591982637  0.9783965550580191
  0.1677493976959781  0.5131977408017292  0.5216034449419809

  0.00000000E+00  0.00000000E+00  0.00000000E+00
  0.00000000E+00  0.00000000E+00  0.00000000E+00
  0.00000000E+00  0.00000000E+00  0.00000000E+00
  0.00000000E+00  0.00000000E+00  0.00000000E+00
  0.00000000E+00  0.00000000E+00  0.00000000E+00
  0.00000000E+00  0.00000000E+00  0.00000000E+00
  0.00000000E+00  0.00000000E+00  0.00000000E+00
  0.00000000E+00  0.00000000E+00  0.00000000E+00
  0.00000000E+00  0.00000000E+00  0.00000000E+00
  0.00000000E+00  0.00000000E+00  0.00000000E+00
  0.00000000E+00  0.00000000E+00  0.00000000E+00
  0.00000000E+00  0.00000000E+00  0.00000000E+00
  0.00000000E+00  0.00000000E+00  0.00000000E+00
  0.00000000E+00  0.00000000E+00  0.00000000E+00
  0.00000000E+00  0.00000000E+00  0.00000000E+00
  0.00000000E+00  0.00000000E+00  0.00000000E+00
  0.00000000E+00  0.00000000E+00  0.00000000E+00
  0.00000000E+00  0.00000000E+00  0.00000000E+00
  0.00000000E+00  0.00000000E+00  0.00000000E+00
  0.00000000E+00  0.00000000E+00  0.00000000E+00
  0.00000000E+00  0.00000000E+00  0.00000000E+00
  0.00000000E+00  0.00000000E+00  0.00000000E+00
  0.00000000E+00  0.00000000E+00  0.00000000E+00
  0.00000000E+00  0.00000000E+00  0.00000000E+00
  0.00000000E+00  0.00000000E+00  0.00000000E+00
  0.00000000E+00  0.00000000E+00  0.00000000E+00
  0.00000000E+00  0.00000000E+00  0.00000000E+00
  0.00000000E+00  0.00000000E+00  0.00000000E+00
