Sr3 In8                                 
   1.0000000000000000     
    -4.5860260212107393    0.0022428977559214    0.0082223444269879
     0.0019469946865617   -5.0286819967828507   -0.0195990866339508
     2.2644364866769662    2.5731891096074659   14.9420478762727491
   Sr   In
     3     8
Direct
  0.9992829910083287  0.9997739737742748  0.9996992532352138
  0.1439331181127130  0.6489923991774305  0.2939478090102554
  0.8566881888205984  0.3511288087945701  0.7063114944808859
  0.6107657807923630  0.5478834174082934  0.0958833181271359
  0.5245162084910362  0.0948320689144282  0.1872010148199124
  0.6974427438233732  0.1908994413791163  0.3780757963107746
  0.7426564604918013  0.7486381583276227  0.4936678724762018
  0.2585783817429501  0.2513580997740092  0.5061850328187631
  0.3035980102473133  0.8090023774892785  0.6216370833621880
  0.4715953609062922  0.9049205204633211  0.8125264331089355
  0.3909427555632234  0.4521707344976349  0.9044648922497629

  0.00000000E+00  0.00000000E+00  0.00000000E+00
  0.00000000E+00  0.00000000E+00  0.00000000E+00
  0.00000000E+00  0.00000000E+00  0.00000000E+00
  0.00000000E+00  0.00000000E+00  0.00000000E+00
  0.00000000E+00  0.00000000E+00  0.00000000E+00
  0.00000000E+00  0.00000000E+00  0.00000000E+00
  0.00000000E+00  0.00000000E+00  0.00000000E+00
  0.00000000E+00  0.00000000E+00  0.00000000E+00
  0.00000000E+00  0.00000000E+00  0.00000000E+00
  0.00000000E+00  0.00000000E+00  0.00000000E+00
  0.00000000E+00  0.00000000E+00  0.00000000E+00
