Ba1 B3 I6                               
   1.00000000000000     
     8.5792132342476410   -0.0323223044503714    0.9124099593505089
    -0.0323223044503715    8.5792132342476428    0.9124099593505092
     4.9116815838041203    4.9116815838041203    6.9643936700308728
   I    Ba   B 
     6     1     3
Direct
  0.7283076875382619  0.2716923124617381  0.0000000000000000
  0.2411184489453646  0.2411184489453646  0.0766038711315602
  0.2716923124617381  0.7283076875382619  0.0000000000000000
  0.7588815510546354  0.7588815510546425  0.9233961288684398
  0.7593409764908543  0.7593409764908543  0.5582346808926033
  0.2406590235091457  0.2406590235091457  0.4417653191073967
  0.0000000000000000  0.0000000000000000  0.0000000000000000
  0.5000000000000000  0.5000000000000000  0.0000000000000000
  0.1026933428192720  0.8973066571807280  0.5000000000000000
  0.8973066571807280  0.1026933428192720  0.5000000000000000
 
  0.00000000E+00  0.00000000E+00  0.00000000E+00
  0.00000000E+00  0.00000000E+00  0.00000000E+00
  0.00000000E+00  0.00000000E+00  0.00000000E+00
  0.00000000E+00  0.00000000E+00  0.00000000E+00
  0.00000000E+00  0.00000000E+00  0.00000000E+00
  0.00000000E+00  0.00000000E+00  0.00000000E+00
  0.00000000E+00  0.00000000E+00  0.00000000E+00
  0.00000000E+00  0.00000000E+00  0.00000000E+00
  0.00000000E+00  0.00000000E+00  0.00000000E+00
  0.00000000E+00  0.00000000E+00  0.00000000E+00
