MgB4                                    
   1.00000000000000     
     5.4780396591267380   -0.0000046435478736    0.0000031726686273
    -0.0000052473154033    7.4183688959196017    0.0000041549803571
     0.0000027357493788    0.0000025680335024    4.3921449023175629
   B    Mg
    16     4
Direct
  0.6322970364826972  0.0632247473445773  0.0579578205231144
  0.1322929288329959  0.4368537820923990  0.0579661344364482
  0.0533910404457814  0.6470444128873183  0.2499914548671640
  0.7223760220178761  0.6537913126175425  0.2499917645111296
  0.2223752021917775  0.8462864234584444  0.2499884100488643
  0.5533914757133616  0.8530338594760778  0.2499878758385989
  0.6322969059316605  0.0632256031497107  0.4420154106164844
  0.1322917677388062  0.4368529307350784  0.4420178994888886
  0.8677061681134219  0.5632295202960549  0.5579625489787716
  0.3677060639542020  0.9368537347165855  0.5579619301323007
  0.4466109361099413  0.1470431780494366  0.7499889670353284
  0.7776273238916573  0.1537891889020742  0.7499870881681758
  0.2776247194145469  0.3462867933037401  0.7499920610821178
  0.9466062228395771  0.3530354715021247  0.7499925460964647
  0.8677060587911143  0.5632293026005968  0.9420216833211796
  0.3677056390310369  0.9368527853763524  0.9420126336224044
  0.0459188551177760  0.1377833117670946  0.2499871815852259
  0.5459041811850085  0.3622973089875430  0.2499968720846653
  0.4540806940710596  0.6377883158516866  0.7499908706314358
  0.9540907581256661  0.8622980168855605  0.7499888469312239
 
  0.00000000E+00  0.00000000E+00  0.00000000E+00
  0.00000000E+00  0.00000000E+00  0.00000000E+00
  0.00000000E+00  0.00000000E+00  0.00000000E+00
  0.00000000E+00  0.00000000E+00  0.00000000E+00
  0.00000000E+00  0.00000000E+00  0.00000000E+00
  0.00000000E+00  0.00000000E+00  0.00000000E+00
  0.00000000E+00  0.00000000E+00  0.00000000E+00
  0.00000000E+00  0.00000000E+00  0.00000000E+00
  0.00000000E+00  0.00000000E+00  0.00000000E+00
  0.00000000E+00  0.00000000E+00  0.00000000E+00
  0.00000000E+00  0.00000000E+00  0.00000000E+00
  0.00000000E+00  0.00000000E+00  0.00000000E+00
  0.00000000E+00  0.00000000E+00  0.00000000E+00
  0.00000000E+00  0.00000000E+00  0.00000000E+00
  0.00000000E+00  0.00000000E+00  0.00000000E+00
  0.00000000E+00  0.00000000E+00  0.00000000E+00
  0.00000000E+00  0.00000000E+00  0.00000000E+00
  0.00000000E+00  0.00000000E+00  0.00000000E+00
  0.00000000E+00  0.00000000E+00  0.00000000E+00
  0.00000000E+00  0.00000000E+00  0.00000000E+00
