Mg4 Tl4 Br20                            
   1.0000000000000000     
    15.3522862085616154    0.0000000000000000    0.0000000000000000
     0.0000000000000000    8.1654546054978461   -3.2850715055180753
     0.0000000000000000   -0.0763035162243657    9.3738547763819948
   Mg   Tl   Br
     4     4    20
Direct
  0.0195210874895579  0.3973480478365730  0.3002807774369529
  0.5195210874895579  0.6026519521634199  0.1997192225630471
  0.9804789125104421  0.6026519521634270  0.6997192225630471
  0.4804789125104421  0.3973480478365730  0.8002807774369529
  0.7871219900849908  0.1503326388242741  0.5543108096211000
  0.2871219900849837  0.8496673611757259  0.9456891903789000
  0.2128780099150092  0.8496673611757259  0.4456891903789000
  0.7128780099150092  0.1503326388242741  0.0543108096211000
  0.3710346686848567  0.5511008443486247  0.5841173794554706
  0.8710346686848425  0.4488991556513753  0.9158826205445223
  0.6289653313151575  0.4488991556513753  0.4158826205445223
  0.1289653313151504  0.5511008443486247  0.0841173794554777
  0.7380350817041261  0.9058068318391506  0.2164495257762198
  0.2380350817041332  0.0941931681608494  0.2835504742237802
  0.2619649182958739  0.0941931681608494  0.7835504742237802
  0.7619649182958739  0.9058068318391506  0.7164495257762198
  0.5773044636687672  0.2281538151118383  0.5885614239439008
  0.0773044636687743  0.7718461848881617  0.9114385760560992
  0.4226955363312257  0.7718461848881617  0.4114385760560921
  0.9226955363312328  0.2281538151118383  0.0885614239439079
  0.3205138634279834  0.3477895561073794  0.6976928486714229
  0.8205138634279905  0.6522104438926206  0.8023071513285771
  0.6794861365720095  0.6522104438926206  0.3023071513285771
  0.1794861365720095  0.3477895561073794  0.1976928486714229
  0.4894746596156523  0.3029711045010046  0.0289486216818560
  0.9894746596156523  0.6970288954990025  0.4710513783181440
  0.5105253403843477  0.6970288954990025  0.9710513783181440
  0.0105253403843477  0.3029711045010046  0.5289486216818560

  0.00000000E+00  0.00000000E+00  0.00000000E+00
  0.00000000E+00  0.00000000E+00  0.00000000E+00
  0.00000000E+00  0.00000000E+00  0.00000000E+00
  0.00000000E+00  0.00000000E+00  0.00000000E+00
  0.00000000E+00  0.00000000E+00  0.00000000E+00
  0.00000000E+00  0.00000000E+00  0.00000000E+00
  0.00000000E+00  0.00000000E+00  0.00000000E+00
  0.00000000E+00  0.00000000E+00  0.00000000E+00
  0.00000000E+00  0.00000000E+00  0.00000000E+00
  0.00000000E+00  0.00000000E+00  0.00000000E+00
  0.00000000E+00  0.00000000E+00  0.00000000E+00
  0.00000000E+00  0.00000000E+00  0.00000000E+00
  0.00000000E+00  0.00000000E+00  0.00000000E+00
  0.00000000E+00  0.00000000E+00  0.00000000E+00
  0.00000000E+00  0.00000000E+00  0.00000000E+00
  0.00000000E+00  0.00000000E+00  0.00000000E+00
  0.00000000E+00  0.00000000E+00  0.00000000E+00
  0.00000000E+00  0.00000000E+00  0.00000000E+00
  0.00000000E+00  0.00000000E+00  0.00000000E+00
  0.00000000E+00  0.00000000E+00  0.00000000E+00
  0.00000000E+00  0.00000000E+00  0.00000000E+00
  0.00000000E+00  0.00000000E+00  0.00000000E+00
  0.00000000E+00  0.00000000E+00  0.00000000E+00
  0.00000000E+00  0.00000000E+00  0.00000000E+00
  0.00000000E+00  0.00000000E+00  0.00000000E+00
  0.00000000E+00  0.00000000E+00  0.00000000E+00
  0.00000000E+00  0.00000000E+00  0.00000000E+00
  0.00000000E+00  0.00000000E+00  0.00000000E+00
