Ba1 B2 Br6                              
   1.00000000000000     
     3.8913998684932989    2.2459955996073009    6.3610539331644294
    -3.8913998684932989    2.2459955996073009    6.3610539331644294
     0.0000000000000000   -4.4866106925385196    6.3591532490896698
   Ba   Br   B 
     1     6     2
Direct
  0.0000000000000000  0.0000000000000000  0.0000000000000000
  0.7195357116632337  0.7195357116632337  0.2804304177520009
  0.7196784840070976  0.2802697062721577  0.2806060648626598
  0.2802697062721577  0.7196784840070976  0.2806060648626598
  0.2804642883367663  0.2804642883367663  0.7195695822479991
  0.7197302937278423  0.2803215159929024  0.7193939351373402
  0.2803215159929024  0.7197302937278423  0.7193939351373402
  0.2499237112150894  0.2499237112150894  0.2500449862335401
  0.7500762887849106  0.7500762887849106  0.7499550137664599
 
  0.00000000E+00  0.00000000E+00  0.00000000E+00
  0.00000000E+00  0.00000000E+00  0.00000000E+00
  0.00000000E+00  0.00000000E+00  0.00000000E+00
  0.00000000E+00  0.00000000E+00  0.00000000E+00
  0.00000000E+00  0.00000000E+00  0.00000000E+00
  0.00000000E+00  0.00000000E+00  0.00000000E+00
  0.00000000E+00  0.00000000E+00  0.00000000E+00
  0.00000000E+00  0.00000000E+00  0.00000000E+00
  0.00000000E+00  0.00000000E+00  0.00000000E+00
