Be1 In3 F6                              
   1.00000000000000     
    -3.0401932987416771    4.1747363238275783    2.6246632091209960
     3.1569214173566573   -4.5326690255752986    3.1569214173566569
     2.6246632091209952    4.1747363238275792   -3.0401932987416767
   F    Be   In
     6     1     3
Direct
  0.2477575215301258  0.4425120683750166  0.2477575215301258
  0.7879489520892378  0.0000000000000000  0.2120510479107622
  0.2474749148856361  0.0503744404672091  0.2474749148856361
  0.7525250851143639  0.9496255595327980  0.7525250851143639
  0.7522424784698742  0.5574879316249763  0.7522424784698742
  0.2120510479107622  0.0000000000000000  0.7879489520892378
  0.0000000000000000  0.0000000000000000  0.0000000000000000
  0.7424593297064277  0.5000000000000000  0.2575406702935723
  0.5000000000000000  0.0000000000000000  0.5000000000000000
  0.2575406702935723  0.5000000000000000  0.7424593297064277
 
  0.00000000E+00  0.00000000E+00  0.00000000E+00
  0.00000000E+00  0.00000000E+00  0.00000000E+00
  0.00000000E+00  0.00000000E+00  0.00000000E+00
  0.00000000E+00  0.00000000E+00  0.00000000E+00
  0.00000000E+00  0.00000000E+00  0.00000000E+00
  0.00000000E+00  0.00000000E+00  0.00000000E+00
  0.00000000E+00  0.00000000E+00  0.00000000E+00
  0.00000000E+00  0.00000000E+00  0.00000000E+00
  0.00000000E+00  0.00000000E+00  0.00000000E+00
  0.00000000E+00  0.00000000E+00  0.00000000E+00
