Sr2 In2 F10                             
   1.0000000000000000     
     3.8493489318043128   -0.0000000000000000    0.0000000000000002
    -0.0000000000000006    8.0934567676770968    0.0000000000000005
     0.0000000000000001    0.0000000000000000    8.1268479380455609
   Sr   In   F 
     2     2    10
Direct
  0.0000000000000000  0.0000000000000000  0.5000000000000000
  0.5000000000000000  0.5000000000000000  0.0000000000000000
  0.5000000000000000  0.0000000000000000  0.0000000000000000
  0.0000000000000000  0.5000000000000000  0.5000000000000000
  0.5000000000000000  0.8039680400750129  0.5000000000000000
  0.5000000000000000  0.1960319599249871  0.5000000000000000
  0.5000000000000000  0.0000000000000000  0.2450533330761502
  0.5000000000000000  0.0000000000000000  0.7549466669238498
  0.0000000000000000  0.0000000000000000  0.0000000000000000
  0.0000000000000000  0.3039680400750129  0.0000000000000000
  0.0000000000000000  0.6960319599249871  0.0000000000000000
  0.0000000000000000  0.5000000000000000  0.7450533330761502
  0.0000000000000000  0.5000000000000000  0.2549466669238498
  0.5000000000000000  0.5000000000000000  0.5000000000000000

  0.00000000E+00  0.00000000E+00  0.00000000E+00
  0.00000000E+00  0.00000000E+00  0.00000000E+00
  0.00000000E+00  0.00000000E+00  0.00000000E+00
  0.00000000E+00  0.00000000E+00  0.00000000E+00
  0.00000000E+00  0.00000000E+00  0.00000000E+00
  0.00000000E+00  0.00000000E+00  0.00000000E+00
  0.00000000E+00  0.00000000E+00  0.00000000E+00
  0.00000000E+00  0.00000000E+00  0.00000000E+00
  0.00000000E+00  0.00000000E+00  0.00000000E+00
  0.00000000E+00  0.00000000E+00  0.00000000E+00
  0.00000000E+00  0.00000000E+00  0.00000000E+00
  0.00000000E+00  0.00000000E+00  0.00000000E+00
  0.00000000E+00  0.00000000E+00  0.00000000E+00
  0.00000000E+00  0.00000000E+00  0.00000000E+00
