Ca2 Tl2 I10                             
   1.0000000000000000     
     5.9596783502659099   -0.0000000000000003    0.0000000000000003
    -0.0000000000000013   13.1615922821064810    0.0000000000000008
     0.0000000000000002    0.0000000000000005   10.7771347947548346
   Ca   Tl   I 
     2     2    10
Direct
  0.0000000000000000  0.0000000000000000  0.5000000000000000
  0.5000000000000000  0.5000000000000000  0.0000000000000000
  0.5000000000000000  0.0000000000000000  0.0000000000000000
  0.0000000000000000  0.5000000000000000  0.5000000000000000
  0.5000000000000000  0.7238407829563727  0.5000000000000000
  0.5000000000000000  0.2761592170436344  0.5000000000000000
  0.5000000000000000  0.0000000000000000  0.6733542863146198
  0.5000000000000000  0.0000000000000000  0.3266457136853802
  0.0000000000000000  0.0000000000000000  0.0000000000000000
  0.0000000000000000  0.2238407829563656  0.0000000000000000
  0.0000000000000000  0.7761592170436273  0.0000000000000000
  0.0000000000000000  0.5000000000000000  0.1733542863146198
  0.0000000000000000  0.5000000000000000  0.8266457136853802
  0.5000000000000000  0.5000000000000000  0.5000000000000000

  0.00000000E+00  0.00000000E+00  0.00000000E+00
  0.00000000E+00  0.00000000E+00  0.00000000E+00
  0.00000000E+00  0.00000000E+00  0.00000000E+00
  0.00000000E+00  0.00000000E+00  0.00000000E+00
  0.00000000E+00  0.00000000E+00  0.00000000E+00
  0.00000000E+00  0.00000000E+00  0.00000000E+00
  0.00000000E+00  0.00000000E+00  0.00000000E+00
  0.00000000E+00  0.00000000E+00  0.00000000E+00
  0.00000000E+00  0.00000000E+00  0.00000000E+00
  0.00000000E+00  0.00000000E+00  0.00000000E+00
  0.00000000E+00  0.00000000E+00  0.00000000E+00
  0.00000000E+00  0.00000000E+00  0.00000000E+00
  0.00000000E+00  0.00000000E+00  0.00000000E+00
  0.00000000E+00  0.00000000E+00  0.00000000E+00
