Mg28 In11                               
   1.00000000000000     
     4.8731549806000247    0.0000000250574761   -0.4191410115098270
    -0.0758741890764956    7.2654507194014863   -0.8821477642721839
    -0.2178674783203408   -0.5314523866801603   26.0054454915597546
   Mg   In
    28    11
Direct
  0.8191590476958339  0.8734257537869965  0.6383180953921510
  0.5681939587481608  0.2851628078358317  0.1363889174868689
  0.7242151192011690  0.2658380861147549  0.4484292384065114
  0.6366179260926756  0.2096772532737532  0.2732358522159402
  0.3183574446276083  0.1907641827109003  0.6367148891196095
  0.8601802170054498  0.6153707028993409  0.7203604341840020
  0.5417513670820355  0.6335000869425897  0.0835017341252922
  0.9999999999801901  0.6072941030295169  0.0000000000010871
  0.6223751726976374  0.6315533911153963  0.2447493453548475
  0.9152279453394456  0.4746890575688525  0.8304568907515559
  0.2621480028214762  0.2757664282418730  0.5242960056388313
  0.2757848807716243  0.8174088477119454  0.5515707615934460
  0.9028973678504073  0.9811278764996985  0.8057937356373515
  0.3633820739016755  0.9364424010563823  0.7267641477856799
  0.4582486329181990  0.5499983528196282  0.9164982658736278
  0.6816425554302086  0.5540492935891237  0.3632851108789694
  0.4318060412354043  0.1487738903497515  0.8636110825123495
  0.1398197829344596  0.8950112687187328  0.2796405658171111
  0.0971026321993023  0.1753341408676192  0.1942062643636646
  0.7861296171998760  0.4993916423745475  0.5722592343758706
  0.3776248273115286  0.3868040457579625  0.7552506546452094
  0.4999999999763460  0.2694735882801282  0.0000000000009877
  0.7378519972249933  0.7514714226057322  0.4757039943624548
  0.9583982176785213  0.8669829203154649  0.9167964351770195
  0.0847720545944242  0.6442321668123441  0.1695431092470159
  0.2138703827582660  0.9271324079951810  0.4277407656243923
  0.1808409523331633  0.2351076583923657  0.3616819046058879
  0.0416017823800630  0.9501874851341157  0.0832035648222416
  0.6782286852519306  0.9603821564804420  0.3564573705535992
  0.1412528930854933  0.4811062805911277  0.2825057861695299
  0.7762219845955869  0.0881859697929315  0.5524449692571096
  0.9613983928774061  0.2738688625735364  0.9227967858087496
  0.3217713146725814  0.6039257859254121  0.6435426294445463
  0.8587471069581127  0.1985994944233909  0.7174942138318841
  0.0386016071261395  0.3510730767669301  0.0772032141903694
  0.5880206217099513  0.9207546509283020  0.1760402434575781
  0.4119793782876400  0.7447144074708376  0.8239597565421093
  0.2237780154020115  0.5357410005377332  0.4475550307434659
  0.5000000000429949  0.8736760517088271  0.0000000000011013
 
  0.00000000E+00  0.00000000E+00  0.00000000E+00
  0.00000000E+00  0.00000000E+00  0.00000000E+00
  0.00000000E+00  0.00000000E+00  0.00000000E+00
  0.00000000E+00  0.00000000E+00  0.00000000E+00
  0.00000000E+00  0.00000000E+00  0.00000000E+00
  0.00000000E+00  0.00000000E+00  0.00000000E+00
  0.00000000E+00  0.00000000E+00  0.00000000E+00
  0.00000000E+00  0.00000000E+00  0.00000000E+00
  0.00000000E+00  0.00000000E+00  0.00000000E+00
  0.00000000E+00  0.00000000E+00  0.00000000E+00
  0.00000000E+00  0.00000000E+00  0.00000000E+00
  0.00000000E+00  0.00000000E+00  0.00000000E+00
  0.00000000E+00  0.00000000E+00  0.00000000E+00
  0.00000000E+00  0.00000000E+00  0.00000000E+00
  0.00000000E+00  0.00000000E+00  0.00000000E+00
  0.00000000E+00  0.00000000E+00  0.00000000E+00
  0.00000000E+00  0.00000000E+00  0.00000000E+00
  0.00000000E+00  0.00000000E+00  0.00000000E+00
  0.00000000E+00  0.00000000E+00  0.00000000E+00
  0.00000000E+00  0.00000000E+00  0.00000000E+00
  0.00000000E+00  0.00000000E+00  0.00000000E+00
  0.00000000E+00  0.00000000E+00  0.00000000E+00
  0.00000000E+00  0.00000000E+00  0.00000000E+00
  0.00000000E+00  0.00000000E+00  0.00000000E+00
  0.00000000E+00  0.00000000E+00  0.00000000E+00
  0.00000000E+00  0.00000000E+00  0.00000000E+00
  0.00000000E+00  0.00000000E+00  0.00000000E+00
  0.00000000E+00  0.00000000E+00  0.00000000E+00
  0.00000000E+00  0.00000000E+00  0.00000000E+00
  0.00000000E+00  0.00000000E+00  0.00000000E+00
  0.00000000E+00  0.00000000E+00  0.00000000E+00
  0.00000000E+00  0.00000000E+00  0.00000000E+00
  0.00000000E+00  0.00000000E+00  0.00000000E+00
  0.00000000E+00  0.00000000E+00  0.00000000E+00
  0.00000000E+00  0.00000000E+00  0.00000000E+00
  0.00000000E+00  0.00000000E+00  0.00000000E+00
  0.00000000E+00  0.00000000E+00  0.00000000E+00
  0.00000000E+00  0.00000000E+00  0.00000000E+00
  0.00000000E+00  0.00000000E+00  0.00000000E+00
