Mg3 Tl11                                
   1.0000000000000000     
    -1.2166040345144176    7.3017385696213157    7.3958792519318548
     2.3843444531562503   -5.5091101045372417    6.2377880601902733
     2.3768225290400147    5.9219173167425199   -5.8498841296370427
   Tl   Mg
    11     3
Direct
  0.7045529159220010  0.4248872020812868  0.1104120590273396
  0.4173812818561728  0.2169306242677749  0.3179308826282679
  0.1962758400536657  0.0007837551607039  0.5361780162480443
  0.7691191480321464  0.2182305556243520  0.3180264043133647
  0.0325021153276737  0.3961554456870218  0.1389304860238525
  0.5350580391909006  0.0237409336003083  0.5127497339084996
  0.0039969701187417  0.6343382743904300  0.9008836839761756
  0.1952468440965518  0.7918261927397268  0.7415861950730331
  0.8779461802784425  0.0194906460125068  0.5153733123610209
  0.5460890934743148  0.8216841450036370  0.7135524197580594
  0.3337068648366568  0.6005851470258179  0.9363053851927674
  0.8663660409717764  0.8188656089437671  0.7169199288366812
  0.3629632741175612  0.4076414025971715  0.1292074116644812
  0.6592953917234183  0.6248400668654739  0.9119440809884054

  0.00000000E+00  0.00000000E+00  0.00000000E+00
  0.00000000E+00  0.00000000E+00  0.00000000E+00
  0.00000000E+00  0.00000000E+00  0.00000000E+00
  0.00000000E+00  0.00000000E+00  0.00000000E+00
  0.00000000E+00  0.00000000E+00  0.00000000E+00
  0.00000000E+00  0.00000000E+00  0.00000000E+00
  0.00000000E+00  0.00000000E+00  0.00000000E+00
  0.00000000E+00  0.00000000E+00  0.00000000E+00
  0.00000000E+00  0.00000000E+00  0.00000000E+00
  0.00000000E+00  0.00000000E+00  0.00000000E+00
  0.00000000E+00  0.00000000E+00  0.00000000E+00
  0.00000000E+00  0.00000000E+00  0.00000000E+00
  0.00000000E+00  0.00000000E+00  0.00000000E+00
  0.00000000E+00  0.00000000E+00  0.00000000E+00
