Sr4 B4 I20                              
   1.0000000000000000     
    20.4059144612224301    0.0000000000000000    0.0000000000000000
     0.0000000000000000    9.5205545702606358   -1.1571444213025943
     0.0000000000000000    2.4312154254647957    7.7965097974408186
   Sr   B    I 
     4     4    20
Direct
  0.9799728699735653  0.4182721971094026  0.2698653323674804
  0.4799728699735724  0.5817278028905974  0.2301346676325196
  0.0200271300264276  0.5817278028905974  0.7301346676325196
  0.5200271300264347  0.4182721971094026  0.7698653323674804
  0.7108843457037253  0.1464277314070657  0.6341669886118169
  0.2108843457037253  0.8535722685929343  0.8658330113881831
  0.2891156542962747  0.8535722685929343  0.3658330113881831
  0.7891156542962747  0.1464277314070657  0.1341669886118169
  0.6762005667246811  0.3625335147981588  0.5804889728375215
  0.1762005667246811  0.6374664852018341  0.9195110271624785
  0.3237994332753189  0.6374664852018341  0.4195110271624785
  0.8237994332753189  0.3625335147981588  0.0804889728375215
  0.7517250385573888  0.0608220792751197  0.4032759916705615
  0.2517250385573888  0.9391779207248803  0.0967240083294385
  0.2482749614426112  0.9391779207248803  0.5967240083294385
  0.7482749614426112  0.0608220792751197  0.9032759916705615
  0.4825440104145926  0.0716729416069555  0.8388454277748352
  0.9825440104145997  0.9283270583930516  0.6611545722251648
  0.5174559895854003  0.9283270583930516  0.1611545722251648
  0.0174559895853932  0.0716729416069555  0.3388454277748352
  0.5555218277983656  0.7165573536870653  0.5217771730734171
  0.0555218277983656  0.2834426463129347  0.9782228269265829
  0.4444781722016344  0.2834426463129347  0.4782228269265829
  0.9444781722016344  0.7165573536870653  0.0217771730734171
  0.3915511819859248  0.5294923758919339  0.9276145025611982
  0.8915511819859248  0.4705076241080661  0.5723854974388018
  0.6084488180140752  0.4705076241080661  0.0723854974388018
  0.1084488180140752  0.5294923758919339  0.4276145025611982

  0.00000000E+00  0.00000000E+00  0.00000000E+00
  0.00000000E+00  0.00000000E+00  0.00000000E+00
  0.00000000E+00  0.00000000E+00  0.00000000E+00
  0.00000000E+00  0.00000000E+00  0.00000000E+00
  0.00000000E+00  0.00000000E+00  0.00000000E+00
  0.00000000E+00  0.00000000E+00  0.00000000E+00
  0.00000000E+00  0.00000000E+00  0.00000000E+00
  0.00000000E+00  0.00000000E+00  0.00000000E+00
  0.00000000E+00  0.00000000E+00  0.00000000E+00
  0.00000000E+00  0.00000000E+00  0.00000000E+00
  0.00000000E+00  0.00000000E+00  0.00000000E+00
  0.00000000E+00  0.00000000E+00  0.00000000E+00
  0.00000000E+00  0.00000000E+00  0.00000000E+00
  0.00000000E+00  0.00000000E+00  0.00000000E+00
  0.00000000E+00  0.00000000E+00  0.00000000E+00
  0.00000000E+00  0.00000000E+00  0.00000000E+00
  0.00000000E+00  0.00000000E+00  0.00000000E+00
  0.00000000E+00  0.00000000E+00  0.00000000E+00
  0.00000000E+00  0.00000000E+00  0.00000000E+00
  0.00000000E+00  0.00000000E+00  0.00000000E+00
  0.00000000E+00  0.00000000E+00  0.00000000E+00
  0.00000000E+00  0.00000000E+00  0.00000000E+00
  0.00000000E+00  0.00000000E+00  0.00000000E+00
  0.00000000E+00  0.00000000E+00  0.00000000E+00
  0.00000000E+00  0.00000000E+00  0.00000000E+00
  0.00000000E+00  0.00000000E+00  0.00000000E+00
  0.00000000E+00  0.00000000E+00  0.00000000E+00
  0.00000000E+00  0.00000000E+00  0.00000000E+00
