Ca2 Tl2 Br10                            
   1.0000000000000000     
     5.5907468113024334   -0.0000000000000002    0.0000000000000003
    -0.0000000000000011   11.8690189731376741    0.0000000000000008
     0.0000000000000000    0.0000000000000004   10.0559559662384341
   Ca   Tl   Br
     2     2    10
Direct
  0.0000000000000000  0.0000000000000000  0.5000000000000000
  0.5000000000000000  0.5000000000000000  0.0000000000000000
  0.5000000000000000  0.0000000000000000  0.0000000000000000
  0.0000000000000000  0.5000000000000000  0.5000000000000000
  0.5000000000000000  0.7175234132774406  0.5000000000000000
  0.5000000000000000  0.2824765867225594  0.5000000000000000
  0.5000000000000000  0.0000000000000000  0.6691031353848729
  0.5000000000000000  0.0000000000000000  0.3308968646151271
  0.0000000000000000  0.0000000000000000  0.0000000000000000
  0.0000000000000000  0.2175234132774406  0.0000000000000000
  0.0000000000000000  0.7824765867225594  0.0000000000000000
  0.0000000000000000  0.5000000000000000  0.1691031353848729
  0.0000000000000000  0.5000000000000000  0.8308968646151271
  0.5000000000000000  0.5000000000000000  0.5000000000000000

  0.00000000E+00  0.00000000E+00  0.00000000E+00
  0.00000000E+00  0.00000000E+00  0.00000000E+00
  0.00000000E+00  0.00000000E+00  0.00000000E+00
  0.00000000E+00  0.00000000E+00  0.00000000E+00
  0.00000000E+00  0.00000000E+00  0.00000000E+00
  0.00000000E+00  0.00000000E+00  0.00000000E+00
  0.00000000E+00  0.00000000E+00  0.00000000E+00
  0.00000000E+00  0.00000000E+00  0.00000000E+00
  0.00000000E+00  0.00000000E+00  0.00000000E+00
  0.00000000E+00  0.00000000E+00  0.00000000E+00
  0.00000000E+00  0.00000000E+00  0.00000000E+00
  0.00000000E+00  0.00000000E+00  0.00000000E+00
  0.00000000E+00  0.00000000E+00  0.00000000E+00
  0.00000000E+00  0.00000000E+00  0.00000000E+00
