In3Br2                                  
   1.00000000000000     
    -6.3795283270042962   -0.0116087955344039   -0.0110262343750559
     3.1798385823445159   -5.5773255043236984    0.0186710133075714
    -3.1697157572405512    1.8315603527724427    9.4185479389782110
   Br   In
     4     6
Direct
  0.3169733244302932  0.6846656135338876  0.0511504575820751
  0.1837199567989387  0.8152850876054956  0.4489084796134506
  0.8163459802570827  0.1847966812834514  0.5509842467444486
  0.6830642261192281  0.3153277740870166  0.9487120758605982
  0.2490375090759471  0.1518909144137695  0.2495226017129255
  0.8461188472193228  0.3455967697639650  0.2504843825436964
  0.6526398057748750  0.7480677679285535  0.2498941528394099
  0.3473203894378969  0.2519096987036491  0.7500056234660590
  0.1538678035379348  0.6544079645212264  0.7495098842864110
  0.7509121573484805  0.8480517281589925  0.7504280953509337
 
  0.00000000E+00  0.00000000E+00  0.00000000E+00
  0.00000000E+00  0.00000000E+00  0.00000000E+00
  0.00000000E+00  0.00000000E+00  0.00000000E+00
  0.00000000E+00  0.00000000E+00  0.00000000E+00
  0.00000000E+00  0.00000000E+00  0.00000000E+00
  0.00000000E+00  0.00000000E+00  0.00000000E+00
  0.00000000E+00  0.00000000E+00  0.00000000E+00
  0.00000000E+00  0.00000000E+00  0.00000000E+00
  0.00000000E+00  0.00000000E+00  0.00000000E+00
  0.00000000E+00  0.00000000E+00  0.00000000E+00
