Ba2                                     
   1.00000000000000     
     3.9922153165533540   -0.0032092062479880   -0.0032060285948494
    -0.0045261999506494    5.5803840285681794    0.0001454480880013
    -0.0045211339333511    0.0001452117200656    5.5823593853445832
   Ba
     2
Direct
  0.0000000000000000  0.0000009999999975  0.9999990000000025
  0.0000000000000000  0.4999990000000025  0.5000009999999975
 
  0.00000000E+00  0.00000000E+00  0.00000000E+00
  0.00000000E+00  0.00000000E+00  0.00000000E+00
