Mg3I2                                   
   1.00000000000000     
    -7.3388478622001641    1.9304816734276276   -1.0917702281019552
     5.2699809226698937   -9.2355688020954982   -0.0760795047784335
    -3.7567158762909769    3.9126469292226220    5.4111611070333332
   I    Mg
     4     6
Direct
  0.6284850795385211  0.3392235666123042  0.1528475397203835
  0.8476809253280138  0.1601647542642155  0.3708978269648000
  0.1522438401090795  0.8397154250706578  0.6290974181862126
  0.3714507629630361  0.6607931596359009  0.8471575561397913
  0.4966005826147892  0.6965986017023766  0.2051638032766334
  0.9971296065236430  0.2493157059371853  0.0018473650446822
  0.2056688982551123  0.1974971826741836  0.4977967694925027
  0.7944923174648082  0.8026790503149783  0.5023128232154050
  0.0027691754979244  0.7506857008224728  0.9982888401741121
  0.5032788117050728  0.3031268529657254  0.7945900577854843
 
  0.00000000E+00  0.00000000E+00  0.00000000E+00
  0.00000000E+00  0.00000000E+00  0.00000000E+00
  0.00000000E+00  0.00000000E+00  0.00000000E+00
  0.00000000E+00  0.00000000E+00  0.00000000E+00
  0.00000000E+00  0.00000000E+00  0.00000000E+00
  0.00000000E+00  0.00000000E+00  0.00000000E+00
  0.00000000E+00  0.00000000E+00  0.00000000E+00
  0.00000000E+00  0.00000000E+00  0.00000000E+00
  0.00000000E+00  0.00000000E+00  0.00000000E+00
  0.00000000E+00  0.00000000E+00  0.00000000E+00
