MgB3                                    
   1.00000000000000     
     5.1077427313315251   -0.0009481495323955    0.0000000000000000
    -2.5546926413962234    4.4233194644725016    0.0000000000000000
     0.0000000000000000    0.0000000000000000    3.3036033948758297
   B    Mg
     6     2
Direct
  0.1146551744441879  0.2292134961422079  0.2500000000000000
  0.1145885070701382  0.8853983554128604  0.2500000000000000
  0.7707742301379881  0.8853323628358467  0.2500000000000000
  0.2292257698620119  0.1146676371641533  0.7500000000000000
  0.8854114929298618  0.1146016445871396  0.7500000000000000
  0.8853448255558121  0.7707865038577921  0.7500000000000000
  0.6667318512445846  0.3332780816478476  0.2500000000000000
  0.3332681487554154  0.6667219183521524  0.7500000000000000
 
  0.00000000E+00  0.00000000E+00  0.00000000E+00
  0.00000000E+00  0.00000000E+00  0.00000000E+00
  0.00000000E+00  0.00000000E+00  0.00000000E+00
  0.00000000E+00  0.00000000E+00  0.00000000E+00
  0.00000000E+00  0.00000000E+00  0.00000000E+00
  0.00000000E+00  0.00000000E+00  0.00000000E+00
  0.00000000E+00  0.00000000E+00  0.00000000E+00
  0.00000000E+00  0.00000000E+00  0.00000000E+00
