Ca4 B4 Cl20                             
   1.0000000000000000     
     0.0000000000000000   10.1622946499392608   -1.4793335441185334
    10.8334586214281767    0.0000000000000000    0.0000000000000000
     0.0000000000000000    1.9804342829100090   -7.7841720295046066
   Ca   B    Cl
     4     4    20
Direct
  0.6966845242590125  0.3866433738629667  0.3889164976156465
  0.3033154757409946  0.8866433738629667  0.6110835023843535
  0.9796091542207890  0.1637753211753008  0.0531679582247051
  0.0203908457792110  0.6637753211753008  0.9468320417752949
  0.5781375646702571  0.7434961929634127  0.2614711490258657
  0.4218624353297429  0.2434961929634127  0.7385288509741343
  0.0002674618417018  0.6198503587486712  0.5057107557844915
  0.9997325381582982  0.1198503587486712  0.4942892442155085
  0.1888590999966766  0.0843663613954533  0.4508698821542012
  0.0755815809566087  0.5034208756844265  0.6090477061782380
  0.9244184190433913  0.0034208756844265  0.3909522938217549
  0.7354773049343919  0.7709958852160241  0.0505175930555950
  0.9157827748527012  0.4337975164782932  0.0692285926089937
  0.4208615268100999  0.8180762294921919  0.2389056144352608
  0.8927160708620292  0.1389222894540652  0.7380720593513388
  0.6026490227242505  0.8135277948994712  0.4573675003063329
  0.0842172251472988  0.9337975164782932  0.9307714073910063
  0.0017921639836729  0.7712902472034671  0.6253109121838278
  0.5791384731899001  0.3180762294921990  0.7610943855647463
  0.8111409000033234  0.5843663613954604  0.5491301178457988
  0.4595951770114297  0.0736107691838654  0.7061070832916840
  0.7047983869847840  0.1758257642424041  0.2189854110862015
  0.9982078360163342  0.2712902472034671  0.3746890878161722
  0.1072839291379708  0.6389222894540723  0.2619279406486612
  0.2645226950656010  0.2709958852160241  0.9494824069443979
  0.2952016130152089  0.6758257642424041  0.7810145889137985
  0.3973509772757495  0.3135277948994712  0.5426324996936671
  0.5404048229885703  0.5736107691838725  0.2938929167083160

  0.00000000E+00  0.00000000E+00  0.00000000E+00
  0.00000000E+00  0.00000000E+00  0.00000000E+00
  0.00000000E+00  0.00000000E+00  0.00000000E+00
  0.00000000E+00  0.00000000E+00  0.00000000E+00
  0.00000000E+00  0.00000000E+00  0.00000000E+00
  0.00000000E+00  0.00000000E+00  0.00000000E+00
  0.00000000E+00  0.00000000E+00  0.00000000E+00
  0.00000000E+00  0.00000000E+00  0.00000000E+00
  0.00000000E+00  0.00000000E+00  0.00000000E+00
  0.00000000E+00  0.00000000E+00  0.00000000E+00
  0.00000000E+00  0.00000000E+00  0.00000000E+00
  0.00000000E+00  0.00000000E+00  0.00000000E+00
  0.00000000E+00  0.00000000E+00  0.00000000E+00
  0.00000000E+00  0.00000000E+00  0.00000000E+00
  0.00000000E+00  0.00000000E+00  0.00000000E+00
  0.00000000E+00  0.00000000E+00  0.00000000E+00
  0.00000000E+00  0.00000000E+00  0.00000000E+00
  0.00000000E+00  0.00000000E+00  0.00000000E+00
  0.00000000E+00  0.00000000E+00  0.00000000E+00
  0.00000000E+00  0.00000000E+00  0.00000000E+00
  0.00000000E+00  0.00000000E+00  0.00000000E+00
  0.00000000E+00  0.00000000E+00  0.00000000E+00
  0.00000000E+00  0.00000000E+00  0.00000000E+00
  0.00000000E+00  0.00000000E+00  0.00000000E+00
  0.00000000E+00  0.00000000E+00  0.00000000E+00
  0.00000000E+00  0.00000000E+00  0.00000000E+00
  0.00000000E+00  0.00000000E+00  0.00000000E+00
  0.00000000E+00  0.00000000E+00  0.00000000E+00
