Ba12 In4 Br36                           
   1.0000000000000000     
    13.0577427076990027   -0.0026613857913137   -0.0012451601049689
    -0.0012412056527519    7.6587983121779644    0.5333850644869894
     0.0004306766555556    1.3272380949920595   19.1652614690224041
   In   Ba   Br
     4    12    36
Direct
  0.5095508154298258  0.2749880830379752  0.1798164223135643
  0.0098471720444664  0.2267911774103695  0.3200900941335902
  0.9895829108157770  0.7769870391219698  0.6776045710555536
  0.4898360668102626  0.7214257876159991  0.8223730479493767
  0.6777166771475223  0.7142142389648356  0.0297527372985300
  0.9460155388201912  0.1910726211343174  0.0987632878564781
  0.2578894989394342  0.7129308677259445  0.1767098315435334
  0.7574686938753032  0.7888795933288364  0.3235407805363835
  0.4457837239014850  0.3092957087710602  0.4011580307425078
  0.1773140298121589  0.7859030567805405  0.4702580031957169
  0.8227940813568608  0.2319145760144607  0.5300786130189152
  0.5564015562588125  0.7051161562511226  0.6018617010648057
  0.2464170159350161  0.2127271950582212  0.6727554661254516
  0.7461133616399849  0.2857514166752040  0.8270110486214648
  0.0562860783579495  0.7940954633656006  0.8981186702763466
  0.3225770067731162  0.2681958360031587  0.9697763216932316
  0.1356734399977952  0.4760948294405623  0.0290450787573633
  0.1457170072686367  0.9685413045155542  0.0414353520439406
  0.4391038450251301  0.0200619074024502  0.1018005381372831
  0.4371613508044305  0.5454417886246503  0.0800104067657372
  0.6787256223950351  0.2899173238443993  0.1009325681222393
  0.8136737380580712  0.8123695890374165  0.1570095915106293
  0.3245582125095581  0.2916630507441482  0.2370165568114757
  0.5484304782537350  0.0236324572212823  0.2874779431550323
  0.5745243548400296  0.5251784864964080  0.2587225268778042
  0.0748111046713973  0.9766352736670640  0.2412463028273990
  0.0485850218173312  0.4784393248851373  0.2124922187905156
  0.8247074554044147  0.2098749125636274  0.2628798217591921
  0.3138998075795953  0.6889817567396435  0.3432269927832508
  0.1787451079613547  0.2112413566486850  0.3992505934018737
  0.9371577609523598  0.9559314847147746  0.4198543651599991
  0.9392619120699663  0.4813317286327603  0.3981457625099409
  0.6457407610532471  0.5310949034122743  0.4585034633632858
  0.6357605556271224  0.0233875970943203  0.4708065864232651
  0.3589347062894035  0.9979570171538867  0.5347961888089756
  0.3551967459784322  0.4899719609868285  0.5417789437895095
  0.0556458239563824  0.5271622400446319  0.5959125191182224
  0.0599512483679661  0.0544894758603078  0.5797340839035030
  0.8181392684722368  0.8040110381490422  0.6010167881899804
  0.6892943104302560  0.3240219061673884  0.6589077914539985
  0.1771947264643856  0.7889434035708973  0.7314039593559230
  0.9549451388668047  0.5167747665861242  0.7830849291893074
  0.9260128515880410  0.0184460467118868  0.7602325057197774
  0.4262347906170945  0.4795180343119441  0.7398440704807285
  0.4550209807158723  0.9812029909257376  0.7167622253036399
  0.6773151283143974  0.7095961810451357  0.7684908808745661
  0.1894074573710682  0.1747643987144301  0.8409024497334130
  0.3182038074565838  0.6950312353343975  0.8986953873861410
  0.5601013418777967  0.4445153906465578  0.9203329562296432
  0.5560015349601031  0.9717256209115561  0.9038774472693163
  0.8555015028400987  0.0101531019844003  0.9582142735605714
  0.8588668712256151  0.5021872979500444  0.9650873030071097

  0.00000000E+00  0.00000000E+00  0.00000000E+00
  0.00000000E+00  0.00000000E+00  0.00000000E+00
  0.00000000E+00  0.00000000E+00  0.00000000E+00
  0.00000000E+00  0.00000000E+00  0.00000000E+00
  0.00000000E+00  0.00000000E+00  0.00000000E+00
  0.00000000E+00  0.00000000E+00  0.00000000E+00
  0.00000000E+00  0.00000000E+00  0.00000000E+00
  0.00000000E+00  0.00000000E+00  0.00000000E+00
  0.00000000E+00  0.00000000E+00  0.00000000E+00
  0.00000000E+00  0.00000000E+00  0.00000000E+00
  0.00000000E+00  0.00000000E+00  0.00000000E+00
  0.00000000E+00  0.00000000E+00  0.00000000E+00
  0.00000000E+00  0.00000000E+00  0.00000000E+00
  0.00000000E+00  0.00000000E+00  0.00000000E+00
  0.00000000E+00  0.00000000E+00  0.00000000E+00
  0.00000000E+00  0.00000000E+00  0.00000000E+00
  0.00000000E+00  0.00000000E+00  0.00000000E+00
  0.00000000E+00  0.00000000E+00  0.00000000E+00
  0.00000000E+00  0.00000000E+00  0.00000000E+00
  0.00000000E+00  0.00000000E+00  0.00000000E+00
  0.00000000E+00  0.00000000E+00  0.00000000E+00
  0.00000000E+00  0.00000000E+00  0.00000000E+00
  0.00000000E+00  0.00000000E+00  0.00000000E+00
  0.00000000E+00  0.00000000E+00  0.00000000E+00
  0.00000000E+00  0.00000000E+00  0.00000000E+00
  0.00000000E+00  0.00000000E+00  0.00000000E+00
  0.00000000E+00  0.00000000E+00  0.00000000E+00
  0.00000000E+00  0.00000000E+00  0.00000000E+00
  0.00000000E+00  0.00000000E+00  0.00000000E+00
  0.00000000E+00  0.00000000E+00  0.00000000E+00
  0.00000000E+00  0.00000000E+00  0.00000000E+00
  0.00000000E+00  0.00000000E+00  0.00000000E+00
  0.00000000E+00  0.00000000E+00  0.00000000E+00
  0.00000000E+00  0.00000000E+00  0.00000000E+00
  0.00000000E+00  0.00000000E+00  0.00000000E+00
  0.00000000E+00  0.00000000E+00  0.00000000E+00
  0.00000000E+00  0.00000000E+00  0.00000000E+00
  0.00000000E+00  0.00000000E+00  0.00000000E+00
  0.00000000E+00  0.00000000E+00  0.00000000E+00
  0.00000000E+00  0.00000000E+00  0.00000000E+00
  0.00000000E+00  0.00000000E+00  0.00000000E+00
  0.00000000E+00  0.00000000E+00  0.00000000E+00
  0.00000000E+00  0.00000000E+00  0.00000000E+00
  0.00000000E+00  0.00000000E+00  0.00000000E+00
  0.00000000E+00  0.00000000E+00  0.00000000E+00
  0.00000000E+00  0.00000000E+00  0.00000000E+00
  0.00000000E+00  0.00000000E+00  0.00000000E+00
  0.00000000E+00  0.00000000E+00  0.00000000E+00
  0.00000000E+00  0.00000000E+00  0.00000000E+00
  0.00000000E+00  0.00000000E+00  0.00000000E+00
  0.00000000E+00  0.00000000E+00  0.00000000E+00
  0.00000000E+00  0.00000000E+00  0.00000000E+00
