Ba8 Tl4 Br28                            
   1.0000000000000000     
     7.7846932806314069    0.0007948534497560   -0.0857687864017165
     0.0003407926988113   18.1011738492025778   -0.0024819496785347
    -0.1551829790980580   -0.0002838180610289   10.7476033908198652
   Ba   Br   Tl
     8    28     4
Direct
  0.2954614095556067  0.7535163090147350  0.0025002795549369
  0.4189464591140606  0.0322226553077840  0.1369896614837458
  0.5811043983120925  0.5321700316379818  0.3631075152939758
  0.7046258949262736  0.2534996911329372  0.4975592174620971
  0.1875167881960351  0.7481964751214178  0.5083162992838766
  0.2628075490439343  0.4257815342891575  0.7183588610359593
  0.7371754373564343  0.9257596559806984  0.7816874248113024
  0.8124825597121657  0.2481664179390393  0.9916690197361078
  0.6392951002641283  0.6430163678322813  0.9951243966474479
  0.0869132088536233  0.9235833080074727  0.0226398216198973
  0.5989195505046396  0.8773106273219113  0.0599423074829701
  0.7281277237199149  0.4162031746532548  0.1374071174557088
  0.5542624042518085  0.1964161420776804  0.2207989073680707
  0.0250075039167470  0.2510892244652965  0.2815325879959190
  0.1862220102237657  0.5343834909282492  0.2347384080093420
  0.8139055228468379  0.0344459890618651  0.2652883627101730
  0.9749722084276016  0.7511846075590185  0.2184667984601347
  0.4457329342259229  0.6963385076276936  0.2791966773791685
  0.2720237085383204  0.9162167597316966  0.3626472663111500
  0.4010745368237920  0.3772533591525047  0.4401316861781410
  0.9131376389502392  0.4235393280286814  0.4774061723729588
  0.3608561118644431  0.1429460852628637  0.5048729348957863
  0.8206041968604438  0.8570421776307029  0.4916707147996391
  0.8272844893758844  0.6417957482255403  0.5448537919229324
  0.3324828292822772  0.5832483916151503  0.5810502443685053
  0.8709334001669689  0.0764355845099232  0.6059801822197528
  0.5353525869302160  0.2889575413006824  0.7699200875758692
  0.0290169733423369  0.2662113333385889  0.7040842161895711
  0.3019789753127355  0.9726062407845504  0.7349955373565535
  0.6980183779705271  0.4726266736771052  0.7649019903760106
  0.9711748682031995  0.7662496654295907  0.7958499460319430
  0.4647011967863506  0.7889221293969158  0.7301081073086308
  0.1292086481609331  0.5764349032909521  0.8941038104209653
  0.6672494108173126  0.0832636146415595  0.9189093133605368
  0.1725697668892963  0.1417318716905527  0.9551552276646547
  0.1793952232006859  0.3570389401551211  0.0083051681185324
  0.0591996506087042  0.3988892368209420  0.2407861501359676
  0.9407796718825878  0.8989383512408295  0.2591819445896633
  0.1836637938028645  0.1129778050986801  0.7064887485272067
  0.8164152807782372  0.6129900490183644  0.7934730954841953

  0.00000000E+00  0.00000000E+00  0.00000000E+00
  0.00000000E+00  0.00000000E+00  0.00000000E+00
  0.00000000E+00  0.00000000E+00  0.00000000E+00
  0.00000000E+00  0.00000000E+00  0.00000000E+00
  0.00000000E+00  0.00000000E+00  0.00000000E+00
  0.00000000E+00  0.00000000E+00  0.00000000E+00
  0.00000000E+00  0.00000000E+00  0.00000000E+00
  0.00000000E+00  0.00000000E+00  0.00000000E+00
  0.00000000E+00  0.00000000E+00  0.00000000E+00
  0.00000000E+00  0.00000000E+00  0.00000000E+00
  0.00000000E+00  0.00000000E+00  0.00000000E+00
  0.00000000E+00  0.00000000E+00  0.00000000E+00
  0.00000000E+00  0.00000000E+00  0.00000000E+00
  0.00000000E+00  0.00000000E+00  0.00000000E+00
  0.00000000E+00  0.00000000E+00  0.00000000E+00
  0.00000000E+00  0.00000000E+00  0.00000000E+00
  0.00000000E+00  0.00000000E+00  0.00000000E+00
  0.00000000E+00  0.00000000E+00  0.00000000E+00
  0.00000000E+00  0.00000000E+00  0.00000000E+00
  0.00000000E+00  0.00000000E+00  0.00000000E+00
  0.00000000E+00  0.00000000E+00  0.00000000E+00
  0.00000000E+00  0.00000000E+00  0.00000000E+00
  0.00000000E+00  0.00000000E+00  0.00000000E+00
  0.00000000E+00  0.00000000E+00  0.00000000E+00
  0.00000000E+00  0.00000000E+00  0.00000000E+00
  0.00000000E+00  0.00000000E+00  0.00000000E+00
  0.00000000E+00  0.00000000E+00  0.00000000E+00
  0.00000000E+00  0.00000000E+00  0.00000000E+00
  0.00000000E+00  0.00000000E+00  0.00000000E+00
  0.00000000E+00  0.00000000E+00  0.00000000E+00
  0.00000000E+00  0.00000000E+00  0.00000000E+00
  0.00000000E+00  0.00000000E+00  0.00000000E+00
  0.00000000E+00  0.00000000E+00  0.00000000E+00
  0.00000000E+00  0.00000000E+00  0.00000000E+00
  0.00000000E+00  0.00000000E+00  0.00000000E+00
  0.00000000E+00  0.00000000E+00  0.00000000E+00
  0.00000000E+00  0.00000000E+00  0.00000000E+00
  0.00000000E+00  0.00000000E+00  0.00000000E+00
  0.00000000E+00  0.00000000E+00  0.00000000E+00
  0.00000000E+00  0.00000000E+00  0.00000000E+00
