Sr3Al                                   
   1.00000000000000     
     7.7981416772749617   -0.0002608826598254    0.0000000000000000
    -3.8987937151273853    6.7536068630873043    0.0000000000000000
     0.0000000000000000    0.0000000000000000    5.8771002115245938
   Al   Sr
     2     6
Direct
  0.6666790926826351  0.3333214768496688  0.2500000000000000
  0.3333209073173649  0.6666785231503312  0.7500000000000000
  0.1775501730220057  0.3552188391236513  0.2500000000000000
  0.6447696929159790  0.8224394972073839  0.2500000000000000
  0.1775914159754137  0.8224027080613325  0.2500000000000000
  0.8224085840245863  0.1775972919386675  0.7500000000000000
  0.3552303070840210  0.1775605027926161  0.7500000000000000
  0.8224498269779943  0.6447811608763487  0.7500000000000000
 
  0.00000000E+00  0.00000000E+00  0.00000000E+00
  0.00000000E+00  0.00000000E+00  0.00000000E+00
  0.00000000E+00  0.00000000E+00  0.00000000E+00
  0.00000000E+00  0.00000000E+00  0.00000000E+00
  0.00000000E+00  0.00000000E+00  0.00000000E+00
  0.00000000E+00  0.00000000E+00  0.00000000E+00
  0.00000000E+00  0.00000000E+00  0.00000000E+00
  0.00000000E+00  0.00000000E+00  0.00000000E+00
