GaBr6                                   
   1.00000000000000     
     2.7090574154815088    2.0285185345422612    8.9818826063763506
    -3.3398263691661318    2.7962300948775676    9.0299982082515449
     0.4939786028192015   -3.7123535914329904    8.6985334408438586
   Br   Ga
     6     1
Direct
  0.4782871679013567  0.7789772301918632  0.9888830458483611
  0.0015114405324397  0.4188122900698374  0.2202419214080606
  0.7555461698737460  0.1288923881734050  0.3342546518717029
  0.0824128450646953  0.9627651054387627  0.8066951844368688
  0.1035449934254871  0.4114757508026941  0.6763681378511563
  0.4808694005615024  0.2205449719980166  0.0374263207976426
  0.0982279826407719  0.0789322633254201  0.9365307377862280
 
  0.00000000E+00  0.00000000E+00  0.00000000E+00
  0.00000000E+00  0.00000000E+00  0.00000000E+00
  0.00000000E+00  0.00000000E+00  0.00000000E+00
  0.00000000E+00  0.00000000E+00  0.00000000E+00
  0.00000000E+00  0.00000000E+00  0.00000000E+00
  0.00000000E+00  0.00000000E+00  0.00000000E+00
  0.00000000E+00  0.00000000E+00  0.00000000E+00
