Ca2 Tl2 F10                             
   1.0000000000000000     
     3.9352692214300551    0.0000000000000000    0.0000000000000002
    -0.0000000000000005    7.8069892295014593    0.0000000000000005
     0.0000000000000001    0.0000000000000000    8.4750834801051766
   Ca   Tl   F 
     2     2    10
Direct
  0.0000000000000000  0.0000000000000000  0.5000000000000000
  0.5000000000000000  0.5000000000000000  0.0000000000000000
  0.5000000000000000  0.0000000000000000  0.0000000000000000
  0.0000000000000000  0.5000000000000000  0.5000000000000000
  0.5000000000000000  0.8245990891563650  0.5000000000000000
  0.5000000000000000  0.1754009108436350  0.5000000000000000
  0.5000000000000000  0.0000000000000000  0.2435356004636731
  0.5000000000000000  0.0000000000000000  0.7564643995363269
  0.0000000000000000  0.0000000000000000  0.0000000000000000
  0.0000000000000000  0.3245990891563650  0.0000000000000000
  0.0000000000000000  0.6754009108436350  0.0000000000000000
  0.0000000000000000  0.5000000000000000  0.7435356004636731
  0.0000000000000000  0.5000000000000000  0.2564643995363269
  0.5000000000000000  0.5000000000000000  0.5000000000000000

  0.00000000E+00  0.00000000E+00  0.00000000E+00
  0.00000000E+00  0.00000000E+00  0.00000000E+00
  0.00000000E+00  0.00000000E+00  0.00000000E+00
  0.00000000E+00  0.00000000E+00  0.00000000E+00
  0.00000000E+00  0.00000000E+00  0.00000000E+00
  0.00000000E+00  0.00000000E+00  0.00000000E+00
  0.00000000E+00  0.00000000E+00  0.00000000E+00
  0.00000000E+00  0.00000000E+00  0.00000000E+00
  0.00000000E+00  0.00000000E+00  0.00000000E+00
  0.00000000E+00  0.00000000E+00  0.00000000E+00
  0.00000000E+00  0.00000000E+00  0.00000000E+00
  0.00000000E+00  0.00000000E+00  0.00000000E+00
  0.00000000E+00  0.00000000E+00  0.00000000E+00
  0.00000000E+00  0.00000000E+00  0.00000000E+00
