Mg2 Ga2 F10                             
   1.00000000000000     
     4.1633640017549860   -3.0006541827772435   -0.0847494283353517
     4.1633640017549860    3.0006541827772435   -0.0847494283353517
    -3.1094650869794171    0.0000000000000000    6.5874467869023245
   Mg   F    Ga
     2    10     2
Direct
  0.5312669637104008  0.4686713633670934  0.2500033338322041
  0.4686713633670934  0.5312669637104008  0.7500033338322041
  0.2728617966020508  0.6649008972898613  0.0402935334386854
  0.2937848558171652  0.1962968525435826  0.1391257949112585
  0.8845946189007847  0.1153516425142342  0.2500006908293102
  0.8036427497590140  0.7061500611689908  0.3608765572692292
  0.3350419920697192  0.7271009907358490  0.4597010410336679
  0.6649008972898613  0.2728617966020508  0.5402935334386854
  0.1962968525435826  0.2937848558171652  0.6391257949112585
  0.1153516425142342  0.8845946189007847  0.7500006908293102
  0.7061500611689908  0.8036427497590140  0.8608765572692292
  0.7271009907358490  0.3350419920697192  0.9597010410336679
  0.9999682095409810  0.9999670059802455  0.9999990486856447
  0.9999670059802455  0.9999682095409810  0.4999990486856447
 
  0.00000000E+00  0.00000000E+00  0.00000000E+00
  0.00000000E+00  0.00000000E+00  0.00000000E+00
  0.00000000E+00  0.00000000E+00  0.00000000E+00
  0.00000000E+00  0.00000000E+00  0.00000000E+00
  0.00000000E+00  0.00000000E+00  0.00000000E+00
  0.00000000E+00  0.00000000E+00  0.00000000E+00
  0.00000000E+00  0.00000000E+00  0.00000000E+00
  0.00000000E+00  0.00000000E+00  0.00000000E+00
  0.00000000E+00  0.00000000E+00  0.00000000E+00
  0.00000000E+00  0.00000000E+00  0.00000000E+00
  0.00000000E+00  0.00000000E+00  0.00000000E+00
  0.00000000E+00  0.00000000E+00  0.00000000E+00
  0.00000000E+00  0.00000000E+00  0.00000000E+00
  0.00000000E+00  0.00000000E+00  0.00000000E+00
