Be4 In4 Cl20                            
   1.0000000000000000     
    10.5943319731854420    0.0000000000000000    0.0000000000000000
     0.0000000000000000    8.1017288636429026    0.9854387963319305
     0.0000000000000000    5.2322688222124691   12.5738971374679966
   Be   In   Cl
     4     4    20
Direct
  0.9371269438627863  0.4360052773407190  0.3337072706698763
  0.4371269438627863  0.5639947226592810  0.1662927293301237
  0.0628730561372137  0.5639947226592810  0.6662927293301166
  0.5628730561372137  0.4360052773407190  0.8337072706698834
  0.8679713548473842  0.2294096101262895  0.6573882499981494
  0.3679713548473842  0.7705903898737105  0.8426117500018506
  0.1320286451526158  0.7705903898737105  0.3426117500018577
  0.6320286451526158  0.2294096101262895  0.1573882499981423
  0.6124604048053044  0.7774394694154552  0.4146055636361012
  0.1124604048052973  0.2225605305845377  0.0853944363638988
  0.3875395951947027  0.2225605305845377  0.5853944363639059
  0.8875395951946956  0.7774394694154552  0.9146055636361012
  0.8102529658702906  0.2553462735501313  0.3478782442271822
  0.3102529658702906  0.7446537264498687  0.1521217557728178
  0.1897470341297094  0.7446537264498687  0.6521217557728107
  0.6897470341297094  0.2553462735501313  0.8478782442271893
  0.5145973252390021  0.2306031765087653  0.6960882712973842
  0.0145973252390021  0.7693968234912347  0.8039117287026158
  0.4854026747609979  0.7693968234912347  0.3039117287026158
  0.9854026747609979  0.2306031765087653  0.1960882712973842
  0.5762281579678543  0.7004796291656419  0.7269190055347821
  0.0762281579678543  0.2995203708343510  0.7730809944652179
  0.4237718420321457  0.2995203708343510  0.2730809944652179
  0.9237718420321457  0.7004796291656419  0.2269190055347821
  0.4253180132287184  0.3523901599990893  0.9420213070295844
  0.9253180132287184  0.6476098400009107  0.5579786929704156
  0.5746819867712816  0.6476098400009107  0.0579786929704156
  0.0746819867712816  0.3523901599990893  0.4420213070295844

  0.00000000E+00  0.00000000E+00  0.00000000E+00
  0.00000000E+00  0.00000000E+00  0.00000000E+00
  0.00000000E+00  0.00000000E+00  0.00000000E+00
  0.00000000E+00  0.00000000E+00  0.00000000E+00
  0.00000000E+00  0.00000000E+00  0.00000000E+00
  0.00000000E+00  0.00000000E+00  0.00000000E+00
  0.00000000E+00  0.00000000E+00  0.00000000E+00
  0.00000000E+00  0.00000000E+00  0.00000000E+00
  0.00000000E+00  0.00000000E+00  0.00000000E+00
  0.00000000E+00  0.00000000E+00  0.00000000E+00
  0.00000000E+00  0.00000000E+00  0.00000000E+00
  0.00000000E+00  0.00000000E+00  0.00000000E+00
  0.00000000E+00  0.00000000E+00  0.00000000E+00
  0.00000000E+00  0.00000000E+00  0.00000000E+00
  0.00000000E+00  0.00000000E+00  0.00000000E+00
  0.00000000E+00  0.00000000E+00  0.00000000E+00
  0.00000000E+00  0.00000000E+00  0.00000000E+00
  0.00000000E+00  0.00000000E+00  0.00000000E+00
  0.00000000E+00  0.00000000E+00  0.00000000E+00
  0.00000000E+00  0.00000000E+00  0.00000000E+00
  0.00000000E+00  0.00000000E+00  0.00000000E+00
  0.00000000E+00  0.00000000E+00  0.00000000E+00
  0.00000000E+00  0.00000000E+00  0.00000000E+00
  0.00000000E+00  0.00000000E+00  0.00000000E+00
  0.00000000E+00  0.00000000E+00  0.00000000E+00
  0.00000000E+00  0.00000000E+00  0.00000000E+00
  0.00000000E+00  0.00000000E+00  0.00000000E+00
  0.00000000E+00  0.00000000E+00  0.00000000E+00
