Be2 Ga2 F10                             
   1.0000000000000000     
     3.3260920270397261    0.0000000000000000    0.0000000000000002
    -0.0000000000000005    7.1904621310721639    0.0000000000000005
    -0.0000000000000000   -0.0000000000000000    8.1853912232842525
   Be   Ga   F 
     2     2    10
Direct
  0.0000000000000000  0.0000000000000000  0.5000000000000000
  0.5000000000000000  0.5000000000000000  0.0000000000000000
  0.5000000000000000  0.0000000000000000  0.0000000000000000
  0.0000000000000000  0.5000000000000000  0.5000000000000000
  0.5000000000000000  0.8454431587333602  0.5000000000000000
  0.5000000000000000  0.1545568412666398  0.5000000000000000
  0.5000000000000000  0.0000000000000000  0.2190582139160355
  0.5000000000000000  0.0000000000000000  0.7809417860839645
  0.0000000000000000  0.0000000000000000  0.0000000000000000
  0.0000000000000000  0.3454431587333602  0.0000000000000000
  0.0000000000000000  0.6545568412666398  0.0000000000000000
  0.0000000000000000  0.5000000000000000  0.7190582139160355
  0.0000000000000000  0.5000000000000000  0.2809417860839645
  0.5000000000000000  0.5000000000000000  0.5000000000000000

  0.00000000E+00  0.00000000E+00  0.00000000E+00
  0.00000000E+00  0.00000000E+00  0.00000000E+00
  0.00000000E+00  0.00000000E+00  0.00000000E+00
  0.00000000E+00  0.00000000E+00  0.00000000E+00
  0.00000000E+00  0.00000000E+00  0.00000000E+00
  0.00000000E+00  0.00000000E+00  0.00000000E+00
  0.00000000E+00  0.00000000E+00  0.00000000E+00
  0.00000000E+00  0.00000000E+00  0.00000000E+00
  0.00000000E+00  0.00000000E+00  0.00000000E+00
  0.00000000E+00  0.00000000E+00  0.00000000E+00
  0.00000000E+00  0.00000000E+00  0.00000000E+00
  0.00000000E+00  0.00000000E+00  0.00000000E+00
  0.00000000E+00  0.00000000E+00  0.00000000E+00
  0.00000000E+00  0.00000000E+00  0.00000000E+00
