Ca1 B2 Br10                             
   1.00000000000000     
     5.3675401326115502    5.3439102701433780    0.7514923997876295
    -5.3675401326115502    5.3439102701433780    0.7514923997876295
    -0.0000000000000001    5.2477517143246013    8.6990728622047158
   Ca   B    Br
     1     2    10
Direct
  0.6570943601274237  0.3429056398725763  0.0000000000000000
  0.0115023228969804  0.8615647472427810  0.7179765859658147
  0.1384352527572190  0.9884976771030196  0.2820234140341853
  0.1582456367565399  0.1306339985544298  0.6623421179227051
  0.8693660014455702  0.8417543632434601  0.3376578820772949
  0.7231402556441395  0.8437700542242652  0.7846389864592922
  0.1562299457757348  0.2768597443558605  0.2153610135407078
  0.9581181932130391  0.0418818067869680  0.0000000000000000
  0.1738015323813329  0.8261984676186671  0.5000000000000000
  0.6862645389304305  0.4208106492032329  0.6962009280079826
  0.5791893507967671  0.3137354610695695  0.3037990719920174
  0.0583625315766341  0.6257509223017976  0.8835377866135659
  0.3742490776982024  0.9416374684233659  0.1164622133864341
 
  0.00000000E+00  0.00000000E+00  0.00000000E+00
  0.00000000E+00  0.00000000E+00  0.00000000E+00
  0.00000000E+00  0.00000000E+00  0.00000000E+00
  0.00000000E+00  0.00000000E+00  0.00000000E+00
  0.00000000E+00  0.00000000E+00  0.00000000E+00
  0.00000000E+00  0.00000000E+00  0.00000000E+00
  0.00000000E+00  0.00000000E+00  0.00000000E+00
  0.00000000E+00  0.00000000E+00  0.00000000E+00
  0.00000000E+00  0.00000000E+00  0.00000000E+00
  0.00000000E+00  0.00000000E+00  0.00000000E+00
  0.00000000E+00  0.00000000E+00  0.00000000E+00
  0.00000000E+00  0.00000000E+00  0.00000000E+00
  0.00000000E+00  0.00000000E+00  0.00000000E+00
