Ba4 B6                                  
   1.00000000000000     
     1.8209400508248756   -9.2225439588779636    0.0000000000000000
     1.8209400508248756    9.2225439588779636    0.0000000000000000
     0.0000000000000000    0.0000000000000000    6.3497154857397309
   Ba   B 
     4     6
Direct
  0.1304550283296919  0.8695449716703081  0.0000299332596043
  0.6304550283296919  0.3695449716703081  0.4999700667403957
  0.3695449716703081  0.6304550283296919  0.5000299332596043
  0.8695449716703081  0.1304550283296919  0.9999700667403957
  0.5000000000000000  0.5000000000000000  0.0000000000000000
  0.2499864367363145  0.2500135632636926  0.2500000000000000
  0.7499864367363145  0.7500135632636855  0.2500000000000000
  0.0000000000000000  0.0000000000000000  0.5000000000000000
  0.2500135632636926  0.2499864367363145  0.7500000000000000
  0.7500135632636855  0.7499864367363145  0.7500000000000000
 
  0.00000000E+00  0.00000000E+00  0.00000000E+00
  0.00000000E+00  0.00000000E+00  0.00000000E+00
  0.00000000E+00  0.00000000E+00  0.00000000E+00
  0.00000000E+00  0.00000000E+00  0.00000000E+00
  0.00000000E+00  0.00000000E+00  0.00000000E+00
  0.00000000E+00  0.00000000E+00  0.00000000E+00
  0.00000000E+00  0.00000000E+00  0.00000000E+00
  0.00000000E+00  0.00000000E+00  0.00000000E+00
  0.00000000E+00  0.00000000E+00  0.00000000E+00
  0.00000000E+00  0.00000000E+00  0.00000000E+00
