Be1 Al2 Cl10                            
   1.00000000000000     
     4.3739907737902168    4.5060646573382037    0.3553428475285864
    -4.3739907737902168    4.5060646573382037    0.3553428475285864
     0.0000000000000000    3.6807379212502584    8.3885055471975587
   Be   Al   Cl
     1     2    10
Direct
  0.3779910673462368  0.6220089326537632  0.0000000000000000
  0.9936993890150418  0.9822553529745832  0.7533744027085589
  0.0177446470254168  0.0063006109849582  0.2466255972914411
  0.2630419847675611  0.2764645886872472  0.6258956587889628
  0.7235354113127528  0.7369580152324389  0.3741043412110372
  0.7328476169172262  0.6612495769556546  0.9012649285262526
  0.3387504230443454  0.2671523830827738  0.0987350714737474
  0.9317249489399941  0.0682750510600059  0.0000000000000000
  0.1022213396406855  0.8977786603593145  0.5000000000000000
  0.7503851542126299  0.2324814529521717  0.6902999229944484
  0.7675185470478283  0.2496148457873701  0.3097000770055516
  0.2715943892347852  0.7270559185045329  0.8061837232170106
  0.2729440814954671  0.7284056107652077  0.1938162767829894
 
  0.00000000E+00  0.00000000E+00  0.00000000E+00
  0.00000000E+00  0.00000000E+00  0.00000000E+00
  0.00000000E+00  0.00000000E+00  0.00000000E+00
  0.00000000E+00  0.00000000E+00  0.00000000E+00
  0.00000000E+00  0.00000000E+00  0.00000000E+00
  0.00000000E+00  0.00000000E+00  0.00000000E+00
  0.00000000E+00  0.00000000E+00  0.00000000E+00
  0.00000000E+00  0.00000000E+00  0.00000000E+00
  0.00000000E+00  0.00000000E+00  0.00000000E+00
  0.00000000E+00  0.00000000E+00  0.00000000E+00
  0.00000000E+00  0.00000000E+00  0.00000000E+00
  0.00000000E+00  0.00000000E+00  0.00000000E+00
  0.00000000E+00  0.00000000E+00  0.00000000E+00
