Sr2 Al2 I10                             
   1.0000000000000000     
     5.3321260467380354   -0.0000000000000003    0.0000000000000004
    -0.0000000000000010   13.3601180864341860    0.0000000000000010
     0.0000000000000002    0.0000000000000004   12.1391838248324575
   Sr   Al   I 
     2     2    10
Direct
  0.0000000000000000  0.0000000000000000  0.5000000000000000
  0.5000000000000000  0.5000000000000000  0.0000000000000000
  0.5000000000000000  0.0000000000000000  0.0000000000000000
  0.0000000000000000  0.5000000000000000  0.5000000000000000
  0.5000000000000000  0.8475282564498414  0.5000000000000000
  0.5000000000000000  0.1524717435501586  0.5000000000000000
  0.5000000000000000  0.0000000000000000  0.2110757622387354
  0.5000000000000000  0.0000000000000000  0.7889242377612646
  0.0000000000000000  0.0000000000000000  0.0000000000000000
  0.0000000000000000  0.3475282564498414  0.0000000000000000
  0.0000000000000000  0.6524717435501586  0.0000000000000000
  0.0000000000000000  0.5000000000000000  0.7110757622387354
  0.0000000000000000  0.5000000000000000  0.2889242377612646
  0.5000000000000000  0.5000000000000000  0.5000000000000000

  0.00000000E+00  0.00000000E+00  0.00000000E+00
  0.00000000E+00  0.00000000E+00  0.00000000E+00
  0.00000000E+00  0.00000000E+00  0.00000000E+00
  0.00000000E+00  0.00000000E+00  0.00000000E+00
  0.00000000E+00  0.00000000E+00  0.00000000E+00
  0.00000000E+00  0.00000000E+00  0.00000000E+00
  0.00000000E+00  0.00000000E+00  0.00000000E+00
  0.00000000E+00  0.00000000E+00  0.00000000E+00
  0.00000000E+00  0.00000000E+00  0.00000000E+00
  0.00000000E+00  0.00000000E+00  0.00000000E+00
  0.00000000E+00  0.00000000E+00  0.00000000E+00
  0.00000000E+00  0.00000000E+00  0.00000000E+00
  0.00000000E+00  0.00000000E+00  0.00000000E+00
  0.00000000E+00  0.00000000E+00  0.00000000E+00
