Ba2                                     
   1.00000000000000     
     2.5230192412807435   -3.5621373957645539    0.0000000000000000
     2.5230192412807435    3.5621373957645539    0.0000000000000000
     0.0000000000000000    0.0000000000000000    7.1236859957223055
   Ba
     2
Direct
  0.2502039892546364  0.2502039892546364  0.2500000000000000
  0.7497960107453636  0.7497960107453636  0.7500000000000000
 
  0.00000000E+00  0.00000000E+00  0.00000000E+00
  0.00000000E+00  0.00000000E+00  0.00000000E+00
