Ca4 Al4 Br20                            
   1.0000000000000000     
    13.1077439199828998    0.0000000000000000    0.0000000000000000
     0.0000000000000000    6.9856367679712896    0.0779678709231427
     0.0000000000000000    3.2814155260028639    9.3348592137130115
   Ca   Al   Br
     4     4    20
Direct
  0.9743277001997512  0.4563894318791810  0.2685091731712177
  0.4743277001997512  0.5436105681208190  0.2314908268287894
  0.0256722998002488  0.5436105681208190  0.7314908268287823
  0.5256722998002488  0.4563894318791810  0.7685091731712177
  0.7542649837306143  0.1079713070372748  0.6002418472589426
  0.2542649837306143  0.8920286929627252  0.8997581527410574
  0.2457350162693857  0.8920286929627252  0.3997581527410503
  0.7457350162693857  0.1079713070372748  0.1002418472589497
  0.6102209274333887  0.3560244234236976  0.5024118914370419
  0.1102209274333887  0.6439755765763024  0.9975881085629581
  0.3897790725666113  0.6439755765763024  0.4975881085629581
  0.8897790725666113  0.3560244234236976  0.0024118914370419
  0.8144940312624200  0.1278345348066381  0.3489840471047216
  0.3144940312624200  0.8721654651933619  0.1510159528952784
  0.1855059687375800  0.8721654651933619  0.6510159528952784
  0.6855059687375800  0.1278345348066381  0.8489840471047216
  0.4009081319068031  0.0921441006558723  0.7835889022778062
  0.9009081319068031  0.9078558993441277  0.7164110977221938
  0.5990918680931969  0.9078558993441277  0.2164110977221938
  0.0990918680931969  0.0921441006558723  0.2835889022778062
  0.6427234419257744  0.8200991295751052  0.6235893055973420
  0.1427234419257744  0.1799008704248948  0.8764106944026580
  0.3572765580742256  0.1799008704248948  0.3764106944026580
  0.8572765580742256  0.8200991295751052  0.1235893055973420
  0.3685095759742154  0.5664002858931738  0.9473268299583708
  0.8685095759742154  0.4335997141068262  0.5526731700416292
  0.6314904240257846  0.4335997141068262  0.0526731700416292
  0.1314904240257846  0.5664002858931738  0.4473268299583708

  0.00000000E+00  0.00000000E+00  0.00000000E+00
  0.00000000E+00  0.00000000E+00  0.00000000E+00
  0.00000000E+00  0.00000000E+00  0.00000000E+00
  0.00000000E+00  0.00000000E+00  0.00000000E+00
  0.00000000E+00  0.00000000E+00  0.00000000E+00
  0.00000000E+00  0.00000000E+00  0.00000000E+00
  0.00000000E+00  0.00000000E+00  0.00000000E+00
  0.00000000E+00  0.00000000E+00  0.00000000E+00
  0.00000000E+00  0.00000000E+00  0.00000000E+00
  0.00000000E+00  0.00000000E+00  0.00000000E+00
  0.00000000E+00  0.00000000E+00  0.00000000E+00
  0.00000000E+00  0.00000000E+00  0.00000000E+00
  0.00000000E+00  0.00000000E+00  0.00000000E+00
  0.00000000E+00  0.00000000E+00  0.00000000E+00
  0.00000000E+00  0.00000000E+00  0.00000000E+00
  0.00000000E+00  0.00000000E+00  0.00000000E+00
  0.00000000E+00  0.00000000E+00  0.00000000E+00
  0.00000000E+00  0.00000000E+00  0.00000000E+00
  0.00000000E+00  0.00000000E+00  0.00000000E+00
  0.00000000E+00  0.00000000E+00  0.00000000E+00
  0.00000000E+00  0.00000000E+00  0.00000000E+00
  0.00000000E+00  0.00000000E+00  0.00000000E+00
  0.00000000E+00  0.00000000E+00  0.00000000E+00
  0.00000000E+00  0.00000000E+00  0.00000000E+00
  0.00000000E+00  0.00000000E+00  0.00000000E+00
  0.00000000E+00  0.00000000E+00  0.00000000E+00
  0.00000000E+00  0.00000000E+00  0.00000000E+00
  0.00000000E+00  0.00000000E+00  0.00000000E+00
