Ga                                      
   1.00000000000000     
    -2.3019771432416469   -3.8642517226826079   -0.0006076105533930
    -2.3019771432416469    3.8642517226826079    0.0006076105533930
     0.0000000000000000   -0.0007185977481723   -4.5594669801359471
   Ga
     4
Direct
  0.1558731387714118  0.8441268612285882  0.0807983524921880
  0.6558933525136368  0.3441066474863632  0.4194233394563156
  0.3441040005509137  0.6558959994490863  0.5806942022672956
  0.8441295081640448  0.1558704918359481  0.9193841057841894
 
  0.00000000E+00  0.00000000E+00  0.00000000E+00
  0.00000000E+00  0.00000000E+00  0.00000000E+00
  0.00000000E+00  0.00000000E+00  0.00000000E+00
  0.00000000E+00  0.00000000E+00  0.00000000E+00
