In3                                     
   1.00000000000000     
    -1.7248088573739870   -2.9874589272127503   -0.0000000020904192
     3.4496187844248332   -0.0000000255156382    0.0000000015207476
     1.7248088693968939    0.9958192859517316    8.0396068538898220
   In
     3
Direct
  0.0000000000000000  0.0000000000000000  0.0000000000000000
  0.7778760077330489  0.2221249922506274  0.3336240332753775
  0.2221249922669486  0.7778760077493700  0.6663759667246225
 
  0.00000000E+00  0.00000000E+00  0.00000000E+00
  0.00000000E+00  0.00000000E+00  0.00000000E+00
  0.00000000E+00  0.00000000E+00  0.00000000E+00
