Sr21 B40                                
   1.00000000000000     
     3.8011832212157923   -6.5838424409333856    0.0000000000000000
     3.8011832212157914    6.5838424409333856    0.0000000000000000
     0.0000000000000000    0.0000000000000000   27.6285189700769749
   Sr   B 
    21    40
Direct
  0.0000000000145306  0.3331698029751351  0.4363052971832175
  0.6666669999999968  0.3333330000000032  0.2765929737811135
  0.6592219163994102  0.9999999995787689  0.7199194297190132
  0.3407780840218209  0.3407780840218209  0.7199194297190132
  0.0000000000000000  0.0000000000000000  0.1472053887788647
  0.0000000004420855  0.3331304870196163  0.5631387265716938
  0.3315767913631333  0.9999999999858673  0.9998704207632230
  0.9999999995787689  0.6592219163994102  0.7199194297190132
  0.6668301970103414  0.6668301970103414  0.4363052971832175
  0.3331304870196163  0.0000000004420855  0.5631387265716938
  0.3333330000000032  0.6666669999999968  0.1378183785223470
  0.9999999999609628  0.6709971166720408  0.8607396719070550
  0.6668695125382982  0.6668695125382982  0.5631387265716938
  0.3290028833669965  0.3290028833669965  0.8607396719070550
  0.6666669999999968  0.3333330000000032  0.1378183785223470
  0.3333330000000032  0.6666669999999968  0.2765929737811135
  0.9999999999858673  0.3315767913631333  0.9998704207632230
  0.3331698029751351  0.0000000000145306  0.4363052971832175
  0.6684232086509994  0.6684232086509994  0.9998704207632230
  0.6709971166720408  0.9999999999609628  0.8607396719070550
  0.0000000000000000  0.0000000000000000  0.2899861720315897
  0.3141660254324563  0.5301319570973746  0.4995774477042900
  0.1308469550335118  0.3365149968287824  0.2128466522974577
  0.4619361044949954  0.1297460326855315  0.7931084163826227
  0.7943319588540021  0.6634850042942801  0.2128466522974577
  0.4511135585234527  0.0000000005318768  0.2020906586163349
  0.0000000000000000  0.0000000000000000  0.4991149412679761
  0.3333330000000032  0.6666669999999968  0.8235970544576716
  0.2056680406722080  0.8691530443172084  0.2128466522974577
  0.2057053363187507  0.9999999995479669  0.7832220120608895
  0.0000000003902940  0.6979675732871229  0.2418459936700685
  0.3365149968287824  0.1308469550335118  0.2128466522974577
  0.2859067730271434  0.2859067730271434  0.4997530080768016
  0.7942946641332753  0.7942946641332753  0.7832220120608895
  0.6666669999999968  0.3333330000000032  0.8235970544576716
  0.9999999995633644  0.7140932274094993  0.4997530080768016
  0.5488864409446705  0.5488864409446705  0.2020906586163349
  0.7840340673624979  0.4698680418173709  0.4995774477042900
  0.5380638963360482  0.6678099278212031  0.7931084163826227
  0.0000000005318768  0.4511135585234527  0.2020906586163349
  0.8691530443172084  0.2056680406722080  0.2128466522974577
  0.0000000000075744  0.6546077947117794  0.1817288014467664
  0.3020324263225902  0.3020324263225902  0.2418459936700685
  0.3333330000000032  0.6666669999999968  0.7619078422451295
  0.9999999995479669  0.2057053363187507  0.7832220120608895
  0.6666669999999968  0.3333330000000032  0.7619078422451295
  0.1297460326855315  0.4619361044949954  0.7931084163826227
  0.4698680418173709  0.7840340673624979  0.4995774477042900
  0.2159659327501657  0.6858339755401275  0.4995774477042900
  0.6546077947117794  0.0000000000075744  0.1817288014467664
  0.3453922052806462  0.3453922052806462  0.1817288014467664
  0.8702539676837944  0.3321900709784344  0.7931084163826227
  0.6979675732871229  0.0000000003902940  0.2418459936700685
  0.5301319570973746  0.3141660254324563  0.4995774477042900
  0.6634850042942801  0.7943319588540021  0.2128466522974577
  0.7140932274094993  0.9999999995633644  0.4997530080768016
  0.6858339755401275  0.2159659327501657  0.4995774477042900
  0.3321900709784344  0.8702539676837944  0.7931084163826227
  0.0000000000000000  0.0000000000000000  0.8151055547480155
  0.6678099278212031  0.5380638963360482  0.7931084163826227
  0.0000000000000000  0.0000000000000000  0.7534832868095336
 
  0.00000000E+00  0.00000000E+00  0.00000000E+00
  0.00000000E+00  0.00000000E+00  0.00000000E+00
  0.00000000E+00  0.00000000E+00  0.00000000E+00
  0.00000000E+00  0.00000000E+00  0.00000000E+00
  0.00000000E+00  0.00000000E+00  0.00000000E+00
  0.00000000E+00  0.00000000E+00  0.00000000E+00
  0.00000000E+00  0.00000000E+00  0.00000000E+00
  0.00000000E+00  0.00000000E+00  0.00000000E+00
  0.00000000E+00  0.00000000E+00  0.00000000E+00
  0.00000000E+00  0.00000000E+00  0.00000000E+00
  0.00000000E+00  0.00000000E+00  0.00000000E+00
  0.00000000E+00  0.00000000E+00  0.00000000E+00
  0.00000000E+00  0.00000000E+00  0.00000000E+00
  0.00000000E+00  0.00000000E+00  0.00000000E+00
  0.00000000E+00  0.00000000E+00  0.00000000E+00
  0.00000000E+00  0.00000000E+00  0.00000000E+00
  0.00000000E+00  0.00000000E+00  0.00000000E+00
  0.00000000E+00  0.00000000E+00  0.00000000E+00
  0.00000000E+00  0.00000000E+00  0.00000000E+00
  0.00000000E+00  0.00000000E+00  0.00000000E+00
  0.00000000E+00  0.00000000E+00  0.00000000E+00
  0.00000000E+00  0.00000000E+00  0.00000000E+00
  0.00000000E+00  0.00000000E+00  0.00000000E+00
  0.00000000E+00  0.00000000E+00  0.00000000E+00
  0.00000000E+00  0.00000000E+00  0.00000000E+00
  0.00000000E+00  0.00000000E+00  0.00000000E+00
  0.00000000E+00  0.00000000E+00  0.00000000E+00
  0.00000000E+00  0.00000000E+00  0.00000000E+00
  0.00000000E+00  0.00000000E+00  0.00000000E+00
  0.00000000E+00  0.00000000E+00  0.00000000E+00
  0.00000000E+00  0.00000000E+00  0.00000000E+00
  0.00000000E+00  0.00000000E+00  0.00000000E+00
  0.00000000E+00  0.00000000E+00  0.00000000E+00
  0.00000000E+00  0.00000000E+00  0.00000000E+00
  0.00000000E+00  0.00000000E+00  0.00000000E+00
  0.00000000E+00  0.00000000E+00  0.00000000E+00
  0.00000000E+00  0.00000000E+00  0.00000000E+00
  0.00000000E+00  0.00000000E+00  0.00000000E+00
  0.00000000E+00  0.00000000E+00  0.00000000E+00
  0.00000000E+00  0.00000000E+00  0.00000000E+00
  0.00000000E+00  0.00000000E+00  0.00000000E+00
  0.00000000E+00  0.00000000E+00  0.00000000E+00
  0.00000000E+00  0.00000000E+00  0.00000000E+00
  0.00000000E+00  0.00000000E+00  0.00000000E+00
  0.00000000E+00  0.00000000E+00  0.00000000E+00
  0.00000000E+00  0.00000000E+00  0.00000000E+00
  0.00000000E+00  0.00000000E+00  0.00000000E+00
  0.00000000E+00  0.00000000E+00  0.00000000E+00
  0.00000000E+00  0.00000000E+00  0.00000000E+00
  0.00000000E+00  0.00000000E+00  0.00000000E+00
  0.00000000E+00  0.00000000E+00  0.00000000E+00
  0.00000000E+00  0.00000000E+00  0.00000000E+00
  0.00000000E+00  0.00000000E+00  0.00000000E+00
  0.00000000E+00  0.00000000E+00  0.00000000E+00
  0.00000000E+00  0.00000000E+00  0.00000000E+00
  0.00000000E+00  0.00000000E+00  0.00000000E+00
  0.00000000E+00  0.00000000E+00  0.00000000E+00
  0.00000000E+00  0.00000000E+00  0.00000000E+00
  0.00000000E+00  0.00000000E+00  0.00000000E+00
  0.00000000E+00  0.00000000E+00  0.00000000E+00
  0.00000000E+00  0.00000000E+00  0.00000000E+00
