Mg16 Tl16 F80                           
   1.0000000000000000     
    13.7186699492584232    0.0000008634704379    0.0000000000000009
    -0.0000008634704385   13.7186699492584232    0.0000000000000009
    -0.0000000000000000   -0.0000000000000000    8.3946120586615134
   Mg   Tl   F 
    16    16    80
Direct
  0.4848519547558041  0.7506441307887428  0.6472084670556129
  0.2506441307887499  0.0151480452441959  0.1472084670556058
  0.7493558692112572  0.9848519547557970  0.1472084670556058
  0.5151480452441959  0.2493558692112430  0.6472084670556129
  0.2557733670292706  0.0719747941966062  0.6817736956098344
  0.5719747941966062  0.2442266329707294  0.1817736956098344
  0.4280252058034009  0.7557733670292777  0.1817736956098344
  0.7442266329707223  0.9280252058033938  0.6817736956098344
  0.9848519547557970  0.2506441307887499  0.1472084670556058
  0.7506441307887428  0.5151480452441959  0.6472084670556129
  0.2493558692112430  0.4848519547558041  0.6472084670556129
  0.0151480452441959  0.7493558692112572  0.1472084670556058
  0.7557733670292777  0.5719747941966062  0.1817736956098344
  0.0719747941966062  0.7442266329707223  0.6817736956098344
  0.9280252058033938  0.2557733670292706  0.6817736956098344
  0.2442266329707294  0.4280252058034009  0.1817736956098344
  0.0000000000000000  0.0000000000000000  0.5110917003537168
  0.0000000000000000  0.0000000000000000  0.0081712108170109
  0.5000000000000000  0.0000000000000000  0.0025278689108674
  0.5000000000000000  0.0000000000000000  0.5025278689108745
  0.3561959483962482  0.2416724458630739  0.0217614477314712
  0.7416724458630739  0.1438040516037589  0.5217614477314569
  0.2583275541369119  0.8561959483962411  0.5217614477314569
  0.6438040516037589  0.7583275541369261  0.0217614477314712
  0.5000000000000000  0.5000000000000000  0.0110917003537097
  0.5000000000000000  0.5000000000000000  0.5081712108170109
  0.0000000000000000  0.5000000000000000  0.5025278689108745
  0.0000000000000000  0.5000000000000000  0.0025278689108674
  0.8561959483962411  0.7416724458630739  0.5217614477314569
  0.2416724458630739  0.6438040516037589  0.0217614477314712
  0.7583275541369261  0.3561959483962482  0.0217614477314712
  0.1438040516037589  0.2583275541369119  0.5217614477314569
  0.0000000000000000  0.0000000000000000  0.7584901016713772
  0.0000000000000000  0.0000000000000000  0.2650029312475439
  0.1419952023557016  0.0794768470009402  0.5295595496958185
  0.5794768470009330  0.3580047976442984  0.0295595496958256
  0.4205231529990598  0.6419952023557087  0.0295595496958256
  0.8580047976442913  0.9205231529990670  0.5295595496958185
  0.1452769727500893  0.0604562761168737  0.0203040476915248
  0.5604562761168808  0.3547230272499107  0.5203040476915319
  0.4395437238831263  0.6452769727500822  0.5203040476915319
  0.8547230272499178  0.9395437238831192  0.0203040476915248
  0.5000000000000000  0.0000000000000000  0.7557108521449862
  0.5000000000000000  0.0000000000000000  0.2557108521449862
  0.5021020119905941  0.1635420367103677  0.0199101813663773
  0.6635420367103677  0.9978979880094130  0.5199101813663773
  0.3364579632896323  0.0021020119905870  0.5199101813663773
  0.4978979880094130  0.8364579632896323  0.0199101813663773
  0.4535818411159056  0.1471786241443098  0.5346499677104148
  0.6471786241443098  0.0464181588840944  0.0346499677104148
  0.3528213758556902  0.9535818411159056  0.0346499677104148
  0.5464181588840944  0.8528213758556902  0.5346499677104148
  0.4268277039493640  0.2960284323321929  0.8037048493234238
  0.7960284323321858  0.0731722960506360  0.3037048493234238
  0.2039715676678213  0.9268277039493640  0.3037048493234238
  0.5731722960506360  0.7039715676678142  0.8037048493234238
  0.4423796604040788  0.2903839559831027  0.2337812057057818
  0.7903839559831169  0.0576203395959283  0.7337812057057889
  0.2096160440169044  0.9423796604040788  0.7337812057057889
  0.5576203395959212  0.7096160440168831  0.2337812057057818
  0.3211333456111447  0.1136361878366472  0.8718281343222429
  0.6136361878366472  0.1788666543888553  0.3718281343222358
  0.3863638121633528  0.8211333456111305  0.3718281343222358
  0.6788666543888695  0.8863638121633528  0.8718281343222429
  0.3169336236143963  0.1294687142122584  0.2067323572344080
  0.6294687142122584  0.1830663763856037  0.7067323572344009
  0.3705312857877416  0.8169336236143891  0.7067323572344009
  0.6830663763856109  0.8705312857877416  0.2067323572344080
  0.7208921661249050  0.7974191467684051  0.5968215000024983
  0.2974191467683838  0.7791078338750808  0.0968215000024912
  0.7025808532315949  0.2208921661249121  0.0968215000024912
  0.2791078338750808  0.2025808532316091  0.5968215000024983
  0.5000000000000000  0.5000000000000000  0.2584901016713772
  0.5000000000000000  0.5000000000000000  0.7650029312475439
  0.6419952023557087  0.5794768470009330  0.0295595496958256
  0.0794768470009402  0.8580047976442913  0.5295595496958185
  0.9205231529990670  0.1419952023557016  0.5295595496958185
  0.3580047976442984  0.4205231529990598  0.0295595496958256
  0.6452769727500822  0.5604562761168808  0.5203040476915319
  0.0604562761168737  0.8547230272499178  0.0203040476915248
  0.9395437238831192  0.1452769727500893  0.0203040476915248
  0.3547230272499107  0.4395437238831263  0.5203040476915319
  0.0000000000000000  0.5000000000000000  0.2557108521449862
  0.0000000000000000  0.5000000000000000  0.7557108521449862
  0.0021020119905870  0.6635420367103677  0.5199101813663773
  0.1635420367103677  0.4978979880094130  0.0199101813663773
  0.8364579632896323  0.5021020119905941  0.0199101813663773
  0.9978979880094130  0.3364579632896323  0.5199101813663773
  0.9535818411159056  0.6471786241443098  0.0346499677104148
  0.1471786241443098  0.5464181588840944  0.5346499677104148
  0.8528213758556902  0.4535818411159056  0.5346499677104148
  0.0464181588840944  0.3528213758556902  0.0346499677104148
  0.9268277039493640  0.7960284323321858  0.3037048493234238
  0.2960284323321929  0.5731722960506360  0.8037048493234238
  0.7039715676678142  0.4268277039493640  0.8037048493234238
  0.0731722960506360  0.2039715676678213  0.3037048493234238
  0.9423796604040788  0.7903839559831169  0.7337812057057889
  0.2903839559831027  0.5576203395959212  0.2337812057057818
  0.7096160440168831  0.4423796604040788  0.2337812057057818
  0.0576203395959283  0.2096160440169044  0.7337812057057889
  0.8211333456111305  0.6136361878366472  0.3718281343222358
  0.1136361878366472  0.6788666543888695  0.8718281343222429
  0.8863638121633528  0.3211333456111447  0.8718281343222429
  0.1788666543888553  0.3863638121633528  0.3718281343222358
  0.8169336236143891  0.6294687142122584  0.7067323572344009
  0.1294687142122584  0.6830663763856109  0.2067323572344080
  0.8705312857877416  0.3169336236143963  0.2067323572344080
  0.1830663763856037  0.3705312857877416  0.7067323572344009
  0.2208921661249121  0.2974191467683838  0.0968215000024912
  0.7974191467684051  0.2791078338750808  0.5968215000024983
  0.2025808532316091  0.7208921661249050  0.5968215000024983
  0.7791078338750808  0.7025808532315949  0.0968215000024912

  0.00000000E+00  0.00000000E+00  0.00000000E+00
  0.00000000E+00  0.00000000E+00  0.00000000E+00
  0.00000000E+00  0.00000000E+00  0.00000000E+00
  0.00000000E+00  0.00000000E+00  0.00000000E+00
  0.00000000E+00  0.00000000E+00  0.00000000E+00
  0.00000000E+00  0.00000000E+00  0.00000000E+00
  0.00000000E+00  0.00000000E+00  0.00000000E+00
  0.00000000E+00  0.00000000E+00  0.00000000E+00
  0.00000000E+00  0.00000000E+00  0.00000000E+00
  0.00000000E+00  0.00000000E+00  0.00000000E+00
  0.00000000E+00  0.00000000E+00  0.00000000E+00
  0.00000000E+00  0.00000000E+00  0.00000000E+00
  0.00000000E+00  0.00000000E+00  0.00000000E+00
  0.00000000E+00  0.00000000E+00  0.00000000E+00
  0.00000000E+00  0.00000000E+00  0.00000000E+00
  0.00000000E+00  0.00000000E+00  0.00000000E+00
  0.00000000E+00  0.00000000E+00  0.00000000E+00
  0.00000000E+00  0.00000000E+00  0.00000000E+00
  0.00000000E+00  0.00000000E+00  0.00000000E+00
  0.00000000E+00  0.00000000E+00  0.00000000E+00
  0.00000000E+00  0.00000000E+00  0.00000000E+00
  0.00000000E+00  0.00000000E+00  0.00000000E+00
  0.00000000E+00  0.00000000E+00  0.00000000E+00
  0.00000000E+00  0.00000000E+00  0.00000000E+00
  0.00000000E+00  0.00000000E+00  0.00000000E+00
  0.00000000E+00  0.00000000E+00  0.00000000E+00
  0.00000000E+00  0.00000000E+00  0.00000000E+00
  0.00000000E+00  0.00000000E+00  0.00000000E+00
  0.00000000E+00  0.00000000E+00  0.00000000E+00
  0.00000000E+00  0.00000000E+00  0.00000000E+00
  0.00000000E+00  0.00000000E+00  0.00000000E+00
  0.00000000E+00  0.00000000E+00  0.00000000E+00
  0.00000000E+00  0.00000000E+00  0.00000000E+00
  0.00000000E+00  0.00000000E+00  0.00000000E+00
  0.00000000E+00  0.00000000E+00  0.00000000E+00
  0.00000000E+00  0.00000000E+00  0.00000000E+00
  0.00000000E+00  0.00000000E+00  0.00000000E+00
  0.00000000E+00  0.00000000E+00  0.00000000E+00
  0.00000000E+00  0.00000000E+00  0.00000000E+00
  0.00000000E+00  0.00000000E+00  0.00000000E+00
  0.00000000E+00  0.00000000E+00  0.00000000E+00
  0.00000000E+00  0.00000000E+00  0.00000000E+00
  0.00000000E+00  0.00000000E+00  0.00000000E+00
  0.00000000E+00  0.00000000E+00  0.00000000E+00
  0.00000000E+00  0.00000000E+00  0.00000000E+00
  0.00000000E+00  0.00000000E+00  0.00000000E+00
  0.00000000E+00  0.00000000E+00  0.00000000E+00
  0.00000000E+00  0.00000000E+00  0.00000000E+00
  0.00000000E+00  0.00000000E+00  0.00000000E+00
  0.00000000E+00  0.00000000E+00  0.00000000E+00
  0.00000000E+00  0.00000000E+00  0.00000000E+00
  0.00000000E+00  0.00000000E+00  0.00000000E+00
  0.00000000E+00  0.00000000E+00  0.00000000E+00
  0.00000000E+00  0.00000000E+00  0.00000000E+00
  0.00000000E+00  0.00000000E+00  0.00000000E+00
  0.00000000E+00  0.00000000E+00  0.00000000E+00
  0.00000000E+00  0.00000000E+00  0.00000000E+00
  0.00000000E+00  0.00000000E+00  0.00000000E+00
  0.00000000E+00  0.00000000E+00  0.00000000E+00
  0.00000000E+00  0.00000000E+00  0.00000000E+00
  0.00000000E+00  0.00000000E+00  0.00000000E+00
  0.00000000E+00  0.00000000E+00  0.00000000E+00
  0.00000000E+00  0.00000000E+00  0.00000000E+00
  0.00000000E+00  0.00000000E+00  0.00000000E+00
  0.00000000E+00  0.00000000E+00  0.00000000E+00
  0.00000000E+00  0.00000000E+00  0.00000000E+00
  0.00000000E+00  0.00000000E+00  0.00000000E+00
  0.00000000E+00  0.00000000E+00  0.00000000E+00
  0.00000000E+00  0.00000000E+00  0.00000000E+00
  0.00000000E+00  0.00000000E+00  0.00000000E+00
  0.00000000E+00  0.00000000E+00  0.00000000E+00
  0.00000000E+00  0.00000000E+00  0.00000000E+00
  0.00000000E+00  0.00000000E+00  0.00000000E+00
  0.00000000E+00  0.00000000E+00  0.00000000E+00
  0.00000000E+00  0.00000000E+00  0.00000000E+00
  0.00000000E+00  0.00000000E+00  0.00000000E+00
  0.00000000E+00  0.00000000E+00  0.00000000E+00
  0.00000000E+00  0.00000000E+00  0.00000000E+00
  0.00000000E+00  0.00000000E+00  0.00000000E+00
  0.00000000E+00  0.00000000E+00  0.00000000E+00
  0.00000000E+00  0.00000000E+00  0.00000000E+00
  0.00000000E+00  0.00000000E+00  0.00000000E+00
  0.00000000E+00  0.00000000E+00  0.00000000E+00
  0.00000000E+00  0.00000000E+00  0.00000000E+00
  0.00000000E+00  0.00000000E+00  0.00000000E+00
  0.00000000E+00  0.00000000E+00  0.00000000E+00
  0.00000000E+00  0.00000000E+00  0.00000000E+00
  0.00000000E+00  0.00000000E+00  0.00000000E+00
  0.00000000E+00  0.00000000E+00  0.00000000E+00
  0.00000000E+00  0.00000000E+00  0.00000000E+00
  0.00000000E+00  0.00000000E+00  0.00000000E+00
  0.00000000E+00  0.00000000E+00  0.00000000E+00
  0.00000000E+00  0.00000000E+00  0.00000000E+00
  0.00000000E+00  0.00000000E+00  0.00000000E+00
  0.00000000E+00  0.00000000E+00  0.00000000E+00
  0.00000000E+00  0.00000000E+00  0.00000000E+00
  0.00000000E+00  0.00000000E+00  0.00000000E+00
  0.00000000E+00  0.00000000E+00  0.00000000E+00
  0.00000000E+00  0.00000000E+00  0.00000000E+00
  0.00000000E+00  0.00000000E+00  0.00000000E+00
  0.00000000E+00  0.00000000E+00  0.00000000E+00
  0.00000000E+00  0.00000000E+00  0.00000000E+00
  0.00000000E+00  0.00000000E+00  0.00000000E+00
  0.00000000E+00  0.00000000E+00  0.00000000E+00
  0.00000000E+00  0.00000000E+00  0.00000000E+00
  0.00000000E+00  0.00000000E+00  0.00000000E+00
  0.00000000E+00  0.00000000E+00  0.00000000E+00
  0.00000000E+00  0.00000000E+00  0.00000000E+00
  0.00000000E+00  0.00000000E+00  0.00000000E+00
  0.00000000E+00  0.00000000E+00  0.00000000E+00
  0.00000000E+00  0.00000000E+00  0.00000000E+00
  0.00000000E+00  0.00000000E+00  0.00000000E+00
