Mg4 In8 Br16                            
   1.0000000000000000     
     9.5922656106743851   -0.0287999239253935   -0.0198231336101953
    -0.0205415878919119    7.9786018346263656    0.3329801354943336
    -0.0259633850169901    0.6122464502338133   14.0903889521428685
   Mg   Br   In
     4    16     8
Direct
  0.7135884869075184  0.2692650714594009  0.0723216754347504
  0.2134377847737028  0.2366049001538926  0.4281525703404512
  0.7880113447980008  0.7676688044765783  0.5708839654025724
  0.2855338522744617  0.7268080630626201  0.9282414183904137
  0.1847472711153131  0.6563525946211044  0.0912649891128154
  0.4569336015863072  0.2069015227138848  0.0630905939181190
  0.8276713161247287  0.0028643562031689  0.1419126741914027
  0.7671141123729228  0.5171666756819917  0.1654425868165887
  0.2701801979912091  0.9891338016713291  0.3363115317101446
  0.3287797332055717  0.5042061206291706  0.3598047638283077
  0.9563856264264601  0.2943812915395156  0.4348563578541089
  0.6894898578380904  0.8342566372547182  0.4065746103101588
  0.3123911077880024  0.1686159370451392  0.5922574335378243
  0.0449055168405010  0.7083011483206079  0.5644064262872419
  0.6728471946571091  0.5004002572535526  0.6401883990389621
  0.7300144844156691  0.0151317542587179  0.6623171964888499
  0.2316734320961586  0.4785558170426540  0.8354231309314670
  0.1708101213949860  0.9925568671647440  0.8583174549560013
  0.5420701776295758  0.7898704539627843  0.9373348430718096
  0.8151067719060663  0.3393474590902983  0.9094456686212240
  0.1195399402881705  0.2584173852588449  0.0166949592969914
  0.5187591580757527  0.8135578730508897  0.1694797649668871
  0.0166548529849209  0.6880568410662207  0.3318563710653493
  0.6186138580329583  0.2390549874033709  0.4831196916281897
  0.3825837038376676  0.7691249529411408  0.5161747340908249
  0.9828431283480796  0.3146191268695517  0.6678023621573672
  0.4793785562650754  0.1816844800935016  0.8316700730276736
  0.8799348100250270  0.7366948197106140  0.9842537535234683

  0.00000000E+00  0.00000000E+00  0.00000000E+00
  0.00000000E+00  0.00000000E+00  0.00000000E+00
  0.00000000E+00  0.00000000E+00  0.00000000E+00
  0.00000000E+00  0.00000000E+00  0.00000000E+00
  0.00000000E+00  0.00000000E+00  0.00000000E+00
  0.00000000E+00  0.00000000E+00  0.00000000E+00
  0.00000000E+00  0.00000000E+00  0.00000000E+00
  0.00000000E+00  0.00000000E+00  0.00000000E+00
  0.00000000E+00  0.00000000E+00  0.00000000E+00
  0.00000000E+00  0.00000000E+00  0.00000000E+00
  0.00000000E+00  0.00000000E+00  0.00000000E+00
  0.00000000E+00  0.00000000E+00  0.00000000E+00
  0.00000000E+00  0.00000000E+00  0.00000000E+00
  0.00000000E+00  0.00000000E+00  0.00000000E+00
  0.00000000E+00  0.00000000E+00  0.00000000E+00
  0.00000000E+00  0.00000000E+00  0.00000000E+00
  0.00000000E+00  0.00000000E+00  0.00000000E+00
  0.00000000E+00  0.00000000E+00  0.00000000E+00
  0.00000000E+00  0.00000000E+00  0.00000000E+00
  0.00000000E+00  0.00000000E+00  0.00000000E+00
  0.00000000E+00  0.00000000E+00  0.00000000E+00
  0.00000000E+00  0.00000000E+00  0.00000000E+00
  0.00000000E+00  0.00000000E+00  0.00000000E+00
  0.00000000E+00  0.00000000E+00  0.00000000E+00
  0.00000000E+00  0.00000000E+00  0.00000000E+00
  0.00000000E+00  0.00000000E+00  0.00000000E+00
  0.00000000E+00  0.00000000E+00  0.00000000E+00
  0.00000000E+00  0.00000000E+00  0.00000000E+00
