Ba4 B10                                 
   1.00000000000000     
     4.6965775879265879    4.6965775879265879   -2.8157196348553626
     4.6965775879265879   -4.6965775879265879    2.8157196348553626
    -4.6965775879265879   -4.6965775879265879   -2.8157196348553626
   B    Ba
    10     4
Direct
  0.8534553919285344  0.4026815554762706  0.2561369474048121
  0.5492261635477362  0.4026815554762706  0.1465446080714656
  0.7438630525951879  0.5973184445237294  0.1465446080714656
  0.1388912446426005  0.0000000000000000  0.1388912446426005
  0.1465446080714656  0.4026815554762706  0.5492261635477362
  0.8534553919285344  0.5973184445237294  0.4507738364522638
  0.8611087553573995  0.0000000000000000  0.8611087553573995
  0.2561369474048121  0.4026815554762706  0.8534553919285344
  0.4507738364522638  0.5973184445237294  0.8534553919285344
  0.1465446080714656  0.5973184445237294  0.7438630525951879
  0.6821295084611734  0.0000000000000000  0.3178704915388266
  0.3178704915388266  0.6357409830776604  0.3178704915388266
  0.3178704915388266  0.0000000000000000  0.6821295084611734
  0.6821295084611734  0.3642590169223396  0.6821295084611734
 
  0.00000000E+00  0.00000000E+00  0.00000000E+00
  0.00000000E+00  0.00000000E+00  0.00000000E+00
  0.00000000E+00  0.00000000E+00  0.00000000E+00
  0.00000000E+00  0.00000000E+00  0.00000000E+00
  0.00000000E+00  0.00000000E+00  0.00000000E+00
  0.00000000E+00  0.00000000E+00  0.00000000E+00
  0.00000000E+00  0.00000000E+00  0.00000000E+00
  0.00000000E+00  0.00000000E+00  0.00000000E+00
  0.00000000E+00  0.00000000E+00  0.00000000E+00
  0.00000000E+00  0.00000000E+00  0.00000000E+00
  0.00000000E+00  0.00000000E+00  0.00000000E+00
  0.00000000E+00  0.00000000E+00  0.00000000E+00
  0.00000000E+00  0.00000000E+00  0.00000000E+00
  0.00000000E+00  0.00000000E+00  0.00000000E+00
