Ca4 Tl4 Cl20                            
   1.0000000000000000     
     6.9415362625201515    0.0000000000000001    0.0000000000000006
    -0.0000000000000005    6.5589884547196338    0.0000000000000005
     0.0000000000000003    0.0000000000000001   22.0284773488212871
   Ca   Tl   Cl
     4     4    20
Direct
  0.9339279261913873  0.5352968257048047  0.5379020034209816
  0.4339279261914015  0.9647031742951953  0.4620979965790184
  0.0660720738085914  0.0352968257048047  0.9620979965790184
  0.5660720738086127  0.4647031742951953  0.0379020034209816
  0.1348822962328029  0.0977087485087083  0.6482361747596315
  0.6348822962328029  0.4022912514912917  0.3517638252403685
  0.8651177037671971  0.5977087485087083  0.8517638252403685
  0.3651177037671971  0.9022912514912917  0.1482361747596315
  0.1202830159467041  0.7398291196628861  0.4531709809006443
  0.6202830159467041  0.7601708803371139  0.5468290190993557
  0.8797169840532959  0.2398291196628861  0.0468290190993628
  0.3797169840532959  0.2601708803371139  0.9531709809006443
  0.6223806881888621  0.7782755249778006  0.3626352394864440
  0.1223806881888621  0.7217244750221994  0.6373647605135417
  0.3776193118111379  0.2782755249778006  0.1373647605135417
  0.8776193118111379  0.2217244750221994  0.8626352394864583
  0.8159605465806621  0.2611446106354407  0.6310476223353874
  0.3159605465806621  0.2388553893645593  0.3689523776646197
  0.1840394534193379  0.7611446106354407  0.8689523776646126
  0.6840394534193379  0.7388553893645593  0.1310476223353803
  0.3253150591792249  0.2138814892029259  0.7314206331015853
  0.8253150591792249  0.2861185107970812  0.2685793668984147
  0.6746849408207751  0.7138814892029259  0.7685793668984147
  0.1746849408207751  0.7861185107970741  0.2314206331015853
  0.7616092607380907  0.2542475990410011  0.4541901588019641
  0.2616092607380907  0.2457524009589989  0.5458098411980359
  0.2383907392619093  0.7542475990410011  0.0458098411980359
  0.7383907392619093  0.7457524009589989  0.9541901588019641

  0.00000000E+00  0.00000000E+00  0.00000000E+00
  0.00000000E+00  0.00000000E+00  0.00000000E+00
  0.00000000E+00  0.00000000E+00  0.00000000E+00
  0.00000000E+00  0.00000000E+00  0.00000000E+00
  0.00000000E+00  0.00000000E+00  0.00000000E+00
  0.00000000E+00  0.00000000E+00  0.00000000E+00
  0.00000000E+00  0.00000000E+00  0.00000000E+00
  0.00000000E+00  0.00000000E+00  0.00000000E+00
  0.00000000E+00  0.00000000E+00  0.00000000E+00
  0.00000000E+00  0.00000000E+00  0.00000000E+00
  0.00000000E+00  0.00000000E+00  0.00000000E+00
  0.00000000E+00  0.00000000E+00  0.00000000E+00
  0.00000000E+00  0.00000000E+00  0.00000000E+00
  0.00000000E+00  0.00000000E+00  0.00000000E+00
  0.00000000E+00  0.00000000E+00  0.00000000E+00
  0.00000000E+00  0.00000000E+00  0.00000000E+00
  0.00000000E+00  0.00000000E+00  0.00000000E+00
  0.00000000E+00  0.00000000E+00  0.00000000E+00
  0.00000000E+00  0.00000000E+00  0.00000000E+00
  0.00000000E+00  0.00000000E+00  0.00000000E+00
  0.00000000E+00  0.00000000E+00  0.00000000E+00
  0.00000000E+00  0.00000000E+00  0.00000000E+00
  0.00000000E+00  0.00000000E+00  0.00000000E+00
  0.00000000E+00  0.00000000E+00  0.00000000E+00
  0.00000000E+00  0.00000000E+00  0.00000000E+00
  0.00000000E+00  0.00000000E+00  0.00000000E+00
  0.00000000E+00  0.00000000E+00  0.00000000E+00
  0.00000000E+00  0.00000000E+00  0.00000000E+00
