Sr4 B8 Cl16                             
   1.00000000000000     
    10.4387350466361113   -0.0107042245931588    0.0239203890199446
     0.0071582108504361    7.5051098937365008   -1.5678226733668565
    -0.0316576456120967   -1.6826432720826550   14.6900339622063054
   Sr   Cl   B 
     4    16     8
Direct
  0.9778637530122793  0.3755463687415599  0.8648672431349951
  0.4777661587725461  0.1244172972582120  0.6351212474614201
  0.5221568162251415  0.8755497972593389  0.3648358804427545
  0.0221789195729087  0.6242104689983634  0.1351755235213901
  0.9100058478606812  0.7170115850481693  0.3368051625981536
  0.1805985319517660  0.2647400195743401  0.1221489620904634
  0.8539737474061084  0.9276543795044958  0.0874878028080275
  0.7583306699965107  0.4778620072518720  0.1740763853580347
  0.2585625202013304  0.0220592662599302  0.3258721347312417
  0.3533861513027858  0.5723982019712679  0.4125274742739578
  0.6804112898486139  0.2352840129781981  0.3777452280267326
  0.4100629178614525  0.7823966335150629  0.1632174253301955
  0.5897405196379424  0.2181195665062603  0.8368354597095475
  0.3193984754325214  0.7647128581888580  0.6221898065022486
  0.6464553931856329  0.4276078223704900  0.5873981136741833
  0.7412208636617592  0.9778651727955818  0.6743518654252654
  0.2413022970474401  0.5223105266111858  0.8255940898333947
  0.1467713845440386  0.0726237931856346  0.9124507505745854
  0.8200279553674363  0.7354912476181923  0.8778204409672981
  0.0898119776028068  0.2818546209681401  0.6631310232747794
  0.1104675181635812  0.2747672354818889  0.0121758627772124
  0.2459707365648214  0.8348413034061792  0.2113087028193235
  0.7458831932069074  0.6649181495682299  0.2887194520191869
  0.6102876529963694  0.2252378593468620  0.4877452374370321
  0.3895816331951423  0.7747266394774641  0.5122002650385582
  0.2539151195993625  0.3348198709996097  0.7111223290556268
  0.7538474848854761  0.1652556240537706  0.7888603884817869
  0.8900204708966513  0.7253176710608500  0.9878157426326197
 
  0.00000000E+00  0.00000000E+00  0.00000000E+00
  0.00000000E+00  0.00000000E+00  0.00000000E+00
  0.00000000E+00  0.00000000E+00  0.00000000E+00
  0.00000000E+00  0.00000000E+00  0.00000000E+00
  0.00000000E+00  0.00000000E+00  0.00000000E+00
  0.00000000E+00  0.00000000E+00  0.00000000E+00
  0.00000000E+00  0.00000000E+00  0.00000000E+00
  0.00000000E+00  0.00000000E+00  0.00000000E+00
  0.00000000E+00  0.00000000E+00  0.00000000E+00
  0.00000000E+00  0.00000000E+00  0.00000000E+00
  0.00000000E+00  0.00000000E+00  0.00000000E+00
  0.00000000E+00  0.00000000E+00  0.00000000E+00
  0.00000000E+00  0.00000000E+00  0.00000000E+00
  0.00000000E+00  0.00000000E+00  0.00000000E+00
  0.00000000E+00  0.00000000E+00  0.00000000E+00
  0.00000000E+00  0.00000000E+00  0.00000000E+00
  0.00000000E+00  0.00000000E+00  0.00000000E+00
  0.00000000E+00  0.00000000E+00  0.00000000E+00
  0.00000000E+00  0.00000000E+00  0.00000000E+00
  0.00000000E+00  0.00000000E+00  0.00000000E+00
  0.00000000E+00  0.00000000E+00  0.00000000E+00
  0.00000000E+00  0.00000000E+00  0.00000000E+00
  0.00000000E+00  0.00000000E+00  0.00000000E+00
  0.00000000E+00  0.00000000E+00  0.00000000E+00
  0.00000000E+00  0.00000000E+00  0.00000000E+00
  0.00000000E+00  0.00000000E+00  0.00000000E+00
  0.00000000E+00  0.00000000E+00  0.00000000E+00
  0.00000000E+00  0.00000000E+00  0.00000000E+00
