Be7 Tl10                                
   1.0000000000000000     
     1.6254565663584752   -5.0326612903364083   -1.0711581088884292
    -5.8865589099360678   -1.6803885200691995    1.9537064881546071
     6.1653049536352444   -1.1057513193949260  -14.0222884053950025
   Tl   Be
    10     7
Direct
  0.1663066459501223  0.6479714927642917  0.0953612561248391
  0.7472259544261632  0.6667615620572391  0.3284574369703606
  0.4796998692919772  0.0526164712156074  0.2971640855192561
  0.4002480177062893  0.3027852420773272  0.1618431155022009
  0.1182549093947785  0.7239224042076913  0.4852292561071749
  0.8615046462408671  0.2795129196838815  0.5276475275604326
  0.5252059695936140  0.7318220088180709  0.8766502154082403
  0.5363163984874362  0.0047856984842483  0.7321156708138332
  0.2284240746304249  0.3374038814580658  0.6791597671152445
  0.8246407581589921  0.3607271545705260  0.9232244803335590
  0.9176466934741896  0.1853540337583581  0.0314960594283065
  0.9609039594567079  0.0744800834515686  0.1349096815303525
  0.9516485339409400  0.2519675352921169  0.3134350353552620
  0.5912873723043930  0.5292116313695985  0.4881213175106041
  0.1928884521887539  0.6925500260112898  0.6417074347245091
  0.0109513777845933  0.8812372802670936  0.8347806581535338
  0.9872463669697495  0.7772905745130103  0.9488970018422904

  0.00000000E+00 -0.00000000E+00  0.00000000E+00
  0.00000000E+00 -0.00000000E+00  0.00000000E+00
  0.00000000E+00 -0.00000000E+00  0.00000000E+00
  0.00000000E+00 -0.00000000E+00  0.00000000E+00
  0.00000000E+00 -0.00000000E+00  0.00000000E+00
  0.00000000E+00 -0.00000000E+00  0.00000000E+00
  0.00000000E+00 -0.00000000E+00  0.00000000E+00
  0.00000000E+00 -0.00000000E+00  0.00000000E+00
  0.00000000E+00 -0.00000000E+00  0.00000000E+00
  0.00000000E+00 -0.00000000E+00  0.00000000E+00
  0.00000000E+00 -0.00000000E+00  0.00000000E+00
  0.00000000E+00 -0.00000000E+00  0.00000000E+00
  0.00000000E+00 -0.00000000E+00  0.00000000E+00
  0.00000000E+00 -0.00000000E+00  0.00000000E+00
  0.00000000E+00 -0.00000000E+00  0.00000000E+00
  0.00000000E+00 -0.00000000E+00  0.00000000E+00
  0.00000000E+00 -0.00000000E+00  0.00000000E+00
