Ba1 Ga2 I10                             
   1.00000000000000     
     5.8327537827236178    7.0143458720814502    1.0388012499154231
    -5.8327537827236178    7.0143458720814502    1.0388012499154231
     0.0000000000000000    6.5317832155829203   10.4612363796720587
   Ba   Ga   I 
     1     2    10
Direct
  0.5634479248589201  0.4365520751410799  0.0000000000000000
  0.8592542874383895  0.0228184430949980  0.7153531568626477
  0.9771815569050020  0.1407457125616105  0.2846468431373523
  0.0504081467331119  0.2486981231920069  0.6750153797955250
  0.7513018768080002  0.9495918532668881  0.3249846202044750
  0.8530806647823539  0.7371293690492280  0.9233824497900542
  0.2628706309507720  0.1469193352176390  0.0766175502099458
  0.8771317107706693  0.1228682892293307  0.0000000000000000
  0.0494045988437009  0.9505954011562991  0.5000000000000000
  0.5865939365242454  0.1457189998097093  0.7265244936674122
  0.8542810001902907  0.4134060634757546  0.2734755063325949
  0.5499416838362734  0.6908990186417441  0.7007491418425005
  0.3091009813582559  0.4500583161637337  0.2992508581574995
 
  0.00000000E+00  0.00000000E+00  0.00000000E+00
  0.00000000E+00  0.00000000E+00  0.00000000E+00
  0.00000000E+00  0.00000000E+00  0.00000000E+00
  0.00000000E+00  0.00000000E+00  0.00000000E+00
  0.00000000E+00  0.00000000E+00  0.00000000E+00
  0.00000000E+00  0.00000000E+00  0.00000000E+00
  0.00000000E+00  0.00000000E+00  0.00000000E+00
  0.00000000E+00  0.00000000E+00  0.00000000E+00
  0.00000000E+00  0.00000000E+00  0.00000000E+00
  0.00000000E+00  0.00000000E+00  0.00000000E+00
  0.00000000E+00  0.00000000E+00  0.00000000E+00
  0.00000000E+00  0.00000000E+00  0.00000000E+00
  0.00000000E+00  0.00000000E+00  0.00000000E+00
