Ca5Tl3                                  
   1.0000000000000000     
     6.7444608408494107    0.0000000000000000    0.0000000000000000
     0.0000000000000000    9.5764585488963849   -0.0001947630132132
     0.0000000000000000   -4.7878858614999462    8.2936067176063517
   Ca   Tl
    10     6
Direct
  0.2500000000000000  0.2634130562925421  0.9999945718691521
  0.7500000000000000  0.7365869437074579  0.0000054281308408
  0.2500000000000000  0.9999933446381704  0.2634117794380373
  0.7500000000000000  0.2634130191414457  0.2634143440796919
  0.4999957384879039  0.6666744159053124  0.3333289747590982
  0.0000042615120961  0.6666744159053124  0.3333289747590982
  0.5000042615120961  0.3333255840946876  0.6666710252409018
  0.9999957384879039  0.3333255840946876  0.6666710252409018
  0.7500000000000000  0.0000066553618296  0.7365882205619627
  0.2500000000000000  0.7365869808585543  0.7365856559203081
  0.7500000000000000  0.3923866575625468  0.0000124543882265
  0.2500000000000000  0.6076133424374532  0.9999875456117735
  0.7500000000000000  0.0000087392057466  0.3923867849254350
  0.2500000000000000  0.3923795259697158  0.3923793219190230
  0.7500000000000000  0.6076204740302842  0.6076206780809770
  0.2500000000000000  0.9999912607942534  0.6076132150745650

  0.00000000E+00  0.00000000E+00  0.00000000E+00
  0.00000000E+00  0.00000000E+00  0.00000000E+00
  0.00000000E+00  0.00000000E+00  0.00000000E+00
  0.00000000E+00  0.00000000E+00  0.00000000E+00
  0.00000000E+00  0.00000000E+00  0.00000000E+00
  0.00000000E+00  0.00000000E+00  0.00000000E+00
  0.00000000E+00  0.00000000E+00  0.00000000E+00
  0.00000000E+00  0.00000000E+00  0.00000000E+00
  0.00000000E+00  0.00000000E+00  0.00000000E+00
  0.00000000E+00  0.00000000E+00  0.00000000E+00
  0.00000000E+00  0.00000000E+00  0.00000000E+00
  0.00000000E+00  0.00000000E+00  0.00000000E+00
  0.00000000E+00  0.00000000E+00  0.00000000E+00
  0.00000000E+00  0.00000000E+00  0.00000000E+00
  0.00000000E+00  0.00000000E+00  0.00000000E+00
  0.00000000E+00  0.00000000E+00  0.00000000E+00
