Sr4 Al4 F20                             
   1.0000000000000000     
     9.9775330233581254    0.0000000000000000    0.0000000000000000
     0.0000000000000000    5.1622455241809879    0.0223577902986355
     0.0000000000000000    2.4339554820759433    7.1455887392286925
   Sr   Al   F 
     4     4    20
Direct
  0.9907053958908350  0.4708814242233785  0.2635705952747927
  0.4907053958908350  0.5291185757766215  0.2364294047252073
  0.0092946041091650  0.5291185757766215  0.7364294047252073
  0.5092946041091650  0.4708814242233785  0.7635705952747927
  0.7564238165974828  0.1197685032895137  0.5949207242915122
  0.2564238165974828  0.8802314967104863  0.9050792757084878
  0.2435761834025172  0.8802314967104863  0.4050792757084878
  0.7435761834025172  0.1197685032895137  0.0949207242915122
  0.6002248277064410  0.2956061259555369  0.5237132015369710
  0.1002248277064410  0.7043938740444631  0.9762867984630290
  0.3997751722935590  0.7043938740444631  0.4762867984630290
  0.8997751722935590  0.2956061259555369  0.0237132015369710
  0.7828606614744658  0.1431548978827664  0.3379292884298550
  0.2828606614744658  0.8568451021172336  0.1620707115701450
  0.2171393385255342  0.8568451021172336  0.6620707115701450
  0.7171393385255342  0.1431548978827664  0.8379292884298550
  0.4190617749346899  0.0143276715509302  0.8332778105952627
  0.9190617749346899  0.9856723284490698  0.6667221894047373
  0.5809382250653101  0.9856723284490698  0.1667221894047373
  0.0809382250653101  0.0143276715509302  0.3332778105952627
  0.6815049251838445  0.7991757770285091  0.6477435476070283
  0.1815049251838445  0.2008242229714909  0.8522564523929717
  0.3184950748161555  0.2008242229714909  0.3522564523929717
  0.8184950748161555  0.7991757770285091  0.1477435476070283
  0.3408972487207578  0.5476397220350577  0.9711676663149689
  0.8408972487207578  0.4523602779649423  0.5288323336850311
  0.6591027512792422  0.4523602779649423  0.0288323336850311
  0.1591027512792422  0.5476397220350577  0.4711676663149689

  0.00000000E+00  0.00000000E+00  0.00000000E+00
  0.00000000E+00  0.00000000E+00  0.00000000E+00
  0.00000000E+00  0.00000000E+00  0.00000000E+00
  0.00000000E+00  0.00000000E+00  0.00000000E+00
  0.00000000E+00  0.00000000E+00  0.00000000E+00
  0.00000000E+00  0.00000000E+00  0.00000000E+00
  0.00000000E+00  0.00000000E+00  0.00000000E+00
  0.00000000E+00  0.00000000E+00  0.00000000E+00
  0.00000000E+00  0.00000000E+00  0.00000000E+00
  0.00000000E+00  0.00000000E+00  0.00000000E+00
  0.00000000E+00  0.00000000E+00  0.00000000E+00
  0.00000000E+00  0.00000000E+00  0.00000000E+00
  0.00000000E+00  0.00000000E+00  0.00000000E+00
  0.00000000E+00  0.00000000E+00  0.00000000E+00
  0.00000000E+00  0.00000000E+00  0.00000000E+00
  0.00000000E+00  0.00000000E+00  0.00000000E+00
  0.00000000E+00  0.00000000E+00  0.00000000E+00
  0.00000000E+00  0.00000000E+00  0.00000000E+00
  0.00000000E+00  0.00000000E+00  0.00000000E+00
  0.00000000E+00  0.00000000E+00  0.00000000E+00
  0.00000000E+00  0.00000000E+00  0.00000000E+00
  0.00000000E+00  0.00000000E+00  0.00000000E+00
  0.00000000E+00  0.00000000E+00  0.00000000E+00
  0.00000000E+00  0.00000000E+00  0.00000000E+00
  0.00000000E+00  0.00000000E+00  0.00000000E+00
  0.00000000E+00  0.00000000E+00  0.00000000E+00
  0.00000000E+00  0.00000000E+00  0.00000000E+00
  0.00000000E+00  0.00000000E+00  0.00000000E+00
