Be6 In10                                
   1.00000000000000     
     5.0258453830935341    0.4102147457453230    0.0041139982160488
     3.2663499798841085    4.0650486258020111    0.0044820008892715
    -0.0122775605319867   -0.0087067626963362   16.2731222268526139
   Be   In
     6    10
Direct
  0.7203404833598057  0.7441534030155950  0.1288356421909427
  0.8389576881756966  0.8454138594775102  0.2499529117752175
  0.7206529685720469  0.7438369809416088  0.3710743904230398
  0.2794061531377423  0.2561072982171098  0.6288870416310459
  0.1610362120711883  0.1545784904541136  0.7500058267502254
  0.2795781468227858  0.2559129717487565  0.8711157257503430
  0.1343057161558576  0.1558377586611854  0.0317446761071523
  0.4271108381228146  0.4463049252676115  0.1438926065078903
  0.1416306664881546  0.1443514546006028  0.2499673397673803
  0.4273652744357506  0.4459539641317534  0.3559971909115305
  0.1344733148989192  0.1556658230036874  0.4681765061451486
  0.8656310652623276  0.8442689873798059  0.5317820080256723
  0.5727027319823534  0.5539910364620440  0.6439547815270572
  0.8583719041603146  0.8556389854781585  0.7499809093924483
  0.5728221908140654  0.5537528782167485  0.8560433589921388
  0.8656146455401554  0.8442311829436875  0.9681890841027965
 
  0.00000000E+00  0.00000000E+00  0.00000000E+00
  0.00000000E+00  0.00000000E+00  0.00000000E+00
  0.00000000E+00  0.00000000E+00  0.00000000E+00
  0.00000000E+00  0.00000000E+00  0.00000000E+00
  0.00000000E+00  0.00000000E+00  0.00000000E+00
  0.00000000E+00  0.00000000E+00  0.00000000E+00
  0.00000000E+00  0.00000000E+00  0.00000000E+00
  0.00000000E+00  0.00000000E+00  0.00000000E+00
  0.00000000E+00  0.00000000E+00  0.00000000E+00
  0.00000000E+00  0.00000000E+00  0.00000000E+00
  0.00000000E+00  0.00000000E+00  0.00000000E+00
  0.00000000E+00  0.00000000E+00  0.00000000E+00
  0.00000000E+00  0.00000000E+00  0.00000000E+00
  0.00000000E+00  0.00000000E+00  0.00000000E+00
  0.00000000E+00  0.00000000E+00  0.00000000E+00
  0.00000000E+00  0.00000000E+00  0.00000000E+00
