Be4 F6                                  
   1.00000000000000     
    -4.4768662007428590    0.0320513014495811   -0.6085040299842318
     2.4045603195371097   -3.9646910397828941   -0.0273480486171933
    -1.2740811499496787    1.8937060458843458    5.9476979586133192
   Be   F 
     4     6
Direct
  0.0130246343283957  0.2167502069110299  0.3156080531663008
  0.5503789230684646  0.4832448940321754  0.3120155879444937
  0.3621476936566239  0.4507836526318343  0.6403988525452959
  0.1046448306141414  0.9011838969437065  0.8228898407953267
  0.6814243089883476  0.8452845317918118  0.2807226705417349
  0.2310350062777289  0.1661691403021166  0.0871433822745402
  0.8692885809823423  0.4426190859035088  0.2865239033853015
  0.1087926634614576  0.5574028731805143  0.7916472625084410
  0.7308371097994950  0.8042145787931929  0.7718764503382403
  0.3483262488229641  0.1322471395100919  0.6911739965003179
 
  0.00000000E+00  0.00000000E+00  0.00000000E+00
  0.00000000E+00  0.00000000E+00  0.00000000E+00
  0.00000000E+00  0.00000000E+00  0.00000000E+00
  0.00000000E+00  0.00000000E+00  0.00000000E+00
  0.00000000E+00  0.00000000E+00  0.00000000E+00
  0.00000000E+00  0.00000000E+00  0.00000000E+00
  0.00000000E+00  0.00000000E+00  0.00000000E+00
  0.00000000E+00  0.00000000E+00  0.00000000E+00
  0.00000000E+00  0.00000000E+00  0.00000000E+00
  0.00000000E+00  0.00000000E+00  0.00000000E+00
