Mg1 Ga13                                
   1.00000000000000     
     6.0469837151791284   -4.1333463129362480    0.2229726345024585
     6.0469837151791292    4.1333463129362480    0.2229726345024585
    -0.9758070860439517    0.0000000000000000    5.4085655354008546
   Mg   Ga
     1    13
Direct
  0.9999940613765119  0.9999940613765119  0.0000075918604239
  0.7708820957488740  0.7708820957488740  0.1168434227899624
  0.6015043958733486  0.2009220671221854  0.1913906075245180
  0.2009220671221854  0.6015043958733486  0.1913906075245180
  0.9870424769548265  0.3586518731506132  0.3208035952122330
  0.3586518731506132  0.9870424769548265  0.3208035952122330
  0.5825682106045633  0.5825682106045633  0.3376946439705506
  0.0000100185889806  0.0000100185889806  0.5000128019842478
  0.4173960455001691  0.4173960455001691  0.6622711748105914
  0.6413559103969177  0.0129239388333673  0.6791926359362179
  0.0129239388333673  0.6413559103969177  0.6791926359362179
  0.7990423008160192  0.3984903472995711  0.8085997388203623
  0.3984903472995711  0.7990423008160192  0.8085997388203623
  0.2291052577339983  0.2291052577339983  0.8831972095974692
 
  0.00000000E+00  0.00000000E+00  0.00000000E+00
  0.00000000E+00  0.00000000E+00  0.00000000E+00
  0.00000000E+00  0.00000000E+00  0.00000000E+00
  0.00000000E+00  0.00000000E+00  0.00000000E+00
  0.00000000E+00  0.00000000E+00  0.00000000E+00
  0.00000000E+00  0.00000000E+00  0.00000000E+00
  0.00000000E+00  0.00000000E+00  0.00000000E+00
  0.00000000E+00  0.00000000E+00  0.00000000E+00
  0.00000000E+00  0.00000000E+00  0.00000000E+00
  0.00000000E+00  0.00000000E+00  0.00000000E+00
  0.00000000E+00  0.00000000E+00  0.00000000E+00
  0.00000000E+00  0.00000000E+00  0.00000000E+00
  0.00000000E+00  0.00000000E+00  0.00000000E+00
  0.00000000E+00  0.00000000E+00  0.00000000E+00
