Be1 B2 Cl10                             
   1.00000000000000     
     5.6179307380172707    5.0630704979709407    1.5950685847976325
    -5.6179307380172707    5.0630704979709407    1.5950685847976325
     0.0000000000000000    6.1449770309043741    9.0340423461670802
   Be   B    Cl
     1     2    10
Direct
  0.6164271286371488  0.3835728713628441  0.0000000000000000
  0.1856594810334400  0.0351086651315740  0.7838659878602883
  0.9648913348684260  0.8143405189665600  0.2161340121397117
  0.2688078159403915  0.2845494066830412  0.5744331737774147
  0.7154505933169588  0.7311921840596085  0.4255668262225782
  0.7403016050423830  0.7582243274956397  0.8401171061335759
  0.2417756725043603  0.2596983949576170  0.1598828938664241
  0.9840787706929603  0.0159212293070397  0.0000000000000000
  0.9927916692006846  0.0072083307993154  0.5000000000000000
  0.7285634142365183  0.3309798977174978  0.8222381367540734
  0.6690201022825022  0.2714365857634817  0.1777618632459266
  0.2544952067348518  0.8182637944906475  0.8203824840264460
  0.1817362055093525  0.7455047932651482  0.1796175159735540
 
  0.00000000E+00  0.00000000E+00  0.00000000E+00
  0.00000000E+00  0.00000000E+00  0.00000000E+00
  0.00000000E+00  0.00000000E+00  0.00000000E+00
  0.00000000E+00  0.00000000E+00  0.00000000E+00
  0.00000000E+00  0.00000000E+00  0.00000000E+00
  0.00000000E+00  0.00000000E+00  0.00000000E+00
  0.00000000E+00  0.00000000E+00  0.00000000E+00
  0.00000000E+00  0.00000000E+00  0.00000000E+00
  0.00000000E+00  0.00000000E+00  0.00000000E+00
  0.00000000E+00  0.00000000E+00  0.00000000E+00
  0.00000000E+00  0.00000000E+00  0.00000000E+00
  0.00000000E+00  0.00000000E+00  0.00000000E+00
  0.00000000E+00  0.00000000E+00  0.00000000E+00
