Tl                                      
   1.0000000000000000     
     3.5349539104688517    0.2184240424300561    0.0000000000000000
    -1.5717036629421304    2.9634297312050588    0.0000000000000000
     0.0000000000000000    0.0000000000000000    5.8754204821760130
   Tl
     2
Direct
  0.2747765359656142  0.6845488401598772  0.2500000000000000
  0.7252234640343787  0.3154511598401228  0.7500000000000000

  0.00000000E+00  0.00000000E+00  0.00000000E+00
  0.00000000E+00  0.00000000E+00  0.00000000E+00
