Mg4 Tl20                                
   1.0000000000000000     
    12.0391265701042336   -3.2665138012353885    1.8786170903334156
    12.0391265701042336    3.2665138012353885    1.8786170903334156
    -3.6364111926382163    0.0000000000000000    9.0567047812233117
   Tl   Mg
    20     4
Direct
  0.9914558678043477  0.9914558678043477  0.9914942064497438
  0.8649765539143246  0.3626574740578974  0.0795549286603574
  0.3626574740578974  0.8649765539143246  0.0795549286603574
  0.7692858096503912  0.7692858096503912  0.0676235537273726
  0.4315516507696628  0.4315516507696628  0.2471586991519672
  0.2176533368504252  0.2176533368504252  0.2780126746874245
  0.0486056399766497  0.0486056399766497  0.3564208775840143
  0.9124860598504725  0.9124860598504725  0.2478900283700014
  0.5825111514699586  0.0830056583567682  0.4223832865871486
  0.0830056583567682  0.5825111514699586  0.4223832865871486
  0.5200607368900663  0.5200607368900663  0.5708518177044510
  0.9221180377668219  0.4074503140097079  0.5435281391559528
  0.4074503140097079  0.9221180377668219  0.5435281391559528
  0.0787070363707087  0.0787070363707087  0.7383823316626845
  0.9387379013279471  0.9387379013279471  0.6483726210826859
  0.7830160759319185  0.7830160759319185  0.6850922403740469
  0.6443088284901464  0.6443088284901464  0.8176317936157673
  0.2198890502506998  0.2198890502506998  0.9171138575363074
  0.6117536332409372  0.1270945905207057  0.9295392442833119
  0.1270945905207057  0.6117536332409372  0.9295392442833119
  0.5739147831926203  0.5739147831926203  0.3164480059596642
  0.7123778259247828  0.7123778259247828  0.3210591881337095
  0.2810693600557457  0.2810693600557457  0.6565521163372878
  0.4155126233263999  0.4155126233263999  0.6890847902493462

  0.00000000E+00  0.00000000E+00  0.00000000E+00
  0.00000000E+00  0.00000000E+00  0.00000000E+00
  0.00000000E+00  0.00000000E+00  0.00000000E+00
  0.00000000E+00  0.00000000E+00  0.00000000E+00
  0.00000000E+00  0.00000000E+00  0.00000000E+00
  0.00000000E+00  0.00000000E+00  0.00000000E+00
  0.00000000E+00  0.00000000E+00  0.00000000E+00
  0.00000000E+00  0.00000000E+00  0.00000000E+00
  0.00000000E+00  0.00000000E+00  0.00000000E+00
  0.00000000E+00  0.00000000E+00  0.00000000E+00
  0.00000000E+00  0.00000000E+00  0.00000000E+00
  0.00000000E+00  0.00000000E+00  0.00000000E+00
  0.00000000E+00  0.00000000E+00  0.00000000E+00
  0.00000000E+00  0.00000000E+00  0.00000000E+00
  0.00000000E+00  0.00000000E+00  0.00000000E+00
  0.00000000E+00  0.00000000E+00  0.00000000E+00
  0.00000000E+00  0.00000000E+00  0.00000000E+00
  0.00000000E+00  0.00000000E+00  0.00000000E+00
  0.00000000E+00  0.00000000E+00  0.00000000E+00
  0.00000000E+00  0.00000000E+00  0.00000000E+00
  0.00000000E+00  0.00000000E+00  0.00000000E+00
  0.00000000E+00  0.00000000E+00  0.00000000E+00
  0.00000000E+00  0.00000000E+00  0.00000000E+00
  0.00000000E+00  0.00000000E+00  0.00000000E+00
