Mg16 In13                               
   1.00000000000000     
     7.9609125782686059   -4.5615868429121935    3.2624954437719320
    -0.0069162473038332    9.0678214508352362    3.2013306010094431
    -7.9166162707505734   -4.5273217917184789    3.2013569057816000
   In   Mg
    13    16
Direct
  0.6080359754918518  0.7979969875065152  0.0000024639946190
  0.8138710952682970  0.6272030534117832  0.9999958208753554
  0.5976150551312429  0.3118511722856283  0.0000098988561277
  0.3755116380987218  0.3829519590593549  0.1900981390356478
  0.1994844735676651  0.8190651745025477  0.1980434183143629
  0.8178082673081164  0.1868047342329007  0.1968492643346593
  0.3910865273999207  0.1981939997013882  0.3945189488508376
  0.1922669042128575  0.3886706434153737  0.3924824733894781
  0.7997819968458799  0.9961728639157172  0.6075402683129596
  0.9965353784920410  0.8036309926672658  0.6054779829371952
  0.6209303545374425  0.9899352108827912  0.8031409269523593
  0.0014230070808523  0.6209580319516732  0.8019464226689408
  0.1854045374118485  0.1928275953306198  0.8099216925644726
  0.3378542639800060  0.0080090676940898  0.9999966035783672
  0.0020628571830485  0.9977979148100786  0.9999877349892046
  0.9958920355167606  0.3306632210717453  0.0000040888408179
  0.3050517061321614  0.5923268631165541  0.0000130604916322
  0.6803353797495930  0.6813132158978092  0.2750436523090656
  0.5900479920865962  0.0018586145902972  0.3086537033249428
  0.0033390723697480  0.5945803526918141  0.3079225280245836
  0.0039263181839146  0.9979464609338891  0.3436747053768627
  0.7157524069350174  0.4014183120857595  0.3971858922808451
  0.4058267107832165  0.7201288565236794  0.4068291780925222
  0.9989970541098216  0.3132560016457759  0.5931569959910661
  0.3185550129826566  0.0042558656627776  0.6028258864336564
  0.6602255685302438  0.6542435726071076  0.6562888599969199
  0.6953990871456313  0.2866186171389984  0.6920729107748613
  0.2813689873598264  0.6932156071480691  0.6913537603167228
  0.4052803361050579  0.4062650375180468  0.7249657180908784
 
  0.00000000E+00  0.00000000E+00  0.00000000E+00
  0.00000000E+00  0.00000000E+00  0.00000000E+00
  0.00000000E+00  0.00000000E+00  0.00000000E+00
  0.00000000E+00  0.00000000E+00  0.00000000E+00
  0.00000000E+00  0.00000000E+00  0.00000000E+00
  0.00000000E+00  0.00000000E+00  0.00000000E+00
  0.00000000E+00  0.00000000E+00  0.00000000E+00
  0.00000000E+00  0.00000000E+00  0.00000000E+00
  0.00000000E+00  0.00000000E+00  0.00000000E+00
  0.00000000E+00  0.00000000E+00  0.00000000E+00
  0.00000000E+00  0.00000000E+00  0.00000000E+00
  0.00000000E+00  0.00000000E+00  0.00000000E+00
  0.00000000E+00  0.00000000E+00  0.00000000E+00
  0.00000000E+00  0.00000000E+00  0.00000000E+00
  0.00000000E+00  0.00000000E+00  0.00000000E+00
  0.00000000E+00  0.00000000E+00  0.00000000E+00
  0.00000000E+00  0.00000000E+00  0.00000000E+00
  0.00000000E+00  0.00000000E+00  0.00000000E+00
  0.00000000E+00  0.00000000E+00  0.00000000E+00
  0.00000000E+00  0.00000000E+00  0.00000000E+00
  0.00000000E+00  0.00000000E+00  0.00000000E+00
  0.00000000E+00  0.00000000E+00  0.00000000E+00
  0.00000000E+00  0.00000000E+00  0.00000000E+00
  0.00000000E+00  0.00000000E+00  0.00000000E+00
  0.00000000E+00  0.00000000E+00  0.00000000E+00
  0.00000000E+00  0.00000000E+00  0.00000000E+00
  0.00000000E+00  0.00000000E+00  0.00000000E+00
  0.00000000E+00  0.00000000E+00  0.00000000E+00
  0.00000000E+00  0.00000000E+00  0.00000000E+00
