Be4In                                   
   1.00000000000000     
     3.2182393429769220    0.0000000000000000    0.0000000000000000
     0.0000000000000000    3.2182393429769220    0.0000000000000000
     0.0000000000000000    0.0000000000000000   11.3922804368304131
   Be   In
     8     2
Direct
  0.0000000000000000  0.0000000000000000  0.0000000000000000
  0.5000000000000000  0.5000000000000000  0.0000000000000000
  0.0000000000000000  0.0000000000000000  0.3704737568299024
  0.5000000000000000  0.5000000000000000  0.3704737568299024
  0.5000000000000000  0.0000000000000000  0.4970920897134405
  0.0000000000000000  0.5000000000000000  0.5029079102865595
  0.0000000000000000  0.0000000000000000  0.6295262431700976
  0.5000000000000000  0.5000000000000000  0.6295262431700976
  0.0000000000000000  0.5000000000000000  0.1821317754051464
  0.5000000000000000  0.0000000000000000  0.8178682245948536
 
  0.00000000E+00  0.00000000E+00  0.00000000E+00
  0.00000000E+00  0.00000000E+00  0.00000000E+00
  0.00000000E+00  0.00000000E+00  0.00000000E+00
  0.00000000E+00  0.00000000E+00  0.00000000E+00
  0.00000000E+00  0.00000000E+00  0.00000000E+00
  0.00000000E+00  0.00000000E+00  0.00000000E+00
  0.00000000E+00  0.00000000E+00  0.00000000E+00
  0.00000000E+00  0.00000000E+00  0.00000000E+00
  0.00000000E+00  0.00000000E+00  0.00000000E+00
  0.00000000E+00  0.00000000E+00  0.00000000E+00
