Ca2 Al2 Br10                            
   1.0000000000000000     
     4.7674320907515249   -0.0000000000000002    0.0000000000000003
    -0.0000000000000011   11.8251128375784909    0.0000000000000012
     0.0000000000000002    0.0000000000000005   11.4747700180467103
   Ca   Al   Br
     2     2    10
Direct
  0.0000000000000000  0.0000000000000000  0.5000000000000000
  0.5000000000000000  0.5000000000000000  0.0000000000000000
  0.5000000000000000  0.0000000000000000  0.0000000000000000
  0.0000000000000000  0.5000000000000000  0.5000000000000000
  0.5000000000000000  0.8491966594411124  0.5000000000000000
  0.5000000000000000  0.1508033405588876  0.5000000000000000
  0.5000000000000000  0.0000000000000000  0.2018485787859063
  0.5000000000000000  0.0000000000000000  0.7981514212140937
  0.0000000000000000  0.0000000000000000  0.0000000000000000
  0.0000000000000000  0.3491966594411124  0.0000000000000000
  0.0000000000000000  0.6508033405588876  0.0000000000000000
  0.0000000000000000  0.5000000000000000  0.7018485787859063
  0.0000000000000000  0.5000000000000000  0.2981514212140937
  0.5000000000000000  0.5000000000000000  0.5000000000000000

  0.00000000E+00  0.00000000E+00  0.00000000E+00
  0.00000000E+00  0.00000000E+00  0.00000000E+00
  0.00000000E+00  0.00000000E+00  0.00000000E+00
  0.00000000E+00  0.00000000E+00  0.00000000E+00
  0.00000000E+00  0.00000000E+00  0.00000000E+00
  0.00000000E+00  0.00000000E+00  0.00000000E+00
  0.00000000E+00  0.00000000E+00  0.00000000E+00
  0.00000000E+00  0.00000000E+00  0.00000000E+00
  0.00000000E+00  0.00000000E+00  0.00000000E+00
  0.00000000E+00  0.00000000E+00  0.00000000E+00
  0.00000000E+00  0.00000000E+00  0.00000000E+00
  0.00000000E+00  0.00000000E+00  0.00000000E+00
  0.00000000E+00  0.00000000E+00  0.00000000E+00
  0.00000000E+00  0.00000000E+00  0.00000000E+00
