Be17 B11 F1                             
   1.00000000000000     
     5.0519688446223663   -2.9694132283886199    1.9679273506642365
    -0.3364500091492491    5.9500041755380000    2.7764881891450814
    -5.1869354625204798   -2.6947106995397174    2.6878709980053963
   B    F    Be
    11     1    17
Direct
  0.6701796240289184  0.8460368865589558  0.0426773465851511
  0.3594598524550392  0.3720445398191572  0.1594721677117548
  0.2538501078900808  0.8808461993183414  0.2535533920609510
  0.8119035582416672  0.1544710164982632  0.1746765788674978
  0.1504429902081981  0.2991969431007959  0.3121039746431435
  0.3802814664529492  0.1904311901370122  0.3692973633460568
  0.9788876771751376  0.9152366594637229  0.6062538406223581
  0.8461150698371185  0.0901776157609007  0.6960708857469271
  0.6561377982197811  0.0289355525325377  0.8617397158570768
  0.9522231569601729  0.6353935768362433  0.6367729832745965
  0.1897728019413449  0.2149049992393159  0.8248118471771946
  0.8583090721722044  0.4595671791174070  0.9521914051474667
  0.9994320920136417  0.2940865742240319  0.0039596523654168
  0.3612008053288278  0.7050444945557288  0.0783653297290172
  0.1563000912065675  0.8934178515164035  0.9239526051995171
  0.5343805293855226  0.2494346929515601  0.9821406271182553
  0.9060890131112913  0.7121321377778784  0.0602342128851774
  0.6780407719707000  0.6743481831330200  0.2717096259427194
  0.0591723720925685  0.7244769243664848  0.4133819467998237
  0.6223497387681647  0.0369856248282261  0.3601456750425527
  0.0189904584214631  0.9938526706314477  0.3219787613522058
  0.3609750471340902  0.6329946296418854  0.3953315242223567
  0.6936241994370533  0.3741485002209330  0.3322901204265563
  0.3473996195109450  0.0484580870352147  0.6486581491119736
  0.0128594213209254  0.3545257135469910  0.5647796115680634
  0.7144349578784528  0.7600733211721007  0.7289283972255731
  0.3520173856354774  0.7316946784077203  0.7441376417708412
  0.7027131949459502  0.3331623020979038  0.6454301236347249
  0.3728711262557809  0.3920772555098182  0.6349544945650436
 
  0.00000000E+00  0.00000000E+00  0.00000000E+00
  0.00000000E+00  0.00000000E+00  0.00000000E+00
  0.00000000E+00  0.00000000E+00  0.00000000E+00
  0.00000000E+00  0.00000000E+00  0.00000000E+00
  0.00000000E+00  0.00000000E+00  0.00000000E+00
  0.00000000E+00  0.00000000E+00  0.00000000E+00
  0.00000000E+00  0.00000000E+00  0.00000000E+00
  0.00000000E+00  0.00000000E+00  0.00000000E+00
  0.00000000E+00  0.00000000E+00  0.00000000E+00
  0.00000000E+00  0.00000000E+00  0.00000000E+00
  0.00000000E+00  0.00000000E+00  0.00000000E+00
  0.00000000E+00  0.00000000E+00  0.00000000E+00
  0.00000000E+00  0.00000000E+00  0.00000000E+00
  0.00000000E+00  0.00000000E+00  0.00000000E+00
  0.00000000E+00  0.00000000E+00  0.00000000E+00
  0.00000000E+00  0.00000000E+00  0.00000000E+00
  0.00000000E+00  0.00000000E+00  0.00000000E+00
  0.00000000E+00  0.00000000E+00  0.00000000E+00
  0.00000000E+00  0.00000000E+00  0.00000000E+00
  0.00000000E+00  0.00000000E+00  0.00000000E+00
  0.00000000E+00  0.00000000E+00  0.00000000E+00
  0.00000000E+00  0.00000000E+00  0.00000000E+00
  0.00000000E+00  0.00000000E+00  0.00000000E+00
  0.00000000E+00  0.00000000E+00  0.00000000E+00
  0.00000000E+00  0.00000000E+00  0.00000000E+00
  0.00000000E+00  0.00000000E+00  0.00000000E+00
  0.00000000E+00  0.00000000E+00  0.00000000E+00
  0.00000000E+00  0.00000000E+00  0.00000000E+00
  0.00000000E+00  0.00000000E+00  0.00000000E+00
