Mg2 Al2 I10                             
   1.00000000000000     
     9.0416076976139177   -5.7095414096356754    1.6447282865471411
     8.9640024337300037    5.6150537863836929    1.6279572746849560
    -4.2299812927927309   -0.0196632036830486    7.9607647109058179
   Al   Mg   I 
     2     2    10
Direct
  0.1873744963719801  0.7284612633633145  0.9497653726992183
  0.7318784941155201  0.1865473871524159  0.4506606455380151
  0.5267244757839649  0.5778405188267897  0.2086572456074620
  0.5754110082018187  0.5296275454668233  0.7087340187668474
  0.3254342938774002  0.4716656136813455  0.0187005570153147
  0.2840160012939066  0.8687060964102358  0.1918639384497922
  0.7336093349613293  0.2739834522277889  0.2088326773497613
  0.8136757212639267  0.9241807835455305  0.4035335146844901
  0.6066471237161863  0.6772293884208835  0.5186530490233494
  0.4771959424345908  0.3207525623082219  0.5192441174555569
  0.8663347383200630  0.2894645040707786  0.6924220047365992
  0.2729310491743533  0.7331618282000818  0.7084394110970180
  0.9288116426271031  0.8047026440499963  0.9019509533318484
  0.6701556778578563  0.6138764122757863  0.0188424942447440
 
  0.00000000E+00  0.00000000E+00  0.00000000E+00
  0.00000000E+00  0.00000000E+00  0.00000000E+00
  0.00000000E+00  0.00000000E+00  0.00000000E+00
  0.00000000E+00  0.00000000E+00  0.00000000E+00
  0.00000000E+00  0.00000000E+00  0.00000000E+00
  0.00000000E+00  0.00000000E+00  0.00000000E+00
  0.00000000E+00  0.00000000E+00  0.00000000E+00
  0.00000000E+00  0.00000000E+00  0.00000000E+00
  0.00000000E+00  0.00000000E+00  0.00000000E+00
  0.00000000E+00  0.00000000E+00  0.00000000E+00
  0.00000000E+00  0.00000000E+00  0.00000000E+00
  0.00000000E+00  0.00000000E+00  0.00000000E+00
  0.00000000E+00  0.00000000E+00  0.00000000E+00
  0.00000000E+00  0.00000000E+00  0.00000000E+00
