Sr16 In12 F1                            
   1.0000000000000000     
     9.3034294597098448   -5.3708989968738541    3.7960064913734528
    -0.1148466869725675   10.4122797951336743    3.6098071653048183
    -9.0750751571908719   -5.1076725025214058    3.6113196811694475
   In   F    Sr
    12     1    16
Direct
  0.8081242383220584  0.6068554288476449  0.0000217896021795
  0.6179578121075338  0.8211416930104889  0.9999278741402833
  0.3825445974798356  0.3978134722049660  0.2244111670007598
  0.1580797568251739  0.7758582291156273  0.1735318755554474
  0.7968104509545952  0.1786826379528748  0.1786674360351697
  0.3825070084008573  0.2244089501489981  0.3977676655162341
  0.2015086382475317  0.3929740235512611  0.3929680525263137
  0.8082099679682599  0.0000104663242411  0.6070857998574724
  0.9846593843755613  0.8267963756132986  0.6025055854484052
  0.6180656810026122  0.9999019839702967  0.8212434225162966
  0.9846526437220291  0.6024360396679640  0.8268411835437561
  0.1580898292347683  0.1735613193168746  0.7758489832365996
  0.3861537619346507  0.9999048601938796  0.9998333633068555
  0.5183643832188665  0.2390661267157768  0.9999817139044751
  0.2662482385712650  0.5422418514205987  0.0000797290350008
  0.1774907996192567  0.0000866077427588  0.0000258898516847
  0.9928735829058155  0.2364861328907182  0.0000224498376795
  0.6949539880384918  0.7113330680429755  0.2632525897378457
  0.5182393026877321  0.0000415857540688  0.2389021019245234
  0.9836134924927649  0.5518278800386938  0.2885945809552908
  0.9928299314327447  0.0000029202098588  0.2363555582741697
  0.4316152911290274  0.7369316336788785  0.4479817554067296
  0.7245627730380733  0.4579857372949121  0.4580190396524628
  0.2660787416119987  0.0000254896209029  0.5421515609425072
  0.9835554679231038  0.2885105634581890  0.5517904660630251
  0.7560536340525630  0.7632470924462922  0.7633500099805559
  0.6948465072240850  0.2631327878799681  0.7112169972383455
  0.2790152382030726  0.7608246361914510  0.7607865534929346
  0.4314948572756592  0.4479114066955390  0.7368368054169991

  0.00000000E+00  0.00000000E+00  0.00000000E+00
  0.00000000E+00  0.00000000E+00  0.00000000E+00
  0.00000000E+00  0.00000000E+00  0.00000000E+00
  0.00000000E+00  0.00000000E+00  0.00000000E+00
  0.00000000E+00  0.00000000E+00  0.00000000E+00
  0.00000000E+00  0.00000000E+00  0.00000000E+00
  0.00000000E+00  0.00000000E+00  0.00000000E+00
  0.00000000E+00  0.00000000E+00  0.00000000E+00
  0.00000000E+00  0.00000000E+00  0.00000000E+00
  0.00000000E+00  0.00000000E+00  0.00000000E+00
  0.00000000E+00  0.00000000E+00  0.00000000E+00
  0.00000000E+00  0.00000000E+00  0.00000000E+00
  0.00000000E+00  0.00000000E+00  0.00000000E+00
  0.00000000E+00  0.00000000E+00  0.00000000E+00
  0.00000000E+00  0.00000000E+00  0.00000000E+00
  0.00000000E+00  0.00000000E+00  0.00000000E+00
  0.00000000E+00  0.00000000E+00  0.00000000E+00
  0.00000000E+00  0.00000000E+00  0.00000000E+00
  0.00000000E+00  0.00000000E+00  0.00000000E+00
  0.00000000E+00  0.00000000E+00  0.00000000E+00
  0.00000000E+00  0.00000000E+00  0.00000000E+00
  0.00000000E+00  0.00000000E+00  0.00000000E+00
  0.00000000E+00  0.00000000E+00  0.00000000E+00
  0.00000000E+00  0.00000000E+00  0.00000000E+00
  0.00000000E+00  0.00000000E+00  0.00000000E+00
  0.00000000E+00  0.00000000E+00  0.00000000E+00
  0.00000000E+00  0.00000000E+00  0.00000000E+00
  0.00000000E+00  0.00000000E+00  0.00000000E+00
  0.00000000E+00  0.00000000E+00  0.00000000E+00
