Ba4 Tl4 I20                             
   1.0000000000000000     
    14.9686056059259460    0.0000000000000000    0.0000000000000000
     0.0000000000000000    9.4590990015399399   -2.4110873071129681
     0.0000000000000000    0.2060057543451104   11.1750265057055085
   Ba   Tl   I 
     4     4    20
Direct
  0.9081600562938377  0.3638435692437767  0.3198326262017162
  0.4081600562938377  0.6361564307562233  0.1801673737982838
  0.0918399437061623  0.6361564307562233  0.6801673737982838
  0.5918399437061623  0.3638435692437767  0.8198326262017162
  0.8633841797223383  0.0623782542885394  0.5966217378182463
  0.3633841797223383  0.9376217457114606  0.9033782621817537
  0.1366158202776617  0.9376217457114606  0.4033782621817537
  0.6366158202776617  0.0623782542885394  0.0966217378182463
  0.5211301652926750  0.8084282330952348  0.4529787242230014
  0.0211301652926750  0.1915717669047652  0.0470212757769986
  0.4788698347073250  0.1915717669047652  0.5470212757769986
  0.9788698347073250  0.8084282330952348  0.9529787242230014
  0.8032147762383275  0.0524547523169900  0.3082752401058215
  0.3032147762383275  0.9475452476830100  0.1917247598941785
  0.1967852237616725  0.9475452476830100  0.6917247598941785
  0.6967852237616725  0.0524547523169900  0.8082752401058215
  0.7580430593171528  0.4046532138573511  0.5991819964533676
  0.2580430593171528  0.5953467861426489  0.9008180035466324
  0.2419569406828472  0.5953467861426489  0.4008180035466324
  0.7419569406828472  0.4046532138573511  0.0991819964533676
  0.3658665611292236  0.3925094876123865  0.7085829626333364
  0.8658665611292236  0.6074905123876135  0.7914170373666636
  0.6341334388707764  0.6074905123876135  0.2914170373666636
  0.1341334388707764  0.3925094876123865  0.2085829626333364
  0.4555044989596695  0.2829243149086622  0.0451240359520355
  0.9555044989596695  0.7170756850913378  0.4548759640479645
  0.5444955010403305  0.7170756850913378  0.9548759640479645
  0.0444955010403305  0.2829243149086622  0.5451240359520355

  0.00000000E+00  0.00000000E+00  0.00000000E+00
  0.00000000E+00  0.00000000E+00  0.00000000E+00
  0.00000000E+00  0.00000000E+00  0.00000000E+00
  0.00000000E+00  0.00000000E+00  0.00000000E+00
  0.00000000E+00  0.00000000E+00  0.00000000E+00
  0.00000000E+00  0.00000000E+00  0.00000000E+00
  0.00000000E+00  0.00000000E+00  0.00000000E+00
  0.00000000E+00  0.00000000E+00  0.00000000E+00
  0.00000000E+00  0.00000000E+00  0.00000000E+00
  0.00000000E+00  0.00000000E+00  0.00000000E+00
  0.00000000E+00  0.00000000E+00  0.00000000E+00
  0.00000000E+00  0.00000000E+00  0.00000000E+00
  0.00000000E+00  0.00000000E+00  0.00000000E+00
  0.00000000E+00  0.00000000E+00  0.00000000E+00
  0.00000000E+00  0.00000000E+00  0.00000000E+00
  0.00000000E+00  0.00000000E+00  0.00000000E+00
  0.00000000E+00  0.00000000E+00  0.00000000E+00
  0.00000000E+00  0.00000000E+00  0.00000000E+00
  0.00000000E+00  0.00000000E+00  0.00000000E+00
  0.00000000E+00  0.00000000E+00  0.00000000E+00
  0.00000000E+00  0.00000000E+00  0.00000000E+00
  0.00000000E+00  0.00000000E+00  0.00000000E+00
  0.00000000E+00  0.00000000E+00  0.00000000E+00
  0.00000000E+00  0.00000000E+00  0.00000000E+00
  0.00000000E+00  0.00000000E+00  0.00000000E+00
  0.00000000E+00  0.00000000E+00  0.00000000E+00
  0.00000000E+00  0.00000000E+00  0.00000000E+00
  0.00000000E+00  0.00000000E+00  0.00000000E+00
