Ba2 In2 Br10                            
   1.0000000000000000     
     5.7769911579708006   -0.0000000000000011    0.0000000000000003
    -0.0000000000000035   22.7732860186598174    0.0000000000000001
    -0.0000000000000016    0.0000000000000008   10.0203703241385504
   Ba   In   Br
     2     2    10
Direct
  0.0000000000000000  0.0000000000000000  0.5000000000000000
  0.5000000000000000  0.5000000000000000  0.0000000000000000
  0.5000000000000000  0.0000000000000000  0.0000000000000000
  0.0000000000000000  0.5000000000000000  0.5000000000000000
  0.5000000000000000  0.3875384695714459  0.5000000000000000
  0.5000000000000000  0.6124615304285541  0.5000000000000000
  0.5000000000000000  0.0000000000000000  0.6753401379328494
  0.5000000000000000  0.0000000000000000  0.3246598620671506
  0.0000000000000000  0.0000000000000000  0.0000000000000000
  0.0000000000000000  0.8875384695714459  0.0000000000000000
  0.0000000000000000  0.1124615304285541  0.0000000000000000
  0.0000000000000000  0.5000000000000000  0.1753401379328494
  0.0000000000000000  0.5000000000000000  0.8246598620671506
  0.5000000000000000  0.5000000000000000  0.5000000000000000

  0.00000000E+00  0.00000000E+00  0.00000000E+00
  0.00000000E+00  0.00000000E+00  0.00000000E+00
  0.00000000E+00  0.00000000E+00  0.00000000E+00
  0.00000000E+00  0.00000000E+00  0.00000000E+00
  0.00000000E+00  0.00000000E+00  0.00000000E+00
  0.00000000E+00  0.00000000E+00  0.00000000E+00
  0.00000000E+00  0.00000000E+00  0.00000000E+00
  0.00000000E+00  0.00000000E+00  0.00000000E+00
  0.00000000E+00  0.00000000E+00  0.00000000E+00
  0.00000000E+00  0.00000000E+00  0.00000000E+00
  0.00000000E+00  0.00000000E+00  0.00000000E+00
  0.00000000E+00  0.00000000E+00  0.00000000E+00
  0.00000000E+00  0.00000000E+00  0.00000000E+00
  0.00000000E+00  0.00000000E+00  0.00000000E+00
