Mg3I                                    
   1.00000000000000     
    -2.2160402081467776    2.2160402081467776    5.5703121490451384
     2.2160402081467776   -2.2160402081467776    5.5703121490451384
     2.2160402081467776    2.2160402081467776   -5.5703121490451384
   I    Mg
     1     3
Direct
  0.0000000000000000  0.0000000000000000  0.0000000000000000
  0.5000000000000000  0.5000000000000000  0.0000000000000000
  0.7500000000000000  0.2500000000000000  0.5000000000000000
  0.2500000000000000  0.7500000000000000  0.5000000000000000
 
  0.00000000E+00  0.00000000E+00  0.00000000E+00
  0.00000000E+00  0.00000000E+00  0.00000000E+00
  0.00000000E+00  0.00000000E+00  0.00000000E+00
  0.00000000E+00  0.00000000E+00  0.00000000E+00
