Be1 In2 F10                             
   1.00000000000000     
     3.2344920939696373    4.0356461840066071    0.8240379690074741
    -3.2344920939696373    4.0356461840066071    0.8240379690074741
     0.0000000000000000    4.3204970145753636    6.8190437901365319
   Be   In   F 
     1     2    10
Direct
  0.4738810629098467  0.5261189370901533  0.0000000000000000
  0.0979266803739165  0.0087971603707402  0.7116706988164552
  0.9912028396292669  0.9020733196260835  0.2883293011835448
  0.2448785866977872  0.5058732908196433  0.5459464162062133
  0.4941267091803496  0.7551214133022057  0.4540535837937796
  0.7950445474031795  0.6088050291548868  0.9382636798510688
  0.3911949708451132  0.2049554525968134  0.0617363201489312
  0.9620017715616527  0.0379982284383544  0.0000000000000000
  0.9988409539589824  0.0011590460410176  0.5000000000000000
  0.8293878784527209  0.3932055645212742  0.6308726060896461
  0.6067944354787258  0.1706121215472791  0.3691273939103539
  0.4226850377748121  0.7639664742663683  0.7954365098554206
  0.2360335257336317  0.5773149622251879  0.2045634901445794
 
  0.00000000E+00  0.00000000E+00  0.00000000E+00
  0.00000000E+00  0.00000000E+00  0.00000000E+00
  0.00000000E+00  0.00000000E+00  0.00000000E+00
  0.00000000E+00  0.00000000E+00  0.00000000E+00
  0.00000000E+00  0.00000000E+00  0.00000000E+00
  0.00000000E+00  0.00000000E+00  0.00000000E+00
  0.00000000E+00  0.00000000E+00  0.00000000E+00
  0.00000000E+00  0.00000000E+00  0.00000000E+00
  0.00000000E+00  0.00000000E+00  0.00000000E+00
  0.00000000E+00  0.00000000E+00  0.00000000E+00
  0.00000000E+00  0.00000000E+00  0.00000000E+00
  0.00000000E+00  0.00000000E+00  0.00000000E+00
  0.00000000E+00  0.00000000E+00  0.00000000E+00
