Mg4 Al4 F20                             
   1.0000000000000000     
     4.5775888295060518    0.0000000000000000    0.0000000000000003
    -0.0000000000000003    5.2467780025012312    0.0000000000000003
    -0.0000000000000000   -0.0000000000000000   12.0348331263203718
   Mg   Al   F 
     4     4    20
Direct
  0.7682967121963244  0.3433704967481646  0.3843229999940476
  0.2682967121963244  0.1566295032518354  0.6156770000059524
  0.2317032878036684  0.8433704967481646  0.1156770000059524
  0.7317032878036684  0.6566295032518354  0.8843229999940476
  0.2645146298946486  0.8485807846042235  0.3941693731745346
  0.7645146298946486  0.6514192153957765  0.6058306268254583
  0.7354853701053514  0.3485807846042235  0.1058306268254583
  0.2354853701053514  0.1514192153957765  0.8941693731745346
  0.9447839369705662  0.6682203906149695  0.4563859328725783
  0.4447839369705591  0.8317796093850305  0.5436140671274217
  0.0552160630294338  0.1682203906149624  0.0436140671274217
  0.5552160630294338  0.3317796093850376  0.9563859328725783
  0.0891669385273843  0.8837636338920802  0.2652917266373436
  0.5891669385273843  0.6162363661079198  0.7347082733626564
  0.9108330614726157  0.3837636338920802  0.2347082733626564
  0.4108330614726157  0.1162363661079198  0.7652917266373436
  0.8987242227230752  0.6397245682815722  0.0482089528798255
  0.3987242227230752  0.8602754317184278  0.9517910471201816
  0.1012757772769248  0.1397245682815722  0.4517910471201816
  0.6012757772769248  0.3602754317184278  0.5482089528798184
  0.4272465502873786  0.5285026537357709  0.1412995621280402
  0.9272465502873786  0.9714973462642291  0.8587004378719598
  0.5727534497126214  0.0285026537357709  0.3587004378719598
  0.0727534497126214  0.4714973462642291  0.6412995621280402
  0.0782119283412257  0.4461231915058619  0.8625403899146846
  0.5782119283412257  0.0538768084941381  0.1374596100853225
  0.9217880716587743  0.9461231915058619  0.6374596100853154
  0.4217880716587743  0.5538768084941381  0.3625403899146846

  0.00000000E+00  0.00000000E+00  0.00000000E+00
  0.00000000E+00  0.00000000E+00  0.00000000E+00
  0.00000000E+00  0.00000000E+00  0.00000000E+00
  0.00000000E+00  0.00000000E+00  0.00000000E+00
  0.00000000E+00  0.00000000E+00  0.00000000E+00
  0.00000000E+00  0.00000000E+00  0.00000000E+00
  0.00000000E+00  0.00000000E+00  0.00000000E+00
  0.00000000E+00  0.00000000E+00  0.00000000E+00
  0.00000000E+00  0.00000000E+00  0.00000000E+00
  0.00000000E+00  0.00000000E+00  0.00000000E+00
  0.00000000E+00  0.00000000E+00  0.00000000E+00
  0.00000000E+00  0.00000000E+00  0.00000000E+00
  0.00000000E+00  0.00000000E+00  0.00000000E+00
  0.00000000E+00  0.00000000E+00  0.00000000E+00
  0.00000000E+00  0.00000000E+00  0.00000000E+00
  0.00000000E+00  0.00000000E+00  0.00000000E+00
  0.00000000E+00  0.00000000E+00  0.00000000E+00
  0.00000000E+00  0.00000000E+00  0.00000000E+00
  0.00000000E+00  0.00000000E+00  0.00000000E+00
  0.00000000E+00  0.00000000E+00  0.00000000E+00
  0.00000000E+00  0.00000000E+00  0.00000000E+00
  0.00000000E+00  0.00000000E+00  0.00000000E+00
  0.00000000E+00  0.00000000E+00  0.00000000E+00
  0.00000000E+00  0.00000000E+00  0.00000000E+00
  0.00000000E+00  0.00000000E+00  0.00000000E+00
  0.00000000E+00  0.00000000E+00  0.00000000E+00
  0.00000000E+00  0.00000000E+00  0.00000000E+00
  0.00000000E+00  0.00000000E+00  0.00000000E+00
