Ba1 B2 I6                               
   1.00000000000000     
     6.0960691949994361    3.6848268289015378    8.4169461810548896
    -6.0960691949994361    3.6848268289015378    8.4169461810548896
    -0.0000000000000001   -2.2633377838535695    6.1361153470052070
   Ba   I    B 
     1     6     2
Direct
  0.0000000000000000  0.0000000000000000  0.0000000000000000
  0.7259685259210187  0.7259685259210187  0.1355753058086933
  0.7523131031049601  0.2449903879393460  0.2561461806780656
  0.2449903879393460  0.7523131031049601  0.2561461806780656
  0.2740314740789813  0.2740314740789813  0.8644246941913067
  0.7550096120606540  0.2476868968950328  0.7438538193219344
  0.2476868968950328  0.7550096120606540  0.7438538193219344
  0.1794803661767688  0.1794803661767688  0.3172122677021250
  0.8205196338232312  0.8205196338232312  0.6827877322978750
 
  0.00000000E+00  0.00000000E+00  0.00000000E+00
  0.00000000E+00  0.00000000E+00  0.00000000E+00
  0.00000000E+00  0.00000000E+00  0.00000000E+00
  0.00000000E+00  0.00000000E+00  0.00000000E+00
  0.00000000E+00  0.00000000E+00  0.00000000E+00
  0.00000000E+00  0.00000000E+00  0.00000000E+00
  0.00000000E+00  0.00000000E+00  0.00000000E+00
  0.00000000E+00  0.00000000E+00  0.00000000E+00
  0.00000000E+00  0.00000000E+00  0.00000000E+00
