Ba22 Ga14                               
   1.00000000000000     
     0.0000000000000000    8.9919744304103695    8.9919744304103695
     8.9919744304103677    0.0000000000000000    8.9919744304103695
     8.9919744304103677    8.9919744304103695    0.0000000000000000
   Ba   Ga
    22    14
Direct
  0.6647427990624308  0.3352572009375692  0.0000000000000000
  0.6647427990624308  0.0000000000000000  0.0000000000000000
  0.1072865487338959  0.6309044837553728  0.6309044837553728
  0.0000000000000000  0.6647427990624308  0.3352572009375692
  0.0000000000000000  0.3352572009375692  0.6647427990624308
  0.3690955162446272  0.3690955162446272  0.3690955162446272
  0.0000000000000000  0.6647427990624308  0.0000000000000000
  0.6309044837553728  0.6309044837553728  0.1072865487338959
  0.0000000000000000  0.0000000000000000  0.6647427990624308
  0.6309044837553728  0.1072865487338959  0.6309044837553728
  0.0000000000000000  0.0000000000000000  0.3352572009375692
  0.3352572009375692  0.0000000000000000  0.0000000000000000
  0.0000000000000000  0.3352572009375692  0.0000000000000000
  0.6647427990624308  0.0000000000000000  0.3352572009375692
  0.5000000000000000  0.5000000000000000  0.5000000000000000
  0.3690955162446272  0.8927134512661041  0.3690955162446272
  0.3690955162446272  0.3690955162446272  0.8927134512661041
  0.3352572009375692  0.6647427990624308  0.0000000000000000
  0.3352572009375692  0.0000000000000000  0.6647427990624308
  0.6309044837553728  0.6309044837553728  0.6309044837553728
  0.0000000000000000  0.0000000000000000  0.0000000000000000
  0.8927134512661041  0.3690955162446272  0.3690955162446272
  0.2784199327789523  0.2784199327789523  0.7215800672210477
  0.7215800672210477  0.7215800672210477  0.2784199327789523
  0.8041186117869614  0.5876441646391228  0.8041186117869614
  0.7215800672210477  0.2784199327789523  0.2784199327789523
  0.4123558353608701  0.1958813882130386  0.1958813882130386
  0.2784199327789523  0.7215800672210477  0.7215800672210477
  0.1958813882130386  0.1958813882130386  0.1958813882130386
  0.1958813882130386  0.4123558353608701  0.1958813882130386
  0.5876441646391228  0.8041186117869614  0.8041186117869614
  0.8041186117869614  0.8041186117869614  0.8041186117869614
  0.7215800672210477  0.2784199327789523  0.7215800672210477
  0.1958813882130386  0.1958813882130386  0.4123558353608701
  0.2784199327789523  0.7215800672210477  0.2784199327789523
  0.8041186117869614  0.8041186117869614  0.5876441646391228
 
  0.00000000E+00  0.00000000E+00  0.00000000E+00
  0.00000000E+00  0.00000000E+00  0.00000000E+00
  0.00000000E+00  0.00000000E+00  0.00000000E+00
  0.00000000E+00  0.00000000E+00  0.00000000E+00
  0.00000000E+00  0.00000000E+00  0.00000000E+00
  0.00000000E+00  0.00000000E+00  0.00000000E+00
  0.00000000E+00  0.00000000E+00  0.00000000E+00
  0.00000000E+00  0.00000000E+00  0.00000000E+00
  0.00000000E+00  0.00000000E+00  0.00000000E+00
  0.00000000E+00  0.00000000E+00  0.00000000E+00
  0.00000000E+00  0.00000000E+00  0.00000000E+00
  0.00000000E+00  0.00000000E+00  0.00000000E+00
  0.00000000E+00  0.00000000E+00  0.00000000E+00
  0.00000000E+00  0.00000000E+00  0.00000000E+00
  0.00000000E+00  0.00000000E+00  0.00000000E+00
  0.00000000E+00  0.00000000E+00  0.00000000E+00
  0.00000000E+00  0.00000000E+00  0.00000000E+00
  0.00000000E+00  0.00000000E+00  0.00000000E+00
  0.00000000E+00  0.00000000E+00  0.00000000E+00
  0.00000000E+00  0.00000000E+00  0.00000000E+00
  0.00000000E+00  0.00000000E+00  0.00000000E+00
  0.00000000E+00  0.00000000E+00  0.00000000E+00
  0.00000000E+00  0.00000000E+00  0.00000000E+00
  0.00000000E+00  0.00000000E+00  0.00000000E+00
  0.00000000E+00  0.00000000E+00  0.00000000E+00
  0.00000000E+00  0.00000000E+00  0.00000000E+00
  0.00000000E+00  0.00000000E+00  0.00000000E+00
  0.00000000E+00  0.00000000E+00  0.00000000E+00
  0.00000000E+00  0.00000000E+00  0.00000000E+00
  0.00000000E+00  0.00000000E+00  0.00000000E+00
  0.00000000E+00  0.00000000E+00  0.00000000E+00
  0.00000000E+00  0.00000000E+00  0.00000000E+00
  0.00000000E+00  0.00000000E+00  0.00000000E+00
  0.00000000E+00  0.00000000E+00  0.00000000E+00
  0.00000000E+00  0.00000000E+00  0.00000000E+00
  0.00000000E+00  0.00000000E+00  0.00000000E+00
