Mg4 In10 I2                             
   1.00000000000000     
     7.3350869835858790   -0.3154999133003786    0.1636215287223761
    -3.7636217330688013    7.6367888641158892    1.5299615285578709
    -3.0597289502240970   -0.9933963753247728    8.2650926105918749
   I    Mg   In
     2     4    10
Direct
  0.9131896069006515  0.3424640726513672  0.1741317053855624
  0.0934378332610279  0.6555453678537901  0.8254414001792156
  0.7256519945405842  0.5846762294841952  0.0159100275897543
  0.4472531361681149  0.1534200903555458  0.2155129095553008
  0.5542003015102210  0.8502617416991498  0.7856326780227789
  0.2174005712617131  0.3715020638138640  0.9613343642846459
  0.9996806333115345  0.9748372733226773  0.0073273909520211
  0.6075355890500092  0.8786916553319060  0.1386831549072767
  0.4760028344769509  0.8289454490400274  0.4390724996885780
  0.5427793114904347  0.5112517815996540  0.3289675332834179
  0.9603751078660920  0.1144320799484078  0.6319940151641958
  0.0018595365750897  0.5159672489585176  0.4914068869982344
  0.0607702944388748  0.9172419460001180  0.3922430782048778
  0.4384545261661543  0.4844956046770363  0.6584909117256927
  0.5575310029023726  0.1931709911790733  0.5691906113910719
  0.4038777200801960  0.1228964040846634  0.8644608326673691
 
  0.00000000E+00  0.00000000E+00  0.00000000E+00
  0.00000000E+00  0.00000000E+00  0.00000000E+00
  0.00000000E+00  0.00000000E+00  0.00000000E+00
  0.00000000E+00  0.00000000E+00  0.00000000E+00
  0.00000000E+00  0.00000000E+00  0.00000000E+00
  0.00000000E+00  0.00000000E+00  0.00000000E+00
  0.00000000E+00  0.00000000E+00  0.00000000E+00
  0.00000000E+00  0.00000000E+00  0.00000000E+00
  0.00000000E+00  0.00000000E+00  0.00000000E+00
  0.00000000E+00  0.00000000E+00  0.00000000E+00
  0.00000000E+00  0.00000000E+00  0.00000000E+00
  0.00000000E+00  0.00000000E+00  0.00000000E+00
  0.00000000E+00  0.00000000E+00  0.00000000E+00
  0.00000000E+00  0.00000000E+00  0.00000000E+00
  0.00000000E+00  0.00000000E+00  0.00000000E+00
  0.00000000E+00  0.00000000E+00  0.00000000E+00
