Ba16 In16 F80                           
   1.0000000000000000     
    15.2530032137260285   -0.0000003942188019    0.0000000000000010
     0.0000003942188010   15.2530032137260285    0.0000000000000010
    -0.0000000000000000   -0.0000000000000000    7.9858143824111609
   Ba   In   F 
    16    16    80
Direct
  0.5487398569369759  0.7195556871962197  0.4954433206522637
  0.2195556871962268  0.9512601430630241  0.9954433206522637
  0.7804443128037661  0.0487398569369759  0.9954433206522637
  0.4512601430630241  0.2804443128037732  0.4954433206522637
  0.2400461010846371  0.0712296448289180  0.4948496183172111
  0.5712296448289180  0.2599538989153629  0.9948496183172182
  0.4287703551710820  0.7400461010846371  0.9948496183172182
  0.7599538989153629  0.9287703551710820  0.4948496183172111
  0.0487398569369759  0.2195556871962268  0.9954433206522637
  0.7195556871962197  0.4512601430630241  0.4954433206522637
  0.2804443128037732  0.5487398569369759  0.4954433206522637
  0.9512601430630241  0.7804443128037661  0.9954433206522637
  0.7400461010846371  0.5712296448289180  0.9948496183172182
  0.0712296448289180  0.7599538989153629  0.4948496183172111
  0.9287703551710820  0.2400461010846371  0.4948496183172111
  0.2599538989153629  0.4287703551710820  0.9948496183172182
  0.0000000000000000  0.0000000000000000  0.7425108651232648
  0.0000000000000000  0.0000000000000000  0.2444046934144737
  0.5000000000000000  0.0000000000000000  0.9946347336507344
  0.5000000000000000  0.0000000000000000  0.4946347336507344
  0.3311611202355920  0.1867886418164204  0.9958762255597904
  0.6867886418164204  0.1688388797644080  0.4958762255597904
  0.3132113581835796  0.8311611202355920  0.4958762255597904
  0.6688388797644080  0.8132113581835796  0.9958762255597904
  0.5000000000000000  0.5000000000000000  0.2425108651232648
  0.5000000000000000  0.5000000000000000  0.7444046934144737
  0.0000000000000000  0.5000000000000000  0.4946347336507344
  0.0000000000000000  0.5000000000000000  0.9946347336507344
  0.8311611202355920  0.6867886418164204  0.4958762255597904
  0.1867886418164204  0.6688388797644080  0.9958762255597904
  0.8132113581835796  0.3311611202355920  0.9958762255597904
  0.1688388797644080  0.3132113581835796  0.4958762255597904
  0.0000000000000000  0.0000000000000000  0.9934134229156300
  0.0000000000000000  0.0000000000000000  0.4933706677167748
  0.1263475031291392  0.0489929869568684  0.7610649451433389
  0.5489929869568684  0.3736524968708608  0.2610649451433389
  0.4510070130431316  0.6263475031291463  0.2610649451433389
  0.8736524968708537  0.9510070130431316  0.7610649451433389
  0.1260319957143139  0.0499185110549334  0.2258459863073838
  0.5499185110549263  0.3739680042856861  0.7258459863073838
  0.4500814889450737  0.6260319957143139  0.7258459863073838
  0.8739680042856861  0.9500814889450737  0.2258459863073838
  0.5000000000000000  0.0000000000000000  0.7446046792290275
  0.5000000000000000  0.0000000000000000  0.2446046792290275
  0.4572456682946893  0.1297193437467641  0.9938820450350505
  0.6297193437467570  0.0427543317053107  0.4938820450350576
  0.3702806562532359  0.9572456682946822  0.4938820450350576
  0.5427543317053178  0.8702806562532430  0.9938820450350505
  0.4277870344804455  0.1161642034981583  0.4953491037849815
  0.6161642034981512  0.0722129655195545  0.9953491037849815
  0.3838357965018488  0.9277870344804455  0.9953491037849815
  0.5722129655195545  0.8838357965018488  0.4953491037849815
  0.3937828590343031  0.2710587765438248  0.8243703929660242
  0.7710587765438248  0.1062171409656969  0.3243703929660242
  0.2289412234561752  0.8937828590343031  0.3243703929660242
  0.6062171409656969  0.7289412234561752  0.8243703929660242
  0.3936329023967460  0.2692824328659285  0.1704814301951743
  0.7692824328659285  0.1063670976032540  0.6704814301951743
  0.2307175671340715  0.8936329023967460  0.6704814301951743
  0.6063670976032540  0.7307175671340715  0.1704814301951743
  0.2935648634071626  0.0929117027916888  0.8187734872793868
  0.5929117027916888  0.2064351365928374  0.3187734872793868
  0.4070882972083112  0.7935648634071626  0.3187734872793868
  0.7064351365928374  0.9070882972083112  0.8187734872793868
  0.2940928861941998  0.0919262258470042  0.1715150597265662
  0.5919262258470042  0.2059071138058002  0.6715150597265662
  0.4080737741529958  0.7940928861941998  0.6715150597265662
  0.7059071138058002  0.9080737741529958  0.1715150597265662
  0.7173864177382043  0.7611365174196223  0.4973475163004295
  0.2611365174196223  0.7826135822617886  0.9973475163004295
  0.7388634825803777  0.2173864177382043  0.9973475163004295
  0.2826135822617886  0.2388634825803777  0.4973475163004295
  0.5000000000000000  0.5000000000000000  0.4934134229156300
  0.5000000000000000  0.5000000000000000  0.9933706677167748
  0.6263475031291463  0.5489929869568684  0.2610649451433389
  0.0489929869568684  0.8736524968708537  0.7610649451433389
  0.9510070130431316  0.1263475031291392  0.7610649451433389
  0.3736524968708608  0.4510070130431316  0.2610649451433389
  0.6260319957143139  0.5499185110549263  0.7258459863073838
  0.0499185110549334  0.8739680042856861  0.2258459863073838
  0.9500814889450737  0.1260319957143139  0.2258459863073838
  0.3739680042856861  0.4500814889450737  0.7258459863073838
  0.0000000000000000  0.5000000000000000  0.2446046792290275
  0.0000000000000000  0.5000000000000000  0.7446046792290275
  0.9572456682946822  0.6297193437467570  0.4938820450350576
  0.1297193437467641  0.5427543317053178  0.9938820450350505
  0.8702806562532430  0.4572456682946893  0.9938820450350505
  0.0427543317053107  0.3702806562532359  0.4938820450350576
  0.9277870344804455  0.6161642034981512  0.9953491037849815
  0.1161642034981583  0.5722129655195545  0.4953491037849815
  0.8838357965018488  0.4277870344804455  0.4953491037849815
  0.0722129655195545  0.3838357965018488  0.9953491037849815
  0.8937828590343031  0.7710587765438248  0.3243703929660242
  0.2710587765438248  0.6062171409656969  0.8243703929660242
  0.7289412234561752  0.3937828590343031  0.8243703929660242
  0.1062171409656969  0.2289412234561752  0.3243703929660242
  0.8936329023967460  0.7692824328659285  0.6704814301951743
  0.2692824328659285  0.6063670976032540  0.1704814301951743
  0.7307175671340715  0.3936329023967460  0.1704814301951743
  0.1063670976032540  0.2307175671340715  0.6704814301951743
  0.7935648634071626  0.5929117027916888  0.3187734872793868
  0.0929117027916888  0.7064351365928374  0.8187734872793868
  0.9070882972083112  0.2935648634071626  0.8187734872793868
  0.2064351365928374  0.4070882972083112  0.3187734872793868
  0.7940928861941998  0.5919262258470042  0.6715150597265662
  0.0919262258470042  0.7059071138058002  0.1715150597265662
  0.9080737741529958  0.2940928861941998  0.1715150597265662
  0.2059071138058002  0.4080737741529958  0.6715150597265662
  0.2173864177382043  0.2611365174196223  0.9973475163004295
  0.7611365174196223  0.2826135822617886  0.4973475163004295
  0.2388634825803777  0.7173864177382043  0.4973475163004295
  0.7826135822617886  0.7388634825803777  0.9973475163004295

  0.00000000E+00  0.00000000E+00  0.00000000E+00
  0.00000000E+00  0.00000000E+00  0.00000000E+00
  0.00000000E+00  0.00000000E+00  0.00000000E+00
  0.00000000E+00  0.00000000E+00  0.00000000E+00
  0.00000000E+00  0.00000000E+00  0.00000000E+00
  0.00000000E+00  0.00000000E+00  0.00000000E+00
  0.00000000E+00  0.00000000E+00  0.00000000E+00
  0.00000000E+00  0.00000000E+00  0.00000000E+00
  0.00000000E+00  0.00000000E+00  0.00000000E+00
  0.00000000E+00  0.00000000E+00  0.00000000E+00
  0.00000000E+00  0.00000000E+00  0.00000000E+00
  0.00000000E+00  0.00000000E+00  0.00000000E+00
  0.00000000E+00  0.00000000E+00  0.00000000E+00
  0.00000000E+00  0.00000000E+00  0.00000000E+00
  0.00000000E+00  0.00000000E+00  0.00000000E+00
  0.00000000E+00  0.00000000E+00  0.00000000E+00
  0.00000000E+00  0.00000000E+00  0.00000000E+00
  0.00000000E+00  0.00000000E+00  0.00000000E+00
  0.00000000E+00  0.00000000E+00  0.00000000E+00
  0.00000000E+00  0.00000000E+00  0.00000000E+00
  0.00000000E+00  0.00000000E+00  0.00000000E+00
  0.00000000E+00  0.00000000E+00  0.00000000E+00
  0.00000000E+00  0.00000000E+00  0.00000000E+00
  0.00000000E+00  0.00000000E+00  0.00000000E+00
  0.00000000E+00  0.00000000E+00  0.00000000E+00
  0.00000000E+00  0.00000000E+00  0.00000000E+00
  0.00000000E+00  0.00000000E+00  0.00000000E+00
  0.00000000E+00  0.00000000E+00  0.00000000E+00
  0.00000000E+00  0.00000000E+00  0.00000000E+00
  0.00000000E+00  0.00000000E+00  0.00000000E+00
  0.00000000E+00  0.00000000E+00  0.00000000E+00
  0.00000000E+00  0.00000000E+00  0.00000000E+00
  0.00000000E+00  0.00000000E+00  0.00000000E+00
  0.00000000E+00  0.00000000E+00  0.00000000E+00
  0.00000000E+00  0.00000000E+00  0.00000000E+00
  0.00000000E+00  0.00000000E+00  0.00000000E+00
  0.00000000E+00  0.00000000E+00  0.00000000E+00
  0.00000000E+00  0.00000000E+00  0.00000000E+00
  0.00000000E+00  0.00000000E+00  0.00000000E+00
  0.00000000E+00  0.00000000E+00  0.00000000E+00
  0.00000000E+00  0.00000000E+00  0.00000000E+00
  0.00000000E+00  0.00000000E+00  0.00000000E+00
  0.00000000E+00  0.00000000E+00  0.00000000E+00
  0.00000000E+00  0.00000000E+00  0.00000000E+00
  0.00000000E+00  0.00000000E+00  0.00000000E+00
  0.00000000E+00  0.00000000E+00  0.00000000E+00
  0.00000000E+00  0.00000000E+00  0.00000000E+00
  0.00000000E+00  0.00000000E+00  0.00000000E+00
  0.00000000E+00  0.00000000E+00  0.00000000E+00
  0.00000000E+00  0.00000000E+00  0.00000000E+00
  0.00000000E+00  0.00000000E+00  0.00000000E+00
  0.00000000E+00  0.00000000E+00  0.00000000E+00
  0.00000000E+00  0.00000000E+00  0.00000000E+00
  0.00000000E+00  0.00000000E+00  0.00000000E+00
  0.00000000E+00  0.00000000E+00  0.00000000E+00
  0.00000000E+00  0.00000000E+00  0.00000000E+00
  0.00000000E+00  0.00000000E+00  0.00000000E+00
  0.00000000E+00  0.00000000E+00  0.00000000E+00
  0.00000000E+00  0.00000000E+00  0.00000000E+00
  0.00000000E+00  0.00000000E+00  0.00000000E+00
  0.00000000E+00  0.00000000E+00  0.00000000E+00
  0.00000000E+00  0.00000000E+00  0.00000000E+00
  0.00000000E+00  0.00000000E+00  0.00000000E+00
  0.00000000E+00  0.00000000E+00  0.00000000E+00
  0.00000000E+00  0.00000000E+00  0.00000000E+00
  0.00000000E+00  0.00000000E+00  0.00000000E+00
  0.00000000E+00  0.00000000E+00  0.00000000E+00
  0.00000000E+00  0.00000000E+00  0.00000000E+00
  0.00000000E+00  0.00000000E+00  0.00000000E+00
  0.00000000E+00  0.00000000E+00  0.00000000E+00
  0.00000000E+00  0.00000000E+00  0.00000000E+00
  0.00000000E+00  0.00000000E+00  0.00000000E+00
  0.00000000E+00  0.00000000E+00  0.00000000E+00
  0.00000000E+00  0.00000000E+00  0.00000000E+00
  0.00000000E+00  0.00000000E+00  0.00000000E+00
  0.00000000E+00  0.00000000E+00  0.00000000E+00
  0.00000000E+00  0.00000000E+00  0.00000000E+00
  0.00000000E+00  0.00000000E+00  0.00000000E+00
  0.00000000E+00  0.00000000E+00  0.00000000E+00
  0.00000000E+00  0.00000000E+00  0.00000000E+00
  0.00000000E+00  0.00000000E+00  0.00000000E+00
  0.00000000E+00  0.00000000E+00  0.00000000E+00
  0.00000000E+00  0.00000000E+00  0.00000000E+00
  0.00000000E+00  0.00000000E+00  0.00000000E+00
  0.00000000E+00  0.00000000E+00  0.00000000E+00
  0.00000000E+00  0.00000000E+00  0.00000000E+00
  0.00000000E+00  0.00000000E+00  0.00000000E+00
  0.00000000E+00  0.00000000E+00  0.00000000E+00
  0.00000000E+00  0.00000000E+00  0.00000000E+00
  0.00000000E+00  0.00000000E+00  0.00000000E+00
  0.00000000E+00  0.00000000E+00  0.00000000E+00
  0.00000000E+00  0.00000000E+00  0.00000000E+00
  0.00000000E+00  0.00000000E+00  0.00000000E+00
  0.00000000E+00  0.00000000E+00  0.00000000E+00
  0.00000000E+00  0.00000000E+00  0.00000000E+00
  0.00000000E+00  0.00000000E+00  0.00000000E+00
  0.00000000E+00  0.00000000E+00  0.00000000E+00
  0.00000000E+00  0.00000000E+00  0.00000000E+00
  0.00000000E+00  0.00000000E+00  0.00000000E+00
  0.00000000E+00  0.00000000E+00  0.00000000E+00
  0.00000000E+00  0.00000000E+00  0.00000000E+00
  0.00000000E+00  0.00000000E+00  0.00000000E+00
  0.00000000E+00  0.00000000E+00  0.00000000E+00
  0.00000000E+00  0.00000000E+00  0.00000000E+00
  0.00000000E+00  0.00000000E+00  0.00000000E+00
  0.00000000E+00  0.00000000E+00  0.00000000E+00
  0.00000000E+00  0.00000000E+00  0.00000000E+00
  0.00000000E+00  0.00000000E+00  0.00000000E+00
  0.00000000E+00  0.00000000E+00  0.00000000E+00
  0.00000000E+00  0.00000000E+00  0.00000000E+00
  0.00000000E+00  0.00000000E+00  0.00000000E+00
  0.00000000E+00  0.00000000E+00  0.00000000E+00
