Sr4 Ga2 Cl10                            
   1.00000000000000     
     8.2151156875822142   -0.0017633518376461   -0.0025686733232972
    -0.0017633518376461    8.2151156875822142   -0.0025686733232972
     4.1041872364063314    4.1041872364063314    6.6189098129352946
   Cl   Sr   Ga
    10     4     2
Direct
  0.4999998803634185  0.0000001687832665  0.0000101236667973
  0.0000001687832665  0.4999998803634185  0.0000101236667973
  0.7176713049993140  0.0128311999379065  0.2696983312884385
  0.2175882849269186  0.2175882849269186  0.2697445086972365
  0.5128485793445989  0.5128485793445989  0.2696565133948781
  0.0128311999379065  0.7176713049993140  0.2696983312884385
  0.9871909525535045  0.2823322134564705  0.7303133925526595
  0.4871661338206863  0.4871661338206863  0.7303405648477792
  0.7824568672924883  0.7824568672924883  0.7302536484154558
  0.2823322134564705  0.9871909525535045  0.7303133925526595
  0.1588252949252507  0.1588252949252507  0.9999071227290699
  0.6587786751260936  0.3412681086247602  0.9999710647313407
  0.3412681086247602  0.6587786751260936  0.9999710647313407
  0.8411994306430302  0.8411994306430302  0.0000902274713468
  0.7499658189167917  0.2499770862855044  0.5000107949828845
  0.2499770862855044  0.7499658189167917  0.5000107949828845
 
  0.00000000E+00  0.00000000E+00  0.00000000E+00
  0.00000000E+00  0.00000000E+00  0.00000000E+00
  0.00000000E+00  0.00000000E+00  0.00000000E+00
  0.00000000E+00  0.00000000E+00  0.00000000E+00
  0.00000000E+00  0.00000000E+00  0.00000000E+00
  0.00000000E+00  0.00000000E+00  0.00000000E+00
  0.00000000E+00  0.00000000E+00  0.00000000E+00
  0.00000000E+00  0.00000000E+00  0.00000000E+00
  0.00000000E+00  0.00000000E+00  0.00000000E+00
  0.00000000E+00  0.00000000E+00  0.00000000E+00
  0.00000000E+00  0.00000000E+00  0.00000000E+00
  0.00000000E+00  0.00000000E+00  0.00000000E+00
  0.00000000E+00  0.00000000E+00  0.00000000E+00
  0.00000000E+00  0.00000000E+00  0.00000000E+00
  0.00000000E+00  0.00000000E+00  0.00000000E+00
  0.00000000E+00  0.00000000E+00  0.00000000E+00
