B6 I4                                   
   1.00000000000000     
    -4.5116650677313759   -0.1895774011558745    0.0566874215149985
     2.1342026717473357   -2.1114409225205244   -0.0648880380413917
    -2.4088132707003185    0.9254427215956068   25.9750427133320798
   I    B 
     4     6
Direct
  0.3952573199357090  0.7675663317369583  0.0884276151286869
  0.2856517685485329  0.9182187534749247  0.4146635506564493
  0.7133085062332043  0.0807722850167565  0.5853932662916819
  0.6050541294264988  0.2328916662075500  0.9116314078288710
  0.0911299948923912  0.0962583973178610  0.2503627002951063
  0.8464248600179687  0.3459649979111532  0.2503557310157092
  0.6017251804869090  0.5957012087651066  0.2503569560012195
  0.3985417464796015  0.4045332014436980  0.7497037317356074
  0.1538183366695662  0.6542188680182761  0.7497056700223510
  0.9090881573096539  0.9038742901077157  0.7496993710243345
 
  0.00000000E+00  0.00000000E+00  0.00000000E+00
  0.00000000E+00  0.00000000E+00  0.00000000E+00
  0.00000000E+00  0.00000000E+00  0.00000000E+00
  0.00000000E+00  0.00000000E+00  0.00000000E+00
  0.00000000E+00  0.00000000E+00  0.00000000E+00
  0.00000000E+00  0.00000000E+00  0.00000000E+00
  0.00000000E+00  0.00000000E+00  0.00000000E+00
  0.00000000E+00  0.00000000E+00  0.00000000E+00
  0.00000000E+00  0.00000000E+00  0.00000000E+00
  0.00000000E+00  0.00000000E+00  0.00000000E+00
