Ba1 Tl2 Br6                             
   1.0000000000000000     
     3.9983509484791888    2.3081211716586711    6.5291910210726476
    -3.9983509484791888    2.3081211716586711    6.5291910210726476
     0.0000000000000000   -4.6170255107473768    6.5294686854628150
   Ba   Br   Tl
     1     6     2
Direct
  0.0000000000000000  0.0000000000000000  0.0000000000000000
  0.7251520648181611  0.7251520648181611  0.2748554901794407
  0.7251599593043423  0.2748399120105915  0.2748399311046299
  0.2748399120105915  0.7251599593043423  0.2748399311046299
  0.2748479351818389  0.2748479351818389  0.7251445098205593
  0.7251600879894085  0.2748400406956577  0.7251600688953701
  0.2748400406956577  0.7251600879894085  0.7251600688953701
  0.2500033404163631  0.2500033404163631  0.2499980883991455
  0.7499966595836369  0.7499966595836369  0.7500019116008545

  0.00000000E+00  0.00000000E+00  0.00000000E+00
  0.00000000E+00  0.00000000E+00  0.00000000E+00
  0.00000000E+00  0.00000000E+00  0.00000000E+00
  0.00000000E+00  0.00000000E+00  0.00000000E+00
  0.00000000E+00  0.00000000E+00  0.00000000E+00
  0.00000000E+00  0.00000000E+00  0.00000000E+00
  0.00000000E+00  0.00000000E+00  0.00000000E+00
  0.00000000E+00  0.00000000E+00  0.00000000E+00
  0.00000000E+00  0.00000000E+00  0.00000000E+00
