Mg4 B20                                 
   1.00000000000000     
     6.0048048776050722   -2.1576780831945528    1.7828834697264446
     6.0048048776050722    2.1576780831945528    1.7828834697264446
    -1.4219176986978561    0.0000000000000000    8.2319502611764541
   B    Mg
    20     4
Direct
  0.9741896004134887  0.9741896004134887  0.8995396020353681
  0.8384479549931356  0.4534368096655115  0.0534957990885658
  0.4534368096655115  0.8384479549931356  0.0534957990885658
  0.8911248275357195  0.8911248275357195  0.0965484604216513
  0.2314923176959098  0.2314923176959098  0.0200193267690310
  0.1500470283607029  0.1500470283607029  0.1998912672079172
  0.1415559832120650  0.1415559832120650  0.3989697411921966
  0.9090121938528100  0.9090121938528100  0.2880241516865638
  0.7070369651837964  0.1163480081191537  0.4598861576085582
  0.1163480081191537  0.7070369651837964  0.4598861576085582
  0.4933405001439937  0.4933405001439937  0.5069649545859463
  0.8712442096962363  0.2801237440774855  0.5484271863645489
  0.2801237440774855  0.8712442096962363  0.5484271863645489
  0.0808081806856720  0.0808081806856720  0.7233615250104677
  0.8458383856583893  0.8458383856583893  0.6099663086102893
  0.8546039753546921  0.8546039753546921  0.8059124023118542
  0.7769652623283463  0.7769652623283463  0.9945163452784058
  0.1190169424700684  0.1190169424700684  0.9100968088984942
  0.5713852367492365  0.1728046909545498  0.9525689813800824
  0.1728046909545498  0.5713852367492365  0.9525689813800824
  0.4724021420809663  0.4724021420809663  0.1974647429970418
  0.7228908569004631  0.7228908569004631  0.3715935782664701
  0.2660615209524906  0.2660615209524906  0.6398449203586196
  0.5600226629151308  0.5600226629151308  0.8077296154861742
 
  0.00000000E+00  0.00000000E+00  0.00000000E+00
  0.00000000E+00  0.00000000E+00  0.00000000E+00
  0.00000000E+00  0.00000000E+00  0.00000000E+00
  0.00000000E+00  0.00000000E+00  0.00000000E+00
  0.00000000E+00  0.00000000E+00  0.00000000E+00
  0.00000000E+00  0.00000000E+00  0.00000000E+00
  0.00000000E+00  0.00000000E+00  0.00000000E+00
  0.00000000E+00  0.00000000E+00  0.00000000E+00
  0.00000000E+00  0.00000000E+00  0.00000000E+00
  0.00000000E+00  0.00000000E+00  0.00000000E+00
  0.00000000E+00  0.00000000E+00  0.00000000E+00
  0.00000000E+00  0.00000000E+00  0.00000000E+00
  0.00000000E+00  0.00000000E+00  0.00000000E+00
  0.00000000E+00  0.00000000E+00  0.00000000E+00
  0.00000000E+00  0.00000000E+00  0.00000000E+00
  0.00000000E+00  0.00000000E+00  0.00000000E+00
  0.00000000E+00  0.00000000E+00  0.00000000E+00
  0.00000000E+00  0.00000000E+00  0.00000000E+00
  0.00000000E+00  0.00000000E+00  0.00000000E+00
  0.00000000E+00  0.00000000E+00  0.00000000E+00
  0.00000000E+00  0.00000000E+00  0.00000000E+00
  0.00000000E+00  0.00000000E+00  0.00000000E+00
  0.00000000E+00  0.00000000E+00  0.00000000E+00
  0.00000000E+00  0.00000000E+00  0.00000000E+00
