Be13 Ga16                               
   1.00000000000000     
    -4.6517764769269343   -4.6517764769269343    4.6517764769269343
    -4.6517764769269343    4.6517764769269343   -4.6517764769269343
     4.6517764769269343   -4.6517764769269343   -4.6517764769269343
   Ga   Be
    16    13
Direct
  0.6836307375301516  0.0000000000000000  0.0000000000000000
  0.4211783573672960  0.2013183425511968  0.0000000000000000
  0.2013183425511968  0.4211783573672960  0.0000000000000000
  0.0000000000000000  0.6836307375301516  0.0000000000000000
  0.7986816574488032  0.7986816574488032  0.2198600148160992
  0.4211783573672960  0.0000000000000000  0.2013183425511968
  0.0000000000000000  0.4211783573672960  0.2013183425511968
  0.3163692624698484  0.3163692624698484  0.3163692624698484
  0.2013183425511968  0.0000000000000000  0.4211783573672960
  0.0000000000000000  0.2013183425511968  0.4211783573672960
  0.7801399851839008  0.5788216426327040  0.5788216426327040
  0.5788216426327040  0.7801399851839008  0.5788216426327040
  0.0000000000000000  0.0000000000000000  0.6836307375301516
  0.7986816574488032  0.2198600148160992  0.7986816574488032
  0.2198600148160992  0.7986816574488032  0.7986816574488032
  0.5788216426327040  0.5788216426327040  0.7801399851839008
  0.0000000000000000  0.0000000000000000  0.0000000000000000
  0.6906459367017774  0.4332944179206848  0.0000000000000000
  0.4332944179206848  0.6906459367017774  0.0000000000000000
  0.5667055820793152  0.5667055820793152  0.2573515187810784
  0.7426484812189216  0.3093540632982226  0.3093540632982226
  0.3093540632982226  0.7426484812189216  0.3093540632982226
  0.6906459367017774  0.0000000000000000  0.4332944179206848
  0.0000000000000000  0.6906459367017774  0.4332944179206848
  0.5667055820793152  0.2573515187810784  0.5667055820793152
  0.2573515187810784  0.5667055820793152  0.5667055820793152
  0.4332944179206848  0.0000000000000000  0.6906459367017774
  0.0000000000000000  0.4332944179206848  0.6906459367017774
  0.3093540632982226  0.3093540632982226  0.7426484812189216
 
  0.00000000E+00  0.00000000E+00  0.00000000E+00
  0.00000000E+00  0.00000000E+00  0.00000000E+00
  0.00000000E+00  0.00000000E+00  0.00000000E+00
  0.00000000E+00  0.00000000E+00  0.00000000E+00
  0.00000000E+00  0.00000000E+00  0.00000000E+00
  0.00000000E+00  0.00000000E+00  0.00000000E+00
  0.00000000E+00  0.00000000E+00  0.00000000E+00
  0.00000000E+00  0.00000000E+00  0.00000000E+00
  0.00000000E+00  0.00000000E+00  0.00000000E+00
  0.00000000E+00  0.00000000E+00  0.00000000E+00
  0.00000000E+00  0.00000000E+00  0.00000000E+00
  0.00000000E+00  0.00000000E+00  0.00000000E+00
  0.00000000E+00  0.00000000E+00  0.00000000E+00
  0.00000000E+00  0.00000000E+00  0.00000000E+00
  0.00000000E+00  0.00000000E+00  0.00000000E+00
  0.00000000E+00  0.00000000E+00  0.00000000E+00
  0.00000000E+00  0.00000000E+00  0.00000000E+00
  0.00000000E+00  0.00000000E+00  0.00000000E+00
  0.00000000E+00  0.00000000E+00  0.00000000E+00
  0.00000000E+00  0.00000000E+00  0.00000000E+00
  0.00000000E+00  0.00000000E+00  0.00000000E+00
  0.00000000E+00  0.00000000E+00  0.00000000E+00
  0.00000000E+00  0.00000000E+00  0.00000000E+00
  0.00000000E+00  0.00000000E+00  0.00000000E+00
  0.00000000E+00  0.00000000E+00  0.00000000E+00
  0.00000000E+00  0.00000000E+00  0.00000000E+00
  0.00000000E+00  0.00000000E+00  0.00000000E+00
  0.00000000E+00  0.00000000E+00  0.00000000E+00
  0.00000000E+00  0.00000000E+00  0.00000000E+00
