Al20 F4                                 
   1.00000000000000     
     5.8323960168721554    3.3208752534438366    0.1982995476363606
    -5.8323960168721554    3.3208752534438366    0.1982995476363606
     0.0000000000000000    3.6444979690750317   11.0946142617069690
   Al   F 
    20     4
Direct
  0.7016445970893841  0.6473972912494759  0.7928894152088333
  0.3526027087505312  0.2983554029106159  0.7071105847911667
  0.2983554029106159  0.3526027087505312  0.2071105847911667
  0.6473972912494759  0.7016445970893841  0.2928894152088333
  0.3622645925429993  0.6271972245180066  0.9678260894103090
  0.3728027754819934  0.6377354074570007  0.5321739105896910
  0.6377354074570007  0.3728027754819934  0.0321739105896910
  0.6271972245180066  0.3622645925429993  0.4678260894103090
  0.0199697338211635  0.1624505191916512  0.5579385839919198
  0.8375494808083488  0.9800302661788365  0.9420614160080802
  0.9800302661788365  0.8375494808083488  0.4420614160080802
  0.1624505191916512  0.0199697338211635  0.0579385839919198
  0.8617434240089352  0.4557131344837799  0.6360620026071615
  0.5442868655162201  0.1382565759910577  0.8639379973928385
  0.1382565759910577  0.5442868655162201  0.3639379973928385
  0.4557131344837799  0.8617434240089352  0.1360620026071615
  0.0948723683641433  0.7738944583580505  0.8763728152147365
  0.2261055416419495  0.9051276316358567  0.6236271847852635
  0.9051276316358567  0.2261055416419495  0.1236271847852635
  0.7738944583580505  0.0948723683641433  0.3763728152147365
  0.7373234760147511  0.9226385153520127  0.6858404456443807
  0.0773614846479873  0.2626765239852489  0.8141595543556193
  0.2626765239852489  0.0773614846479873  0.3141595543556193
  0.9226385153520127  0.7373234760147511  0.1858404456443807
 
  0.00000000E+00  0.00000000E+00  0.00000000E+00
  0.00000000E+00  0.00000000E+00  0.00000000E+00
  0.00000000E+00  0.00000000E+00  0.00000000E+00
  0.00000000E+00  0.00000000E+00  0.00000000E+00
  0.00000000E+00  0.00000000E+00  0.00000000E+00
  0.00000000E+00  0.00000000E+00  0.00000000E+00
  0.00000000E+00  0.00000000E+00  0.00000000E+00
  0.00000000E+00  0.00000000E+00  0.00000000E+00
  0.00000000E+00  0.00000000E+00  0.00000000E+00
  0.00000000E+00  0.00000000E+00  0.00000000E+00
  0.00000000E+00  0.00000000E+00  0.00000000E+00
  0.00000000E+00  0.00000000E+00  0.00000000E+00
  0.00000000E+00  0.00000000E+00  0.00000000E+00
  0.00000000E+00  0.00000000E+00  0.00000000E+00
  0.00000000E+00  0.00000000E+00  0.00000000E+00
  0.00000000E+00  0.00000000E+00  0.00000000E+00
  0.00000000E+00  0.00000000E+00  0.00000000E+00
  0.00000000E+00  0.00000000E+00  0.00000000E+00
  0.00000000E+00  0.00000000E+00  0.00000000E+00
  0.00000000E+00  0.00000000E+00  0.00000000E+00
  0.00000000E+00  0.00000000E+00  0.00000000E+00
  0.00000000E+00  0.00000000E+00  0.00000000E+00
  0.00000000E+00  0.00000000E+00  0.00000000E+00
  0.00000000E+00  0.00000000E+00  0.00000000E+00
