Sr3 Al8                                 
   1.00000000000000     
    -4.4199914819222776   -0.0014198358766319   -0.0000238499501267
    -0.0015311949997883   -4.5454147740092248   -0.0007429788766487
     2.2105880423112279    2.2750544747007111   13.6413766688176068
   Sr   Al
     3     8
Direct
  0.0000290562957517  0.9999929791967404  0.9999740619277091
  0.1485891230784162  0.6487098773542783  0.2974252868124339
  0.8513909132163207  0.3512024929676940  0.7024952251526102
  0.5483831387151596  0.5484464149469233  0.0970846547182518
  0.5967121575307743  0.0965350417776918  0.1928170499071342
  0.6932038850545297  0.1933992247301290  0.3866265302942438
  0.7492053400728693  0.7494939712186977  0.4983915318157131
  0.2507617827534574  0.2504006050279202  0.5015254436910794
  0.3067682163440608  0.8064985315185780  0.6132894374882127
  0.4032700396071291  0.9034091550233896  0.8071173678964598
  0.4516863473315311  0.4515117062379517  0.9028534102961387
 
  0.00000000E+00  0.00000000E+00  0.00000000E+00
  0.00000000E+00  0.00000000E+00  0.00000000E+00
  0.00000000E+00  0.00000000E+00  0.00000000E+00
  0.00000000E+00  0.00000000E+00  0.00000000E+00
  0.00000000E+00  0.00000000E+00  0.00000000E+00
  0.00000000E+00  0.00000000E+00  0.00000000E+00
  0.00000000E+00  0.00000000E+00  0.00000000E+00
  0.00000000E+00  0.00000000E+00  0.00000000E+00
  0.00000000E+00  0.00000000E+00  0.00000000E+00
  0.00000000E+00  0.00000000E+00  0.00000000E+00
  0.00000000E+00  0.00000000E+00  0.00000000E+00
