Mg10 Al4 Cl32                           
   1.00000000000000     
     5.6660321503776032   -5.7527123573962653    0.0000000000000000
     5.6660321503776032    5.7527123573962653    0.0000000000000000
     0.0000000000000000    0.0000000000000000   17.8323476682929609
   Mg   Al   Cl
    10     4    32
Direct
  0.0000000000000000  0.0000000000000000  0.7517515381980289
  0.0000000000000000  0.0000000000000000  0.2482484618019711
  0.5000000000000000  0.5000000000000000  0.7482484618019711
  0.5000000000000000  0.5000000000000000  0.2517515381980289
  0.5000000000000000  0.5000000000000000  0.5000000000000000
  0.0000000000000000  0.0000000000000000  0.0000000000000000
  0.0000000000000000  0.5000000000000000  0.6612813665290105
  0.5000000000000000  0.0000000000000000  0.3387186334709895
  0.5000000000000000  0.0000000000000000  0.8387186334709895
  0.0000000000000000  0.5000000000000000  0.1612813665290105
  0.5000000000000000  0.0000000000000000  0.6312181949998532
  0.0000000000000000  0.5000000000000000  0.3687818050001468
  0.0000000000000000  0.5000000000000000  0.8687818050001468
  0.5000000000000000  0.0000000000000000  0.1312181949998532
  0.5143447940456980  0.1984488908258868  0.7377149111765817
  0.4856552059543020  0.8015511091741132  0.7377149111765817
  0.1984488908258868  0.5143447940456980  0.2622850888234183
  0.8015511091741132  0.4856552059543020  0.2622850888234183
  0.9856552059543020  0.3015511091741132  0.7622850888234183
  0.0143447940456980  0.6984488908258868  0.7622850888234183
  0.3015511091741132  0.9856552059543020  0.2377149111765817
  0.6984488908258868  0.0143447940456980  0.2377149111765817
  0.2117954545812637  0.0102018480239039  0.6423409151781954
  0.7882045454187363  0.9897981519760961  0.6423409151781954
  0.0102018480239039  0.2117954545812637  0.3576590848218046
  0.9897981519760961  0.7882045454187363  0.3576590848218046
  0.2882045454187363  0.4897981519760961  0.8576590848218046
  0.7117954545812637  0.5102018480239039  0.8576590848218046
  0.6972731488092663  0.0103366700228236  0.0394513088756270
  0.3027268511907337  0.9896633299771764  0.0394513088756270
  0.0103366700228236  0.6972731488092663  0.9605486911243730
  0.9896633299771764  0.3027268511907337  0.9605486911243730
  0.8027268511907337  0.4896633299771764  0.4605486911243730
  0.1972731488092663  0.5103366700228236  0.4605486911243730
  0.4896633299771764  0.8027268511907337  0.5394513088756270
  0.5103366700228236  0.1972731488092663  0.5394513088756270
  0.9877273654361147  0.7870487538602475  0.1400344680725851
  0.0122726345638853  0.2129512461397525  0.1400344680725851
  0.7870487538602475  0.9877273654361147  0.8599655319274149
  0.2129512461397525  0.0122726345638853  0.8599655319274149
  0.5122726345638853  0.7129512461397525  0.3599655319274149
  0.4877273654361147  0.2870487538602475  0.3599655319274149
  0.7129512461397525  0.5122726345638853  0.6400344680725851
  0.2870487538602475  0.4877273654361147  0.6400344680725851
  0.5102018480239039  0.7117954545812637  0.1423409151781954
  0.4897981519760961  0.2882045454187363  0.1423409151781954
 
  0.00000000E+00  0.00000000E+00  0.00000000E+00
  0.00000000E+00  0.00000000E+00  0.00000000E+00
  0.00000000E+00  0.00000000E+00  0.00000000E+00
  0.00000000E+00  0.00000000E+00  0.00000000E+00
  0.00000000E+00  0.00000000E+00  0.00000000E+00
  0.00000000E+00  0.00000000E+00  0.00000000E+00
  0.00000000E+00  0.00000000E+00  0.00000000E+00
  0.00000000E+00  0.00000000E+00  0.00000000E+00
  0.00000000E+00  0.00000000E+00  0.00000000E+00
  0.00000000E+00  0.00000000E+00  0.00000000E+00
  0.00000000E+00  0.00000000E+00  0.00000000E+00
  0.00000000E+00  0.00000000E+00  0.00000000E+00
  0.00000000E+00  0.00000000E+00  0.00000000E+00
  0.00000000E+00  0.00000000E+00  0.00000000E+00
  0.00000000E+00  0.00000000E+00  0.00000000E+00
  0.00000000E+00  0.00000000E+00  0.00000000E+00
  0.00000000E+00  0.00000000E+00  0.00000000E+00
  0.00000000E+00  0.00000000E+00  0.00000000E+00
  0.00000000E+00  0.00000000E+00  0.00000000E+00
  0.00000000E+00  0.00000000E+00  0.00000000E+00
  0.00000000E+00  0.00000000E+00  0.00000000E+00
  0.00000000E+00  0.00000000E+00  0.00000000E+00
  0.00000000E+00  0.00000000E+00  0.00000000E+00
  0.00000000E+00  0.00000000E+00  0.00000000E+00
  0.00000000E+00  0.00000000E+00  0.00000000E+00
  0.00000000E+00  0.00000000E+00  0.00000000E+00
  0.00000000E+00  0.00000000E+00  0.00000000E+00
  0.00000000E+00  0.00000000E+00  0.00000000E+00
  0.00000000E+00  0.00000000E+00  0.00000000E+00
  0.00000000E+00  0.00000000E+00  0.00000000E+00
  0.00000000E+00  0.00000000E+00  0.00000000E+00
  0.00000000E+00  0.00000000E+00  0.00000000E+00
  0.00000000E+00  0.00000000E+00  0.00000000E+00
  0.00000000E+00  0.00000000E+00  0.00000000E+00
  0.00000000E+00  0.00000000E+00  0.00000000E+00
  0.00000000E+00  0.00000000E+00  0.00000000E+00
  0.00000000E+00  0.00000000E+00  0.00000000E+00
  0.00000000E+00  0.00000000E+00  0.00000000E+00
  0.00000000E+00  0.00000000E+00  0.00000000E+00
  0.00000000E+00  0.00000000E+00  0.00000000E+00
  0.00000000E+00  0.00000000E+00  0.00000000E+00
  0.00000000E+00  0.00000000E+00  0.00000000E+00
  0.00000000E+00  0.00000000E+00  0.00000000E+00
  0.00000000E+00  0.00000000E+00  0.00000000E+00
  0.00000000E+00  0.00000000E+00  0.00000000E+00
  0.00000000E+00  0.00000000E+00  0.00000000E+00
