Be21 In40                               
   1.0000000000000000     
     4.4959054828042806   -7.7871368240927330    0.0000000000000001
     4.4959054828042806    7.7871368240927330    0.0000000000000001
     0.0000000000000001    0.0000000000000000   20.5083975317601990
   Be   In
    21    40
Direct
  0.0000000000132019  0.3069213661868773  0.4330957044997774
  0.6666669999999968  0.3333330000000032  0.2827887966509621
  0.5710720584185012  0.0000000000359748  0.7994521560747927
  0.4289279415455098  0.4289279415455098  0.7994521560747927
  0.0000000000000000  0.0000000000000000  0.1932363814147777
  0.9999999999636771  0.5321539559002915  0.4646004285448058
  0.4282675231715203  0.9999999999859384  0.0075265423439888
  0.0000000000359748  0.5710720584184941  0.7994521560747927
  0.6930786337998995  0.6930786337998995  0.4330957044997774
  0.5321539559002915  0.9999999999636771  0.4646004285448058
  0.3333330000000032  0.6666669999999968  0.1664918884193511
  0.9999999999723812  0.8473673738107621  0.8418037278790109
  0.4678460441360599  0.4678460441360599  0.4646004285448058
  0.1526326262168496  0.1526326262168496  0.8418037278790109
  0.6666669999999968  0.3333330000000032  0.1664918884193511
  0.3333330000000032  0.6666669999999968  0.2827887966509621
  0.9999999999859384  0.4282675231715203  0.0075265423439888
  0.3069213661868773  0.0000000000132019  0.4330957044997774
  0.5717324768425485  0.5717324768425485  0.0075265423439888
  0.8473673738107621  0.9999999999723812  0.8418037278790109
  0.0000000000000000  0.0000000000000000  0.2961221473006574
  0.2003493155734546  0.4080093377481546  0.5337258790384638
  0.1865636451347044  0.3707063019508539  0.2278990566226398
  0.4319616709129264  0.1797175407590785  0.7613869319274755
  0.8158573431773988  0.6292936980394899  0.2278990566226398
  0.4900513144242993  0.0000000000211315  0.1243986752250734
  0.0000000000000000  0.0000000000000000  0.5778549474250667
  0.3333330000000032  0.6666669999999968  0.0226498135993509
  0.1841426568257916  0.8134363548717189  0.2278990566226398
  0.2060680299311741  0.9999999999695675  0.9419236937607067
  0.0000000001476934  0.4837664115519047  0.3355940775789961
  0.3707063019508539  0.1865636451347044  0.2278990566226398
  0.2045700486910960  0.2045700486910960  0.3944290700230511
  0.7939319700992513  0.7939319700992513  0.9419236937607067
  0.6666669999999968  0.3333330000000032  0.0226498135993509
  0.9999999998792575  0.7954299514296963  0.3944290700230511
  0.5099486855545337  0.5099486855545337  0.1243986752250734
  0.7923399777331426  0.5919906621676745  0.5337258790384638
  0.5680383291146427  0.7477558698712343  0.7613869319274755
  0.0000000000211315  0.4900513144242993  0.1243986752250734
  0.8134363548717189  0.1841426568257916  0.2278990566226398
  0.0000000000209113  0.5997141419087129  0.9176191800770681
  0.5162335883003450  0.5162335883003450  0.3355940775789961
  0.3333330000000032  0.6666669999999968  0.6397892742264446
  0.9999999999695675  0.2060680299311741  0.9419236937607067
  0.6666669999999968  0.3333330000000032  0.6397892742264446
  0.1797175407590785  0.4319616709129264  0.7613869319274755
  0.5919906621676745  0.7923399777331426  0.5337258790384638
  0.2076600222588922  0.7996506845187170  0.5337258790384638
  0.5997141419087129  0.0000000000209113  0.9176191800770681
  0.4002858580703901  0.4002858580703901  0.9176191800770681
  0.8202824592158038  0.2522441301263214  0.7613869319274755
  0.4837664115519047  0.0000000001476934  0.3355940775789961
  0.4080093377481546  0.2003493155734546  0.5337258790384638
  0.6292936980394899  0.8158573431773988  0.2278990566226398
  0.7954299514296963  0.9999999998792575  0.3944290700230511
  0.7996506845187170  0.2076600222588922  0.5337258790384638
  0.2522441301263214  0.8202824592158038  0.7613869319274755
  0.0000000000000000  0.0000000000000000  0.0691553710780255
  0.7477558698712343  0.5680383291146427  0.7613869319274755
  0.0000000000000000  0.0000000000000000  0.7245556334357914

  0.00000000E+00  0.00000000E+00  0.00000000E+00
  0.00000000E+00  0.00000000E+00  0.00000000E+00
  0.00000000E+00  0.00000000E+00  0.00000000E+00
  0.00000000E+00  0.00000000E+00  0.00000000E+00
  0.00000000E+00  0.00000000E+00  0.00000000E+00
  0.00000000E+00  0.00000000E+00  0.00000000E+00
  0.00000000E+00  0.00000000E+00  0.00000000E+00
  0.00000000E+00  0.00000000E+00  0.00000000E+00
  0.00000000E+00  0.00000000E+00  0.00000000E+00
  0.00000000E+00  0.00000000E+00  0.00000000E+00
  0.00000000E+00  0.00000000E+00  0.00000000E+00
  0.00000000E+00  0.00000000E+00  0.00000000E+00
  0.00000000E+00  0.00000000E+00  0.00000000E+00
  0.00000000E+00  0.00000000E+00  0.00000000E+00
  0.00000000E+00  0.00000000E+00  0.00000000E+00
  0.00000000E+00  0.00000000E+00  0.00000000E+00
  0.00000000E+00  0.00000000E+00  0.00000000E+00
  0.00000000E+00  0.00000000E+00  0.00000000E+00
  0.00000000E+00  0.00000000E+00  0.00000000E+00
  0.00000000E+00  0.00000000E+00  0.00000000E+00
  0.00000000E+00  0.00000000E+00  0.00000000E+00
  0.00000000E+00  0.00000000E+00  0.00000000E+00
  0.00000000E+00  0.00000000E+00  0.00000000E+00
  0.00000000E+00  0.00000000E+00  0.00000000E+00
  0.00000000E+00  0.00000000E+00  0.00000000E+00
  0.00000000E+00  0.00000000E+00  0.00000000E+00
  0.00000000E+00  0.00000000E+00  0.00000000E+00
  0.00000000E+00  0.00000000E+00  0.00000000E+00
  0.00000000E+00  0.00000000E+00  0.00000000E+00
  0.00000000E+00  0.00000000E+00  0.00000000E+00
  0.00000000E+00  0.00000000E+00  0.00000000E+00
  0.00000000E+00  0.00000000E+00  0.00000000E+00
  0.00000000E+00  0.00000000E+00  0.00000000E+00
  0.00000000E+00  0.00000000E+00  0.00000000E+00
  0.00000000E+00  0.00000000E+00  0.00000000E+00
  0.00000000E+00  0.00000000E+00  0.00000000E+00
  0.00000000E+00  0.00000000E+00  0.00000000E+00
  0.00000000E+00  0.00000000E+00  0.00000000E+00
  0.00000000E+00  0.00000000E+00  0.00000000E+00
  0.00000000E+00  0.00000000E+00  0.00000000E+00
  0.00000000E+00  0.00000000E+00  0.00000000E+00
  0.00000000E+00  0.00000000E+00  0.00000000E+00
  0.00000000E+00  0.00000000E+00  0.00000000E+00
  0.00000000E+00  0.00000000E+00  0.00000000E+00
  0.00000000E+00  0.00000000E+00  0.00000000E+00
  0.00000000E+00  0.00000000E+00  0.00000000E+00
  0.00000000E+00  0.00000000E+00  0.00000000E+00
  0.00000000E+00  0.00000000E+00  0.00000000E+00
  0.00000000E+00  0.00000000E+00  0.00000000E+00
  0.00000000E+00  0.00000000E+00  0.00000000E+00
  0.00000000E+00  0.00000000E+00  0.00000000E+00
  0.00000000E+00  0.00000000E+00  0.00000000E+00
  0.00000000E+00  0.00000000E+00  0.00000000E+00
  0.00000000E+00  0.00000000E+00  0.00000000E+00
  0.00000000E+00  0.00000000E+00  0.00000000E+00
  0.00000000E+00  0.00000000E+00  0.00000000E+00
  0.00000000E+00  0.00000000E+00  0.00000000E+00
  0.00000000E+00  0.00000000E+00  0.00000000E+00
  0.00000000E+00  0.00000000E+00  0.00000000E+00
  0.00000000E+00  0.00000000E+00  0.00000000E+00
  0.00000000E+00  0.00000000E+00  0.00000000E+00
