Be22 Al14                               
   1.00000000000000     
    -0.0000000000000001    6.2071326644046207    6.2071326644046207
     6.2071326644046207   -0.0000000000000001    6.2071326644046207
     6.2071326644046207    6.2071326644046207    0.0000000000000001
   Be   Al
    22    14
Direct
  0.7587051297097815  0.2412948702902185  0.0000000000000000
  0.7587051297097815  0.0000000000000000  0.0000000000000000
  0.1246509825573838  0.6251163391475387  0.6251163391475387
  0.0000000000000000  0.7587051297097815  0.2412948702902185
  0.0000000000000000  0.2412948702902185  0.7587051297097815
  0.3748836608524613  0.3748836608524613  0.3748836608524613
  0.0000000000000000  0.7587051297097815  0.0000000000000000
  0.6251163391475387  0.6251163391475387  0.1246509825573838
  0.0000000000000000  0.0000000000000000  0.7587051297097815
  0.6251163391475387  0.1246509825573838  0.6251163391475387
  0.0000000000000000  0.0000000000000000  0.2412948702902185
  0.2412948702902185  0.0000000000000000  0.0000000000000000
  0.0000000000000000  0.2412948702902185  0.0000000000000000
  0.7587051297097815  0.0000000000000000  0.2412948702902185
  0.5000000000000000  0.5000000000000000  0.5000000000000000
  0.3748836608524613  0.8753490174426162  0.3748836608524613
  0.3748836608524613  0.3748836608524613  0.8753490174426162
  0.2412948702902185  0.7587051297097815  0.0000000000000000
  0.2412948702902185  0.0000000000000000  0.7587051297097815
  0.6251163391475387  0.6251163391475387  0.6251163391475387
  0.0000000000000000  0.0000000000000000  0.0000000000000000
  0.8753490174426162  0.3748836608524613  0.3748836608524613
  0.2815336032736155  0.2815336032736155  0.7184663967263845
  0.7184663967263845  0.7184663967263845  0.2815336032736155
  0.8258183494448375  0.5225449516654876  0.8258183494448375
  0.7184663967263845  0.2815336032736155  0.2815336032736155
  0.4774550483345052  0.1741816505551625  0.1741816505551625
  0.2815336032736155  0.7184663967263845  0.7184663967263845
  0.1741816505551625  0.1741816505551625  0.1741816505551625
  0.1741816505551625  0.4774550483345052  0.1741816505551625
  0.5225449516654876  0.8258183494448375  0.8258183494448375
  0.8258183494448375  0.8258183494448375  0.8258183494448375
  0.7184663967263845  0.2815336032736155  0.7184663967263845
  0.1741816505551625  0.1741816505551625  0.4774550483345052
  0.2815336032736155  0.7184663967263845  0.2815336032736155
  0.8258183494448375  0.8258183494448375  0.5225449516654876
 
  0.00000000E+00  0.00000000E+00  0.00000000E+00
  0.00000000E+00  0.00000000E+00  0.00000000E+00
  0.00000000E+00  0.00000000E+00  0.00000000E+00
  0.00000000E+00  0.00000000E+00  0.00000000E+00
  0.00000000E+00  0.00000000E+00  0.00000000E+00
  0.00000000E+00  0.00000000E+00  0.00000000E+00
  0.00000000E+00  0.00000000E+00  0.00000000E+00
  0.00000000E+00  0.00000000E+00  0.00000000E+00
  0.00000000E+00  0.00000000E+00  0.00000000E+00
  0.00000000E+00  0.00000000E+00  0.00000000E+00
  0.00000000E+00  0.00000000E+00  0.00000000E+00
  0.00000000E+00  0.00000000E+00  0.00000000E+00
  0.00000000E+00  0.00000000E+00  0.00000000E+00
  0.00000000E+00  0.00000000E+00  0.00000000E+00
  0.00000000E+00  0.00000000E+00  0.00000000E+00
  0.00000000E+00  0.00000000E+00  0.00000000E+00
  0.00000000E+00  0.00000000E+00  0.00000000E+00
  0.00000000E+00  0.00000000E+00  0.00000000E+00
  0.00000000E+00  0.00000000E+00  0.00000000E+00
  0.00000000E+00  0.00000000E+00  0.00000000E+00
  0.00000000E+00  0.00000000E+00  0.00000000E+00
  0.00000000E+00  0.00000000E+00  0.00000000E+00
  0.00000000E+00  0.00000000E+00  0.00000000E+00
  0.00000000E+00  0.00000000E+00  0.00000000E+00
  0.00000000E+00  0.00000000E+00  0.00000000E+00
  0.00000000E+00  0.00000000E+00  0.00000000E+00
  0.00000000E+00  0.00000000E+00  0.00000000E+00
  0.00000000E+00  0.00000000E+00  0.00000000E+00
  0.00000000E+00  0.00000000E+00  0.00000000E+00
  0.00000000E+00  0.00000000E+00  0.00000000E+00
  0.00000000E+00  0.00000000E+00  0.00000000E+00
  0.00000000E+00  0.00000000E+00  0.00000000E+00
  0.00000000E+00  0.00000000E+00  0.00000000E+00
  0.00000000E+00  0.00000000E+00  0.00000000E+00
  0.00000000E+00  0.00000000E+00  0.00000000E+00
  0.00000000E+00  0.00000000E+00  0.00000000E+00
