Sr41 Al67                               
   1.00000000000000     
    14.6591420053279577    0.0000000000000000    0.0000000000000000
     0.0000000000000000   14.6591420053279560    0.0000000000000000
     0.0000000000000000    0.0000000000000000   14.6591420053279560
   Sr   Al
    41    67
Direct
  0.6371816265744741  0.3628183734255259  0.1448907819061773
  0.6371816265744741  0.8551092180938227  0.3628183734255259
  0.1448907819061773  0.6371816265744741  0.6371816265744741
  0.3628183734255259  0.8551092180938227  0.6371816265744741
  0.0000000000000000  0.8095656471033195  0.0000000000000000
  0.8551092180938227  0.6371816265744741  0.6371816265744741
  0.1448907819061773  0.3628183734255259  0.3628183734255259
  0.6371816265744741  0.1448907819061773  0.3628183734255259
  0.8212002833908372  0.1787997166091628  0.1787997166091628
  0.8551092180938227  0.6371816265744741  0.3628183734255259
  0.0000000000000000  0.0000000000000000  0.1904343528966734
  0.6371816265744741  0.6371816265744741  0.1448907819061773
  0.3628183734255259  0.6371816265744741  0.8551092180938227
  0.1787997166091628  0.1787997166091628  0.8212002833908372
  0.6371816265744741  0.3628183734255259  0.8551092180938227
  0.0000000000000000  0.5000000000000000  0.0000000000000000
  0.6371816265744741  0.1448907819061773  0.6371816265744741
  0.1448907819061773  0.6371816265744741  0.3628183734255259
  0.8212002833908372  0.1787997166091628  0.8212002833908372
  0.1448907819061773  0.3628183734255259  0.6371816265744741
  0.1787997166091628  0.1787997166091628  0.1787997166091628
  0.6371816265744741  0.6371816265744741  0.8551092180938227
  0.6371816265744741  0.8551092180938227  0.6371816265744741
  0.8212002833908372  0.8212002833908372  0.1787997166091628
  0.1904343528966734  0.0000000000000000  0.0000000000000000
  0.3628183734255259  0.1448907819061773  0.6371816265744741
  0.8551092180938227  0.3628183734255259  0.6371816265744741
  0.0000000000000000  0.0000000000000000  0.5000000000000000
  0.1787997166091628  0.8212002833908372  0.1787997166091628
  0.3628183734255259  0.6371816265744741  0.1448907819061773
  0.0000000000000000  0.1904343528966734  0.0000000000000000
  0.1787997166091628  0.8212002833908372  0.8212002833908372
  0.8095656471033195  0.0000000000000000  0.0000000000000000
  0.3628183734255259  0.3628183734255259  0.8551092180938227
  0.3628183734255259  0.3628183734255259  0.1448907819061773
  0.3628183734255259  0.1448907819061773  0.3628183734255259
  0.5000000000000000  0.0000000000000000  0.0000000000000000
  0.8551092180938227  0.3628183734255259  0.3628183734255259
  0.3628183734255259  0.8551092180938227  0.3628183734255259
  0.0000000000000000  0.0000000000000000  0.8095656471033195
  0.8212002833908372  0.8212002833908372  0.8212002833908372
  0.5000000000000000  0.3592124077824934  0.3592124077824934
  0.8367251259327162  0.1632748740672838  0.5000000000000000
  0.3592124077824934  0.5000000000000000  0.6407875922175066
  0.7540409163582069  0.0000000000000000  0.5000000000000000
  0.6573787451895257  0.0000000000000000  0.8457940847308834
  0.8457940847308834  0.0000000000000000  0.6573787451895257
  0.5000000000000000  0.0000000000000000  0.2459590836417931
  0.3426212548104743  0.8457940847308834  0.0000000000000000
  0.0000000000000000  0.7540409163582069  0.5000000000000000
  0.2459590836417931  0.0000000000000000  0.5000000000000000
  0.6573787451895257  0.0000000000000000  0.1542059152691166
  0.5000000000000000  0.8367251259327162  0.1632748740672838
  0.7540409163582069  0.5000000000000000  0.0000000000000000
  0.1542059152691166  0.6573787451895257  0.0000000000000000
  0.8367251259327162  0.5000000000000000  0.1632748740672838
  0.2449322710872082  0.5000000000000000  0.5000000000000000
  0.1542059152691166  0.3426212548104743  0.0000000000000000
  0.5000000000000000  0.5000000000000000  0.2449322710872082
  0.5000000000000000  0.8367251259327162  0.8367251259327162
  0.5000000000000000  0.0000000000000000  0.7540409163582069
  0.3592124077824934  0.3592124077824934  0.5000000000000000
  0.5000000000000000  0.1632748740672838  0.1632748740672838
  0.5000000000000000  0.6407875922175066  0.3592124077824934
  0.3426212548104743  0.0000000000000000  0.1542059152691166
  0.1542059152691166  0.0000000000000000  0.6573787451895257
  0.8457940847308834  0.0000000000000000  0.3426212548104743
  0.1632748740672838  0.5000000000000000  0.1632748740672838
  0.0000000000000000  0.1542059152691166  0.6573787451895257
  0.3426212548104743  0.0000000000000000  0.8457940847308834
  0.0000000000000000  0.8457940847308834  0.3426212548104743
  0.1632748740672838  0.1632748740672838  0.5000000000000000
  0.5000000000000000  0.5000000000000000  0.5000000000000000
  0.5000000000000000  0.2459590836417931  0.0000000000000000
  0.5000000000000000  0.6407875922175066  0.6407875922175066
  0.6407875922175066  0.3592124077824934  0.5000000000000000
  0.1542059152691166  0.0000000000000000  0.3426212548104743
  0.6407875922175066  0.5000000000000000  0.6407875922175066
  0.5000000000000000  0.7540409163582069  0.0000000000000000
  0.0000000000000000  0.3426212548104743  0.8457940847308834
  0.0000000000000000  0.6573787451895257  0.8457940847308834
  0.5000000000000000  0.2449322710872082  0.5000000000000000
  0.5000000000000000  0.7550677289127918  0.5000000000000000
  0.8367251259327162  0.8367251259327162  0.5000000000000000
  0.0000000000000000  0.1542059152691166  0.3426212548104743
  0.1632748740672838  0.8367251259327162  0.5000000000000000
  0.0000000000000000  0.3426212548104743  0.1542059152691166
  0.0000000000000000  0.6573787451895257  0.1542059152691166
  0.0000000000000000  0.8457940847308834  0.6573787451895257
  0.3592124077824934  0.6407875922175066  0.5000000000000000
  0.6573787451895257  0.1542059152691166  0.0000000000000000
  0.8457940847308834  0.6573787451895257  0.0000000000000000
  0.2459590836417931  0.5000000000000000  0.0000000000000000
  0.3426212548104743  0.1542059152691166  0.0000000000000000
  0.6573787451895257  0.8457940847308834  0.0000000000000000
  0.8367251259327162  0.5000000000000000  0.8367251259327162
  0.7550677289127918  0.5000000000000000  0.5000000000000000
  0.0000000000000000  0.5000000000000000  0.2459590836417931
  0.5000000000000000  0.1632748740672838  0.8367251259327162
  0.5000000000000000  0.3592124077824934  0.6407875922175066
  0.3592124077824934  0.5000000000000000  0.3592124077824934
  0.0000000000000000  0.2459590836417931  0.5000000000000000
  0.8457940847308834  0.3426212548104743  0.0000000000000000
  0.1632748740672838  0.5000000000000000  0.8367251259327162
  0.6407875922175066  0.5000000000000000  0.3592124077824934
  0.6407875922175066  0.6407875922175066  0.5000000000000000
  0.5000000000000000  0.5000000000000000  0.7550677289127918
  0.0000000000000000  0.5000000000000000  0.7540409163582069
 
  0.00000000E+00  0.00000000E+00  0.00000000E+00
  0.00000000E+00  0.00000000E+00  0.00000000E+00
  0.00000000E+00  0.00000000E+00  0.00000000E+00
  0.00000000E+00  0.00000000E+00  0.00000000E+00
  0.00000000E+00  0.00000000E+00  0.00000000E+00
  0.00000000E+00  0.00000000E+00  0.00000000E+00
  0.00000000E+00  0.00000000E+00  0.00000000E+00
  0.00000000E+00  0.00000000E+00  0.00000000E+00
  0.00000000E+00  0.00000000E+00  0.00000000E+00
  0.00000000E+00  0.00000000E+00  0.00000000E+00
  0.00000000E+00  0.00000000E+00  0.00000000E+00
  0.00000000E+00  0.00000000E+00  0.00000000E+00
  0.00000000E+00  0.00000000E+00  0.00000000E+00
  0.00000000E+00  0.00000000E+00  0.00000000E+00
  0.00000000E+00  0.00000000E+00  0.00000000E+00
  0.00000000E+00  0.00000000E+00  0.00000000E+00
  0.00000000E+00  0.00000000E+00  0.00000000E+00
  0.00000000E+00  0.00000000E+00  0.00000000E+00
  0.00000000E+00  0.00000000E+00  0.00000000E+00
  0.00000000E+00  0.00000000E+00  0.00000000E+00
  0.00000000E+00  0.00000000E+00  0.00000000E+00
  0.00000000E+00  0.00000000E+00  0.00000000E+00
  0.00000000E+00  0.00000000E+00  0.00000000E+00
  0.00000000E+00  0.00000000E+00  0.00000000E+00
  0.00000000E+00  0.00000000E+00  0.00000000E+00
  0.00000000E+00  0.00000000E+00  0.00000000E+00
  0.00000000E+00  0.00000000E+00  0.00000000E+00
  0.00000000E+00  0.00000000E+00  0.00000000E+00
  0.00000000E+00  0.00000000E+00  0.00000000E+00
  0.00000000E+00  0.00000000E+00  0.00000000E+00
  0.00000000E+00  0.00000000E+00  0.00000000E+00
  0.00000000E+00  0.00000000E+00  0.00000000E+00
  0.00000000E+00  0.00000000E+00  0.00000000E+00
  0.00000000E+00  0.00000000E+00  0.00000000E+00
  0.00000000E+00  0.00000000E+00  0.00000000E+00
  0.00000000E+00  0.00000000E+00  0.00000000E+00
  0.00000000E+00  0.00000000E+00  0.00000000E+00
  0.00000000E+00  0.00000000E+00  0.00000000E+00
  0.00000000E+00  0.00000000E+00  0.00000000E+00
  0.00000000E+00  0.00000000E+00  0.00000000E+00
  0.00000000E+00  0.00000000E+00  0.00000000E+00
  0.00000000E+00  0.00000000E+00  0.00000000E+00
  0.00000000E+00  0.00000000E+00  0.00000000E+00
  0.00000000E+00  0.00000000E+00  0.00000000E+00
  0.00000000E+00  0.00000000E+00  0.00000000E+00
  0.00000000E+00  0.00000000E+00  0.00000000E+00
  0.00000000E+00  0.00000000E+00  0.00000000E+00
  0.00000000E+00  0.00000000E+00  0.00000000E+00
  0.00000000E+00  0.00000000E+00  0.00000000E+00
  0.00000000E+00  0.00000000E+00  0.00000000E+00
  0.00000000E+00  0.00000000E+00  0.00000000E+00
  0.00000000E+00  0.00000000E+00  0.00000000E+00
  0.00000000E+00  0.00000000E+00  0.00000000E+00
  0.00000000E+00  0.00000000E+00  0.00000000E+00
  0.00000000E+00  0.00000000E+00  0.00000000E+00
  0.00000000E+00  0.00000000E+00  0.00000000E+00
  0.00000000E+00  0.00000000E+00  0.00000000E+00
  0.00000000E+00  0.00000000E+00  0.00000000E+00
  0.00000000E+00  0.00000000E+00  0.00000000E+00
  0.00000000E+00  0.00000000E+00  0.00000000E+00
  0.00000000E+00  0.00000000E+00  0.00000000E+00
  0.00000000E+00  0.00000000E+00  0.00000000E+00
  0.00000000E+00  0.00000000E+00  0.00000000E+00
  0.00000000E+00  0.00000000E+00  0.00000000E+00
  0.00000000E+00  0.00000000E+00  0.00000000E+00
  0.00000000E+00  0.00000000E+00  0.00000000E+00
  0.00000000E+00  0.00000000E+00  0.00000000E+00
  0.00000000E+00  0.00000000E+00  0.00000000E+00
  0.00000000E+00  0.00000000E+00  0.00000000E+00
  0.00000000E+00  0.00000000E+00  0.00000000E+00
  0.00000000E+00  0.00000000E+00  0.00000000E+00
  0.00000000E+00  0.00000000E+00  0.00000000E+00
  0.00000000E+00  0.00000000E+00  0.00000000E+00
  0.00000000E+00  0.00000000E+00  0.00000000E+00
  0.00000000E+00  0.00000000E+00  0.00000000E+00
  0.00000000E+00  0.00000000E+00  0.00000000E+00
  0.00000000E+00  0.00000000E+00  0.00000000E+00
  0.00000000E+00  0.00000000E+00  0.00000000E+00
  0.00000000E+00  0.00000000E+00  0.00000000E+00
  0.00000000E+00  0.00000000E+00  0.00000000E+00
  0.00000000E+00  0.00000000E+00  0.00000000E+00
  0.00000000E+00  0.00000000E+00  0.00000000E+00
  0.00000000E+00  0.00000000E+00  0.00000000E+00
  0.00000000E+00  0.00000000E+00  0.00000000E+00
  0.00000000E+00  0.00000000E+00  0.00000000E+00
  0.00000000E+00  0.00000000E+00  0.00000000E+00
  0.00000000E+00  0.00000000E+00  0.00000000E+00
  0.00000000E+00  0.00000000E+00  0.00000000E+00
  0.00000000E+00  0.00000000E+00  0.00000000E+00
  0.00000000E+00  0.00000000E+00  0.00000000E+00
  0.00000000E+00  0.00000000E+00  0.00000000E+00
  0.00000000E+00  0.00000000E+00  0.00000000E+00
  0.00000000E+00  0.00000000E+00  0.00000000E+00
  0.00000000E+00  0.00000000E+00  0.00000000E+00
  0.00000000E+00  0.00000000E+00  0.00000000E+00
  0.00000000E+00  0.00000000E+00  0.00000000E+00
  0.00000000E+00  0.00000000E+00  0.00000000E+00
  0.00000000E+00  0.00000000E+00  0.00000000E+00
  0.00000000E+00  0.00000000E+00  0.00000000E+00
  0.00000000E+00  0.00000000E+00  0.00000000E+00
  0.00000000E+00  0.00000000E+00  0.00000000E+00
  0.00000000E+00  0.00000000E+00  0.00000000E+00
  0.00000000E+00  0.00000000E+00  0.00000000E+00
  0.00000000E+00  0.00000000E+00  0.00000000E+00
  0.00000000E+00  0.00000000E+00  0.00000000E+00
  0.00000000E+00  0.00000000E+00  0.00000000E+00
  0.00000000E+00  0.00000000E+00  0.00000000E+00
  0.00000000E+00  0.00000000E+00  0.00000000E+00
