Ba1 Al2 F4                              
   1.00000000000000     
    -2.5526753023146225    2.5526753023146234    6.1826130986077983
     2.5526753023146234   -2.5526753023146225    6.1826130986077983
     2.5526753023146225    2.5526753023146225   -6.1826130986077983
   Ba   F    Al
     1     4     2
Direct
  0.0000000000000000  0.0000000000000000  0.0000000000000000
  0.2172869156723181  0.2172869156723181  0.0000000000000000
  0.7827130843276819  0.7827130843276819  0.0000000000000000
  0.5000000000000000  0.0000000000000000  0.5000000000000000
  0.0000000000000000  0.5000000000000000  0.5000000000000000
  0.3594911446823161  0.3594911446823161  0.0000000000000000
  0.6405088553176839  0.6405088553176839  0.0000000000000000
 
  0.00000000E+00  0.00000000E+00  0.00000000E+00
  0.00000000E+00  0.00000000E+00  0.00000000E+00
  0.00000000E+00  0.00000000E+00  0.00000000E+00
  0.00000000E+00  0.00000000E+00  0.00000000E+00
  0.00000000E+00  0.00000000E+00  0.00000000E+00
  0.00000000E+00  0.00000000E+00  0.00000000E+00
  0.00000000E+00  0.00000000E+00  0.00000000E+00
