Mg16 Al16 F80                           
   1.0000000000000000     
    13.1192570854501973    0.0000002874935694    0.0000000000000008
    -0.0000002874935699   13.1192570854501973    0.0000000000000008
     0.0000000000000000    0.0000000000000000    6.6791316003534993
   Mg   Al   F 
    16    16    80
Direct
  0.5700636551166340  0.7223231208743144  0.5484874453417632
  0.2223231208743144  0.9299363448833660  0.0484874453417632
  0.7776768791256785  0.0700636551166269  0.0484874453417632
  0.4299363448833731  0.2776768791256785  0.5484874453417632
  0.2692957934731268  0.0858126338870235  0.5484185433948241
  0.5858126338870235  0.2307042065268732  0.0484185433948241
  0.4141873661129836  0.7692957934731268  0.0484185433948241
  0.7307042065268732  0.9141873661129765  0.5484185433948241
  0.0700636551166269  0.2223231208743144  0.0484874453417632
  0.7223231208743144  0.4299363448833731  0.5484874453417632
  0.2776768791256785  0.5700636551166340  0.5484874453417632
  0.9299363448833660  0.7776768791256785  0.0484874453417632
  0.7692957934731268  0.5858126338870235  0.0484185433948241
  0.0858126338870235  0.7307042065268732  0.5484185433948241
  0.9141873661129765  0.2692957934731268  0.5484185433948241
  0.2307042065268732  0.4141873661129836  0.0484185433948241
  0.0000000000000000  0.0000000000000000  0.5497723388689408
  0.0000000000000000  0.0000000000000000  0.0498260924553193
  0.5000000000000000  0.0000000000000000  0.0487558542061919
  0.5000000000000000  0.0000000000000000  0.5487558542061919
  0.3384754118429925  0.1926677107839581  0.0484569216664283
  0.6926677107839581  0.1615245881570004  0.5484569216664283
  0.3073322892160348  0.8384754118429996  0.5484569216664283
  0.6615245881570004  0.8073322892160419  0.0484569216664283
  0.5000000000000000  0.5000000000000000  0.0497723388689266
  0.5000000000000000  0.5000000000000000  0.5498260924553193
  0.0000000000000000  0.5000000000000000  0.5487558542061919
  0.0000000000000000  0.5000000000000000  0.0487558542061919
  0.8384754118429996  0.6926677107839581  0.5484569216664283
  0.1926677107839581  0.6615245881570004  0.0484569216664283
  0.8073322892160419  0.3384754118429925  0.0484569216664283
  0.1615245881570004  0.3073322892160348  0.5484569216664283
  0.0000000000000000  0.0000000000000000  0.8005958027349038
  0.0000000000000000  0.0000000000000000  0.2989453847403851
  0.1306534354178055  0.0489140785086093  0.5496809269863192
  0.5489140785086022  0.3693465645821945  0.0496809269863121
  0.4510859214913907  0.6306534354178055  0.0496809269863121
  0.8693465645821945  0.9510859214913978  0.5496809269863192
  0.1272054822415569  0.0541446620958013  0.0495021986002016
  0.5541446620958084  0.3727945177584360  0.5495021986001944
  0.4458553379041987  0.6272054822415640  0.5495021986001944
  0.8727945177584360  0.9458553379041916  0.0495021986002016
  0.5000000000000000  0.0000000000000000  0.7987538060311223
  0.5000000000000000  0.0000000000000000  0.2987538060311223
  0.4640120862714951  0.1321777389886734  0.0486304277990470
  0.6321777389886734  0.0359879137285049  0.5486304277990470
  0.3678222610113266  0.9640120862715023  0.5486304277990470
  0.5359879137284977  0.8678222610113266  0.0486304277990470
  0.4428025309129708  0.1267112392858465  0.5487171630081988
  0.6267112392858465  0.0571974690870221  0.0487171630081988
  0.3732887607141535  0.9428025309129708  0.0487171630081988
  0.5571974690870292  0.8732887607141535  0.5487171630081988
  0.3961751737287074  0.2701255128850732  0.8476068228677249
  0.7701255128850804  0.1038248262712997  0.3476068228677178
  0.2298744871149268  0.8961751737287074  0.3476068228677178
  0.6038248262712926  0.7298744871149196  0.8476068228677249
  0.3961080058940638  0.2700315984117978  0.2494013353459223
  0.7700315984117978  0.1038919941059362  0.7494013353459223
  0.2299684015882093  0.8961080058940638  0.7494013353459223
  0.6038919941059362  0.7299684015882022  0.2494013353459223
  0.2953646902034492  0.1040319669077547  0.8534641430299104
  0.6040319669077618  0.2046353097965508  0.3534641430299104
  0.3959680330922453  0.7953646902034350  0.3534641430299104
  0.7046353097965650  0.8959680330922382  0.8534641430299104
  0.2953931486217058  0.1039702988018760  0.2433472230477278
  0.6039702988018831  0.2046068513782942  0.7433472230477278
  0.3960297011981240  0.7953931486216987  0.7433472230477278
  0.7046068513783013  0.8960297011981169  0.2433472230477278
  0.7238428359484743  0.7636784057920210  0.5485908640932919
  0.2636784057920210  0.7761571640515115  0.0485908640932919
  0.7363215942079790  0.2238428359484814  0.0485908640932919
  0.2761571640515115  0.2363215942079790  0.5485908640932919
  0.5000000000000000  0.5000000000000000  0.3005958027349038
  0.5000000000000000  0.5000000000000000  0.7989453847403993
  0.6306534354178055  0.5489140785086022  0.0496809269863121
  0.0489140785086093  0.8693465645821945  0.5496809269863192
  0.9510859214913978  0.1306534354178055  0.5496809269863192
  0.3693465645821945  0.4510859214913907  0.0496809269863121
  0.6272054822415640  0.5541446620958084  0.5495021986001944
  0.0541446620958013  0.8727945177584360  0.0495021986002016
  0.9458553379041916  0.1272054822415569  0.0495021986002016
  0.3727945177584360  0.4458553379041987  0.5495021986001944
  0.0000000000000000  0.5000000000000000  0.2987538060311223
  0.0000000000000000  0.5000000000000000  0.7987538060311223
  0.9640120862715023  0.6321777389886734  0.5486304277990470
  0.1321777389886734  0.5359879137284977  0.0486304277990470
  0.8678222610113266  0.4640120862714951  0.0486304277990470
  0.0359879137285049  0.3678222610113266  0.5486304277990470
  0.9428025309129708  0.6267112392858465  0.0487171630081988
  0.1267112392858465  0.5571974690870292  0.5487171630081988
  0.8732887607141535  0.4428025309129708  0.5487171630081988
  0.0571974690870221  0.3732887607141535  0.0487171630081988
  0.8961751737287074  0.7701255128850804  0.3476068228677178
  0.2701255128850732  0.6038248262712926  0.8476068228677249
  0.7298744871149196  0.3961751737287074  0.8476068228677249
  0.1038248262712997  0.2298744871149268  0.3476068228677178
  0.8961080058940638  0.7700315984117978  0.7494013353459223
  0.2700315984117978  0.6038919941059362  0.2494013353459223
  0.7299684015882022  0.3961080058940638  0.2494013353459223
  0.1038919941059362  0.2299684015882093  0.7494013353459223
  0.7953646902034350  0.6040319669077618  0.3534641430299104
  0.1040319669077547  0.7046353097965650  0.8534641430299104
  0.8959680330922382  0.2953646902034492  0.8534641430299104
  0.2046353097965508  0.3959680330922453  0.3534641430299104
  0.7953931486216987  0.6039702988018831  0.7433472230477278
  0.1039702988018760  0.7046068513783013  0.2433472230477278
  0.8960297011981169  0.2953931486217058  0.2433472230477278
  0.2046068513782942  0.3960297011981240  0.7433472230477278
  0.2238428359484814  0.2636784057920210  0.0485908640932919
  0.7636784057920210  0.2761571640515115  0.5485908640932919
  0.2363215942079790  0.7238428359484743  0.5485908640932919
  0.7761571640515115  0.7363215942079790  0.0485908640932919

  0.00000000E+00  0.00000000E+00  0.00000000E+00
  0.00000000E+00  0.00000000E+00  0.00000000E+00
  0.00000000E+00  0.00000000E+00  0.00000000E+00
  0.00000000E+00  0.00000000E+00  0.00000000E+00
  0.00000000E+00  0.00000000E+00  0.00000000E+00
  0.00000000E+00  0.00000000E+00  0.00000000E+00
  0.00000000E+00  0.00000000E+00  0.00000000E+00
  0.00000000E+00  0.00000000E+00  0.00000000E+00
  0.00000000E+00  0.00000000E+00  0.00000000E+00
  0.00000000E+00  0.00000000E+00  0.00000000E+00
  0.00000000E+00  0.00000000E+00  0.00000000E+00
  0.00000000E+00  0.00000000E+00  0.00000000E+00
  0.00000000E+00  0.00000000E+00  0.00000000E+00
  0.00000000E+00  0.00000000E+00  0.00000000E+00
  0.00000000E+00  0.00000000E+00  0.00000000E+00
  0.00000000E+00  0.00000000E+00  0.00000000E+00
  0.00000000E+00  0.00000000E+00  0.00000000E+00
  0.00000000E+00  0.00000000E+00  0.00000000E+00
  0.00000000E+00  0.00000000E+00  0.00000000E+00
  0.00000000E+00  0.00000000E+00  0.00000000E+00
  0.00000000E+00  0.00000000E+00  0.00000000E+00
  0.00000000E+00  0.00000000E+00  0.00000000E+00
  0.00000000E+00  0.00000000E+00  0.00000000E+00
  0.00000000E+00  0.00000000E+00  0.00000000E+00
  0.00000000E+00  0.00000000E+00  0.00000000E+00
  0.00000000E+00  0.00000000E+00  0.00000000E+00
  0.00000000E+00  0.00000000E+00  0.00000000E+00
  0.00000000E+00  0.00000000E+00  0.00000000E+00
  0.00000000E+00  0.00000000E+00  0.00000000E+00
  0.00000000E+00  0.00000000E+00  0.00000000E+00
  0.00000000E+00  0.00000000E+00  0.00000000E+00
  0.00000000E+00  0.00000000E+00  0.00000000E+00
  0.00000000E+00  0.00000000E+00  0.00000000E+00
  0.00000000E+00  0.00000000E+00  0.00000000E+00
  0.00000000E+00  0.00000000E+00  0.00000000E+00
  0.00000000E+00  0.00000000E+00  0.00000000E+00
  0.00000000E+00  0.00000000E+00  0.00000000E+00
  0.00000000E+00  0.00000000E+00  0.00000000E+00
  0.00000000E+00  0.00000000E+00  0.00000000E+00
  0.00000000E+00  0.00000000E+00  0.00000000E+00
  0.00000000E+00  0.00000000E+00  0.00000000E+00
  0.00000000E+00  0.00000000E+00  0.00000000E+00
  0.00000000E+00  0.00000000E+00  0.00000000E+00
  0.00000000E+00  0.00000000E+00  0.00000000E+00
  0.00000000E+00  0.00000000E+00  0.00000000E+00
  0.00000000E+00  0.00000000E+00  0.00000000E+00
  0.00000000E+00  0.00000000E+00  0.00000000E+00
  0.00000000E+00  0.00000000E+00  0.00000000E+00
  0.00000000E+00  0.00000000E+00  0.00000000E+00
  0.00000000E+00  0.00000000E+00  0.00000000E+00
  0.00000000E+00  0.00000000E+00  0.00000000E+00
  0.00000000E+00  0.00000000E+00  0.00000000E+00
  0.00000000E+00  0.00000000E+00  0.00000000E+00
  0.00000000E+00  0.00000000E+00  0.00000000E+00
  0.00000000E+00  0.00000000E+00  0.00000000E+00
  0.00000000E+00  0.00000000E+00  0.00000000E+00
  0.00000000E+00  0.00000000E+00  0.00000000E+00
  0.00000000E+00  0.00000000E+00  0.00000000E+00
  0.00000000E+00  0.00000000E+00  0.00000000E+00
  0.00000000E+00  0.00000000E+00  0.00000000E+00
  0.00000000E+00  0.00000000E+00  0.00000000E+00
  0.00000000E+00  0.00000000E+00  0.00000000E+00
  0.00000000E+00  0.00000000E+00  0.00000000E+00
  0.00000000E+00  0.00000000E+00  0.00000000E+00
  0.00000000E+00  0.00000000E+00  0.00000000E+00
  0.00000000E+00  0.00000000E+00  0.00000000E+00
  0.00000000E+00  0.00000000E+00  0.00000000E+00
  0.00000000E+00  0.00000000E+00  0.00000000E+00
  0.00000000E+00  0.00000000E+00  0.00000000E+00
  0.00000000E+00  0.00000000E+00  0.00000000E+00
  0.00000000E+00  0.00000000E+00  0.00000000E+00
  0.00000000E+00  0.00000000E+00  0.00000000E+00
  0.00000000E+00  0.00000000E+00  0.00000000E+00
  0.00000000E+00  0.00000000E+00  0.00000000E+00
  0.00000000E+00  0.00000000E+00  0.00000000E+00
  0.00000000E+00  0.00000000E+00  0.00000000E+00
  0.00000000E+00  0.00000000E+00  0.00000000E+00
  0.00000000E+00  0.00000000E+00  0.00000000E+00
  0.00000000E+00  0.00000000E+00  0.00000000E+00
  0.00000000E+00  0.00000000E+00  0.00000000E+00
  0.00000000E+00  0.00000000E+00  0.00000000E+00
  0.00000000E+00  0.00000000E+00  0.00000000E+00
  0.00000000E+00  0.00000000E+00  0.00000000E+00
  0.00000000E+00  0.00000000E+00  0.00000000E+00
  0.00000000E+00  0.00000000E+00  0.00000000E+00
  0.00000000E+00  0.00000000E+00  0.00000000E+00
  0.00000000E+00  0.00000000E+00  0.00000000E+00
  0.00000000E+00  0.00000000E+00  0.00000000E+00
  0.00000000E+00  0.00000000E+00  0.00000000E+00
  0.00000000E+00  0.00000000E+00  0.00000000E+00
  0.00000000E+00  0.00000000E+00  0.00000000E+00
  0.00000000E+00  0.00000000E+00  0.00000000E+00
  0.00000000E+00  0.00000000E+00  0.00000000E+00
  0.00000000E+00  0.00000000E+00  0.00000000E+00
  0.00000000E+00  0.00000000E+00  0.00000000E+00
  0.00000000E+00  0.00000000E+00  0.00000000E+00
  0.00000000E+00  0.00000000E+00  0.00000000E+00
  0.00000000E+00  0.00000000E+00  0.00000000E+00
  0.00000000E+00  0.00000000E+00  0.00000000E+00
  0.00000000E+00  0.00000000E+00  0.00000000E+00
  0.00000000E+00  0.00000000E+00  0.00000000E+00
  0.00000000E+00  0.00000000E+00  0.00000000E+00
  0.00000000E+00  0.00000000E+00  0.00000000E+00
  0.00000000E+00  0.00000000E+00  0.00000000E+00
  0.00000000E+00  0.00000000E+00  0.00000000E+00
  0.00000000E+00  0.00000000E+00  0.00000000E+00
  0.00000000E+00  0.00000000E+00  0.00000000E+00
  0.00000000E+00  0.00000000E+00  0.00000000E+00
  0.00000000E+00  0.00000000E+00  0.00000000E+00
  0.00000000E+00  0.00000000E+00  0.00000000E+00
  0.00000000E+00  0.00000000E+00  0.00000000E+00
  0.00000000E+00  0.00000000E+00  0.00000000E+00
