Ca8                                     
   1.00000000000000     
     4.5407982130730780    0.0000000000000000    0.0000000000000000
     0.0000000000000000    4.5407982130730780    0.0000000000000000
     0.0000000000000000    0.0000000000000000   16.3213385082987337
   Ca
     8
Direct
  0.0003061333368350  0.4991088510624166  0.6874726095767087
  0.9996938666631650  0.5008911489375834  0.1874726095767087
  0.9991088510624166  0.4996938666631650  0.4374726095767087
  0.0008911489375834  0.5003061333368422  0.9374726095767087
  0.5008911489375834  0.9996938666631650  0.8125273904232913
  0.4991088510624166  0.0003061333368350  0.3125273904232913
  0.4996938666631650  0.9991088510624166  0.5625273904232913
  0.5003061333368422  0.0008911489375834  0.0625273904232984
 
  0.00000000E+00  0.00000000E+00  0.00000000E+00
  0.00000000E+00  0.00000000E+00  0.00000000E+00
  0.00000000E+00  0.00000000E+00  0.00000000E+00
  0.00000000E+00  0.00000000E+00  0.00000000E+00
  0.00000000E+00  0.00000000E+00  0.00000000E+00
  0.00000000E+00  0.00000000E+00  0.00000000E+00
  0.00000000E+00  0.00000000E+00  0.00000000E+00
  0.00000000E+00  0.00000000E+00  0.00000000E+00
