Ba4 In4 F20                             
   1.0000000000000000     
     9.3705197719513720    0.0000000000000000    0.0000000000000000
     0.0000000000000000    5.6473984835747455   -0.0213443437519142
     0.0000000000000000    2.5574756098185825    8.3140879523494515
   Ba   In   F 
     4     4    20
Direct
  0.0212834764021750  0.4724217359209533  0.2595503454723982
  0.5212834764021750  0.5275782640790467  0.2404496545276018
  0.9787165235978250  0.5275782640790467  0.7404496545275947
  0.4787165235978250  0.4724217359209533  0.7595503454724053
  0.7564472339693538  0.1071548529923945  0.5741319360049175
  0.2564472339693609  0.8928451470076055  0.9258680639950825
  0.2435527660306391  0.8928451470076055  0.4258680639950754
  0.7435527660306462  0.1071548529923945  0.0741319360049246
  0.5513630044830293  0.2446341121145892  0.5385819214914704
  0.0513630044830151  0.7553658878854108  0.9614180785085296
  0.4486369955169778  0.7553658878854108  0.4614180785085296
  0.9486369955169707  0.2446341121145892  0.0385819214914704
  0.7574438889314621  0.1731102255533301  0.3131663152406574
  0.2574438889314550  0.8268897744466628  0.1868336847593426
  0.2425561110685450  0.8268897744466628  0.6868336847593497
  0.7425561110685379  0.1731102255533301  0.8131663152406503
  0.4657391456841751  0.9676246189941864  0.8546326858782436
  0.9657391456841751  0.0323753810058065  0.6453673141217564
  0.5342608543158249  0.0323753810058065  0.1453673141217564
  0.0342608543158249  0.9676246189941864  0.3546326858782436
  0.7127028896352243  0.7398300021754949  0.6625587664700419
  0.2127028896352243  0.2601699978245122  0.8374412335299581
  0.2872971103647757  0.2601699978245122  0.3374412335299510
  0.7872971103647757  0.7398300021754949  0.1625587664700561
  0.3354247442106697  0.5309847931102780  0.0102270823301325
  0.8354247442106626  0.4690152068897149  0.4897729176698675
  0.6645752557893374  0.4690152068897149  0.9897729176698604
  0.1645752557893232  0.5309847931102780  0.5102270823301396

  0.00000000E+00  0.00000000E+00  0.00000000E+00
  0.00000000E+00  0.00000000E+00  0.00000000E+00
  0.00000000E+00  0.00000000E+00  0.00000000E+00
  0.00000000E+00  0.00000000E+00  0.00000000E+00
  0.00000000E+00  0.00000000E+00  0.00000000E+00
  0.00000000E+00  0.00000000E+00  0.00000000E+00
  0.00000000E+00  0.00000000E+00  0.00000000E+00
  0.00000000E+00  0.00000000E+00  0.00000000E+00
  0.00000000E+00  0.00000000E+00  0.00000000E+00
  0.00000000E+00  0.00000000E+00  0.00000000E+00
  0.00000000E+00  0.00000000E+00  0.00000000E+00
  0.00000000E+00  0.00000000E+00  0.00000000E+00
  0.00000000E+00  0.00000000E+00  0.00000000E+00
  0.00000000E+00  0.00000000E+00  0.00000000E+00
  0.00000000E+00  0.00000000E+00  0.00000000E+00
  0.00000000E+00  0.00000000E+00  0.00000000E+00
  0.00000000E+00  0.00000000E+00  0.00000000E+00
  0.00000000E+00  0.00000000E+00  0.00000000E+00
  0.00000000E+00  0.00000000E+00  0.00000000E+00
  0.00000000E+00  0.00000000E+00  0.00000000E+00
  0.00000000E+00  0.00000000E+00  0.00000000E+00
  0.00000000E+00  0.00000000E+00  0.00000000E+00
  0.00000000E+00  0.00000000E+00  0.00000000E+00
  0.00000000E+00  0.00000000E+00  0.00000000E+00
  0.00000000E+00  0.00000000E+00  0.00000000E+00
  0.00000000E+00  0.00000000E+00  0.00000000E+00
  0.00000000E+00  0.00000000E+00  0.00000000E+00
  0.00000000E+00  0.00000000E+00  0.00000000E+00
