F4                                      
   1.00000000000000     
     2.6935024630727344    0.0613586657254882    0.6418679864280223
     1.2868700618589859    2.3669993554804534    0.6418679815313797
     0.1513784258215947    0.0923540848080079    6.8918625868294265
   F 
     4
Direct
  0.4964843588992167  0.4964843589095338  0.3981417193730650
  0.9118720278171395  0.9118720278069716  0.1019910106311599
  0.5035156411007904  0.5035156410904662  0.6018582806269421
  0.0881279721828605  0.0881279721930284  0.8980089893688472
 
  0.00000000E+00  0.00000000E+00  0.00000000E+00
  0.00000000E+00  0.00000000E+00  0.00000000E+00
  0.00000000E+00  0.00000000E+00  0.00000000E+00
  0.00000000E+00  0.00000000E+00  0.00000000E+00
