CaTlCl3                                 
   1.0000000000000000     
     7.3203082691367758   -0.0015366430851444   -0.0012473143960724
    -3.6609575804035002    6.3457001522206475    0.0001092301573462
    -3.6603896616042628   -2.1150994001116619    7.1595785279419140
   Ca   Cl   Tl
     2     6     2
Direct
  0.6781854659924846  0.3389693931375177  0.0174434926926281
  0.3218241940015005  0.6609505894406595  0.9824620892478890
  0.7572339517680788  0.0612004149746710  0.2191500695936668
  0.5229505145598594  0.4620985009019520  0.2190229389428069
  0.1575718334941030  0.6966362404800179  0.2184334931529008
  0.8424418955522412  0.3033048062287449  0.7814697020519290
  0.4770201439757145  0.5377877569193146  0.7808595732855821
  0.2427777467383834  0.9387044110694518  0.7807229537838936
  0.2826632224831798  0.1413620317848086  0.4236146623037840
  0.7173310314344477  0.8585858550628487  0.5763210249449244

  0.00000000E+00  0.00000000E+00  0.00000000E+00
  0.00000000E+00  0.00000000E+00  0.00000000E+00
  0.00000000E+00  0.00000000E+00  0.00000000E+00
  0.00000000E+00  0.00000000E+00  0.00000000E+00
  0.00000000E+00  0.00000000E+00  0.00000000E+00
  0.00000000E+00  0.00000000E+00  0.00000000E+00
  0.00000000E+00  0.00000000E+00  0.00000000E+00
  0.00000000E+00  0.00000000E+00  0.00000000E+00
  0.00000000E+00  0.00000000E+00  0.00000000E+00
  0.00000000E+00  0.00000000E+00  0.00000000E+00
