Mg4 In4 F20                             
   1.0000000000000000     
     0.0000000000000000    5.2123675400205425   -0.2650904728013782
     7.8143644041164757    0.0000000000000000    0.0000000000000000
     0.0000000000000000    0.1932299774031687   -7.6164465301586235
   Mg   In   F 
     4     4    20
Direct
  0.4868948243115128  0.2769119723054274  0.3809615415272347
  0.5131051756884872  0.7769119723054274  0.6190384584727653
  0.9608294950825993  0.0479416867702440  0.1694465712635989
  0.0391705049174007  0.5479416867702440  0.8305534287363940
  0.5014303624082785  0.6961713160849143  0.0718780600249858
  0.4985696375917215  0.1961713160849143  0.9281219399750142
  0.9886481880222533  0.6077470355480727  0.3702586321391053
  0.0113518119777396  0.1077470355480727  0.6297413678608947
  0.3094861570853382  0.9595809995958078  0.5223983418817184
  0.2327419239590185  0.5927633422085776  0.5939201856515339
  0.7672580760409815  0.0927633422085776  0.4060798143484590
  0.7025283074004705  0.6565608665051954  0.8135171433886512
  0.8780928316638636  0.5711427751601974  0.0939935357561126
  0.6630157262391236  0.9451931375350142  0.0631039477909425
  0.8568969141413660  0.3240382914961231  0.7879590330157953
  0.6135697277001739  0.7479154941806456  0.3314123991727627
  0.1219071683361364  0.0711427751601974  0.9060064642438803
  0.8911286644290115  0.8057009183214134  0.5558350152643285
  0.3369842737608764  0.4451931375350213  0.9368960522090575
  0.6905138429146618  0.4595809995958078  0.4776016581182816
  0.6650922975311389  0.0054760289857825  0.7525380008106808
  0.7456683567378519  0.2604551153026051  0.1294748833484221
  0.1088713355709885  0.3057009183214134  0.4441649847356715
  0.1431030858586340  0.8240382914961231  0.2120409669842047
  0.2974716925995295  0.1565608665051954  0.1864828566113417
  0.2543316432621410  0.7604551153026051  0.8705251166515779
  0.3864302722998261  0.2479154941806456  0.6685876008272373
  0.3349077024688611  0.5054760289857754  0.2474619991893263

  0.00000000E+00  0.00000000E+00  0.00000000E+00
  0.00000000E+00  0.00000000E+00  0.00000000E+00
  0.00000000E+00  0.00000000E+00  0.00000000E+00
  0.00000000E+00  0.00000000E+00  0.00000000E+00
  0.00000000E+00  0.00000000E+00  0.00000000E+00
  0.00000000E+00  0.00000000E+00  0.00000000E+00
  0.00000000E+00  0.00000000E+00  0.00000000E+00
  0.00000000E+00  0.00000000E+00  0.00000000E+00
  0.00000000E+00  0.00000000E+00  0.00000000E+00
  0.00000000E+00  0.00000000E+00  0.00000000E+00
  0.00000000E+00  0.00000000E+00  0.00000000E+00
  0.00000000E+00  0.00000000E+00  0.00000000E+00
  0.00000000E+00  0.00000000E+00  0.00000000E+00
  0.00000000E+00  0.00000000E+00  0.00000000E+00
  0.00000000E+00  0.00000000E+00  0.00000000E+00
  0.00000000E+00  0.00000000E+00  0.00000000E+00
  0.00000000E+00  0.00000000E+00  0.00000000E+00
  0.00000000E+00  0.00000000E+00  0.00000000E+00
  0.00000000E+00  0.00000000E+00  0.00000000E+00
  0.00000000E+00  0.00000000E+00  0.00000000E+00
  0.00000000E+00  0.00000000E+00  0.00000000E+00
  0.00000000E+00  0.00000000E+00  0.00000000E+00
  0.00000000E+00  0.00000000E+00  0.00000000E+00
  0.00000000E+00  0.00000000E+00  0.00000000E+00
  0.00000000E+00  0.00000000E+00  0.00000000E+00
  0.00000000E+00  0.00000000E+00  0.00000000E+00
  0.00000000E+00  0.00000000E+00  0.00000000E+00
  0.00000000E+00  0.00000000E+00  0.00000000E+00
