Ca4 Tl4 F20                             
   1.0000000000000000     
     4.2106336187588242    0.0000000000000000    0.0000000000000003
    -0.0000000000000003    5.4057742560963788    0.0000000000000003
    -0.0000000000000001    0.0000000000000000   15.1331513359686358
   Ca   Tl   F 
     4     4    20
Direct
  0.7721012168207011  0.5299989792092603  0.6817757977227785
  0.2721012168207011  0.9700010207907397  0.3182242022772215
  0.2278987831792989  0.0299989792092603  0.8182242022772215
  0.7278987831792989  0.4700010207907397  0.1817757977227785
  0.2678002411054479  0.9998245855540517  0.5752711406986606
  0.7678002411054479  0.5001754144459483  0.4247288593013394
  0.7321997588945521  0.4998245855540517  0.9247288593013394
  0.2321997588945521  0.0001754144459483  0.0752711406986606
  0.0530323808387720  0.6273638694681196  0.5420294296099613
  0.5530323808387720  0.8726361305318804  0.4579705703900387
  0.9469676191612280  0.1273638694681196  0.9579705703900387
  0.4469676191612280  0.3726361305318733  0.0420294296099613
  0.7749678175470862  0.7513064446555049  0.3003427035570994
  0.2749678175470862  0.7486935553444951  0.6996572964428935
  0.2250321824529138  0.2513064446555049  0.1996572964428935
  0.7250321824529138  0.2486935553444951  0.8003427035570994
  0.2224894644659798  0.2648198207701711  0.6867901526601798
  0.7224894644659727  0.2351801792298218  0.3132098473398202
  0.7775105355340273  0.7648198207701711  0.8132098473398202
  0.2775105355340202  0.7351801792298289  0.1867901526601798
  0.7608185909587846  0.9601756342669603  0.6335942706030622
  0.2608185909587846  0.5398243657330397  0.3664057293969378
  0.2391814090412154  0.4601756342669603  0.8664057293969378
  0.7391814090412154  0.0398243657330397  0.1335942706030622
  0.5662726099705822  0.3560626379172191  0.5488928111621831
  0.0662726099705822  0.1439373620827809  0.4511071888378169
  0.4337273900294178  0.8560626379172263  0.9511071888378169
  0.9337273900294178  0.6439373620827737  0.0488928111621831

  0.00000000E+00  0.00000000E+00  0.00000000E+00
  0.00000000E+00  0.00000000E+00  0.00000000E+00
  0.00000000E+00  0.00000000E+00  0.00000000E+00
  0.00000000E+00  0.00000000E+00  0.00000000E+00
  0.00000000E+00  0.00000000E+00  0.00000000E+00
  0.00000000E+00  0.00000000E+00  0.00000000E+00
  0.00000000E+00  0.00000000E+00  0.00000000E+00
  0.00000000E+00  0.00000000E+00  0.00000000E+00
  0.00000000E+00  0.00000000E+00  0.00000000E+00
  0.00000000E+00  0.00000000E+00  0.00000000E+00
  0.00000000E+00  0.00000000E+00  0.00000000E+00
  0.00000000E+00  0.00000000E+00  0.00000000E+00
  0.00000000E+00  0.00000000E+00  0.00000000E+00
  0.00000000E+00  0.00000000E+00  0.00000000E+00
  0.00000000E+00  0.00000000E+00  0.00000000E+00
  0.00000000E+00  0.00000000E+00  0.00000000E+00
  0.00000000E+00  0.00000000E+00  0.00000000E+00
  0.00000000E+00  0.00000000E+00  0.00000000E+00
  0.00000000E+00  0.00000000E+00  0.00000000E+00
  0.00000000E+00  0.00000000E+00  0.00000000E+00
  0.00000000E+00  0.00000000E+00  0.00000000E+00
  0.00000000E+00  0.00000000E+00  0.00000000E+00
  0.00000000E+00  0.00000000E+00  0.00000000E+00
  0.00000000E+00  0.00000000E+00  0.00000000E+00
  0.00000000E+00  0.00000000E+00  0.00000000E+00
  0.00000000E+00  0.00000000E+00  0.00000000E+00
  0.00000000E+00  0.00000000E+00  0.00000000E+00
  0.00000000E+00  0.00000000E+00  0.00000000E+00
