Ba1 Tl2 Br10                            
   1.0000000000000000     
     4.2138477301382853    6.3075510981972691    0.0962757886105674
    -4.2138477301382853    6.3075510981972691    0.0962757886105674
     0.0000000000000000    4.6113971722013538   10.6687826072045144
   Ba   Tl   Br
     1     2    10
Direct
  0.5936628235572172  0.4063371764427828  0.0000000000000000
  0.0276375974540741  0.9117412253276242  0.7528675033334480
  0.0882587746723758  0.9723624025459259  0.2471324966665520
  0.1329252842242994  0.3129155376631516  0.6381420956370008
  0.6870844623368484  0.8670747157757006  0.3618579043629992
  0.6571774012200180  0.8477857910638917  0.8806090724637201
  0.1522142089361083  0.3428225987799962  0.1193909275362799
  0.9859862547354794  0.0140137452645206  0.0000000000000000
  0.0642498688796564  0.9357501311203436  0.5000000000000000
  0.7688772051401855  0.4423427324762699  0.6859487252389656
  0.5576572675237230  0.2311227948598145  0.3140512747610273
  0.3760376637486900  0.5477698124286761  0.7686390403302852
  0.4522301875713239  0.6239623362513100  0.2313609596697148

  0.00000000E+00  0.00000000E+00  0.00000000E+00
  0.00000000E+00  0.00000000E+00  0.00000000E+00
  0.00000000E+00  0.00000000E+00  0.00000000E+00
  0.00000000E+00  0.00000000E+00  0.00000000E+00
  0.00000000E+00  0.00000000E+00  0.00000000E+00
  0.00000000E+00  0.00000000E+00  0.00000000E+00
  0.00000000E+00  0.00000000E+00  0.00000000E+00
  0.00000000E+00  0.00000000E+00  0.00000000E+00
  0.00000000E+00  0.00000000E+00  0.00000000E+00
  0.00000000E+00  0.00000000E+00  0.00000000E+00
  0.00000000E+00  0.00000000E+00  0.00000000E+00
  0.00000000E+00  0.00000000E+00  0.00000000E+00
  0.00000000E+00  0.00000000E+00  0.00000000E+00
