Ba8 Al2                                 
   1.00000000000000     
     0.0000000000000000    6.7679896459008182    6.7679896459008182
     6.7679896459008182    0.0000000000000000    6.7679896459008182
     6.7679896459008182    6.7679896459008182    0.0000000000000000
   Ba   Al
     8     2
Direct
  0.3866039042717304  0.3866039042717304  0.3866039042717304
  0.3866039042717304  0.3866039042717304  0.8401882871848088
  0.3866039042717304  0.8401882871848088  0.3866039042717304
  0.8633960957282696  0.8633960957282696  0.4098117128151912
  0.8633960957282696  0.8633960957282696  0.8633960957282696
  0.8401882871848088  0.3866039042717304  0.3866039042717304
  0.8633960957282696  0.4098117128151912  0.8633960957282696
  0.4098117128151912  0.8633960957282696  0.8633960957282696
  0.0000000000000000  0.0000000000000000  0.0000000000000000
  0.2500000000000000  0.2500000000000000  0.2500000000000000
 
  0.00000000E+00  0.00000000E+00  0.00000000E+00
  0.00000000E+00  0.00000000E+00  0.00000000E+00
  0.00000000E+00  0.00000000E+00  0.00000000E+00
  0.00000000E+00  0.00000000E+00  0.00000000E+00
  0.00000000E+00  0.00000000E+00  0.00000000E+00
  0.00000000E+00  0.00000000E+00  0.00000000E+00
  0.00000000E+00  0.00000000E+00  0.00000000E+00
  0.00000000E+00  0.00000000E+00  0.00000000E+00
  0.00000000E+00  0.00000000E+00  0.00000000E+00
  0.00000000E+00  0.00000000E+00  0.00000000E+00
