Sr4 Tl4 Cl20                            
   1.0000000000000000     
     7.4034511503470553   -0.0000000000000000    0.0000000000000006
    -0.0000000000000005    6.7725676510117134    0.0000000000000005
     0.0000000000000006   -0.0000000000000000   21.4742138665203690
   Sr   Tl   Cl
     4     4    20
Direct
  0.9215841418255053  0.5400501506914352  0.5434293717379504
  0.4215841418255124  0.9599498493085648  0.4565706282620496
  0.0784158581744947  0.0400501506914352  0.9565706282620496
  0.5784158581744947  0.4599498493085648  0.0434293717379504
  0.1540134946549827  0.1025354003686232  0.6554029582290752
  0.6540134946549898  0.3974645996313768  0.3445970417709177
  0.8459865053450102  0.6025354003686232  0.8445970417709248
  0.3459865053450173  0.8974645996313768  0.1554029582290823
  0.1105224735100663  0.7295099925291808  0.4481999050020420
  0.6105224735100805  0.7704900074708192  0.5518000949979580
  0.8894775264899266  0.2295099925291808  0.0518000949979580
  0.3894775264899337  0.2704900074708192  0.9481999050020420
  0.6259936817309324  0.7611371813312999  0.3542573805866738
  0.1259936817309324  0.7388628186687001  0.6457426194133191
  0.3740063182690747  0.2611371813313070  0.1457426194133191
  0.8740063182690676  0.2388628186686930  0.8542573805866738
  0.8501640873065099  0.2591880026345734  0.6494362843516370
  0.3501640873065099  0.2408119973654266  0.3505637156483630
  0.1498359126934901  0.7591880026345734  0.8505637156483630
  0.6498359126934901  0.7408119973654266  0.1494362843516370
  0.3602907635742696  0.2170480289420027  0.7324888469918491
  0.8602907635742625  0.2829519710579973  0.2675111530081580
  0.6397092364257375  0.7170480289420027  0.7675111530081509
  0.1397092364257304  0.7829519710579973  0.2324888469918491
  0.7431365089139845  0.2594598184335482  0.4536431786490382
  0.2431365089139916  0.2405401815664518  0.5463568213509618
  0.2568634910860084  0.7594598184335482  0.0463568213509618
  0.7568634910860084  0.7405401815664518  0.9536431786490382

  0.00000000E+00  0.00000000E+00  0.00000000E+00
  0.00000000E+00  0.00000000E+00  0.00000000E+00
  0.00000000E+00  0.00000000E+00  0.00000000E+00
  0.00000000E+00  0.00000000E+00  0.00000000E+00
  0.00000000E+00  0.00000000E+00  0.00000000E+00
  0.00000000E+00  0.00000000E+00  0.00000000E+00
  0.00000000E+00  0.00000000E+00  0.00000000E+00
  0.00000000E+00  0.00000000E+00  0.00000000E+00
  0.00000000E+00  0.00000000E+00  0.00000000E+00
  0.00000000E+00  0.00000000E+00  0.00000000E+00
  0.00000000E+00  0.00000000E+00  0.00000000E+00
  0.00000000E+00  0.00000000E+00  0.00000000E+00
  0.00000000E+00  0.00000000E+00  0.00000000E+00
  0.00000000E+00  0.00000000E+00  0.00000000E+00
  0.00000000E+00  0.00000000E+00  0.00000000E+00
  0.00000000E+00  0.00000000E+00  0.00000000E+00
  0.00000000E+00  0.00000000E+00  0.00000000E+00
  0.00000000E+00  0.00000000E+00  0.00000000E+00
  0.00000000E+00  0.00000000E+00  0.00000000E+00
  0.00000000E+00  0.00000000E+00  0.00000000E+00
  0.00000000E+00  0.00000000E+00  0.00000000E+00
  0.00000000E+00  0.00000000E+00  0.00000000E+00
  0.00000000E+00  0.00000000E+00  0.00000000E+00
  0.00000000E+00  0.00000000E+00  0.00000000E+00
  0.00000000E+00  0.00000000E+00  0.00000000E+00
  0.00000000E+00  0.00000000E+00  0.00000000E+00
  0.00000000E+00  0.00000000E+00  0.00000000E+00
  0.00000000E+00  0.00000000E+00  0.00000000E+00
