Sr10 B6                                 
   1.00000000000000     
     7.1069177172758788    0.0000000000000000    0.0000000000000000
     0.0000000000000000    8.5587054649449055   -0.0023222078686353
     0.0000000000000000   -4.2813655443976675    7.4105953952003345
   B    Sr
     6    10
Direct
  0.2500000000000000  0.3909063147762026  0.0001832380599751
  0.7500000000000000  0.6090936852237974  0.9998167619400249
  0.7500000000000000  0.3904744947475507  0.3904769421169192
  0.2500000000000000  0.0001924968665179  0.3908992043151471
  0.2500000000000000  0.6095255052524493  0.6095230578830808
  0.7500000000000000  0.9998075031334821  0.6091007956848529
  0.7500000000000000  0.2693745248996890  0.9999872368181641
  0.2500000000000000  0.7306254751003110  0.0000127631818359
  0.7500000000000000  0.9999907260664571  0.2693870093821786
  0.2500000000000000  0.2699042407880441  0.2699029792640033
  0.9999992795241894  0.6668042228205877  0.3331886136692788
  0.5000007204758106  0.6668042228205877  0.3331886136692788
  0.0000007204758106  0.3331957771794123  0.6668113863307212
  0.4999992795241894  0.3331957771794123  0.6668113863307212
  0.2500000000000000  0.0000092739335429  0.7306129906178214
  0.7500000000000000  0.7300957592119559  0.7300970207359967
 
  0.00000000E+00  0.00000000E+00  0.00000000E+00
  0.00000000E+00  0.00000000E+00  0.00000000E+00
  0.00000000E+00  0.00000000E+00  0.00000000E+00
  0.00000000E+00  0.00000000E+00  0.00000000E+00
  0.00000000E+00  0.00000000E+00  0.00000000E+00
  0.00000000E+00  0.00000000E+00  0.00000000E+00
  0.00000000E+00  0.00000000E+00  0.00000000E+00
  0.00000000E+00  0.00000000E+00  0.00000000E+00
  0.00000000E+00  0.00000000E+00  0.00000000E+00
  0.00000000E+00  0.00000000E+00  0.00000000E+00
  0.00000000E+00  0.00000000E+00  0.00000000E+00
  0.00000000E+00  0.00000000E+00  0.00000000E+00
  0.00000000E+00  0.00000000E+00  0.00000000E+00
  0.00000000E+00  0.00000000E+00  0.00000000E+00
  0.00000000E+00  0.00000000E+00  0.00000000E+00
  0.00000000E+00  0.00000000E+00  0.00000000E+00
