Ca4                                     
   1.00000000000000     
     0.0002486269256238   -0.0000020835571584   -6.6140411732982463
    -3.7029006026951703   -3.7077087912483710   -3.3068819467601096
    -3.7029037504700950    3.7077118843437900   -3.3068798596522795
   Ca
     4
Direct
  0.1706911748035864  0.1591365358982415  0.4994930698067250
  0.8293088251964136  0.8408634641017585  0.5005069301932750
  0.3293088251917382  0.5005069301939216  0.8408614641060552
  0.6706911748082618  0.4994930698060784  0.1591385358939448
 
  0.00000000E+00  0.00000000E+00  0.00000000E+00
  0.00000000E+00  0.00000000E+00  0.00000000E+00
  0.00000000E+00  0.00000000E+00  0.00000000E+00
  0.00000000E+00  0.00000000E+00  0.00000000E+00
