Sr8 In4 Cl28                            
   1.00000000000000     
     7.6430347237521126   -0.0001787506066876    0.9960337850099459
    -0.0000878930948191   14.1908061197658277    0.0002287658396065
     1.4097737916743356   -0.0011076472827253   11.0530376463198454
   Sr   Cl   In
     8    28     4
Direct
  0.3147211519612938  0.7338865370857164  0.0848242196253395
  0.3652222877528288  0.0503993789120827  0.1962233010022203
  0.6348850825064503  0.5504075656827325  0.3038323726818675
  0.6853810726312233  0.2338361467023589  0.4151899044653433
  0.3146501908241532  0.7661443241433190  0.5848238961254495
  0.3651364200798497  0.4495678273488508  0.6961860832028250
  0.6348043925912492  0.9495842963318921  0.8037891501894165
  0.6853204272033082  0.2660975231882290  0.9151801067352991
  0.6907178579671012  0.6546778241522659  0.0369909502857979
  0.0903882511374405  0.9166523064763936  0.1156379453934875
  0.5660700762180966  0.8942674207649475  0.0644205453147890
  0.8451807944626495  0.4195687710152569  0.0886105785988605
  0.5794901463462168  0.2207122882416925  0.1783702984435394
  0.0619624484923236  0.2107007864154866  0.2280931153574741
  0.2986321998293633  0.5185622131056888  0.1884295129560627
  0.7011369194825647  0.0184185865974413  0.3117707236259193
  0.9380725038492344  0.7107074471982031  0.2718871811442796
  0.4207831588323074  0.7207854315228417  0.3216042861979389
  0.1548865843665297  0.9195335716476407  0.4115093486819390
  0.4340471561325430  0.3942487085252040  0.4355239358925118
  0.9096863840015033  0.4166005097862850  0.3845240070864619
  0.3092342245094599  0.1547369994435641  0.4628790734731041
  0.6907846578153212  0.8452487274872453  0.5371178830445515
  0.0903419248827362  0.5833696249466342  0.6155007766329206
  0.5659797070299035  0.6057303223959707  0.5645030605400194
  0.8451767468643610  0.0804385909800800  0.5884867119303294
  0.5792311558750569  0.2791889027729795  0.6784095730436519
  0.0619563410384174  0.2892810109318091  0.7281091427119861
  0.2988936858799036  0.9815624064410358  0.6882337955863065
  0.7013932017771580  0.4814086257445922  0.8116020408861715
  0.9380530369099489  0.7892731959352801  0.7719002158454202
  0.4205398916115328  0.7792764137813180  0.8216372955140017
  0.1548564841323739  0.5804178585353199  0.9114151300281250
  0.4339630026953145  0.1057202296259447  0.9355879515105059
  0.9096577511056267  0.0833356349019709  0.8843620032327806
  0.3092974092557768  0.3452987268285526  0.9630212926516251
  0.1083457336027749  0.3812179988844306  0.1710912955973853
  0.8916878204211756  0.8811895597267281  0.3290359193110604
  0.1083446913738086  0.1187901220408989  0.6709587169885225
  0.8916870265510823  0.6187555837511312  0.8289266584646882
 
  0.00000000E+00  0.00000000E+00  0.00000000E+00
  0.00000000E+00  0.00000000E+00  0.00000000E+00
  0.00000000E+00  0.00000000E+00  0.00000000E+00
  0.00000000E+00  0.00000000E+00  0.00000000E+00
  0.00000000E+00  0.00000000E+00  0.00000000E+00
  0.00000000E+00  0.00000000E+00  0.00000000E+00
  0.00000000E+00  0.00000000E+00  0.00000000E+00
  0.00000000E+00  0.00000000E+00  0.00000000E+00
  0.00000000E+00  0.00000000E+00  0.00000000E+00
  0.00000000E+00  0.00000000E+00  0.00000000E+00
  0.00000000E+00  0.00000000E+00  0.00000000E+00
  0.00000000E+00  0.00000000E+00  0.00000000E+00
  0.00000000E+00  0.00000000E+00  0.00000000E+00
  0.00000000E+00  0.00000000E+00  0.00000000E+00
  0.00000000E+00  0.00000000E+00  0.00000000E+00
  0.00000000E+00  0.00000000E+00  0.00000000E+00
  0.00000000E+00  0.00000000E+00  0.00000000E+00
  0.00000000E+00  0.00000000E+00  0.00000000E+00
  0.00000000E+00  0.00000000E+00  0.00000000E+00
  0.00000000E+00  0.00000000E+00  0.00000000E+00
  0.00000000E+00  0.00000000E+00  0.00000000E+00
  0.00000000E+00  0.00000000E+00  0.00000000E+00
  0.00000000E+00  0.00000000E+00  0.00000000E+00
  0.00000000E+00  0.00000000E+00  0.00000000E+00
  0.00000000E+00  0.00000000E+00  0.00000000E+00
  0.00000000E+00  0.00000000E+00  0.00000000E+00
  0.00000000E+00  0.00000000E+00  0.00000000E+00
  0.00000000E+00  0.00000000E+00  0.00000000E+00
  0.00000000E+00  0.00000000E+00  0.00000000E+00
  0.00000000E+00  0.00000000E+00  0.00000000E+00
  0.00000000E+00  0.00000000E+00  0.00000000E+00
  0.00000000E+00  0.00000000E+00  0.00000000E+00
  0.00000000E+00  0.00000000E+00  0.00000000E+00
  0.00000000E+00  0.00000000E+00  0.00000000E+00
  0.00000000E+00  0.00000000E+00  0.00000000E+00
  0.00000000E+00  0.00000000E+00  0.00000000E+00
  0.00000000E+00  0.00000000E+00  0.00000000E+00
  0.00000000E+00  0.00000000E+00  0.00000000E+00
  0.00000000E+00  0.00000000E+00  0.00000000E+00
  0.00000000E+00  0.00000000E+00  0.00000000E+00
