Tl3Br2                                  
   1.0000000000000000     
    -8.0773187697105868    0.0035879302065441    0.0283097645526452
     4.0185440068943130   -5.0580071732789467    0.5144374988737113
    -4.0713238743939080    0.8173706547408791    8.8598429461817609
   Br   Tl
     4     6
Direct
  0.2884741925983150  0.6062790543713206  0.0382903244971473
  0.2248798709412156  0.9026785868574052  0.4651208672672311
  0.7750529176368062  0.0971826081073246  0.5348146716727840
  0.7114574191701593  0.3935866361406113  0.9616559985694124
  0.1799983197561730  0.1212934158607410  0.2329203808655436
  0.7970360191102159  0.4169545440154963  0.2642369622062191
  0.5818605253759159  0.7755145600560240  0.2474643633383380
  0.4181846762630244  0.2245784556596959  0.7524514351422269
  0.2029719009143776  0.5831487412581708  0.7357290696715708
  0.8200841582337901  0.8787833976732031  0.7670159267695382

  0.00000000E+00  0.00000000E+00  0.00000000E+00
  0.00000000E+00  0.00000000E+00  0.00000000E+00
  0.00000000E+00  0.00000000E+00  0.00000000E+00
  0.00000000E+00  0.00000000E+00  0.00000000E+00
  0.00000000E+00  0.00000000E+00  0.00000000E+00
  0.00000000E+00  0.00000000E+00  0.00000000E+00
  0.00000000E+00  0.00000000E+00  0.00000000E+00
  0.00000000E+00  0.00000000E+00  0.00000000E+00
  0.00000000E+00  0.00000000E+00  0.00000000E+00
  0.00000000E+00  0.00000000E+00  0.00000000E+00
