TlBr2                                   
   1.0000000000000000     
     8.1520183495881913   -0.0004571563342382    0.0007067726776148
    -0.0006115701096039   10.8734594389389319   -0.0004411053571048
     0.0009392292136318   -0.0003937289864067   10.8877683068673239
   Br   Tl
    16     8
Direct
  0.3481772985769567  0.1900568591252707  0.0473895276474749
  0.1523359390197143  0.8103004834608782  0.0474452119178466
  0.9921536908920601  0.4596325171381395  0.1824633899625852
  0.5089314987540874  0.5403745405091769  0.1830885832327240
  0.9919438978976061  0.0404038275858696  0.3172169314772972
  0.5091125054167733  0.9596434866352297  0.3171428390566859
  0.3477741765346636  0.3098931239432474  0.4526340686956374
  0.1517977378037187  0.6892857442112117  0.4529892934972963
  0.8479378047219868  0.3099709997594218  0.5474588125291646
  0.6520429236315906  0.6896318649934727  0.5469367379608201
  0.4912931748758069  0.0403218521695976  0.6827217386651014
  0.0084054183421785  0.9596547148785177  0.6827107365922842
  0.4909615449442484  0.4598145070785336  0.8172279079909401
  0.0079732211989878  0.5403802062182876  0.8172912931511931
  0.8479241410543210  0.1901968684848967  0.9522885940970482
  0.6522932655342544  0.8103591134789738  0.9527559752926109
  0.2506377609358097  0.0001253156513101  0.1772260058387971
  0.6791437421506998  0.2502837176830042  0.2502405825785843
  0.8219443280207130  0.7502507849699498  0.2496881314819817
  0.2502680253682286  0.4998430146412929  0.3228569521397091
  0.7494444911698750  0.4998583644926526  0.6771050068803532
  0.1777166860140298  0.2498690609182148  0.7500953267322430
  0.3206513670641442  0.7498327971593000  0.7499209877646535
  0.7496953600775313  0.0002162348135215  0.8227053648169473

  0.00000000E+00  0.00000000E+00  0.00000000E+00
  0.00000000E+00  0.00000000E+00  0.00000000E+00
  0.00000000E+00  0.00000000E+00  0.00000000E+00
  0.00000000E+00  0.00000000E+00  0.00000000E+00
  0.00000000E+00  0.00000000E+00  0.00000000E+00
  0.00000000E+00  0.00000000E+00  0.00000000E+00
  0.00000000E+00  0.00000000E+00  0.00000000E+00
  0.00000000E+00  0.00000000E+00  0.00000000E+00
  0.00000000E+00  0.00000000E+00  0.00000000E+00
  0.00000000E+00  0.00000000E+00  0.00000000E+00
  0.00000000E+00  0.00000000E+00  0.00000000E+00
  0.00000000E+00  0.00000000E+00  0.00000000E+00
  0.00000000E+00  0.00000000E+00  0.00000000E+00
  0.00000000E+00  0.00000000E+00  0.00000000E+00
  0.00000000E+00  0.00000000E+00  0.00000000E+00
  0.00000000E+00  0.00000000E+00  0.00000000E+00
  0.00000000E+00  0.00000000E+00  0.00000000E+00
  0.00000000E+00  0.00000000E+00  0.00000000E+00
  0.00000000E+00  0.00000000E+00  0.00000000E+00
  0.00000000E+00  0.00000000E+00  0.00000000E+00
  0.00000000E+00  0.00000000E+00  0.00000000E+00
  0.00000000E+00  0.00000000E+00  0.00000000E+00
  0.00000000E+00  0.00000000E+00  0.00000000E+00
  0.00000000E+00  0.00000000E+00  0.00000000E+00
