Be1 Tl12                                
   1.0000000000000000     
    -5.6934928269074003    5.6934928269074003    3.2700445145459751
     5.6934928269074003   -5.6934928269074003    3.2700445145459751
     5.6934928269074003    5.6934928269074003   -3.2700445145459751
   Tl   Be
    12     1
Direct
  0.5000000000000000  0.0000000000000000  0.0000000000000000
  0.0000000000000000  0.5000000000000000  0.0000000000000000
  0.7029057761001383  0.5000000000000000  0.2029057761001383
  0.5000000000000000  0.7029057761001383  0.2029057761001383
  0.3512102046938139  0.0000000000000000  0.3512102046938139
  0.0000000000000000  0.3512102046938139  0.3512102046938139
  0.0000000000000000  0.0000000000000000  0.5000000000000000
  0.5000000000000000  0.5000000000000000  0.5000000000000000
  0.6487897953061861  0.0000000000000000  0.6487897953061861
  0.0000000000000000  0.6487897953061861  0.6487897953061861
  0.5000000000000000  0.2970942238998617  0.7970942238998617
  0.2970942238998617  0.5000000000000000  0.7970942238998617
  0.0000000000000000  0.0000000000000000  0.0000000000000000

  0.00000000E+00  0.00000000E+00  0.00000000E+00
  0.00000000E+00  0.00000000E+00  0.00000000E+00
  0.00000000E+00  0.00000000E+00  0.00000000E+00
  0.00000000E+00  0.00000000E+00  0.00000000E+00
  0.00000000E+00  0.00000000E+00  0.00000000E+00
  0.00000000E+00  0.00000000E+00  0.00000000E+00
  0.00000000E+00  0.00000000E+00  0.00000000E+00
  0.00000000E+00  0.00000000E+00  0.00000000E+00
  0.00000000E+00  0.00000000E+00  0.00000000E+00
  0.00000000E+00  0.00000000E+00  0.00000000E+00
  0.00000000E+00  0.00000000E+00  0.00000000E+00
  0.00000000E+00  0.00000000E+00  0.00000000E+00
  0.00000000E+00  0.00000000E+00  0.00000000E+00
