Ba22 Tl14                               
   1.0000000000000000     
     0.0000000000000000    9.3996816966029950    9.3996816966029950
     9.3996816966029950   -0.0000000000000000    9.3996816966029950
     9.3996816966029950    9.3996816966029950   -0.0000000000000000
   Ba   Tl
    22    14
Direct
  0.0000000000000000  0.0000000000000000  0.0000000000000000
  0.5000000000000000  0.5000000000000000  0.5000000000000000
  0.1299358209907169  0.1299358209907169  0.1299358209907169
  0.3898064629721461  0.8700641790092831  0.8700641790092831
  0.8700641790092831  0.3898064629721461  0.8700641790092831
  0.8700641790092831  0.8700641790092831  0.3898064629721461
  0.1299358209907169  0.6101935370278539  0.1299358209907169
  0.1299358209907169  0.1299358209907169  0.6101935370278539
  0.6101935370278539  0.1299358209907169  0.1299358209907169
  0.8700641790092831  0.8700641790092831  0.8700641790092831
  0.5000000000000000  0.8341729126428135  0.5000000000000000
  0.8341729126428135  0.5000000000000000  0.5000000000000000
  0.5000000000000000  0.8341729126428135  0.1658270873571865
  0.1658270873571865  0.5000000000000000  0.8341729126428135
  0.8341729126428135  0.5000000000000000  0.1658270873571865
  0.5000000000000000  0.5000000000000000  0.8341729126428135
  0.1658270873571865  0.8341729126428135  0.5000000000000000
  0.5000000000000000  0.1658270873571865  0.8341729126428135
  0.5000000000000000  0.5000000000000000  0.1658270873571865
  0.8341729126428135  0.1658270873571865  0.5000000000000000
  0.1658270873571865  0.5000000000000000  0.5000000000000000
  0.5000000000000000  0.1658270873571865  0.5000000000000000
  0.2206966105510872  0.7793033894489128  0.2206966105510872
  0.2206966105510872  0.7793033894489128  0.7793033894489128
  0.7793033894489128  0.2206966105510872  0.2206966105510872
  0.7793033894489128  0.7793033894489128  0.2206966105510872
  0.2206966105510872  0.2206966105510872  0.7793033894489128
  0.7793033894489128  0.2206966105510872  0.7793033894489128
  0.3103723221063390  0.3103713221063416  0.3103713221063416
  0.9311149663190150  0.6896286778936584  0.6896286778936584
  0.6896286778936584  0.9311149663190150  0.6896286778936584
  0.6896286778936584  0.6896286778936584  0.9311149663190150
  0.3103713221063416  0.0688850336809850  0.3103713221063416
  0.3103713221063416  0.3103713221063416  0.0688850336809850
  0.0688850336809850  0.3103713221063416  0.3103713221063416
  0.6896286778936584  0.6896286778936584  0.6896276778936610

  0.00000000E+00  0.00000000E+00  0.00000000E+00
  0.00000000E+00  0.00000000E+00  0.00000000E+00
  0.00000000E+00  0.00000000E+00  0.00000000E+00
  0.00000000E+00  0.00000000E+00  0.00000000E+00
  0.00000000E+00  0.00000000E+00  0.00000000E+00
  0.00000000E+00  0.00000000E+00  0.00000000E+00
  0.00000000E+00  0.00000000E+00  0.00000000E+00
  0.00000000E+00  0.00000000E+00  0.00000000E+00
  0.00000000E+00  0.00000000E+00  0.00000000E+00
  0.00000000E+00  0.00000000E+00  0.00000000E+00
  0.00000000E+00  0.00000000E+00  0.00000000E+00
  0.00000000E+00  0.00000000E+00  0.00000000E+00
  0.00000000E+00  0.00000000E+00  0.00000000E+00
  0.00000000E+00  0.00000000E+00  0.00000000E+00
  0.00000000E+00  0.00000000E+00  0.00000000E+00
  0.00000000E+00  0.00000000E+00  0.00000000E+00
  0.00000000E+00  0.00000000E+00  0.00000000E+00
  0.00000000E+00  0.00000000E+00  0.00000000E+00
  0.00000000E+00  0.00000000E+00  0.00000000E+00
  0.00000000E+00  0.00000000E+00  0.00000000E+00
  0.00000000E+00  0.00000000E+00  0.00000000E+00
  0.00000000E+00  0.00000000E+00  0.00000000E+00
  0.00000000E+00  0.00000000E+00  0.00000000E+00
  0.00000000E+00  0.00000000E+00  0.00000000E+00
  0.00000000E+00  0.00000000E+00  0.00000000E+00
  0.00000000E+00  0.00000000E+00  0.00000000E+00
  0.00000000E+00  0.00000000E+00  0.00000000E+00
  0.00000000E+00  0.00000000E+00  0.00000000E+00
  0.00000000E+00  0.00000000E+00  0.00000000E+00
  0.00000000E+00  0.00000000E+00  0.00000000E+00
  0.00000000E+00  0.00000000E+00  0.00000000E+00
  0.00000000E+00  0.00000000E+00  0.00000000E+00
  0.00000000E+00  0.00000000E+00  0.00000000E+00
  0.00000000E+00  0.00000000E+00  0.00000000E+00
  0.00000000E+00  0.00000000E+00  0.00000000E+00
  0.00000000E+00  0.00000000E+00  0.00000000E+00
