Sr13 Tl16                               
   1.0000000000000000     
    -6.4142247528141993   -6.4142247528141993    6.4142247528141993
    -6.4142247528141993    6.4142247528141993   -6.4142247528141993
     6.4142247528141993   -6.4142247528141993   -6.4142247528141993
   Tl   Sr
    16    13
Direct
  0.6979439316243727  0.0000000000000000  0.0000000000000000
  0.3688180818493549  0.1830440736871779  0.0000000000000000
  0.1830440736871779  0.3688180818493549  0.0000000000000000
  0.0000000000000000  0.6979439316243727  0.0000000000000000
  0.8169559263128221  0.8169559263128221  0.1857740081621770
  0.3688180818493549  0.0000000000000000  0.1830440736871779
  0.0000000000000000  0.3688180818493549  0.1830440736871779
  0.3020560683756273  0.3020560683756273  0.3020560683756273
  0.1830440736871779  0.0000000000000000  0.3688180818493549
  0.0000000000000000  0.1830440736871779  0.3688180818493549
  0.8142259918378230  0.6311819181506451  0.6311819181506451
  0.6311819181506451  0.8142259918378230  0.6311819181506451
  0.0000000000000000  0.0000000000000000  0.6979439316243727
  0.8169559263128221  0.1857740081621770  0.8169559263128221
  0.1857740081621770  0.8169559263128221  0.8169559263128221
  0.6311819181506451  0.6311819181506451  0.8142259918378230
  0.0000000000000000  0.0000000000000000  0.0000000000000000
  0.7318389019603373  0.4462362221776743  0.0000000000000000
  0.4462362221776743  0.7318389019603373  0.0000000000000000
  0.5537637778223257  0.5537637778223257  0.2856026797826630
  0.7143973202173370  0.2681610980396627  0.2681610980396627
  0.2681610980396627  0.7143973202173370  0.2681610980396627
  0.7318389019603373  0.0000000000000000  0.4462362221776743
  0.0000000000000000  0.7318389019603373  0.4462362221776743
  0.5537637778223257  0.2856026797826630  0.5537637778223257
  0.2856026797826630  0.5537637778223257  0.5537637778223257
  0.4462362221776743  0.0000000000000000  0.7318389019603373
  0.0000000000000000  0.4462362221776743  0.7318389019603373
  0.2681610980396627  0.2681610980396627  0.7143973202173370

  0.00000000E+00  0.00000000E+00  0.00000000E+00
  0.00000000E+00  0.00000000E+00  0.00000000E+00
  0.00000000E+00  0.00000000E+00  0.00000000E+00
  0.00000000E+00  0.00000000E+00  0.00000000E+00
  0.00000000E+00  0.00000000E+00  0.00000000E+00
  0.00000000E+00  0.00000000E+00  0.00000000E+00
  0.00000000E+00  0.00000000E+00  0.00000000E+00
  0.00000000E+00  0.00000000E+00  0.00000000E+00
  0.00000000E+00  0.00000000E+00  0.00000000E+00
  0.00000000E+00  0.00000000E+00  0.00000000E+00
  0.00000000E+00  0.00000000E+00  0.00000000E+00
  0.00000000E+00  0.00000000E+00  0.00000000E+00
  0.00000000E+00  0.00000000E+00  0.00000000E+00
  0.00000000E+00  0.00000000E+00  0.00000000E+00
  0.00000000E+00  0.00000000E+00  0.00000000E+00
  0.00000000E+00  0.00000000E+00  0.00000000E+00
  0.00000000E+00  0.00000000E+00  0.00000000E+00
  0.00000000E+00  0.00000000E+00  0.00000000E+00
  0.00000000E+00  0.00000000E+00  0.00000000E+00
  0.00000000E+00  0.00000000E+00  0.00000000E+00
  0.00000000E+00  0.00000000E+00  0.00000000E+00
  0.00000000E+00  0.00000000E+00  0.00000000E+00
  0.00000000E+00  0.00000000E+00  0.00000000E+00
  0.00000000E+00  0.00000000E+00  0.00000000E+00
  0.00000000E+00  0.00000000E+00  0.00000000E+00
  0.00000000E+00  0.00000000E+00  0.00000000E+00
  0.00000000E+00  0.00000000E+00  0.00000000E+00
  0.00000000E+00  0.00000000E+00  0.00000000E+00
  0.00000000E+00  0.00000000E+00  0.00000000E+00
