Be1 In4                                 
   1.00000000000000     
    -4.0417415657219999   -0.0000000000000040    0.0000000610117027
    -0.0000000000000040   -4.0417415657219999    0.0000000610117027
     2.0208703092259639    2.0208703092259639    8.3445480379471135
   Be   In
     1     4
Direct
  0.0000000000000000  0.0000000000000000  0.0000000000000000
  0.5875538695759701  0.5875538695759701  0.1751077400076397
  0.7500000000000000  0.2500000000000000  0.5000000000000000
  0.2500000000000000  0.7500000000000000  0.5000000000000000
  0.4124461304240299  0.4124461304240299  0.8248922599923603
 
  0.00000000E+00  0.00000000E+00  0.00000000E+00
  0.00000000E+00  0.00000000E+00  0.00000000E+00
  0.00000000E+00  0.00000000E+00  0.00000000E+00
  0.00000000E+00  0.00000000E+00  0.00000000E+00
  0.00000000E+00  0.00000000E+00  0.00000000E+00
