Sr10 Tl12                               
   1.0000000000000000     
    -4.0001164331104642   -6.9291539036200422    0.0000000000000000
    -4.0015877441587886    6.9300035797425004    0.0000000000000000
     0.0000000000000000    0.0000000000000000  -14.4988520093811299
   Sr   Tl
    10    12
Direct
  0.7244230227717949  0.6664484950824985  0.2500000000000000
  0.9420314638734411  0.2755226138288123  0.2500000000000000
  0.3335531158086766  0.0580123613910999  0.2500000000000000
  0.9415771407329245  0.6665636733451024  0.7500000000000000
  0.3334382011304484  0.2749575258927521  0.7500000000000000
  0.7250027811211837  0.0584807502099949  0.7500000000000000
  0.0000215439653530  0.0000159591682305  0.9997827036058951
  0.0000215439653530  0.0000159591682305  0.5002172963941049
  0.6666476789878502  0.3333085050560527  0.0000310218203410
  0.6666476789878502  0.3333085050560527  0.4999689781796590
  0.5646358426727573  0.8976993466110699  0.0967959669073792
  0.3330676629338996  0.4354169549825286  0.0967685899826449
  0.1022307520993024  0.6669279614582351  0.0968300244491189
  0.5646358426727573  0.8976993466110699  0.4032040330926208
  0.3330676629338996  0.4354169549825286  0.4032314100173551
  0.1022307520993024  0.6669279614582351  0.4031699755508811
  0.3334073646595783  0.8978637115000225  0.5969990926120090
  0.1020805188437990  0.4354765003131575  0.5970258818134866
  0.5645957731182207  0.6665983510355744  0.5970594360278056
  0.3334073646595783  0.8978637115000225  0.9030009073879910
  0.1020805188437990  0.4354765003131575  0.9029741181865134
  0.5645957731182207  0.6665983510355744  0.9029405639721944

  0.00000000E+00  0.00000000E+00  0.00000000E+00
  0.00000000E+00  0.00000000E+00  0.00000000E+00
  0.00000000E+00  0.00000000E+00  0.00000000E+00
  0.00000000E+00  0.00000000E+00  0.00000000E+00
  0.00000000E+00  0.00000000E+00  0.00000000E+00
  0.00000000E+00  0.00000000E+00  0.00000000E+00
  0.00000000E+00  0.00000000E+00  0.00000000E+00
  0.00000000E+00  0.00000000E+00  0.00000000E+00
  0.00000000E+00  0.00000000E+00  0.00000000E+00
  0.00000000E+00  0.00000000E+00  0.00000000E+00
  0.00000000E+00  0.00000000E+00  0.00000000E+00
  0.00000000E+00  0.00000000E+00  0.00000000E+00
  0.00000000E+00  0.00000000E+00  0.00000000E+00
  0.00000000E+00  0.00000000E+00  0.00000000E+00
  0.00000000E+00  0.00000000E+00  0.00000000E+00
  0.00000000E+00  0.00000000E+00  0.00000000E+00
  0.00000000E+00  0.00000000E+00  0.00000000E+00
  0.00000000E+00  0.00000000E+00  0.00000000E+00
  0.00000000E+00  0.00000000E+00  0.00000000E+00
  0.00000000E+00  0.00000000E+00  0.00000000E+00
  0.00000000E+00  0.00000000E+00  0.00000000E+00
  0.00000000E+00  0.00000000E+00  0.00000000E+00
