Ba4 B4 Br20                             
   1.0000000000000000     
     0.0000000000000000    6.0765778957938705    1.9154432854549863
    11.9371024326104322    0.0000000000000000    0.0000000000000000
     0.0000000000000000   -2.2359376795919901  -15.0246985516048301
   Ba   B    Br
     4     4    20
Direct
  0.5706474861163215  0.2730484563073077  0.3949603881260302
  0.4293525138836713  0.7730484563073077  0.6050396118739698
  0.8566572118923972  0.9957845016534037  0.2038251401795605
  0.1433427881076028  0.4957845016534108  0.7961748598204323
  0.4855513750784155  0.7166483160791941  0.0301169960049705
  0.5144486249215845  0.2166483160791941  0.9698830039950366
  0.0735117683706576  0.5162534176498710  0.3591022221156521
  0.9264882316293424  0.0162534176498710  0.6408977778843408
  0.2383233156521669  0.0422782149390102  0.6586979189726421
  0.3205391721575879  0.4949659684521777  0.4888892914008736
  0.6794608278424121  0.9949659684521777  0.5111107085991122
  0.8131956311452910  0.7559900889628750  0.0516127058100224
  0.1389864586239540  0.5036099549580015  0.2486291365098765
  0.3979530909954008  0.0719627712530482  0.2412414950384232
  0.8648703365031949  0.3167326920058073  0.6195681748602837
  0.4201882593763813  0.7992236324592170  0.1326542550924117
  0.8610135413760389  0.0036099549580015  0.7513708634901235
  0.9478356360944389  0.7007863978480984  0.6195083771472625
  0.6020469090045992  0.5719627712530482  0.7587585049615768
  0.7616766843478331  0.5422782149390173  0.3413020810273579
  0.5487962892633789  0.0485811645431795  0.9573036932969643
  0.7491431531433861  0.2617334028887655  0.1075678443783374
  0.0521643639055540  0.2007863978480984  0.3804916228527375
  0.1351296634968051  0.8167326920058144  0.3804318251397163
  0.1868043688547019  0.2559900889628821  0.9483872941899705
  0.2508568468566139  0.7617334028887655  0.8924321556216555
  0.5798117406236187  0.2992236324592170  0.8673457449075883
  0.4512037107366211  0.5485811645431795  0.0426963067030357

  0.00000000E+00  0.00000000E+00  0.00000000E+00
  0.00000000E+00  0.00000000E+00  0.00000000E+00
  0.00000000E+00  0.00000000E+00  0.00000000E+00
  0.00000000E+00  0.00000000E+00  0.00000000E+00
  0.00000000E+00  0.00000000E+00  0.00000000E+00
  0.00000000E+00  0.00000000E+00  0.00000000E+00
  0.00000000E+00  0.00000000E+00  0.00000000E+00
  0.00000000E+00  0.00000000E+00  0.00000000E+00
  0.00000000E+00  0.00000000E+00  0.00000000E+00
  0.00000000E+00  0.00000000E+00  0.00000000E+00
  0.00000000E+00  0.00000000E+00  0.00000000E+00
  0.00000000E+00  0.00000000E+00  0.00000000E+00
  0.00000000E+00  0.00000000E+00  0.00000000E+00
  0.00000000E+00  0.00000000E+00  0.00000000E+00
  0.00000000E+00  0.00000000E+00  0.00000000E+00
  0.00000000E+00  0.00000000E+00  0.00000000E+00
  0.00000000E+00  0.00000000E+00  0.00000000E+00
  0.00000000E+00  0.00000000E+00  0.00000000E+00
  0.00000000E+00  0.00000000E+00  0.00000000E+00
  0.00000000E+00  0.00000000E+00  0.00000000E+00
  0.00000000E+00  0.00000000E+00  0.00000000E+00
  0.00000000E+00  0.00000000E+00  0.00000000E+00
  0.00000000E+00  0.00000000E+00  0.00000000E+00
  0.00000000E+00  0.00000000E+00  0.00000000E+00
  0.00000000E+00  0.00000000E+00  0.00000000E+00
  0.00000000E+00  0.00000000E+00  0.00000000E+00
  0.00000000E+00  0.00000000E+00  0.00000000E+00
  0.00000000E+00  0.00000000E+00  0.00000000E+00
