Sr3 Al4                                 
   1.00000000000000     
     2.6523631689559943    1.5312329851680229    8.3536546554692013
    -2.6523631689559943    1.5312329851680229    8.3536546554692013
    -0.0000000000000001   -3.0625753507469158    8.3538379126945124
   Al   Sr
     4     3
Direct
  0.1795918960560527  0.1795918960560527  0.1796006887787343
  0.2964753684504018  0.2964753684504018  0.2965269324939186
  0.7083966952476572  0.7083966952476572  0.7083355488912488
  0.8252655491544303  0.8252655491544303  0.8252838757498751
  0.0024430341926376  0.0024430341926376  0.0024314692775391
  0.4301703765859131  0.4301703765859131  0.4301183977004825
  0.5747170803129151  0.5747170803129151  0.5747630871082023
 
  0.00000000E+00  0.00000000E+00  0.00000000E+00
  0.00000000E+00  0.00000000E+00  0.00000000E+00
  0.00000000E+00  0.00000000E+00  0.00000000E+00
  0.00000000E+00  0.00000000E+00  0.00000000E+00
  0.00000000E+00  0.00000000E+00  0.00000000E+00
  0.00000000E+00  0.00000000E+00  0.00000000E+00
  0.00000000E+00  0.00000000E+00  0.00000000E+00
