Mg5Tl2                                  
   1.0000000000000000     
    -0.0323298635299892   -0.0038653713885667    6.2305288743435145
    -0.0032557360129456    7.3942294113093121   -0.0047850272856702
    -7.1532699271030840   -3.6918522865470993   -3.0774532179311267
   Mg   Tl
    10     4
Direct
  0.2500789652026327  0.4997820482609754  0.9999598305079971
  0.7499066131227394  0.5002892639520695  0.0000412196537525
  0.5895156139894695  0.2537398005756728  0.1770150350182291
  0.0913219841816542  0.9225496912244964  0.1800944475360708
  0.4820940976952386  0.7249168862500923  0.4606173626730552
  0.9824032653851589  0.7315845424182470  0.4609108169758684
  0.0175830063122149  0.2684880182361056  0.5390892057806269
  0.5178923751737798  0.2751545242091495  0.5393830983161578
  0.9086647006011859  0.0775226516739451  0.8199046126037928
  0.4104677505385013  0.7463295825904268  0.8229838447738231
  0.1197455746008416  0.3491002423429137  0.2426714336092033
  0.6220858174427093  0.8934651587241973  0.2459418821904080
  0.3779008485486912  0.1066059163565996  0.7540582491192680
  0.8802393872051866  0.6509716731851398  0.7573289612417469

 -0.00000000E+00  0.00000000E+00  0.00000000E+00
 -0.00000000E+00  0.00000000E+00  0.00000000E+00
 -0.00000000E+00  0.00000000E+00  0.00000000E+00
 -0.00000000E+00  0.00000000E+00  0.00000000E+00
 -0.00000000E+00  0.00000000E+00  0.00000000E+00
 -0.00000000E+00  0.00000000E+00  0.00000000E+00
 -0.00000000E+00  0.00000000E+00  0.00000000E+00
 -0.00000000E+00  0.00000000E+00  0.00000000E+00
 -0.00000000E+00  0.00000000E+00  0.00000000E+00
 -0.00000000E+00  0.00000000E+00  0.00000000E+00
 -0.00000000E+00  0.00000000E+00  0.00000000E+00
 -0.00000000E+00  0.00000000E+00  0.00000000E+00
 -0.00000000E+00  0.00000000E+00  0.00000000E+00
 -0.00000000E+00  0.00000000E+00  0.00000000E+00
