Ba6 Tl4                                 
   1.0000000000000000     
     9.7257855700419142    0.0000874877446840    0.0000000000000000
    -4.8628100373347207    8.4232744783433517    0.0000000000000000
     0.0000000000000000    0.0000000000000000    5.7210668519962971
   Ba   Tl
     6     4
Direct
  0.3896139193276866  0.0785506005638013  0.2500000000000000
  0.9214104702614350  0.3110726388726377  0.2500000000000000
  0.6889202202271534  0.6103509961758675  0.2500000000000000
  0.3110783955333716  0.3896276716348268  0.7500000000000000
  0.0785594899394368  0.6888897924377702  0.7500000000000000
  0.6103402558840472  0.9214302519806168  0.7500000000000000
  0.9999916703548593  0.9999934813296605  0.9999984100842383
  0.3333267343541806  0.6666476796243117  0.2500000000000000
  0.9999916703548593  0.9999934813296605  0.5000015899157617
  0.6666671737629457  0.3333434060508438  0.7500000000000000

  0.00000000E+00  0.00000000E+00  0.00000000E+00
  0.00000000E+00  0.00000000E+00  0.00000000E+00
  0.00000000E+00  0.00000000E+00  0.00000000E+00
  0.00000000E+00  0.00000000E+00  0.00000000E+00
  0.00000000E+00  0.00000000E+00  0.00000000E+00
  0.00000000E+00  0.00000000E+00  0.00000000E+00
  0.00000000E+00  0.00000000E+00  0.00000000E+00
  0.00000000E+00  0.00000000E+00  0.00000000E+00
  0.00000000E+00  0.00000000E+00  0.00000000E+00
  0.00000000E+00  0.00000000E+00  0.00000000E+00
