Ba4 Ga4 F2                              
   1.00000000000000     
     4.3358274379918935    0.0005981337156560    0.0000000000000000
    -2.1669085083542501    3.7531642699864283    0.0000000000000000
     0.0000000000000000    0.0000000000000000   17.0263125056549001
   Ga   F    Ba
     4     2     4
Direct
  0.3334125472358593  0.6666566271919834  0.0047357822101830
  0.3334125472358593  0.6666566271919834  0.4952642177898170
  0.6665874527641407  0.3333433728080166  0.5047357822101830
  0.6665874527641407  0.3333433728080166  0.9952642177898170
  0.6692916785289782  0.3326740479219339  0.2500000000000000
  0.3307083214710218  0.6673259520780661  0.7500000000000000
  0.9990354985042202  0.0001014884923123  0.1409682537513248
  0.9990354985042202  0.0001014884923123  0.3590317462486752
  0.0009645014957869  0.9998985115076877  0.6409682537513248
  0.0009645014957869  0.9998985115076877  0.8590317462486752
 
  0.00000000E+00  0.00000000E+00  0.00000000E+00
  0.00000000E+00  0.00000000E+00  0.00000000E+00
  0.00000000E+00  0.00000000E+00  0.00000000E+00
  0.00000000E+00  0.00000000E+00  0.00000000E+00
  0.00000000E+00  0.00000000E+00  0.00000000E+00
  0.00000000E+00  0.00000000E+00  0.00000000E+00
  0.00000000E+00  0.00000000E+00  0.00000000E+00
  0.00000000E+00  0.00000000E+00  0.00000000E+00
  0.00000000E+00  0.00000000E+00  0.00000000E+00
  0.00000000E+00  0.00000000E+00  0.00000000E+00
