CaI3                                    
   1.00000000000000     
     3.9323470278864598    3.3876928349725555    8.7759305365628801
    -2.7572022916847962    2.3210563204496428    8.4922745901100924
    -0.2872553655807700   -3.9737054040795368    8.1567433238408711
   Ca   I 
     2     6
Direct
  0.1942594907717563  0.1115395706985893  0.1958075387632974
  0.8057657229550870  0.8884822220617465  0.8042260540754285
  0.7716933531678194  0.4285340794369361  0.0794933462767631
  0.5960666973020210  0.9055450155839893  0.2392487745891003
  0.0790549315260805  0.7495639952965476  0.4304311788646231
  0.9209670667644119  0.2504702490357715  0.5695835789679649
  0.4039511435020628  0.0944898668889067  0.7607726701817299
  0.2283415940107716  0.5714750009975091  0.9205368582811033
 
  0.00000000E+00  0.00000000E+00  0.00000000E+00
  0.00000000E+00  0.00000000E+00  0.00000000E+00
  0.00000000E+00  0.00000000E+00  0.00000000E+00
  0.00000000E+00  0.00000000E+00  0.00000000E+00
  0.00000000E+00  0.00000000E+00  0.00000000E+00
  0.00000000E+00  0.00000000E+00  0.00000000E+00
  0.00000000E+00  0.00000000E+00  0.00000000E+00
  0.00000000E+00  0.00000000E+00  0.00000000E+00
