Be3In                                   
   1.00000000000000     
     5.5966388921191825   -0.0069028806073596    0.0000000000000000
    -2.8042979237687411    4.8436429812056589    0.0000000000000000
     0.0000000000000000    0.0000000000000000    3.7377008874141358
   Be   In
     6     2
Direct
  0.1299944581341990  0.2602164032917145  0.2500000000000000
  0.7397653225647147  0.8699955967153770  0.2500000000000000
  0.1296974108297064  0.8702993062709226  0.2500000000000000
  0.8700055418658010  0.7397835967082855  0.7500000000000000
  0.2602346774352853  0.1300044032846230  0.7500000000000000
  0.8703025891702936  0.1297006937290774  0.7500000000000000
  0.3332760802612356  0.6667188177594667  0.7500000000000000
  0.6667239197387644  0.3332811822405262  0.2500000000000000
 
  0.00000000E+00  0.00000000E+00  0.00000000E+00
  0.00000000E+00  0.00000000E+00  0.00000000E+00
  0.00000000E+00  0.00000000E+00  0.00000000E+00
  0.00000000E+00  0.00000000E+00  0.00000000E+00
  0.00000000E+00  0.00000000E+00  0.00000000E+00
  0.00000000E+00  0.00000000E+00  0.00000000E+00
  0.00000000E+00  0.00000000E+00  0.00000000E+00
  0.00000000E+00  0.00000000E+00  0.00000000E+00
