Ca18 B11                                
   1.00000000000000     
     7.1443221499940073   -2.6835458230996800    3.4230525798450211
     2.1615557067871793    9.2999177340021717    4.6094534263131939
    -8.7667053622655651   -5.6832336054627133    2.7049448780627312
   B    Ca
    11    18
Direct
  0.5508971554185180  0.0971656286227471  0.0000401214859735
  0.1907936706439486  0.1962147549924182  0.2666900274352528
  0.7701857568659491  0.1842409121171187  0.1116395236895329
  0.4482194409693889  0.9727365848957703  0.2921734707375236
  0.3726924617760474  0.1244774208852846  0.3178842350854083
  0.9807141893729252  0.1926207338812702  0.2296128976947713
  0.7511618166275724  0.9630955432092918  0.7705505722019410
  0.0547295830798546  0.8066822405155634  0.6820944907832640
  0.1559702852320299  0.6806535580939368  0.7078138358442416
  0.6586256059855842  0.0726491343702165  0.8884970909721375
  0.9240397339051611  0.9296105635310923  0.7333006374604594
  0.2463594453274141  0.9577662747015125  0.9999899745195791
  0.5780655415390896  0.3669563589709099  0.9999548489058370
  0.8449225103344347  0.9095287395727141  0.0000839622405664
  0.8982399575433533  0.5759941002212727  0.9998660753019735
  0.9826205257577030  0.2300501610787222  0.0000815035119217
  0.4697941978096125  0.7123061286446344  0.9999112157834489
  0.8383054000273944  0.8181048346960935  0.4028849861507169
  0.7165815063154071  0.1146265011676491  0.3008062038610433
  0.0261144777699727  0.4946393110899692  0.3787071506880224
  0.1652586350434007  0.0380270780022798  0.3882711302877908
  0.3696062632855259  0.7142506213273094  0.2913833303432725
  0.4455523427235377  0.3340959461326491  0.2382909633072288
  0.2070826326146573  0.0958997363482652  0.7617393855275978
  0.0781032952639293  0.4228393021453414  0.7083873701815122
  0.7769293304724911  0.6498841054647713  0.6118166738842064
  0.6475157555301934  0.1158625063312542  0.6213192659418638
  0.4157347061159342  0.8139276877801507  0.6992163615337219
  0.4353857766489639  0.4151305312098046  0.5969926946391837
 
  0.00000000E+00  0.00000000E+00  0.00000000E+00
  0.00000000E+00  0.00000000E+00  0.00000000E+00
  0.00000000E+00  0.00000000E+00  0.00000000E+00
  0.00000000E+00  0.00000000E+00  0.00000000E+00
  0.00000000E+00  0.00000000E+00  0.00000000E+00
  0.00000000E+00  0.00000000E+00  0.00000000E+00
  0.00000000E+00  0.00000000E+00  0.00000000E+00
  0.00000000E+00  0.00000000E+00  0.00000000E+00
  0.00000000E+00  0.00000000E+00  0.00000000E+00
  0.00000000E+00  0.00000000E+00  0.00000000E+00
  0.00000000E+00  0.00000000E+00  0.00000000E+00
  0.00000000E+00  0.00000000E+00  0.00000000E+00
  0.00000000E+00  0.00000000E+00  0.00000000E+00
  0.00000000E+00  0.00000000E+00  0.00000000E+00
  0.00000000E+00  0.00000000E+00  0.00000000E+00
  0.00000000E+00  0.00000000E+00  0.00000000E+00
  0.00000000E+00  0.00000000E+00  0.00000000E+00
  0.00000000E+00  0.00000000E+00  0.00000000E+00
  0.00000000E+00  0.00000000E+00  0.00000000E+00
  0.00000000E+00  0.00000000E+00  0.00000000E+00
  0.00000000E+00  0.00000000E+00  0.00000000E+00
  0.00000000E+00  0.00000000E+00  0.00000000E+00
  0.00000000E+00  0.00000000E+00  0.00000000E+00
  0.00000000E+00  0.00000000E+00  0.00000000E+00
  0.00000000E+00  0.00000000E+00  0.00000000E+00
  0.00000000E+00  0.00000000E+00  0.00000000E+00
  0.00000000E+00  0.00000000E+00  0.00000000E+00
  0.00000000E+00  0.00000000E+00  0.00000000E+00
  0.00000000E+00  0.00000000E+00  0.00000000E+00
