Mg4 In10 F2                             
   1.00000000000000     
     7.4886912154197081    1.0678317789241791   -0.1624665607444669
    -2.6597937030321392    7.7134248292653131   -1.2898737806747633
    -4.2632051263844790   -4.5023198581590504    7.0199921994589243
   F    Mg   In
     2     4    10
Direct
  0.9577960969249304  0.1408828864425260  0.2641528109866158
  0.0420886619823619  0.8589732684409981  0.7356382974153703
  0.8031965893524315  0.6028744575683405  0.1804879292598969
  0.5915989943687734  0.2159805888739399  0.4350243773126152
  0.4085142544460325  0.7841166726799926  0.5651999491078143
  0.1968768296185033  0.3972302293476773  0.8195919757196251
  0.0000662637456941  0.9998735015430142  0.9998887486233698
  0.5488994162062397  0.8648268059361754  0.0637382998538740
  0.1714198243256106  0.7366609843575276  0.1251537289817719
  0.4328025536134490  0.4564859082230370  0.2636169226248697
  0.7787468500886163  0.9196117194567535  0.4943373945537175
  0.9998974897652460  0.4996786729072227  0.4997283105148895
  0.2212450148247598  0.0803977434920355  0.5055705835338102
  0.5672629010406496  0.5435548028478294  0.7365808897531423
  0.8287166680145859  0.2633026380792174  0.8749955395421409
  0.4508715916821018  0.1353491198037062  0.9360942422164769
 
  0.00000000E+00  0.00000000E+00  0.00000000E+00
  0.00000000E+00  0.00000000E+00  0.00000000E+00
  0.00000000E+00  0.00000000E+00  0.00000000E+00
  0.00000000E+00  0.00000000E+00  0.00000000E+00
  0.00000000E+00  0.00000000E+00  0.00000000E+00
  0.00000000E+00  0.00000000E+00  0.00000000E+00
  0.00000000E+00  0.00000000E+00  0.00000000E+00
  0.00000000E+00  0.00000000E+00  0.00000000E+00
  0.00000000E+00  0.00000000E+00  0.00000000E+00
  0.00000000E+00  0.00000000E+00  0.00000000E+00
  0.00000000E+00  0.00000000E+00  0.00000000E+00
  0.00000000E+00  0.00000000E+00  0.00000000E+00
  0.00000000E+00  0.00000000E+00  0.00000000E+00
  0.00000000E+00  0.00000000E+00  0.00000000E+00
  0.00000000E+00  0.00000000E+00  0.00000000E+00
  0.00000000E+00  0.00000000E+00  0.00000000E+00
