Sr3 In11                                
   1.0000000000000000     
    -2.4715521290949130    5.8121160355146779    7.1965771162964263
     2.4715521290949130   -5.8121160355146779    7.1965771162964263
     2.4715521290949130    5.8121160355146779   -7.1965771162964263
   Sr   In
     3    11
Direct
  0.6893389142806612  0.6893389142806612  0.0000000000000000
  0.3106610857193388  0.3106610857193388  0.0000000000000000
  0.0000000000000000  0.0000000000000000  0.0000000000000000
  0.5768998282574529  0.8537039764617518  0.7231958517957011
  0.1305081246660507  0.8537039764617518  0.2768041482042989
  0.0317503845887543  0.6575509188648425  0.3741994657239118
  0.4231001717425471  0.1462960235382482  0.2768041482042989
  0.9682496154112457  0.3424490811351575  0.6258005342760882
  0.6951871270070882  0.5000000000000000  0.1951871270070882
  0.3048128729929118  0.5000000000000000  0.8048128729929118
  0.8694918753339493  0.1462960235382482  0.7231958517957011
  0.7166485468590693  0.3424490811351575  0.3741994657239118
  0.5000000000000000  0.0000000000000000  0.5000000000000000
  0.2833514531409307  0.6575509188648425  0.6258005342760882

  0.00000000E+00  0.00000000E+00  0.00000000E+00
  0.00000000E+00  0.00000000E+00  0.00000000E+00
  0.00000000E+00  0.00000000E+00  0.00000000E+00
  0.00000000E+00  0.00000000E+00  0.00000000E+00
  0.00000000E+00  0.00000000E+00  0.00000000E+00
  0.00000000E+00  0.00000000E+00  0.00000000E+00
  0.00000000E+00  0.00000000E+00  0.00000000E+00
  0.00000000E+00  0.00000000E+00  0.00000000E+00
  0.00000000E+00  0.00000000E+00  0.00000000E+00
  0.00000000E+00  0.00000000E+00  0.00000000E+00
  0.00000000E+00  0.00000000E+00  0.00000000E+00
  0.00000000E+00  0.00000000E+00  0.00000000E+00
  0.00000000E+00  0.00000000E+00  0.00000000E+00
  0.00000000E+00  0.00000000E+00  0.00000000E+00
