Sr15 B1                                 
   1.00000000000000     
     4.1995707712893546   -7.2738706400128628    0.0000000000000000
     4.1995707712893546    7.2738706400128628    0.0000000000000000
     0.0000000000000000    0.0000000000000000   13.2172475345180480
   Sr   B 
    15     1
Direct
  0.3333330000000032  0.6666669999999968  0.5000000000000000
  0.8279179843907301  0.6558359687823696  0.0000000000000000
  0.8352922428901906  0.6705834857878727  0.5000000000000000
  0.8279179843916395  0.1720820156083605  0.0000000000000000
  0.8352922428976797  0.1647077571023203  0.5000000000000000
  0.3441640312176304  0.1720820156092699  0.0000000000000000
  0.3294165142121273  0.1647077571098094  0.5000000000000000
  0.6503955313580292  0.8251982656591252  0.2281140659318766
  0.6503955313580292  0.8251982656591252  0.7718859340681234
  0.1748017343010915  0.8251982656989085  0.2281140659318766
  0.1748017343010915  0.8251982656989085  0.7718859340681234
  0.1748017343408748  0.3496044686419708  0.2281140659318766
  0.1748017343408748  0.3496044686419708  0.7718859340681234
  0.6666669999999968  0.3333330000000032  0.2565358155691513
  0.6666669999999968  0.3333330000000032  0.7434641844308487
  0.3333330000000032  0.6666669999999968  0.0000000000000000
 
  0.00000000E+00  0.00000000E+00  0.00000000E+00
  0.00000000E+00  0.00000000E+00  0.00000000E+00
  0.00000000E+00  0.00000000E+00  0.00000000E+00
  0.00000000E+00  0.00000000E+00  0.00000000E+00
  0.00000000E+00  0.00000000E+00  0.00000000E+00
  0.00000000E+00  0.00000000E+00  0.00000000E+00
  0.00000000E+00  0.00000000E+00  0.00000000E+00
  0.00000000E+00  0.00000000E+00  0.00000000E+00
  0.00000000E+00  0.00000000E+00  0.00000000E+00
  0.00000000E+00  0.00000000E+00  0.00000000E+00
  0.00000000E+00  0.00000000E+00  0.00000000E+00
  0.00000000E+00  0.00000000E+00  0.00000000E+00
  0.00000000E+00  0.00000000E+00  0.00000000E+00
  0.00000000E+00  0.00000000E+00  0.00000000E+00
  0.00000000E+00  0.00000000E+00  0.00000000E+00
  0.00000000E+00  0.00000000E+00  0.00000000E+00
