MgTlBr3                                 
   1.0000000000000000     
     7.4657106096495616    0.0019825672326448    0.0000000000000000
    -3.7311318720674893    6.4667631642770429    0.0000000000000000
     0.0000000000000000    0.0000000000000000    6.5442017407217730
   Br   Mg   Tl
     6     2     2
Direct
  0.1636453496862842  0.3280291634033574  0.2500000000000000
  0.1642389713367436  0.8356510819480576  0.2500000000000000
  0.6720509245695538  0.8364566970483551  0.2500000000000000
  0.3279490754304462  0.1635433029516449  0.7500000000000000
  0.8357610286632564  0.1643489180519353  0.7500000000000000
  0.8363546503137158  0.6719708365966426  0.7500000000000000
  0.0000000000000000  0.0000000000000000  0.0000000000000000
  0.0000000000000000  0.0000000000000000  0.5000000000000000
  0.6694892160035266  0.3305077218477237  0.2500000000000000
  0.3305107839964734  0.6694922781522763  0.7500000000000000

  0.00000000E+00  0.00000000E+00  0.00000000E+00
  0.00000000E+00  0.00000000E+00  0.00000000E+00
  0.00000000E+00  0.00000000E+00  0.00000000E+00
  0.00000000E+00  0.00000000E+00  0.00000000E+00
  0.00000000E+00  0.00000000E+00  0.00000000E+00
  0.00000000E+00  0.00000000E+00  0.00000000E+00
  0.00000000E+00  0.00000000E+00  0.00000000E+00
  0.00000000E+00  0.00000000E+00  0.00000000E+00
  0.00000000E+00  0.00000000E+00  0.00000000E+00
  0.00000000E+00  0.00000000E+00  0.00000000E+00
