Sr17 Al11 I1                            
   1.00000000000000     
     8.6674271010719419   -4.6750793990218593    3.6530606825661702
     0.3337096648810871    9.8493402253925151    3.6917705394832141
    -9.4706049478280274   -5.4517024755805563    4.4441636383591057
   Al   I    Sr
    11     1    17
Direct
  0.6627402909099516  0.9826368055263615  0.0001808744722283
  0.3533583010552377  0.3121306435664977  0.2067706763989747
  0.8395041929607743  0.2213021456963844  0.2362965962585690
  0.2469541221940688  0.8244664531842076  0.2536943662419731
  0.2181107717277442  0.3325620763435495  0.3670328799905747
  0.3714582374714226  0.1485479240857757  0.3570698122558937
  0.0145035738863939  0.7913266243285193  0.6427725818900072
  0.8508052991032073  0.9650392440989108  0.6319756624950799
  0.9935905537638092  0.5707788175777679  0.7465448223746094
  0.6029889311948367  0.9846137187070312  0.7636510010236250
  0.1461245838046565  0.1051350169302765  0.7930994188682021
  0.6032660114503869  0.5890627688006660  0.9994608886490539
  0.9223060559324026  0.5656918439695531  0.0001761289306046
  0.2104908306425699  0.9351860081753429  0.0001326788409770
  0.5394439296894760  0.2423896017070888  0.9997858008746690
  0.9672530048889598  0.1928417433170324  0.9999782643927304
  0.2707826015475305  0.5013327576753426  0.0001887545385983
  0.7926501933005881  0.7385587524463375  0.3372479340390271
  0.5738520929821860  0.9772760565408376  0.2495171604818296
  0.0675661853786806  0.5610562300664768  0.3598337452483236
  0.9948322285086064  0.9827605457081035  0.2117989026513882
  0.4735178880768842  0.7000501554399463  0.4423591152982311
  0.7085327265784542  0.4248517740505520  0.4365077801980703
  0.2720901790194361  0.9887307052393908  0.5636690168908061
  0.0316632364174367  0.2580742004141641  0.5578178664435640
  0.7836543078102878  0.7714502775729031  0.7883712771883609
  0.7084291712238624  0.2015978314437632  0.6409110944119405
  0.3247017142052400  0.7280583068586424  0.7511972506713107
  0.4557847842749254  0.4018309705285787  0.6619586479807893
 
  0.00000000E+00  0.00000000E+00  0.00000000E+00
  0.00000000E+00  0.00000000E+00  0.00000000E+00
  0.00000000E+00  0.00000000E+00  0.00000000E+00
  0.00000000E+00  0.00000000E+00  0.00000000E+00
  0.00000000E+00  0.00000000E+00  0.00000000E+00
  0.00000000E+00  0.00000000E+00  0.00000000E+00
  0.00000000E+00  0.00000000E+00  0.00000000E+00
  0.00000000E+00  0.00000000E+00  0.00000000E+00
  0.00000000E+00  0.00000000E+00  0.00000000E+00
  0.00000000E+00  0.00000000E+00  0.00000000E+00
  0.00000000E+00  0.00000000E+00  0.00000000E+00
  0.00000000E+00  0.00000000E+00  0.00000000E+00
  0.00000000E+00  0.00000000E+00  0.00000000E+00
  0.00000000E+00  0.00000000E+00  0.00000000E+00
  0.00000000E+00  0.00000000E+00  0.00000000E+00
  0.00000000E+00  0.00000000E+00  0.00000000E+00
  0.00000000E+00  0.00000000E+00  0.00000000E+00
  0.00000000E+00  0.00000000E+00  0.00000000E+00
  0.00000000E+00  0.00000000E+00  0.00000000E+00
  0.00000000E+00  0.00000000E+00  0.00000000E+00
  0.00000000E+00  0.00000000E+00  0.00000000E+00
  0.00000000E+00  0.00000000E+00  0.00000000E+00
  0.00000000E+00  0.00000000E+00  0.00000000E+00
  0.00000000E+00  0.00000000E+00  0.00000000E+00
  0.00000000E+00  0.00000000E+00  0.00000000E+00
  0.00000000E+00  0.00000000E+00  0.00000000E+00
  0.00000000E+00  0.00000000E+00  0.00000000E+00
  0.00000000E+00  0.00000000E+00  0.00000000E+00
  0.00000000E+00  0.00000000E+00  0.00000000E+00
