Mg8 In4 Br28                            
   1.0000000000000000     
     6.9013130329688144   -0.0015559196182865    2.3492536391789844
    -0.0006606540836546   16.9714286919815898   -0.0006571708218515
     2.7499391124861972   -0.0011405035868986   14.0304088066958368
   Mg   Br   In
     8    28     4
Direct
  0.5429065005624238  0.7765306138595989  0.0612881485063710
  0.3170124506686776  0.9781115105217992  0.1412774560615020
  0.6831945824742434  0.4781112710909383  0.3587609443126283
  0.4570200737718437  0.2765190825934951  0.4387282423691516
  0.5445625018649309  0.7236046280778083  0.5612002547827686
  0.3188169355343931  0.5220803874919184  0.6409612680282848
  0.6810191800727239  0.0221068196215057  0.8590332238324550
  0.4556495464142714  0.2236327683659098  0.9387671780786206
  0.6201553589720987  0.6550997477741092  0.9433067754928288
  0.8728801929237378  0.8631960777087500  0.0171198990560200
  0.4411639330951331  0.9016581089662097  0.9622585707084070
  0.0748116313424774  0.4963514641840376  0.2705403409303813
  0.4194152054182041  0.2150226410263016  0.2807915788165829
  0.8753579435057048  0.2716420123182886  0.3073961389683220
  0.6046650625614376  0.4344887212010775  0.2152948102711107
  0.3954543173828142  0.9345302797881416  0.2847868073728890
  0.1245675524498253  0.7716567387417754  0.1926110140410486
  0.5803961494940140  0.7150660080658540  0.2192592672683631
  0.9254005435368668  0.9963804796927676  0.2295186436232370
  0.5588479937325417  0.4016655728854843  0.5377643154710228
  0.1269901059925829  0.3631321191352228  0.4829505772262266
  0.3799100338743457  0.1550845732140687  0.5566940968481333
  0.6192585401663919  0.8448474468779423  0.4432885262539017
  0.8742608752395995  0.6368824438586884  0.5170069246594977
  0.4431010340589836  0.5984606720310666  0.4618633740353744
  0.0725726052434794  0.0036027602031439  0.7707647622995637
  0.4178573894152535  0.2850077300004585  0.7808857932283502
  0.8739596065064106  0.2280213568016052  0.8070720505596114
  0.6027435853121474  0.0651964037323438  0.7152775949100132
  0.3971510617334317  0.5652270130305439  0.7847031194124199
  0.1261608048195626  0.7280432433116886  0.6928761556477028
  0.5823304128627811  0.7850070518343202  0.7190904353154863
  0.9272061625325918  0.5035912496116950  0.7292424350269116
  0.5570171576892307  0.0984747995431547  0.0381027895553530
  0.1259001450171269  0.1368614285958216  0.9829276170690022
  0.3808295633746113  0.3448606380044339  0.0567490917064148
  0.2298205308394188  0.3491524934491324  0.2741322721572175
  0.7701681097785666  0.8491830115413777  0.2259166436096223
  0.2284774963781047  0.1507463426212041  0.7740757012812409
  0.7715871233870075  0.6507622886262894  0.7259151612059966

  0.00000000E+00  0.00000000E+00  0.00000000E+00
  0.00000000E+00  0.00000000E+00  0.00000000E+00
  0.00000000E+00  0.00000000E+00  0.00000000E+00
  0.00000000E+00  0.00000000E+00  0.00000000E+00
  0.00000000E+00  0.00000000E+00  0.00000000E+00
  0.00000000E+00  0.00000000E+00  0.00000000E+00
  0.00000000E+00  0.00000000E+00  0.00000000E+00
  0.00000000E+00  0.00000000E+00  0.00000000E+00
  0.00000000E+00  0.00000000E+00  0.00000000E+00
  0.00000000E+00  0.00000000E+00  0.00000000E+00
  0.00000000E+00  0.00000000E+00  0.00000000E+00
  0.00000000E+00  0.00000000E+00  0.00000000E+00
  0.00000000E+00  0.00000000E+00  0.00000000E+00
  0.00000000E+00  0.00000000E+00  0.00000000E+00
  0.00000000E+00  0.00000000E+00  0.00000000E+00
  0.00000000E+00  0.00000000E+00  0.00000000E+00
  0.00000000E+00  0.00000000E+00  0.00000000E+00
  0.00000000E+00  0.00000000E+00  0.00000000E+00
  0.00000000E+00  0.00000000E+00  0.00000000E+00
  0.00000000E+00  0.00000000E+00  0.00000000E+00
  0.00000000E+00  0.00000000E+00  0.00000000E+00
  0.00000000E+00  0.00000000E+00  0.00000000E+00
  0.00000000E+00  0.00000000E+00  0.00000000E+00
  0.00000000E+00  0.00000000E+00  0.00000000E+00
  0.00000000E+00  0.00000000E+00  0.00000000E+00
  0.00000000E+00  0.00000000E+00  0.00000000E+00
  0.00000000E+00  0.00000000E+00  0.00000000E+00
  0.00000000E+00  0.00000000E+00  0.00000000E+00
  0.00000000E+00  0.00000000E+00  0.00000000E+00
  0.00000000E+00  0.00000000E+00  0.00000000E+00
  0.00000000E+00  0.00000000E+00  0.00000000E+00
  0.00000000E+00  0.00000000E+00  0.00000000E+00
  0.00000000E+00  0.00000000E+00  0.00000000E+00
  0.00000000E+00  0.00000000E+00  0.00000000E+00
  0.00000000E+00  0.00000000E+00  0.00000000E+00
  0.00000000E+00  0.00000000E+00  0.00000000E+00
  0.00000000E+00  0.00000000E+00  0.00000000E+00
  0.00000000E+00  0.00000000E+00  0.00000000E+00
  0.00000000E+00  0.00000000E+00  0.00000000E+00
  0.00000000E+00  0.00000000E+00  0.00000000E+00
