KPOINTS from AFLOWMCLC1 (C-centered monoclinic kgamma > 90) G-Y-F-L-I I1-Z-G-X X1-Y M-G-N Z-F1
20   ! 20 grids 
Line-mode
reciprocal
   0.0000   0.0000   0.0000   ! \Gamma
   0.5000   0.5000   0.0000   ! Y
 
   0.5000   0.5000   0.0000   ! Y
   0.5429   0.5429   0.1701   ! F
 
   0.5429   0.5429   0.1701   ! F
   0.5000   0.5000   0.5000   ! L
 
   0.5000   0.5000   0.5000   ! L
   0.6744   0.3256   0.5000   ! I
 
   0.3256   -0.3256   0.5000   ! I_1
   0.0000   0.0000   0.5000   ! Z
 
   0.0000   0.0000   0.5000   ! Z
   0.0000   0.0000   0.0000   ! \Gamma
 
   0.0000   0.0000   0.0000   ! \Gamma
   0.4024   -0.4024   0.0000   ! X
 
   0.5976   0.4024   0.0000   ! X_1
   0.5000   0.5000   0.0000   ! Y
 
   0.5000   0.0000   0.5000   ! M
   0.0000   0.0000   0.0000   ! \Gamma
 
   0.0000   0.0000   0.0000   ! \Gamma
   0.5000   0.0000   0.0000   ! N
 
   0.0000   0.0000   0.5000   ! Z
   0.4571   0.4571   0.8299   ! F_1
