Ba2 Al2 Br10                            
   1.00000000000000     
     7.1438977866403048    0.0874032230668615    2.6483226708648449
     1.6508078419266115    6.9510963163499806    2.6483226959677602
     0.0092233266392172    0.0073836047042967   10.5307748877521892
   Ba   Al   Br
     2     2    10
Direct
  0.4360295628608739  0.5639704371468213  0.2499999999864855
  0.5639704371391261  0.4360295628531787  0.7500000000135145
  0.0000000000000000  0.0000000000000000  0.5000000000000000
  0.0000000000000000  0.0000000000000000  0.0000000000000000
  0.7996571219970576  0.7694248754350497  0.6115833663418755
  0.2305751245472507  0.2003418780232025  0.8884166336531791
  0.2003418780029449  0.2305751245649503  0.3884176336581291
  0.7694248754527493  0.7996571219768001  0.1115833663468209
  0.9367654100927538  0.0632345899120068  0.7499999999931148
  0.0632345899072462  0.9367654100879932  0.2500000000068852
  0.7296139676947035  0.2986880560904339  0.0288656652191861
  0.7013119439063900  0.2703860323104053  0.4711343347886654
  0.2703860323052965  0.7013119439095661  0.9711343347808139
  0.2986880560936100  0.7296139676895947  0.5288656652113346
 
  0.00000000E+00  0.00000000E+00  0.00000000E+00
  0.00000000E+00  0.00000000E+00  0.00000000E+00
  0.00000000E+00  0.00000000E+00  0.00000000E+00
  0.00000000E+00  0.00000000E+00  0.00000000E+00
  0.00000000E+00  0.00000000E+00  0.00000000E+00
  0.00000000E+00  0.00000000E+00  0.00000000E+00
  0.00000000E+00  0.00000000E+00  0.00000000E+00
  0.00000000E+00  0.00000000E+00  0.00000000E+00
  0.00000000E+00  0.00000000E+00  0.00000000E+00
  0.00000000E+00  0.00000000E+00  0.00000000E+00
  0.00000000E+00  0.00000000E+00  0.00000000E+00
  0.00000000E+00  0.00000000E+00  0.00000000E+00
  0.00000000E+00  0.00000000E+00  0.00000000E+00
  0.00000000E+00  0.00000000E+00  0.00000000E+00
