Sr4 Al8 Cl16                            
   1.00000000000000     
     9.2319184983425782    0.0046748123431763   -0.0071784640963288
     0.0055240623067076    7.4618145372328852    0.9846700884666162
     0.0066086463062160    1.7409902263420745   12.4510455418885826
   Sr   Cl   Al
     4    16     8
Direct
  0.6413006835259125  0.2714611123804644  0.9615402083723197
  0.1396719496648444  0.2275688289832161  0.5382084186168541
  0.8594830250066536  0.7722149851338571  0.4616811902139304
  0.3594573446095026  0.7282037715588956  0.0385649909156953
  0.0549988293836634  0.7889063242575034  0.1118679466429668
  0.4514654682878927  0.3501752777351541  0.1367065890161854
  0.6672298715452172  0.8674933135387022  0.0738033698359288
  0.8355696790896729  0.4350793216920863  0.0929488205686297
  0.3343427157062706  0.0655366561453619  0.4060886375277377
  0.1673848919150416  0.6315744067248161  0.4270902206458160
  0.9502166716464941  0.1499093652849766  0.3631168193086296
  0.5550631960104795  0.7112727457172454  0.3893523460654862
  0.4443020891847311  0.2883935961850170  0.6110066445011455
  0.0491729828344631  0.8498755322181069  0.6368812438416995
  0.8321300333611106  0.3681960405975744  0.5731700359507741
  0.6650274206840834  0.9345762645920175  0.5938389319145045
  0.1649548683258359  0.5649446356939478  0.9071974849554323
  0.3333369805508255  0.1322570435265078  0.9265247278380144
  0.5492033876314224  0.6495913960920845  0.8633354375432774
  0.9455640062829076  0.2111101486212021  0.8881961455363694
  0.2106276094019321  0.1622316862809896  0.1418490010992386
  0.3524456579638269  0.8588301266363487  0.3007969209453947
  0.8522645996308569  0.6405787763291215  0.1990925254853195
  0.7091374737087577  0.3394888292174159  0.3576780045733940
  0.2905049274198603  0.6609028241671098  0.6417334352332205
  0.1480447673043059  0.3599398446725957  0.8007716667655771
  0.6472493184938202  0.1413304505849950  0.6991459000939315
  0.7898495508296222  0.8379566954326947  0.8574123359925281
 
  0.00000000E+00  0.00000000E+00  0.00000000E+00
  0.00000000E+00  0.00000000E+00  0.00000000E+00
  0.00000000E+00  0.00000000E+00  0.00000000E+00
  0.00000000E+00  0.00000000E+00  0.00000000E+00
  0.00000000E+00  0.00000000E+00  0.00000000E+00
  0.00000000E+00  0.00000000E+00  0.00000000E+00
  0.00000000E+00  0.00000000E+00  0.00000000E+00
  0.00000000E+00  0.00000000E+00  0.00000000E+00
  0.00000000E+00  0.00000000E+00  0.00000000E+00
  0.00000000E+00  0.00000000E+00  0.00000000E+00
  0.00000000E+00  0.00000000E+00  0.00000000E+00
  0.00000000E+00  0.00000000E+00  0.00000000E+00
  0.00000000E+00  0.00000000E+00  0.00000000E+00
  0.00000000E+00  0.00000000E+00  0.00000000E+00
  0.00000000E+00  0.00000000E+00  0.00000000E+00
  0.00000000E+00  0.00000000E+00  0.00000000E+00
  0.00000000E+00  0.00000000E+00  0.00000000E+00
  0.00000000E+00  0.00000000E+00  0.00000000E+00
  0.00000000E+00  0.00000000E+00  0.00000000E+00
  0.00000000E+00  0.00000000E+00  0.00000000E+00
  0.00000000E+00  0.00000000E+00  0.00000000E+00
  0.00000000E+00  0.00000000E+00  0.00000000E+00
  0.00000000E+00  0.00000000E+00  0.00000000E+00
  0.00000000E+00  0.00000000E+00  0.00000000E+00
  0.00000000E+00  0.00000000E+00  0.00000000E+00
  0.00000000E+00  0.00000000E+00  0.00000000E+00
  0.00000000E+00  0.00000000E+00  0.00000000E+00
  0.00000000E+00  0.00000000E+00  0.00000000E+00
