Ca1 Tl2 F6                              
   1.0000000000000000     
     2.9084445762951487    1.1901041676247304    4.1031589189171411
    -2.9084445762951487    1.1901041676247304    4.1031589189171411
     0.0000000000000000   -5.0106879036135297    5.0653650764256497
   Ca   F    Tl
     1     6     2
Direct
  0.0000000000000000  0.0000000000000000  0.0000000000000000
  0.7488022810533010  0.7488022810533010  0.9733922528361205
  0.6452068061495169  0.1301586831890162  0.2881281597125280
  0.1301586831890162  0.6452068061495169  0.2881281597125280
  0.2511977189466990  0.2511977189466990  0.0266077471638795
  0.8698413168109838  0.3547931938504831  0.7118718402874720
  0.3547931938504831  0.8698413168109838  0.7118718402874720
  0.1781824738594082  0.1781824738594082  0.3681950688843898
  0.8218175261405918  0.8218175261405918  0.6318049311156102

  0.00000000E+00  0.00000000E+00  0.00000000E+00
  0.00000000E+00  0.00000000E+00  0.00000000E+00
  0.00000000E+00  0.00000000E+00  0.00000000E+00
  0.00000000E+00  0.00000000E+00  0.00000000E+00
  0.00000000E+00  0.00000000E+00  0.00000000E+00
  0.00000000E+00  0.00000000E+00  0.00000000E+00
  0.00000000E+00  0.00000000E+00  0.00000000E+00
  0.00000000E+00  0.00000000E+00  0.00000000E+00
  0.00000000E+00  0.00000000E+00  0.00000000E+00
