Mg16 Ga6                                
   1.00000000000000     
     8.1001298343474577   -0.0477061195175891    0.0927495818870316
     4.0110017025976346    7.1410655360451960    0.0271913650598939
     1.6688785453989543    2.3768737479195887    7.8031869474164504
   Mg   Ga
    16     6
Direct
  0.6509838797969749  0.2733429697121323  0.1109998754057315
  0.0387242614298486  0.6233787871945395  0.1054359495475410
  0.3056871108561694  0.9906065035425939  0.1110177539073618
  0.6691829927957613  0.8028061125865094  0.2982028204508111
  0.8767327977122861  0.3484047600490996  0.3019781646479345
  0.3912062678884851  0.5580041160900180  0.3351818269305866
  0.3172938251490436  0.2120564679713084  0.3379926766920249
  0.9809477086641962  0.9041066044385815  0.3531537247280170
  0.0190811524631584  0.0959250304018013  0.6468457400835064
  0.6827334499367197  0.7879774369554298  0.6619974247110108
  0.6088173811285174  0.4420329840906092  0.6648013759043252
  0.1232973772454358  0.6516254373277732  0.6980153862180529
  0.3308455943991575  0.1972331058522698  0.7017863391107682
  0.6943419012784773  0.0094222504896848  0.8889721454890562
  0.9613066745674459  0.3766473543858595  0.8945567605152434
  0.3490433579515155  0.7266926983670103  0.8889881034428910
  0.0000117824804917  0.0000130839163646  0.0000004992305449
  0.6598147830858281  0.6579124828671681  0.0376080426179826
  0.3390298894995780  0.8387960817517097  0.5003445335533527
  0.0000110498349031  0.5000155703526872  0.4999988171652134
  0.6609927543453153  0.1612418494257355  0.4996388151659872
  0.3402140074906939  0.3421173122311245  0.9623832244820392
 
  0.00000000E+00  0.00000000E+00  0.00000000E+00
  0.00000000E+00  0.00000000E+00  0.00000000E+00
  0.00000000E+00  0.00000000E+00  0.00000000E+00
  0.00000000E+00  0.00000000E+00  0.00000000E+00
  0.00000000E+00  0.00000000E+00  0.00000000E+00
  0.00000000E+00  0.00000000E+00  0.00000000E+00
  0.00000000E+00  0.00000000E+00  0.00000000E+00
  0.00000000E+00  0.00000000E+00  0.00000000E+00
  0.00000000E+00  0.00000000E+00  0.00000000E+00
  0.00000000E+00  0.00000000E+00  0.00000000E+00
  0.00000000E+00  0.00000000E+00  0.00000000E+00
  0.00000000E+00  0.00000000E+00  0.00000000E+00
  0.00000000E+00  0.00000000E+00  0.00000000E+00
  0.00000000E+00  0.00000000E+00  0.00000000E+00
  0.00000000E+00  0.00000000E+00  0.00000000E+00
  0.00000000E+00  0.00000000E+00  0.00000000E+00
  0.00000000E+00  0.00000000E+00  0.00000000E+00
  0.00000000E+00  0.00000000E+00  0.00000000E+00
  0.00000000E+00  0.00000000E+00  0.00000000E+00
  0.00000000E+00  0.00000000E+00  0.00000000E+00
  0.00000000E+00  0.00000000E+00  0.00000000E+00
  0.00000000E+00  0.00000000E+00  0.00000000E+00
