B20 Cl4                                 
   1.00000000000000     
     5.6140405523344148    2.9209321150524969    0.0730175725379156
    -5.6140405523344148    2.9209321150524969    0.0730175725379156
     0.0000000000000000    2.1033862198144457   10.6851897785206678
   B    Cl
    20     4
Direct
  0.7096256820976450  0.5845063995972168  0.7237681629937569
  0.4154936004027832  0.2903743179023550  0.7762318370062431
  0.2903743179023550  0.4154936004027832  0.2762318370062431
  0.5845063995972168  0.7096256820976450  0.2237681629937569
  0.0941543892832115  0.4991813412592023  0.6834465310990225
  0.5008186587407977  0.9058456107167885  0.8165534689009775
  0.9058456107167885  0.5008186587407977  0.3165534689009775
  0.4991813412592023  0.0941543892832115  0.1834465310990225
  0.0766343710704689  0.4592854915174343  0.5415015785784121
  0.5407145084825657  0.9233656289295311  0.9584984214215879
  0.9233656289295311  0.5407145084825657  0.4584984214215879
  0.4592854915174343  0.0766343710704689  0.0415015785784121
  0.9021487969241804  0.5542503932909497  0.6112980034827942
  0.4457496067090503  0.0978512030758196  0.8887019965172058
  0.0978512030758196  0.4457496067090503  0.3887019965172058
  0.5542503932909497  0.9021487969241804  0.1112980034827942
  0.0278530735524569  0.7193744580774393  0.7280090762529454
  0.2806255419225536  0.9721469264475431  0.7719909237470546
  0.9721469264475431  0.2806255419225536  0.2719909237470546
  0.7193744580774393  0.0278530735524569  0.2280090762529454
  0.6608676888442773  0.8677595460254395  0.6777907232575870
  0.1322404539745605  0.3391323111557227  0.8222092767424130
  0.3391323111557227  0.1322404539745605  0.3222092767424130
  0.8677595460254395  0.6608676888442773  0.1777907232575870
 
  0.00000000E+00  0.00000000E+00  0.00000000E+00
  0.00000000E+00  0.00000000E+00  0.00000000E+00
  0.00000000E+00  0.00000000E+00  0.00000000E+00
  0.00000000E+00  0.00000000E+00  0.00000000E+00
  0.00000000E+00  0.00000000E+00  0.00000000E+00
  0.00000000E+00  0.00000000E+00  0.00000000E+00
  0.00000000E+00  0.00000000E+00  0.00000000E+00
  0.00000000E+00  0.00000000E+00  0.00000000E+00
  0.00000000E+00  0.00000000E+00  0.00000000E+00
  0.00000000E+00  0.00000000E+00  0.00000000E+00
  0.00000000E+00  0.00000000E+00  0.00000000E+00
  0.00000000E+00  0.00000000E+00  0.00000000E+00
  0.00000000E+00  0.00000000E+00  0.00000000E+00
  0.00000000E+00  0.00000000E+00  0.00000000E+00
  0.00000000E+00  0.00000000E+00  0.00000000E+00
  0.00000000E+00  0.00000000E+00  0.00000000E+00
  0.00000000E+00  0.00000000E+00  0.00000000E+00
  0.00000000E+00  0.00000000E+00  0.00000000E+00
  0.00000000E+00  0.00000000E+00  0.00000000E+00
  0.00000000E+00  0.00000000E+00  0.00000000E+00
  0.00000000E+00  0.00000000E+00  0.00000000E+00
  0.00000000E+00  0.00000000E+00  0.00000000E+00
  0.00000000E+00  0.00000000E+00  0.00000000E+00
  0.00000000E+00  0.00000000E+00  0.00000000E+00
