BaTl3                                   
   1.0000000000000000     
     7.9195345559413397   -0.0144277289499091    0.0000000000000000
    -3.9721936439294496    6.8381580204789634    0.0000000000000000
     0.0000000000000000    0.0000000000000000    5.1698879191579881
   Ba   Tl
     2     6
Direct
  0.3329134928508282  0.6683203082929765  0.7500000000000000
  0.6670865071491718  0.3316796917070235  0.2500000000000000
  0.1497469330849910  0.2976475405799235  0.2500000000000000
  0.7032876155193648  0.8501619698356109  0.2500000000000000
  0.1471998939796464  0.8519085524849430  0.2500000000000000
  0.8502530669150090  0.7023524594200765  0.7500000000000000
  0.2967123844806423  0.1498380301643891  0.7500000000000000
  0.8528001060203536  0.1480914475150570  0.7500000000000000

  0.00000000E+00  0.00000000E+00  0.00000000E+00
  0.00000000E+00  0.00000000E+00  0.00000000E+00
  0.00000000E+00  0.00000000E+00  0.00000000E+00
  0.00000000E+00  0.00000000E+00  0.00000000E+00
  0.00000000E+00  0.00000000E+00  0.00000000E+00
  0.00000000E+00  0.00000000E+00  0.00000000E+00
  0.00000000E+00  0.00000000E+00  0.00000000E+00
  0.00000000E+00  0.00000000E+00  0.00000000E+00
