Mg13 B14                                
   1.00000000000000     
     5.9181227989616199   -3.7058379760275013   -0.1135229147078740
     5.9181227989616199    3.7058379760275013   -0.1135229147078740
    -2.4364372827375762    0.0000000000000000    7.0101017348733503
   B    Mg
    14    13
Direct
  0.7718205002975438  0.2282186078418107  0.9999771026996456
  0.2282186078418107  0.7718205002975438  0.9999771026996456
  0.7595138765603622  0.5214042461101869  0.0934458193017917
  0.5214042461101869  0.7595138765603622  0.0934458193017917
  0.9962238350916834  0.9962238350916834  0.1238642364802942
  0.7159111023146068  0.7159111023146068  0.3370959153676338
  0.3612016359423862  0.3612016359423862  0.4719208143550020
  0.6347395488745562  0.3653006398740999  0.4999778376148498
  0.3653006398740999  0.6347395488745562  0.4999778376148498
  0.6388379431926694  0.6388379431926694  0.5280350636094084
  0.2841272029730959  0.2841272029730959  0.6628603819870094
  0.0038165525447553  0.0038165525447553  0.8760876704633134
  0.4786352623125865  0.2405249768672491  0.9065099998787787
  0.2405249768672491  0.4786352623125865  0.9065099998787787
  0.2026805288962947  0.2026805288962947  0.1005772851457607
  0.4888290486571663  0.4888290486571663  0.2004447854287008
  0.6469681170811228  0.0568707956278445  0.2224065798674388
  0.0568707956278445  0.6469681170811228  0.2224065798674388
  0.9357763577488001  0.3396953510306915  0.3618765521804477
  0.3396953510306915  0.9357763577488001  0.3618765521804477
  0.0000241911800742  0.0000241911800742  0.4999768551422292
  0.6603456755977106  0.0642623096751365  0.6380770442016157
  0.0642623096751365  0.6603456755977106  0.6380770442016157
  0.9431671660834127  0.3530740694682493  0.7775523850308943
  0.3530740694682493  0.9431671660834127  0.7775523850308943
  0.5112097898952470  0.5112097898952470  0.7995111830861887
  0.7973606682606516  0.7973606682606516  0.8993791673835503
 
  0.00000000E+00  0.00000000E+00  0.00000000E+00
  0.00000000E+00  0.00000000E+00  0.00000000E+00
  0.00000000E+00  0.00000000E+00  0.00000000E+00
  0.00000000E+00  0.00000000E+00  0.00000000E+00
  0.00000000E+00  0.00000000E+00  0.00000000E+00
  0.00000000E+00  0.00000000E+00  0.00000000E+00
  0.00000000E+00  0.00000000E+00  0.00000000E+00
  0.00000000E+00  0.00000000E+00  0.00000000E+00
  0.00000000E+00  0.00000000E+00  0.00000000E+00
  0.00000000E+00  0.00000000E+00  0.00000000E+00
  0.00000000E+00  0.00000000E+00  0.00000000E+00
  0.00000000E+00  0.00000000E+00  0.00000000E+00
  0.00000000E+00  0.00000000E+00  0.00000000E+00
  0.00000000E+00  0.00000000E+00  0.00000000E+00
  0.00000000E+00  0.00000000E+00  0.00000000E+00
  0.00000000E+00  0.00000000E+00  0.00000000E+00
  0.00000000E+00  0.00000000E+00  0.00000000E+00
  0.00000000E+00  0.00000000E+00  0.00000000E+00
  0.00000000E+00  0.00000000E+00  0.00000000E+00
  0.00000000E+00  0.00000000E+00  0.00000000E+00
  0.00000000E+00  0.00000000E+00  0.00000000E+00
  0.00000000E+00  0.00000000E+00  0.00000000E+00
  0.00000000E+00  0.00000000E+00  0.00000000E+00
  0.00000000E+00  0.00000000E+00  0.00000000E+00
  0.00000000E+00  0.00000000E+00  0.00000000E+00
  0.00000000E+00  0.00000000E+00  0.00000000E+00
  0.00000000E+00  0.00000000E+00  0.00000000E+00
