SrTlCl3                                 
   1.0000000000000000     
     5.7170002564157745    0.0000000000000000    0.0000000000000000
     0.0000000000000000    5.7170002564157745    0.0000000000000000
     0.0000000000000000   -0.0000000000000000    5.7589996261616090
   Cl   Sr   Tl
     3     1     1
Direct
  0.0000000000000000  0.0000000000000000  0.0428109838511617
  0.5000000000000000  0.0000000000000000  0.5947149654188806
  0.0000000000000000  0.5000000000000000  0.5947149654188806
  0.0000000000000000  0.0000000000000000  0.5346914445283915
  0.5000000000000000  0.5000000000000000  0.8743676407826868

  0.00000000E+00  0.00000000E+00  0.00000000E+00
  0.00000000E+00  0.00000000E+00  0.00000000E+00
  0.00000000E+00  0.00000000E+00  0.00000000E+00
  0.00000000E+00  0.00000000E+00  0.00000000E+00
  0.00000000E+00  0.00000000E+00  0.00000000E+00
