MgBr3                                   
   1.00000000000000     
     8.7634347227769656    0.1504545724880434    0.0000000000000000
    -4.2509784550683847    7.6789388226457147    0.0000000000000000
     0.0000000000000000    0.0000000000000000    3.6815742061436953
   Br   Mg
     6     2
Direct
  0.1917074609343175  0.4695520708601109  0.2500000000000000
  0.1415265240309651  0.8579158342777049  0.2500000000000000
  0.5309719098853236  0.8088229550711148  0.2500000000000000
  0.4690280901146764  0.1911770449288852  0.7500000000000000
  0.8584734759690349  0.1420841657222951  0.7500000000000000
  0.8082925390656825  0.5304479291398820  0.7500000000000000
  0.7293195550368097  0.2706120079455800  0.2500000000000000
  0.2706804449631903  0.7293879920544200  0.7500000000000000
 
  0.00000000E+00  0.00000000E+00  0.00000000E+00
  0.00000000E+00  0.00000000E+00  0.00000000E+00
  0.00000000E+00  0.00000000E+00  0.00000000E+00
  0.00000000E+00  0.00000000E+00  0.00000000E+00
  0.00000000E+00  0.00000000E+00  0.00000000E+00
  0.00000000E+00  0.00000000E+00  0.00000000E+00
  0.00000000E+00  0.00000000E+00  0.00000000E+00
  0.00000000E+00  0.00000000E+00  0.00000000E+00
