Ca2 Al4 F16                             
   1.00000000000000     
     5.4564207150285853    3.2750115965988664    0.1259513698080191
    -5.4564207150285853    3.2750115965988664    0.1259513698080191
     0.0000000000000000    0.5524505944212581    6.9968111339702759
   Ca   Al   F 
     2     4    16
Direct
  0.5428995852380609  0.4571004147619391  0.7500000000000000
  0.4571004147619391  0.5428995852380609  0.2500000000000000
  0.8713339310876904  0.1286660689123096  0.7500000000000000
  0.1286660689123096  0.8713339310876904  0.2500000000000000
  0.5000000000000000  0.0000000000000000  0.5000000000000000
  0.0000000000000000  0.5000000000000000  0.0000000000000000
  0.7787114996973372  0.8278394170778540  0.7991959205760324
  0.2212885003026557  0.1721605829221460  0.2008040794239676
  0.1721605829221460  0.2212885003026557  0.7008040794239676
  0.8278394170778540  0.7787114996973372  0.2991959205760324
  0.5415226063138476  0.0619431909105188  0.7558209300317742
  0.4584773936861524  0.9380568090894741  0.2441790699682258
  0.9380568090894741  0.4584773936861524  0.7441790699682258
  0.0619431909105188  0.5415226063138476  0.2558209300317742
  0.1785666919444537  0.8822064237505245  0.5044608693869037
  0.8214333080555463  0.1177935762494755  0.4955391306130963
  0.1177935762494755  0.8214333080555463  0.9955391306130963
  0.8822064237505245  0.1785666919444537  0.0044608693869037
  0.4483244307189267  0.6968233545373366  0.5432362586131987
  0.5516755692810733  0.3031766454626634  0.4567637413868013
  0.3031766454626634  0.5516755692810733  0.9567637413868013
  0.6968233545373366  0.4483244307189267  0.0432362586131987
 
  0.00000000E+00  0.00000000E+00  0.00000000E+00
  0.00000000E+00  0.00000000E+00  0.00000000E+00
  0.00000000E+00  0.00000000E+00  0.00000000E+00
  0.00000000E+00  0.00000000E+00  0.00000000E+00
  0.00000000E+00  0.00000000E+00  0.00000000E+00
  0.00000000E+00  0.00000000E+00  0.00000000E+00
  0.00000000E+00  0.00000000E+00  0.00000000E+00
  0.00000000E+00  0.00000000E+00  0.00000000E+00
  0.00000000E+00  0.00000000E+00  0.00000000E+00
  0.00000000E+00  0.00000000E+00  0.00000000E+00
  0.00000000E+00  0.00000000E+00  0.00000000E+00
  0.00000000E+00  0.00000000E+00  0.00000000E+00
  0.00000000E+00  0.00000000E+00  0.00000000E+00
  0.00000000E+00  0.00000000E+00  0.00000000E+00
  0.00000000E+00  0.00000000E+00  0.00000000E+00
  0.00000000E+00  0.00000000E+00  0.00000000E+00
  0.00000000E+00  0.00000000E+00  0.00000000E+00
  0.00000000E+00  0.00000000E+00  0.00000000E+00
  0.00000000E+00  0.00000000E+00  0.00000000E+00
  0.00000000E+00  0.00000000E+00  0.00000000E+00
  0.00000000E+00  0.00000000E+00  0.00000000E+00
  0.00000000E+00  0.00000000E+00  0.00000000E+00
