Be4 Tl4 Cl20                            
   1.0000000000000000     
     7.0338678990490955   -0.0000000000000001    0.0000000000000008
    -0.0000000000000006    6.8799466480237603    0.0000000000000007
     0.0000000000000004    0.0000000000000001   26.9051574977584487
   Be   Tl   Cl
     4     4    20
Direct
  0.4389346865476682  0.3886434231716436  0.3641117876834628
  0.9389346865476682  0.1113565768283564  0.6358882123165372
  0.5610653134523247  0.8886434231716436  0.1358882123165372
  0.0610653134523318  0.6113565768283564  0.8641117876834628
  0.3388324616007949  0.8461199880203409  0.3965016294673234
  0.8388324616008020  0.6538800119796591  0.6034983705326695
  0.6611675383991980  0.3461199880203409  0.1034983705326695
  0.1611675383992051  0.1538800119796662  0.8965016294673234
  0.0391254563361940  0.6070010902753751  0.5339886899184094
  0.5391254563361869  0.8929989097246249  0.4660113100815906
  0.9608745436638060  0.1070010902753751  0.9660113100815906
  0.4608745436638060  0.3929989097246249  0.0339886899184094
  0.0319594988292025  0.8835212764630072  0.3620921109771587
  0.5319594988292025  0.6164787235369928  0.6379078890228413
  0.9680405011707975  0.3835212764630072  0.1379078890228413
  0.4680405011707975  0.1164787235369928  0.8620921109771587
  0.2238056985090395  0.5695499807716473  0.9200635099284966
  0.7238056985090395  0.9304500192283527  0.0799364900715105
  0.7761943014909605  0.0695499807716473  0.5799364900715034
  0.2761943014909534  0.4304500192283527  0.4200635099284966
  0.4884169723030212  0.6398804807419864  0.1621181701809817
  0.9884169723030212  0.8601195192580136  0.8378818298190112
  0.5115830276969788  0.1398804807419864  0.3378818298190183
  0.0115830276969788  0.3601195192580136  0.6621181701809888
  0.9656491686304918  0.3784281209819440  0.8310283268114205
  0.4656491686304918  0.1215718790180560  0.1689716731885795
  0.0343508313695082  0.8784281209819440  0.6689716731885795
  0.5343508313695082  0.6215718790180560  0.3310283268114205

  0.00000000E+00  0.00000000E+00  0.00000000E+00
  0.00000000E+00  0.00000000E+00  0.00000000E+00
  0.00000000E+00  0.00000000E+00  0.00000000E+00
  0.00000000E+00  0.00000000E+00  0.00000000E+00
  0.00000000E+00  0.00000000E+00  0.00000000E+00
  0.00000000E+00  0.00000000E+00  0.00000000E+00
  0.00000000E+00  0.00000000E+00  0.00000000E+00
  0.00000000E+00  0.00000000E+00  0.00000000E+00
  0.00000000E+00  0.00000000E+00  0.00000000E+00
  0.00000000E+00  0.00000000E+00  0.00000000E+00
  0.00000000E+00  0.00000000E+00  0.00000000E+00
  0.00000000E+00  0.00000000E+00  0.00000000E+00
  0.00000000E+00  0.00000000E+00  0.00000000E+00
  0.00000000E+00  0.00000000E+00  0.00000000E+00
  0.00000000E+00  0.00000000E+00  0.00000000E+00
  0.00000000E+00  0.00000000E+00  0.00000000E+00
  0.00000000E+00  0.00000000E+00  0.00000000E+00
  0.00000000E+00  0.00000000E+00  0.00000000E+00
  0.00000000E+00  0.00000000E+00  0.00000000E+00
  0.00000000E+00  0.00000000E+00  0.00000000E+00
  0.00000000E+00  0.00000000E+00  0.00000000E+00
  0.00000000E+00  0.00000000E+00  0.00000000E+00
  0.00000000E+00  0.00000000E+00  0.00000000E+00
  0.00000000E+00  0.00000000E+00  0.00000000E+00
  0.00000000E+00  0.00000000E+00  0.00000000E+00
  0.00000000E+00  0.00000000E+00  0.00000000E+00
  0.00000000E+00  0.00000000E+00  0.00000000E+00
  0.00000000E+00  0.00000000E+00  0.00000000E+00
