Ca4 B2 I10                              
   1.00000000000000     
     6.3191494050383801   -6.3949171891404788   -0.5892144154917719
     6.3191494050383801    6.3949171891404788   -0.5892144154917719
    -6.8891663747090668    0.0000000000000000    9.2717810570019950
   I    Ca   B 
    10     4     2
Direct
  0.4549820452084887  0.9717563383331296  0.9532946796037791
  0.9717563383331296  0.4549820452084887  0.9532946796037791
  0.9691200845287469  0.9691200845287469  0.2303034225455107
  0.7746023921345184  0.4842717641674312  0.2119154418943978
  0.4842717641674312  0.7746023921345184  0.2119154418943978
  0.2390983564820672  0.2390983564820672  0.1797463144050226
  0.7392288400623173  0.7392288400623173  0.7629518747907014
  0.4953622514211276  0.1773524467106213  0.7400266477285697
  0.1773524467106213  0.4953622514211276  0.7400266477285697
  0.0344380751220612  0.0344380751220612  0.6656702997675907
  0.8208653159401038  0.1376371738714610  0.0125031410966940
  0.3487033216845319  0.3487033216845319  0.0030962728303550
  0.6459310432023102  0.6459310432023102  0.9807368478782195
  0.1376371738714610  0.8208653159401038  0.0125031410966940
  0.9173783134316125  0.2891722376994679  0.6710075735678629
  0.2891722376994679  0.9173783134316125  0.6710075735678629
 
  0.00000000E+00  0.00000000E+00  0.00000000E+00
  0.00000000E+00  0.00000000E+00  0.00000000E+00
  0.00000000E+00  0.00000000E+00  0.00000000E+00
  0.00000000E+00  0.00000000E+00  0.00000000E+00
  0.00000000E+00  0.00000000E+00  0.00000000E+00
  0.00000000E+00  0.00000000E+00  0.00000000E+00
  0.00000000E+00  0.00000000E+00  0.00000000E+00
  0.00000000E+00  0.00000000E+00  0.00000000E+00
  0.00000000E+00  0.00000000E+00  0.00000000E+00
  0.00000000E+00  0.00000000E+00  0.00000000E+00
  0.00000000E+00  0.00000000E+00  0.00000000E+00
  0.00000000E+00  0.00000000E+00  0.00000000E+00
  0.00000000E+00  0.00000000E+00  0.00000000E+00
  0.00000000E+00  0.00000000E+00  0.00000000E+00
  0.00000000E+00  0.00000000E+00  0.00000000E+00
  0.00000000E+00  0.00000000E+00  0.00000000E+00
