Be1 In3 I6                              
   1.00000000000000     
     8.1225309607927763    0.0007829037951988   -0.0009060484962725
     0.0007829037951988    8.1225309607927763   -0.0009060484962725
     4.0610180542654746    4.0610180542654755    5.7577222519213302
   I    Be   In
     6     1     3
Direct
  0.7650547736867779  0.2349452263132221  0.0000000000000000
  0.2351304623310924  0.2351304623310924  0.9996483449876052
  0.2349452263132221  0.7650547736867779  0.0000000000000000
  0.7648695376689076  0.7648695376689076  0.0003516550123948
  0.7654057793295053  0.7654057793295053  0.4700520791122216
  0.2345942206704947  0.2345942206704947  0.5299479208877784
  0.0000000000000000  0.0000000000000000  0.0000000000000000
  0.5000000000000000  0.5000000000000000  0.0000000000000000
  0.2499521933101505  0.7500478066898495  0.5000000000000000
  0.7500478066898495  0.2499521933101505  0.5000000000000000
 
  0.00000000E+00  0.00000000E+00  0.00000000E+00
  0.00000000E+00  0.00000000E+00  0.00000000E+00
  0.00000000E+00  0.00000000E+00  0.00000000E+00
  0.00000000E+00  0.00000000E+00  0.00000000E+00
  0.00000000E+00  0.00000000E+00  0.00000000E+00
  0.00000000E+00  0.00000000E+00  0.00000000E+00
  0.00000000E+00  0.00000000E+00  0.00000000E+00
  0.00000000E+00  0.00000000E+00  0.00000000E+00
  0.00000000E+00  0.00000000E+00  0.00000000E+00
  0.00000000E+00  0.00000000E+00  0.00000000E+00
