Mg2B                                    
   1.00000000000000     
     5.9279892711740194   -0.0000018084802168    0.0000000000000000
    -0.0000027496594667    9.9540593446009034    0.0000000000000000
     0.0000000000000000    0.0000000000000000    3.6239021948650274
   B    Mg
     4     8
Direct
  0.9739853602024269  0.7537315110521305  0.0000000000000000
  0.9740902809192775  0.9129628872416689  0.0000000000000000
  0.8592552341797131  0.2537177719046468  0.5000000000000000
  0.8591477391993436  0.4129586388912543  0.5000000000000000
  0.7145285221253772  0.1052166838057360  0.0000000000000000
  0.0774128863861065  0.3333868647608540  0.0000000000000000
  0.7143504145892052  0.5614344455385591  0.0000000000000000
  0.3489954324954070  0.8332720953709511  0.0000000000000000
  0.1188829751965059  0.0614340267113036  0.5000000000000000
  0.4842362610366990  0.3332720588111258  0.5000000000000000
  0.1187034964397213  0.6052243341799866  0.5000000000000000
  0.7558113972301825  0.8333886817317548  0.5000000000000000
 
  0.00000000E+00  0.00000000E+00  0.00000000E+00
  0.00000000E+00  0.00000000E+00  0.00000000E+00
  0.00000000E+00  0.00000000E+00  0.00000000E+00
  0.00000000E+00  0.00000000E+00  0.00000000E+00
  0.00000000E+00  0.00000000E+00  0.00000000E+00
  0.00000000E+00  0.00000000E+00  0.00000000E+00
  0.00000000E+00  0.00000000E+00  0.00000000E+00
  0.00000000E+00  0.00000000E+00  0.00000000E+00
  0.00000000E+00  0.00000000E+00  0.00000000E+00
  0.00000000E+00  0.00000000E+00  0.00000000E+00
  0.00000000E+00  0.00000000E+00  0.00000000E+00
  0.00000000E+00  0.00000000E+00  0.00000000E+00
