Mg18 Tl11                               
   1.0000000000000000     
     7.9428438679070084    5.6594398884418213   -0.0170915410301902
    -7.9428438679070084    5.6594398884418213   -0.0170915410301902
     0.0000000000000000    5.6087004181306455    8.0477612522108117
   Mg   Tl
    18    11
Direct
  0.9561754590592955  0.9561754590592955  0.0051653684723689
  0.2863273515518614  0.5926971715783154  0.9928729821338749
  0.9954289816907789  0.3028140141474793  0.0057439924672380
  0.3028140141474793  0.9954289816907789  0.0057439924672380
  0.5926971715783154  0.2863273515518614  0.9928729821338749
  0.3745167369426170  0.3745167369426170  0.8019823732604507
  0.6662530883513398  0.6662530883513398  0.7327201828344485
  0.5751679463645161  0.0083747951416981  0.7063241964132132
  0.0083747951416981  0.5751679463645161  0.7063241964132132
  0.9980756199735339  0.9980756199735339  0.6494348392441083
  0.4124841178411103  0.7309099719575372  0.6041611012194323
  0.7309099719575372  0.4124841178411103  0.6041611012194323
  0.0224785967195231  0.3353409795578060  0.3924695461044223
  0.3353409795578060  0.0224785967195231  0.3924695461044223
  0.6534783511885607  0.6534783511885607  0.3684844979976987
  0.2836055410124771  0.7113611044337347  0.2987166434105148
  0.7113611044337347  0.2836055410124771  0.2987166434105148
  0.4099146495567965  0.4099146495567965  0.2659276867940790
  0.5914219007366768  0.7888219043098275  0.9998349939769895
  0.7888219043098275  0.5914219007366768  0.9998349939769895
  0.8361088701370392  0.1890314657142937  0.7904312310243498
  0.1890314657142937  0.8361088701370392  0.7904312310243498
  0.2254825080780023  0.4242281282806388  0.5799181903184163
  0.4242281282806388  0.2254825080780023  0.5799181903184163
  0.8051159414269904  0.0053513207999174  0.4263265935375600
  0.0053513207999174  0.8051159414269904  0.4263265935375600
  0.6280433388560809  0.9838343215651335  0.2087788257519563
  0.9838343215651335  0.6280433388560809  0.2087788257519563
  0.2071558230263975  0.2071558230263975  0.1651294586809087

  0.00000000E+00  0.00000000E+00  0.00000000E+00
  0.00000000E+00  0.00000000E+00  0.00000000E+00
  0.00000000E+00  0.00000000E+00  0.00000000E+00
  0.00000000E+00  0.00000000E+00  0.00000000E+00
  0.00000000E+00  0.00000000E+00  0.00000000E+00
  0.00000000E+00  0.00000000E+00  0.00000000E+00
  0.00000000E+00  0.00000000E+00  0.00000000E+00
  0.00000000E+00  0.00000000E+00  0.00000000E+00
  0.00000000E+00  0.00000000E+00  0.00000000E+00
  0.00000000E+00  0.00000000E+00  0.00000000E+00
  0.00000000E+00  0.00000000E+00  0.00000000E+00
  0.00000000E+00  0.00000000E+00  0.00000000E+00
  0.00000000E+00  0.00000000E+00  0.00000000E+00
  0.00000000E+00  0.00000000E+00  0.00000000E+00
  0.00000000E+00  0.00000000E+00  0.00000000E+00
  0.00000000E+00  0.00000000E+00  0.00000000E+00
  0.00000000E+00  0.00000000E+00  0.00000000E+00
  0.00000000E+00  0.00000000E+00  0.00000000E+00
  0.00000000E+00  0.00000000E+00  0.00000000E+00
  0.00000000E+00  0.00000000E+00  0.00000000E+00
  0.00000000E+00  0.00000000E+00  0.00000000E+00
  0.00000000E+00  0.00000000E+00  0.00000000E+00
  0.00000000E+00  0.00000000E+00  0.00000000E+00
  0.00000000E+00  0.00000000E+00  0.00000000E+00
  0.00000000E+00  0.00000000E+00  0.00000000E+00
  0.00000000E+00  0.00000000E+00  0.00000000E+00
  0.00000000E+00  0.00000000E+00  0.00000000E+00
  0.00000000E+00  0.00000000E+00  0.00000000E+00
  0.00000000E+00  0.00000000E+00  0.00000000E+00
