Sr3 B4                                  
   1.00000000000000     
     2.5925100121551594    1.0175661348503031   10.2766083108021071
    -2.5925100121551594    1.0175661348503029   10.2766083108021071
     0.0000000000000000   -2.0707689725608858   10.2024263193201250
   B    Sr
     4     3
Direct
  0.1258683246431573  0.1258683246431573  0.2425537286726964
  0.4411665539807572  0.4411665539807572  0.0390426283650456
  0.5548334460192450  0.5548334460192450  0.9569573716349566
  0.8701316753568449  0.8701316753568449  0.7534462713273058
  0.4455421746182040  0.4455421746182040  0.4307539293695726
  0.5504578253818053  0.5504578253818053  0.5652460706304225
  0.9979999999999976  0.9979999999999976  0.9979999999999976
 
  0.00000000E+00  0.00000000E+00  0.00000000E+00
  0.00000000E+00  0.00000000E+00  0.00000000E+00
  0.00000000E+00  0.00000000E+00  0.00000000E+00
  0.00000000E+00  0.00000000E+00  0.00000000E+00
  0.00000000E+00  0.00000000E+00  0.00000000E+00
  0.00000000E+00  0.00000000E+00  0.00000000E+00
  0.00000000E+00  0.00000000E+00  0.00000000E+00
