TlCl2                                   
   1.0000000000000000     
     7.1601348266086662    0.0018097413913138   -0.0018139105544748
     0.0017918782218822    7.1486049960908371   -0.0003905907667949
    -3.5825360815500211   -3.5752276529775902    8.0378591085898492
   Cl   Tl
     8     4
Direct
  0.3295552940351882  0.2420751012970186  0.1664192541012142
  0.8368228824164845  0.9243190796509779  0.1663113515874812
  0.9209984236744475  0.5076703681299364  0.3335388432446678
  0.4116101684564555  0.8256529904496190  0.3334044651187824
  0.1748439739485192  0.0802719937736214  0.6664528749107390
  0.4921177192650887  0.5872019744942634  0.6669585212669986
  0.7577704586630745  0.1617833820385997  0.8329164783812999
  0.0758879669798063  0.6712196173602436  0.8331975961136138
  0.0003775078955783  0.0002118617807767  0.0006602653356609
  0.4996905492412367  0.4996532173093797  0.9989456577844962
  0.7500784697182823  0.2500608945516944  0.5008889909314433
  0.2498465857058605  0.7500795191638900  0.5003057012236027

  0.00000000E+00  0.00000000E+00  0.00000000E+00
  0.00000000E+00  0.00000000E+00  0.00000000E+00
  0.00000000E+00  0.00000000E+00  0.00000000E+00
  0.00000000E+00  0.00000000E+00  0.00000000E+00
  0.00000000E+00  0.00000000E+00  0.00000000E+00
  0.00000000E+00  0.00000000E+00  0.00000000E+00
  0.00000000E+00  0.00000000E+00  0.00000000E+00
  0.00000000E+00  0.00000000E+00  0.00000000E+00
  0.00000000E+00  0.00000000E+00  0.00000000E+00
  0.00000000E+00  0.00000000E+00  0.00000000E+00
  0.00000000E+00  0.00000000E+00  0.00000000E+00
  0.00000000E+00  0.00000000E+00  0.00000000E+00
