Ba1 In3 I6                              
   1.0000000000000000     
     9.2578736335325917    0.0661018908317492    0.3779768620340009
     0.0661018908317490    9.2578736335325882    0.3779768620340012
     4.9411121323929192    4.9411121323929192    6.9510369897257158
   I    Ba   In
     6     1     3
Direct
  0.7393519208526484  0.2606480791473587  0.0000000000000000
  0.2252656574677019  0.2252656574677019  0.0678567243534971
  0.2606480791473587  0.7393519208526484  0.0000000000000000
  0.7747343425322981  0.7747343425322981  0.9321432756465029
  0.7762381264072147  0.7762381264072147  0.5177142634162450
  0.2237618735927853  0.2237618735927853  0.4822857365837550
  0.0000000000000000  0.0000000000000000  0.0000000000000000
  0.5000000000000000  0.5000000000000000  0.0000000000000000
  0.1531565239209627  0.8468434760790373  0.5000000000000000
  0.8468434760790373  0.1531565239209627  0.5000000000000000

  0.00000000E+00  0.00000000E+00  0.00000000E+00
  0.00000000E+00  0.00000000E+00  0.00000000E+00
  0.00000000E+00  0.00000000E+00  0.00000000E+00
  0.00000000E+00  0.00000000E+00  0.00000000E+00
  0.00000000E+00  0.00000000E+00  0.00000000E+00
  0.00000000E+00  0.00000000E+00  0.00000000E+00
  0.00000000E+00  0.00000000E+00  0.00000000E+00
  0.00000000E+00  0.00000000E+00  0.00000000E+00
  0.00000000E+00  0.00000000E+00  0.00000000E+00
  0.00000000E+00  0.00000000E+00  0.00000000E+00
