Ba2 Tl4 Cl16                            
   1.0000000000000000     
    14.1070309209913418   -0.0002214359847249   -0.0210856466977920
    -0.0000560907263717    7.6868143854490993   -0.0009486810362914
    -0.6087476264942959   -0.0010081350877150    7.6345514702274011
   Tl   Cl   Ba
     4    16     2
Direct
  0.0851941059962016  0.7491247479341681  0.3245270837996515
  0.5851644234752413  0.2507639406972970  0.3244846611310663
  0.4147952175365504  0.7491877677698398  0.6754695694248838
  0.9147972541976728  0.2509072429731418  0.6755159155192345
  0.6265771691191020  0.9838387033289493  0.1655276302601649
  0.1265369192956598  0.0160666928307478  0.1655595024810523
  0.1752945888612700  0.4921178554837198  0.2355438888661610
  0.6753206696098601  0.5076217026062437  0.2356006810075897
  0.4176034988867841  0.3489156533368103  0.2896336847383978
  0.9175932608188972  0.6509862688205743  0.2898864966007011
  0.8696379835300831  0.1418260288165811  0.3738283334037007
  0.3696065294159183  0.8581192829445499  0.3737474778568739
  0.6303658619640586  0.1418833248225937  0.6261552891052915
  0.1303442093693477  0.8581625696945707  0.6262377357158400
  0.0824084149861264  0.3489329887706987  0.7102190976374345
  0.5823940021433671  0.6510656297055775  0.7101692750810926
  0.3247167222892600  0.4922316511549383  0.7645135556550215
  0.8246481883812038  0.5078331350941951  0.7644557935592076
  0.8734158259639031  0.9840167789166969  0.8345152900993185
  0.3733865180376270  0.0161874141218092  0.8344184160996946
  0.7499811752669601  0.8132249967334531  0.5000192819205154
  0.2500174608549131  0.1867856234428160  0.4999713400370851

  0.00000000E+00  0.00000000E+00  0.00000000E+00
  0.00000000E+00  0.00000000E+00  0.00000000E+00
  0.00000000E+00  0.00000000E+00  0.00000000E+00
  0.00000000E+00  0.00000000E+00  0.00000000E+00
  0.00000000E+00  0.00000000E+00  0.00000000E+00
  0.00000000E+00  0.00000000E+00  0.00000000E+00
  0.00000000E+00  0.00000000E+00  0.00000000E+00
  0.00000000E+00  0.00000000E+00  0.00000000E+00
  0.00000000E+00  0.00000000E+00  0.00000000E+00
  0.00000000E+00  0.00000000E+00  0.00000000E+00
  0.00000000E+00  0.00000000E+00  0.00000000E+00
  0.00000000E+00  0.00000000E+00  0.00000000E+00
  0.00000000E+00  0.00000000E+00  0.00000000E+00
  0.00000000E+00  0.00000000E+00  0.00000000E+00
  0.00000000E+00  0.00000000E+00  0.00000000E+00
  0.00000000E+00  0.00000000E+00  0.00000000E+00
  0.00000000E+00  0.00000000E+00  0.00000000E+00
  0.00000000E+00  0.00000000E+00  0.00000000E+00
  0.00000000E+00  0.00000000E+00  0.00000000E+00
  0.00000000E+00  0.00000000E+00  0.00000000E+00
  0.00000000E+00  0.00000000E+00  0.00000000E+00
  0.00000000E+00  0.00000000E+00  0.00000000E+00
