Ba3Ga                                   
   1.00000000000000     
     8.3900687321549157    0.0022719458290413    0.0000000000000000
    -4.1925519468591057    7.2649398920723138    0.0000000000000000
     0.0000000000000000    0.0000000000000000    5.7149417539175751
   Ba   Ga
     6     2
Direct
  0.1839378186424412  0.3680444164172982  0.2500000000000000
  0.6319452220233401  0.8160651107312518  0.2500000000000000
  0.1838927898706970  0.8160929452499417  0.2500000000000000
  0.8160621813575588  0.6319555835827018  0.7500000000000000
  0.3680547779766599  0.1839348892687482  0.7500000000000000
  0.8161072101293030  0.1839070547500583  0.7500000000000000
  0.3332148851815475  0.6667799727932646  0.7500000000000000
  0.6667851148184525  0.3332200272067425  0.2500000000000000
 
  0.00000000E+00  0.00000000E+00  0.00000000E+00
  0.00000000E+00  0.00000000E+00  0.00000000E+00
  0.00000000E+00  0.00000000E+00  0.00000000E+00
  0.00000000E+00  0.00000000E+00  0.00000000E+00
  0.00000000E+00  0.00000000E+00  0.00000000E+00
  0.00000000E+00  0.00000000E+00  0.00000000E+00
  0.00000000E+00  0.00000000E+00  0.00000000E+00
  0.00000000E+00  0.00000000E+00  0.00000000E+00
