AlCl3                                   
   1.00000000000000     
     6.0219707571594734   -0.0005904675438956    0.0001555243675681
     3.0104682136430116    5.2165030415229303   -0.0053833110737621
    -0.0003041142195354    3.4714674408066717    6.5450334289335528
   Al   Cl
     2     6
Direct
  0.3332827873989359  0.3332784337417465  0.9999736678834523
  0.6666001549292275  0.6667126174397922  0.9999033444602148
  0.7049690484936590  0.2271371094106414  0.2043715031992335
  0.0677763499829354  0.5015771800942090  0.2042574120720886
  0.4303084438036677  0.8643150054123865  0.2041185659144347
  0.5696043824361041  0.1356905311162606  0.7957753266911638
  0.9321197743445779  0.4984349843639961  0.7956148775093723
  0.2949390586108933  0.7728541384209677  0.7955093022700339
 
  0.00000000E+00  0.00000000E+00  0.00000000E+00
  0.00000000E+00  0.00000000E+00  0.00000000E+00
  0.00000000E+00  0.00000000E+00  0.00000000E+00
  0.00000000E+00  0.00000000E+00  0.00000000E+00
  0.00000000E+00  0.00000000E+00  0.00000000E+00
  0.00000000E+00  0.00000000E+00  0.00000000E+00
  0.00000000E+00  0.00000000E+00  0.00000000E+00
  0.00000000E+00  0.00000000E+00  0.00000000E+00
