Be1 Al3 Cl6                             
   1.00000000000000     
     6.8212992737807401   -0.0058052131151141   -0.0705092505406034
    -0.0058052131151141    6.8212992737807401   -0.0705092505406034
     3.3582386375533404    3.3582386375533404    4.7780994994471184
   Cl   Be   Al
     6     1     3
Direct
  0.7570760636456484  0.2429239363543516  0.0000000000000000
  0.2338697783085379  0.2338697783085379  0.0106286890448501
  0.2429239363543516  0.7570760636456484  0.0000000000000000
  0.7661302216914621  0.7661302216914621  0.9893713109551499
  0.7682683446894814  0.7682683446894814  0.4812698515233436
  0.2317316553105186  0.2317316553105186  0.5187301484766564
  0.0000000000000000  0.0000000000000000  0.0000000000000000
  0.5000000000000000  0.5000000000000000  0.0000000000000000
  0.1990284301558489  0.8009715698441511  0.5000000000000000
  0.8009715698441511  0.1990284301558489  0.5000000000000000
 
  0.00000000E+00  0.00000000E+00  0.00000000E+00
  0.00000000E+00  0.00000000E+00  0.00000000E+00
  0.00000000E+00  0.00000000E+00  0.00000000E+00
  0.00000000E+00  0.00000000E+00  0.00000000E+00
  0.00000000E+00  0.00000000E+00  0.00000000E+00
  0.00000000E+00  0.00000000E+00  0.00000000E+00
  0.00000000E+00  0.00000000E+00  0.00000000E+00
  0.00000000E+00  0.00000000E+00  0.00000000E+00
  0.00000000E+00  0.00000000E+00  0.00000000E+00
  0.00000000E+00  0.00000000E+00  0.00000000E+00
