Sr1 In2 F4                              
   1.0000000000000000     
    -2.3546117169262772    2.3546117169262772    6.7028837490484214
     2.3546117169262772   -2.3546117169262772    6.7028837490484214
     2.3546117169262772    2.3546117169262772   -6.7028837490484214
   Sr   F    In
     1     4     2
Direct
  0.0000000000000000  0.0000000000000000  0.0000000000000000
  0.1807235564237004  0.1807235564237004  0.0000000000000000
  0.8192764435762996  0.8192764435762996  0.0000000000000000
  0.5000000000000000  0.0000000000000000  0.5000000000000000
  0.0000000000000000  0.5000000000000000  0.5000000000000000
  0.3506832433382527  0.3506832433382527  0.0000000000000000
  0.6493167566617473  0.6493167566617473  0.0000000000000000

  0.00000000E+00  0.00000000E+00  0.00000000E+00
  0.00000000E+00  0.00000000E+00  0.00000000E+00
  0.00000000E+00  0.00000000E+00  0.00000000E+00
  0.00000000E+00  0.00000000E+00  0.00000000E+00
  0.00000000E+00  0.00000000E+00  0.00000000E+00
  0.00000000E+00  0.00000000E+00  0.00000000E+00
  0.00000000E+00  0.00000000E+00  0.00000000E+00
