F4                                      
   1.00000000000000     
     2.7129292180079800    0.0610644347119077   -0.0832463072495800
    -1.2357479529617412    2.4159130467739227    0.0832462996873504
    -0.1835262393608005    0.1094498452106122    6.4339967152163284
   F 
     4
Direct
  0.9123252309973537  0.4010032064095839  0.6021943813295394
  0.4010032064330318  0.9123252309972045  0.8978056186665810
  0.0876747690026463  0.5989967935904161  0.3978056186704606
  0.5989967935669682  0.0876747690027955  0.1021943813334119
 
  0.00000000E+00  0.00000000E+00  0.00000000E+00
  0.00000000E+00  0.00000000E+00  0.00000000E+00
  0.00000000E+00  0.00000000E+00  0.00000000E+00
  0.00000000E+00  0.00000000E+00  0.00000000E+00
