Ba4 Tl4 F20                             
   1.0000000000000000     
    12.7502024104112071    0.0000000000000000    0.0000000000000000
     0.0000000000000000    4.3083212286525727    0.0268308702825670
     0.0000000000000000    1.9066446717739758    8.1214236447969501
   Ba   Tl   F 
     4     4    20
Direct
  0.9722581069014140  0.6083094711347599  0.2245491056664193
  0.4722581069014140  0.3916905288652472  0.2754508943335807
  0.0277418930985860  0.3916905288652472  0.7754508943335807
  0.5277418930985860  0.6083094711347599  0.7245491056664193
  0.7725438082624834  0.1136891509350804  0.5976918901002364
  0.2725438082624834  0.8863108490649196  0.9023081098997636
  0.2274561917375166  0.8863108490649196  0.4023081098997636
  0.7274561917375166  0.1136891509350804  0.0976918901002364
  0.6019250768130888  0.1883285287344520  0.5337641661642252
  0.1019250768130888  0.8116714712655480  0.9662358338357748
  0.3980749231869112  0.8116714712655480  0.4662358338357748
  0.8980749231869112  0.1883285287344520  0.0337641661642181
  0.8164545253539046  0.0421700477558531  0.3441916705633972
  0.3164545253539046  0.9578299522441469  0.1558083294365957
  0.1835454746460954  0.9578299522441469  0.6558083294366028
  0.6835454746460954  0.0421700477558531  0.8441916705633972
  0.4061532737955673  0.1075904047643590  0.7433771559287834
  0.9061532737955744  0.8924095952356410  0.7566228440712166
  0.5938467262044256  0.8924095952356410  0.2566228440712166
  0.0938467262044327  0.1075904047643590  0.2433771559287834
  0.7244597568127489  0.6119050400982644  0.6390292534483706
  0.2244597568127489  0.3880949599017356  0.8609707465516294
  0.2755402431872511  0.3880949599017356  0.3609707465516294
  0.7755402431872511  0.6119050400982644  0.1390292534483706
  0.4005583277095752  0.5621462944204652  0.9778170791684246
  0.9005583277095752  0.4378537055795420  0.5221829208315754
  0.5994416722904248  0.4378537055795420  0.0221829208315754
  0.0994416722904248  0.5621462944204652  0.4778170791684246

  0.00000000E+00  0.00000000E+00  0.00000000E+00
  0.00000000E+00  0.00000000E+00  0.00000000E+00
  0.00000000E+00  0.00000000E+00  0.00000000E+00
  0.00000000E+00  0.00000000E+00  0.00000000E+00
  0.00000000E+00  0.00000000E+00  0.00000000E+00
  0.00000000E+00  0.00000000E+00  0.00000000E+00
  0.00000000E+00  0.00000000E+00  0.00000000E+00
  0.00000000E+00  0.00000000E+00  0.00000000E+00
  0.00000000E+00  0.00000000E+00  0.00000000E+00
  0.00000000E+00  0.00000000E+00  0.00000000E+00
  0.00000000E+00  0.00000000E+00  0.00000000E+00
  0.00000000E+00  0.00000000E+00  0.00000000E+00
  0.00000000E+00  0.00000000E+00  0.00000000E+00
  0.00000000E+00  0.00000000E+00  0.00000000E+00
  0.00000000E+00  0.00000000E+00  0.00000000E+00
  0.00000000E+00  0.00000000E+00  0.00000000E+00
  0.00000000E+00  0.00000000E+00  0.00000000E+00
  0.00000000E+00  0.00000000E+00  0.00000000E+00
  0.00000000E+00  0.00000000E+00  0.00000000E+00
  0.00000000E+00  0.00000000E+00  0.00000000E+00
  0.00000000E+00  0.00000000E+00  0.00000000E+00
  0.00000000E+00  0.00000000E+00  0.00000000E+00
  0.00000000E+00  0.00000000E+00  0.00000000E+00
  0.00000000E+00  0.00000000E+00  0.00000000E+00
  0.00000000E+00  0.00000000E+00  0.00000000E+00
  0.00000000E+00  0.00000000E+00  0.00000000E+00
  0.00000000E+00  0.00000000E+00  0.00000000E+00
  0.00000000E+00  0.00000000E+00  0.00000000E+00
