Ba17 Tl12                               
   1.0000000000000000     
    -6.6669544643329086   -6.6669544643329086    6.6648840917383758
    -6.6669544643329086    6.6648840917383758   -6.6669544643329086
     6.6648840917383758   -6.6669544643329086   -6.6669544643329086
   Tl   Ba
    12    17
Direct
  0.3752812523740658  0.1753957962418227  0.9999518753224095
  0.1753957962418227  0.3752812523740658  0.9999518753224095
  0.8245401953140075  0.8245401953140075  0.2000183336454597
  0.3752812523740658  0.9999518753224095  0.1753957962418227
  0.9999518753224095  0.3752812523740658  0.1753957962418227
  0.1753957962418227  0.9999518753224095  0.3752812523740658
  0.9999518753224095  0.1753957962418227  0.3752812523740658
  0.8007462233252269  0.6251361641111117  0.6251361641111117
  0.6251361641111117  0.8007462233252269  0.6251361641111117
  0.8245401953140075  0.2000183336454597  0.8245401953140075
  0.2000183336454597  0.8245401953140075  0.8245401953140075
  0.6251361641111117  0.6251361641111117  0.8007462233252269
  0.9989737531615077  0.9989737531615077  0.9989737531615077
  0.6890170504058588  0.0004658538138358  0.0004658538138358
  0.7011923244515188  0.4218607648887200  0.9998893677158094
  0.0004658538138358  0.6890170504058588  0.0004658538138358
  0.4218607648887200  0.7011923244515188  0.9998893677158094
  0.5781505097670134  0.5781505097670134  0.2799980261239909
  0.7205811880479303  0.2986636023257034  0.2986636023257034
  0.2986636023257034  0.7205811880479303  0.2986636023257034
  0.3096100126379895  0.3096100126379895  0.3096100126379895
  0.7011923244515188  0.9998893677158094  0.4218607648887200
  0.9998893677158094  0.7011923244515188  0.4218607648887200
  0.5781505097670134  0.2799980261239909  0.5781505097670134
  0.2799980261239909  0.5781505097670134  0.5781505097670134
  0.0004658538138358  0.0004658538138358  0.6890170504058588
  0.4218607648887200  0.9998893677158094  0.7011923244515188
  0.9998893677158094  0.4218607648887200  0.7011923244515188
  0.2986636023257034  0.2986636023257034  0.7205811880479303

  0.00000000E+00  0.00000000E+00  0.00000000E+00
  0.00000000E+00  0.00000000E+00  0.00000000E+00
  0.00000000E+00  0.00000000E+00  0.00000000E+00
  0.00000000E+00  0.00000000E+00  0.00000000E+00
  0.00000000E+00  0.00000000E+00  0.00000000E+00
  0.00000000E+00  0.00000000E+00  0.00000000E+00
  0.00000000E+00  0.00000000E+00  0.00000000E+00
  0.00000000E+00  0.00000000E+00  0.00000000E+00
  0.00000000E+00  0.00000000E+00  0.00000000E+00
  0.00000000E+00  0.00000000E+00  0.00000000E+00
  0.00000000E+00  0.00000000E+00  0.00000000E+00
  0.00000000E+00  0.00000000E+00  0.00000000E+00
  0.00000000E+00  0.00000000E+00  0.00000000E+00
  0.00000000E+00  0.00000000E+00  0.00000000E+00
  0.00000000E+00  0.00000000E+00  0.00000000E+00
  0.00000000E+00  0.00000000E+00  0.00000000E+00
  0.00000000E+00  0.00000000E+00  0.00000000E+00
  0.00000000E+00  0.00000000E+00  0.00000000E+00
  0.00000000E+00  0.00000000E+00  0.00000000E+00
  0.00000000E+00  0.00000000E+00  0.00000000E+00
  0.00000000E+00  0.00000000E+00  0.00000000E+00
  0.00000000E+00  0.00000000E+00  0.00000000E+00
  0.00000000E+00  0.00000000E+00  0.00000000E+00
  0.00000000E+00  0.00000000E+00  0.00000000E+00
  0.00000000E+00  0.00000000E+00  0.00000000E+00
  0.00000000E+00  0.00000000E+00  0.00000000E+00
  0.00000000E+00  0.00000000E+00  0.00000000E+00
  0.00000000E+00  0.00000000E+00  0.00000000E+00
  0.00000000E+00  0.00000000E+00  0.00000000E+00
