Sr10 B4 Cl32                            
   1.00000000000000     
     6.9961564908855918   -6.8699499186759034    0.0000000000000000
     6.9961564908855918    6.8699499186759034    0.0000000000000000
     0.0000000000000000    0.0000000000000000   16.2754228427393244
   Sr   B    Cl
    10     4    32
Direct
  0.0000000000000000  0.0000000000000000  0.7341302940506012
  0.0000000000000000  0.0000000000000000  0.2658697059493988
  0.5000000000000000  0.5000000000000000  0.7658697059493988
  0.5000000000000000  0.5000000000000000  0.2341302940506012
  0.5000000000000000  0.5000000000000000  0.5000000000000000
  0.0000000000000000  0.0000000000000000  0.0000000000000000
  0.0000000000000000  0.5000000000000000  0.6280030761270083
  0.5000000000000000  0.0000000000000000  0.3719969238729917
  0.5000000000000000  0.0000000000000000  0.8719969238729917
  0.0000000000000000  0.5000000000000000  0.1280030761270083
  0.5000000000000000  0.0000000000000000  0.6195908584867595
  0.0000000000000000  0.5000000000000000  0.3804091415132334
  0.0000000000000000  0.5000000000000000  0.8804091415132405
  0.5000000000000000  0.0000000000000000  0.1195908584867666
  0.6357394211735112  0.0688152841243763  0.6875735129231302
  0.3642605788264888  0.9311847158756237  0.6875735129231302
  0.0688152841243763  0.6357394211735112  0.3124264870768698
  0.9311847158756237  0.3642605788264888  0.3124264870768698
  0.8642605788264888  0.4311847158756237  0.8124264870768698
  0.1357394211735112  0.5688152841243763  0.8124264870768698
  0.4311847158756237  0.8642605788264888  0.1875735129231302
  0.5688152841243763  0.1357394211735112  0.1875735129231302
  0.9495054251729798  0.7808792425073676  0.6362208212138896
  0.0504945748270202  0.2191207574926324  0.6362208212138896
  0.7808792425073676  0.9495054251729798  0.3637791787861104
  0.2191207574926324  0.0504945748270202  0.3637791787861104
  0.5504945748270202  0.7191207574926324  0.8637791787861104
  0.4495054251729798  0.2808792425073676  0.8637791787861104
  0.6373647500062773  0.9289893220452683  0.0516084980535467
  0.3626352499937227  0.0710106779547317  0.0516084980535467
  0.9289893220452683  0.6373647500062773  0.9483915019464675
  0.0710106779547317  0.3626352499937227  0.9483915019464675
  0.8626352499937227  0.5710106779547317  0.4483915019464533
  0.1373647500062773  0.4289893220452683  0.4483915019464533
  0.5710106779547317  0.8626352499937227  0.5516084980535325
  0.4289893220452612  0.1373647500062773  0.5516084980535325
  0.0340349064729111  0.8106024348802805  0.1301962377487271
  0.9659650935270889  0.1893975651197195  0.1301962377487271
  0.8106024348802805  0.0340349064729111  0.8698037622512729
  0.1893975651197195  0.9659650935270889  0.8698037622512729
  0.4659650935270889  0.6893975651197195  0.3698037622512729
  0.5340349064729111  0.3106024348802805  0.3698037622512729
  0.6893975651197195  0.4659650935270889  0.6301962377487271
  0.3106024348802805  0.5340349064729111  0.6301962377487271
  0.2808792425073676  0.4495054251729798  0.1362208212138896
  0.7191207574926324  0.5504945748270202  0.1362208212138896
 
  0.00000000E+00  0.00000000E+00  0.00000000E+00
  0.00000000E+00  0.00000000E+00  0.00000000E+00
  0.00000000E+00  0.00000000E+00  0.00000000E+00
  0.00000000E+00  0.00000000E+00  0.00000000E+00
  0.00000000E+00  0.00000000E+00  0.00000000E+00
  0.00000000E+00  0.00000000E+00  0.00000000E+00
  0.00000000E+00  0.00000000E+00  0.00000000E+00
  0.00000000E+00  0.00000000E+00  0.00000000E+00
  0.00000000E+00  0.00000000E+00  0.00000000E+00
  0.00000000E+00  0.00000000E+00  0.00000000E+00
  0.00000000E+00  0.00000000E+00  0.00000000E+00
  0.00000000E+00  0.00000000E+00  0.00000000E+00
  0.00000000E+00  0.00000000E+00  0.00000000E+00
  0.00000000E+00  0.00000000E+00  0.00000000E+00
  0.00000000E+00  0.00000000E+00  0.00000000E+00
  0.00000000E+00  0.00000000E+00  0.00000000E+00
  0.00000000E+00  0.00000000E+00  0.00000000E+00
  0.00000000E+00  0.00000000E+00  0.00000000E+00
  0.00000000E+00  0.00000000E+00  0.00000000E+00
  0.00000000E+00  0.00000000E+00  0.00000000E+00
  0.00000000E+00  0.00000000E+00  0.00000000E+00
  0.00000000E+00  0.00000000E+00  0.00000000E+00
  0.00000000E+00  0.00000000E+00  0.00000000E+00
  0.00000000E+00  0.00000000E+00  0.00000000E+00
  0.00000000E+00  0.00000000E+00  0.00000000E+00
  0.00000000E+00  0.00000000E+00  0.00000000E+00
  0.00000000E+00  0.00000000E+00  0.00000000E+00
  0.00000000E+00  0.00000000E+00  0.00000000E+00
  0.00000000E+00  0.00000000E+00  0.00000000E+00
  0.00000000E+00  0.00000000E+00  0.00000000E+00
  0.00000000E+00  0.00000000E+00  0.00000000E+00
  0.00000000E+00  0.00000000E+00  0.00000000E+00
  0.00000000E+00  0.00000000E+00  0.00000000E+00
  0.00000000E+00  0.00000000E+00  0.00000000E+00
  0.00000000E+00  0.00000000E+00  0.00000000E+00
  0.00000000E+00  0.00000000E+00  0.00000000E+00
  0.00000000E+00  0.00000000E+00  0.00000000E+00
  0.00000000E+00  0.00000000E+00  0.00000000E+00
  0.00000000E+00  0.00000000E+00  0.00000000E+00
  0.00000000E+00  0.00000000E+00  0.00000000E+00
  0.00000000E+00  0.00000000E+00  0.00000000E+00
  0.00000000E+00  0.00000000E+00  0.00000000E+00
  0.00000000E+00  0.00000000E+00  0.00000000E+00
  0.00000000E+00  0.00000000E+00  0.00000000E+00
  0.00000000E+00  0.00000000E+00  0.00000000E+00
  0.00000000E+00  0.00000000E+00  0.00000000E+00
