Ga6 F24                                 
   1.00000000000000     
     0.0000000000000000    5.8555742035759692    5.8555742035759692
     5.8555742035759684    0.0000000000000000    5.8555742035759692
     5.8555742035759684    5.8555742035759692    0.0000000000000000
   Ga   F 
     6    24
Direct
  0.7500000000000000  0.2500000000000000  0.2500000000000000
  0.7500000000000000  0.7500000000000000  0.2500000000000000
  0.2500000000000000  0.7500000000000000  0.7500000000000000
  0.7500000000000000  0.2500000000000000  0.7500000000000000
  0.2500000000000000  0.2500000000000000  0.7500000000000000
  0.2500000000000000  0.7500000000000000  0.2500000000000000
  0.2976691563789444  0.9664160615316746  0.0335839384683183
  0.0335839384683183  0.9664160615316746  0.7023308436210556
  0.7023308436210556  0.9664160615316746  0.2976691563789444
  0.9664160615316746  0.0335839384683183  0.2976691563789444
  0.0335839384683183  0.2976691563789444  0.9664160615316746
  0.7023308436210556  0.0335839384683183  0.9664160615316746
  0.9664160615316746  0.2976691563789444  0.7023308436210556
  0.2023308436210556  0.7976691563789444  0.4664160615316817
  0.9664160615316746  0.7023308436210556  0.0335839384683183
  0.2976691563789444  0.7023308436210556  0.9664160615316746
  0.4664160615316817  0.2023308436210556  0.7976691563789444
  0.7976691563789444  0.4664160615316817  0.2023308436210556
  0.2976691563789444  0.0335839384683183  0.7023308436210556
  0.7023308436210556  0.2976691563789444  0.0335839384683183
  0.5335839384683254  0.7976691563789444  0.2023308436210556
  0.4664160615316817  0.7976691563789444  0.5335839384683254
  0.0335839384683183  0.7023308436210556  0.2976691563789444
  0.7976691563789444  0.2023308436210556  0.5335839384683254
  0.5335839384683254  0.4664160615316817  0.7976691563789444
  0.5335839384683254  0.2023308436210556  0.4664160615316817
  0.2023308436210556  0.4664160615316817  0.5335839384683254
  0.2023308436210556  0.5335839384683254  0.7976691563789444
  0.7976691563789444  0.5335839384683254  0.4664160615316817
  0.4664160615316817  0.5335839384683254  0.2023308436210556
 
  0.00000000E+00  0.00000000E+00  0.00000000E+00
  0.00000000E+00  0.00000000E+00  0.00000000E+00
  0.00000000E+00  0.00000000E+00  0.00000000E+00
  0.00000000E+00  0.00000000E+00  0.00000000E+00
  0.00000000E+00  0.00000000E+00  0.00000000E+00
  0.00000000E+00  0.00000000E+00  0.00000000E+00
  0.00000000E+00  0.00000000E+00  0.00000000E+00
  0.00000000E+00  0.00000000E+00  0.00000000E+00
  0.00000000E+00  0.00000000E+00  0.00000000E+00
  0.00000000E+00  0.00000000E+00  0.00000000E+00
  0.00000000E+00  0.00000000E+00  0.00000000E+00
  0.00000000E+00  0.00000000E+00  0.00000000E+00
  0.00000000E+00  0.00000000E+00  0.00000000E+00
  0.00000000E+00  0.00000000E+00  0.00000000E+00
  0.00000000E+00  0.00000000E+00  0.00000000E+00
  0.00000000E+00  0.00000000E+00  0.00000000E+00
  0.00000000E+00  0.00000000E+00  0.00000000E+00
  0.00000000E+00  0.00000000E+00  0.00000000E+00
  0.00000000E+00  0.00000000E+00  0.00000000E+00
  0.00000000E+00  0.00000000E+00  0.00000000E+00
  0.00000000E+00  0.00000000E+00  0.00000000E+00
  0.00000000E+00  0.00000000E+00  0.00000000E+00
  0.00000000E+00  0.00000000E+00  0.00000000E+00
  0.00000000E+00  0.00000000E+00  0.00000000E+00
  0.00000000E+00  0.00000000E+00  0.00000000E+00
  0.00000000E+00  0.00000000E+00  0.00000000E+00
  0.00000000E+00  0.00000000E+00  0.00000000E+00
  0.00000000E+00  0.00000000E+00  0.00000000E+00
  0.00000000E+00  0.00000000E+00  0.00000000E+00
  0.00000000E+00  0.00000000E+00  0.00000000E+00
