BaIn5                                   
   1.0000000000000000     
     3.2456677642568676   -5.6360513556547209    0.0000000000000000
     3.2456677642568685    5.6360513556547209    0.0000000000000000
     0.0000000000000000    0.0000000000000000   10.3568099096068913
   Ba   In
     2    10
Direct
  0.0000000000000000  0.0000000000000000  0.0000000000000000
  0.0000000000000000  0.0000000000000000  0.5000000000000000
  0.6679776578406944  0.3340184948423328  0.0000000000000000
  0.3320223421593056  0.6659815051576672  0.0000000000000000
  0.5000000000000000  0.0000000000000000  0.2494096945251130
  0.5000000000000000  0.5000000000000000  0.2500000000000000
  0.0000000000000000  0.5000000000000000  0.2505903054748870
  0.6659815051576672  0.3320223421593056  0.5000000000000000
  0.3340184948423328  0.6679776578406944  0.5000000000000000
  0.0000000000000000  0.5000000000000000  0.7494096945251130
  0.5000000000000000  0.5000000000000000  0.7500000000000000
  0.5000000000000000  0.0000000000000000  0.7505903054748870

  0.00000000E+00  0.00000000E+00  0.00000000E+00
  0.00000000E+00  0.00000000E+00  0.00000000E+00
  0.00000000E+00  0.00000000E+00  0.00000000E+00
  0.00000000E+00  0.00000000E+00  0.00000000E+00
  0.00000000E+00  0.00000000E+00  0.00000000E+00
  0.00000000E+00  0.00000000E+00  0.00000000E+00
  0.00000000E+00  0.00000000E+00  0.00000000E+00
  0.00000000E+00  0.00000000E+00  0.00000000E+00
  0.00000000E+00  0.00000000E+00  0.00000000E+00
  0.00000000E+00  0.00000000E+00  0.00000000E+00
  0.00000000E+00  0.00000000E+00  0.00000000E+00
  0.00000000E+00  0.00000000E+00  0.00000000E+00
