Be10 B18                                
   1.00000000000000     
     1.4863117791898690   -3.2558098786819389   -0.0000526773964117
     1.4863152326094164    3.2558117736768901    0.0000533413765657
     0.0000027941977699    0.0005542220953823   19.3976156368684372
   Be   B 
    10    18
Direct
  0.8529857765520177  0.1470739082432004  0.0327886840597671
  0.6733283079209471  0.3267134473853659  0.1905779705164647
  0.3889065266162817  0.6111265565919268  0.2466885554274967
  0.6729459791294872  0.3270901187571695  0.3098851263443620
  0.8552072218173805  0.1448215282545320  0.4644996357926487
  0.1471009228504059  0.8529454281749054  0.5327874420914398
  0.3266769164558809  0.6733389130558294  0.6905675940279963
  0.6111435276899257  0.3888689743860070  0.7466164859428304
  0.3271117865400939  0.6729060886718301  0.8098676273341354
  0.1448476374979037  0.8551987760064605  0.9644573632021931
  0.5618398952545931  0.4382120869651658  0.0407794640744186
  0.1274315568010209  0.8726217616420087  0.0902043614455366
  0.3906049377210010  0.6094458084615724  0.1231567272969230
  0.9634970984960560  0.0365472009314729  0.1692811627412567
  0.0923776970007069  0.9076604804253989  0.2503660573117301
  0.9659710188759760  0.0340591193904558  0.3321301014516962
  0.3943703646409844  0.6056579615565809  0.3775753209106725
  0.1328550755871447  0.8671743149893345  0.4113328534087159
  0.5653790767275950  0.4346522069598109  0.4606515429479501
  0.4382057637499130  0.5618360720356677  0.5407774883031848
  0.8725974010252102  0.1274454600544743  0.5901947137175014
  0.6094457277807237  0.3905844939015921  0.6231306574951674
  0.0365593835229419  0.9634674078216037  0.6692587919324140
  0.9076284707058591  0.0923893569092158  0.7503455754193240
  0.0340517818354726  0.9659744829855086  0.8321173715816315
  0.6056219583932716  0.3944075345243689  0.8775734768323886
  0.8671254252772655  0.1329165484545243  0.9113330873916681
  0.4346827635339352  0.5653639624640263  0.9606547609984801
 
  0.00000000E+00  0.00000000E+00  0.00000000E+00
  0.00000000E+00  0.00000000E+00  0.00000000E+00
  0.00000000E+00  0.00000000E+00  0.00000000E+00
  0.00000000E+00  0.00000000E+00  0.00000000E+00
  0.00000000E+00  0.00000000E+00  0.00000000E+00
  0.00000000E+00  0.00000000E+00  0.00000000E+00
  0.00000000E+00  0.00000000E+00  0.00000000E+00
  0.00000000E+00  0.00000000E+00  0.00000000E+00
  0.00000000E+00  0.00000000E+00  0.00000000E+00
  0.00000000E+00  0.00000000E+00  0.00000000E+00
  0.00000000E+00  0.00000000E+00  0.00000000E+00
  0.00000000E+00  0.00000000E+00  0.00000000E+00
  0.00000000E+00  0.00000000E+00  0.00000000E+00
  0.00000000E+00  0.00000000E+00  0.00000000E+00
  0.00000000E+00  0.00000000E+00  0.00000000E+00
  0.00000000E+00  0.00000000E+00  0.00000000E+00
  0.00000000E+00  0.00000000E+00  0.00000000E+00
  0.00000000E+00  0.00000000E+00  0.00000000E+00
  0.00000000E+00  0.00000000E+00  0.00000000E+00
  0.00000000E+00  0.00000000E+00  0.00000000E+00
  0.00000000E+00  0.00000000E+00  0.00000000E+00
  0.00000000E+00  0.00000000E+00  0.00000000E+00
  0.00000000E+00  0.00000000E+00  0.00000000E+00
  0.00000000E+00  0.00000000E+00  0.00000000E+00
  0.00000000E+00  0.00000000E+00  0.00000000E+00
  0.00000000E+00  0.00000000E+00  0.00000000E+00
  0.00000000E+00  0.00000000E+00  0.00000000E+00
  0.00000000E+00  0.00000000E+00  0.00000000E+00
