Ba16 Tl12 I1                            
   1.0000000000000000     
     8.7939062748981733   -5.0821013383267077    3.6019509610098663
     0.4490572416440262   11.4242636202491283    4.3189638535189916
    -9.6673907261410221   -6.0950818582256803    4.3149326618355905
   Tl   I    Ba
    12     1    16
Direct
  0.8073275116728524  0.5872955321005264  0.9988068659365865
  0.5599487115002191  0.7151088678893700  0.0001128843011813
  0.3391532571254814  0.3699734962737011  0.1910151275589484
  0.1460168950687759  0.8087541923136357  0.1774670453192897
  0.8446666259343871  0.2845983139145645  0.2839006745280841
  0.3380184017932280  0.1910958268082297  0.3688016997831483
  0.2187668843341228  0.4111292936537865  0.4110286696083634
  0.8084792297551857  0.9993024043201686  0.5878056212894904
  0.9685131791687951  0.8203140194349245  0.6291078325943431
  0.5602929532898528  0.0002612080979176  0.7155039395768483
  0.9688761375453652  0.6291146159956327  0.8205833743971169
  0.1477540885368001  0.1790772776819836  0.8086933230891162
  0.5041140946039562  0.9994813181440279  0.0000924166641170
  0.9357192317699585  0.2103679266929817  0.0000465845094482
  0.5426457383279271  0.2954857295489717  0.0001439606261968
  0.2337762245291017  0.5395261061863863  0.0009859368770648
  0.1845380714460632  0.9991353886639374  0.9985592702906914
  0.7500618144456794  0.7128202997906641  0.2855774107889602
  0.5408318348572223  0.9999770119737832  0.2961579647887262
  0.0380438768295406  0.5734583368893666  0.2870311124311442
  0.9346826671029973  0.0003390105408698  0.2107262476705927
  0.6945960971286738  0.4612929998507553  0.4617835871607028
  0.4658836932185793  0.7130460665539502  0.4299561968359313
  0.0371881511380181  0.2878713879980594  0.5731937260686664
  0.2338390660352943  0.0003546134696464  0.5388444104191379
  0.7264180271109737  0.7911338451396688  0.7918653813183241
  0.7511550164684451  0.2861778917447353  0.7143556994053029
  0.2476315008684296  0.7051761277299065  0.7047186398456162
  0.4642610183940548  0.4283318905978604  0.7131353963168650

  0.00000000E+00  0.00000000E+00  0.00000000E+00
  0.00000000E+00  0.00000000E+00  0.00000000E+00
  0.00000000E+00  0.00000000E+00  0.00000000E+00
  0.00000000E+00  0.00000000E+00  0.00000000E+00
  0.00000000E+00  0.00000000E+00  0.00000000E+00
  0.00000000E+00  0.00000000E+00  0.00000000E+00
  0.00000000E+00  0.00000000E+00  0.00000000E+00
  0.00000000E+00  0.00000000E+00  0.00000000E+00
  0.00000000E+00  0.00000000E+00  0.00000000E+00
  0.00000000E+00  0.00000000E+00  0.00000000E+00
  0.00000000E+00  0.00000000E+00  0.00000000E+00
  0.00000000E+00  0.00000000E+00  0.00000000E+00
  0.00000000E+00  0.00000000E+00  0.00000000E+00
  0.00000000E+00  0.00000000E+00  0.00000000E+00
  0.00000000E+00  0.00000000E+00  0.00000000E+00
  0.00000000E+00  0.00000000E+00  0.00000000E+00
  0.00000000E+00  0.00000000E+00  0.00000000E+00
  0.00000000E+00  0.00000000E+00  0.00000000E+00
  0.00000000E+00  0.00000000E+00  0.00000000E+00
  0.00000000E+00  0.00000000E+00  0.00000000E+00
  0.00000000E+00  0.00000000E+00  0.00000000E+00
  0.00000000E+00  0.00000000E+00  0.00000000E+00
  0.00000000E+00  0.00000000E+00  0.00000000E+00
  0.00000000E+00  0.00000000E+00  0.00000000E+00
  0.00000000E+00  0.00000000E+00  0.00000000E+00
  0.00000000E+00  0.00000000E+00  0.00000000E+00
  0.00000000E+00  0.00000000E+00  0.00000000E+00
  0.00000000E+00  0.00000000E+00  0.00000000E+00
  0.00000000E+00  0.00000000E+00  0.00000000E+00
