Ca6 In4 Cl24                            
   1.0000000000000000     
     0.0000000000000000    0.0000000000000000    6.6605185811864303
    11.4586768108304025   -0.0006428572414947    0.0000000000000000
    -0.0006424980309554   11.4597876957863356    0.0000000000000000
   Ca   Cl   In
     6    24     4
Direct
  0.0000000000000000  0.9998193936388589  0.0001226263013550
  0.5000000000000000  0.3687590842293318  0.1308986751927890
  0.5000000000000000  0.8685828513106486  0.3693018520905866
  0.0000000000000000  0.4999186918839200  0.4998578895205981
  0.5000000000000000  0.1308168994190169  0.6314010785421686
  0.5000000000000000  0.6303646466771156  0.8681611355112011
  0.2494331462273109  0.4999609845151980  0.9998976270155211
  0.7505668537726891  0.4999609845151980  0.9998976270155211
  0.2564582447661792  0.7902594697150178  0.0575198971601480
  0.7435417552338208  0.7902594697150178  0.0575198971601480
  0.0000000000000000  0.3210207348720147  0.1790637358418934
  0.2565233102490083  0.0575489768988007  0.2098529806194946
  0.7434766897509917  0.0575489768988007  0.2098529806194946
  0.2564884675157231  0.5575513945284598  0.2901717441526870
  0.7435115324842769  0.5575513945284598  0.2901717441526870
  0.0000000000000000  0.8209870992989181  0.3210248206989235
  0.2564845369583466  0.2902455298584741  0.4425200996338603
  0.7435154630416534  0.2902455298584741  0.4425200996338603
  0.2494360107608671  0.9999750073105034  0.5001092492489718
  0.7505639892391329  0.9999750073105034  0.5001092492489718
  0.2565522470595454  0.7098010704811415  0.5574580534377205
  0.7434477529404546  0.7098010704811415  0.5574580534377205
  0.0000000000000000  0.1793095452350855  0.6792110292745761
  0.2565305040192243  0.4426269966789249  0.7098498444119627
  0.7434694959807757  0.4426269966789249  0.7098498444119627
  0.2565237322626928  0.9426304265345351  0.7901804011047204
  0.7434762677373072  0.9426304265345351  0.7901804011047204
  0.0000000000000000  0.6792451468753598  0.8207923643318225
  0.2565400856923929  0.2097918393688900  0.9425694692600715
  0.7434599143076071  0.2097918393688900  0.9425694692600715
  0.0000000000000000  0.6694954336479455  0.1693817117305159
  0.0000000000000000  0.1694115271541108  0.3306122803153997
  0.0000000000000000  0.8308759468838787  0.6691918248065818
  0.0000000000000000  0.3308096070939044  0.8309202437513150

  0.00000000E+00  0.00000000E+00  0.00000000E+00
  0.00000000E+00  0.00000000E+00  0.00000000E+00
  0.00000000E+00  0.00000000E+00  0.00000000E+00
  0.00000000E+00  0.00000000E+00  0.00000000E+00
  0.00000000E+00  0.00000000E+00  0.00000000E+00
  0.00000000E+00  0.00000000E+00  0.00000000E+00
  0.00000000E+00  0.00000000E+00  0.00000000E+00
  0.00000000E+00  0.00000000E+00  0.00000000E+00
  0.00000000E+00  0.00000000E+00  0.00000000E+00
  0.00000000E+00  0.00000000E+00  0.00000000E+00
  0.00000000E+00  0.00000000E+00  0.00000000E+00
  0.00000000E+00  0.00000000E+00  0.00000000E+00
  0.00000000E+00  0.00000000E+00  0.00000000E+00
  0.00000000E+00  0.00000000E+00  0.00000000E+00
  0.00000000E+00  0.00000000E+00  0.00000000E+00
  0.00000000E+00  0.00000000E+00  0.00000000E+00
  0.00000000E+00  0.00000000E+00  0.00000000E+00
  0.00000000E+00  0.00000000E+00  0.00000000E+00
  0.00000000E+00  0.00000000E+00  0.00000000E+00
  0.00000000E+00  0.00000000E+00  0.00000000E+00
  0.00000000E+00  0.00000000E+00  0.00000000E+00
  0.00000000E+00  0.00000000E+00  0.00000000E+00
  0.00000000E+00  0.00000000E+00  0.00000000E+00
  0.00000000E+00  0.00000000E+00  0.00000000E+00
  0.00000000E+00  0.00000000E+00  0.00000000E+00
  0.00000000E+00  0.00000000E+00  0.00000000E+00
  0.00000000E+00  0.00000000E+00  0.00000000E+00
  0.00000000E+00  0.00000000E+00  0.00000000E+00
  0.00000000E+00  0.00000000E+00  0.00000000E+00
  0.00000000E+00  0.00000000E+00  0.00000000E+00
  0.00000000E+00  0.00000000E+00  0.00000000E+00
  0.00000000E+00  0.00000000E+00  0.00000000E+00
  0.00000000E+00  0.00000000E+00  0.00000000E+00
  0.00000000E+00  0.00000000E+00  0.00000000E+00
