Sr10 In4 Br32                           
   1.00000000000000     
     5.0082060691005568   -8.1845966131869083    0.0000000000000000
     5.0082060691005568    8.1845966131869083    0.0000000000000000
     0.0000000000000000    0.0000000000000000   18.9394663268504502
   Sr   In   Br
    10     4    32
Direct
  0.0000000000000000  0.0000000000000000  0.7191375559513418
  0.0000000000000000  0.0000000000000000  0.2808624440486582
  0.5000000000000000  0.5000000000000000  0.7808624440486582
  0.5000000000000000  0.5000000000000000  0.2191375559513418
  0.5000000000000000  0.5000000000000000  0.5000000000000000
  0.0000000000000000  0.0000000000000000  0.0000000000000000
  0.0000000000000000  0.5000000000000000  0.6421609693349239
  0.5000000000000000  0.0000000000000000  0.3578390306650832
  0.5000000000000000  0.0000000000000000  0.8578390306650761
  0.0000000000000000  0.5000000000000000  0.1421609693349168
  0.5000000000000000  0.0000000000000000  0.6125305076653476
  0.0000000000000000  0.5000000000000000  0.3874694923346595
  0.0000000000000000  0.5000000000000000  0.8874694923346524
  0.5000000000000000  0.0000000000000000  0.1125305076653405
  0.5465912738588941  0.2057489422999126  0.7158581379982039
  0.4534087261411059  0.7942510577000874  0.7158581379982039
  0.2057489422999126  0.5465912738588941  0.2841418620017961
  0.7942510577000874  0.4534087261411059  0.2841418620017961
  0.9534087261411059  0.2942510577000803  0.7841418620017961
  0.0465912738588941  0.7057489422999126  0.7841418620017961
  0.2942510577000803  0.9534087261411059  0.2158581379982039
  0.7057489422999126  0.0465912738588941  0.2158581379982039
  0.1717104291742046  0.8706695905150852  0.6108307739538077
  0.8282895708257954  0.1293304094849148  0.6108307739538077
  0.8706695905150852  0.1717104291742046  0.3891692260461923
  0.1293304094849148  0.8282895708257954  0.3891692260461923
  0.3282895708257954  0.6293304094849148  0.8891692260461923
  0.6717104291742046  0.3706695905150852  0.8891692260461923
  0.6676163203895982  0.9715106147637727  0.0052513919042596
  0.3323836796104018  0.0284893852362273  0.0052513919042596
  0.9715106147637727  0.6676163203895982  0.9947486080957404
  0.0284893852362273  0.3323836796104018  0.9947486080957404
  0.8323836796104018  0.5284893852362345  0.4947486080957404
  0.1676163203895982  0.4715106147637727  0.4947486080957404
  0.5284893852362345  0.8323836796104018  0.5052513919042596
  0.4715106147637727  0.1676163203895982  0.5052513919042596
  0.8621230627932377  0.7660132857623125  0.1544389415304437
  0.1378769372067694  0.2339867142376875  0.1544389415304437
  0.7660132857623125  0.8621230627932377  0.8455610584695563
  0.2339867142376875  0.1378769372067694  0.8455610584695563
  0.6378769372067623  0.7339867142376875  0.3455610584695563
  0.3621230627932377  0.2660132857623125  0.3455610584695563
  0.7339867142376875  0.6378769372067623  0.6544389415304437
  0.2660132857623125  0.3621230627932377  0.6544389415304437
  0.3706695905150852  0.6717104291742046  0.1108307739538077
  0.6293304094849148  0.3282895708257954  0.1108307739538077
 
  0.00000000E+00  0.00000000E+00  0.00000000E+00
  0.00000000E+00  0.00000000E+00  0.00000000E+00
  0.00000000E+00  0.00000000E+00  0.00000000E+00
  0.00000000E+00  0.00000000E+00  0.00000000E+00
  0.00000000E+00  0.00000000E+00  0.00000000E+00
  0.00000000E+00  0.00000000E+00  0.00000000E+00
  0.00000000E+00  0.00000000E+00  0.00000000E+00
  0.00000000E+00  0.00000000E+00  0.00000000E+00
  0.00000000E+00  0.00000000E+00  0.00000000E+00
  0.00000000E+00  0.00000000E+00  0.00000000E+00
  0.00000000E+00  0.00000000E+00  0.00000000E+00
  0.00000000E+00  0.00000000E+00  0.00000000E+00
  0.00000000E+00  0.00000000E+00  0.00000000E+00
  0.00000000E+00  0.00000000E+00  0.00000000E+00
  0.00000000E+00  0.00000000E+00  0.00000000E+00
  0.00000000E+00  0.00000000E+00  0.00000000E+00
  0.00000000E+00  0.00000000E+00  0.00000000E+00
  0.00000000E+00  0.00000000E+00  0.00000000E+00
  0.00000000E+00  0.00000000E+00  0.00000000E+00
  0.00000000E+00  0.00000000E+00  0.00000000E+00
  0.00000000E+00  0.00000000E+00  0.00000000E+00
  0.00000000E+00  0.00000000E+00  0.00000000E+00
  0.00000000E+00  0.00000000E+00  0.00000000E+00
  0.00000000E+00  0.00000000E+00  0.00000000E+00
  0.00000000E+00  0.00000000E+00  0.00000000E+00
  0.00000000E+00  0.00000000E+00  0.00000000E+00
  0.00000000E+00  0.00000000E+00  0.00000000E+00
  0.00000000E+00  0.00000000E+00  0.00000000E+00
  0.00000000E+00  0.00000000E+00  0.00000000E+00
  0.00000000E+00  0.00000000E+00  0.00000000E+00
  0.00000000E+00  0.00000000E+00  0.00000000E+00
  0.00000000E+00  0.00000000E+00  0.00000000E+00
  0.00000000E+00  0.00000000E+00  0.00000000E+00
  0.00000000E+00  0.00000000E+00  0.00000000E+00
  0.00000000E+00  0.00000000E+00  0.00000000E+00
  0.00000000E+00  0.00000000E+00  0.00000000E+00
  0.00000000E+00  0.00000000E+00  0.00000000E+00
  0.00000000E+00  0.00000000E+00  0.00000000E+00
  0.00000000E+00  0.00000000E+00  0.00000000E+00
  0.00000000E+00  0.00000000E+00  0.00000000E+00
  0.00000000E+00  0.00000000E+00  0.00000000E+00
  0.00000000E+00  0.00000000E+00  0.00000000E+00
  0.00000000E+00  0.00000000E+00  0.00000000E+00
  0.00000000E+00  0.00000000E+00  0.00000000E+00
  0.00000000E+00  0.00000000E+00  0.00000000E+00
  0.00000000E+00  0.00000000E+00  0.00000000E+00
