Ca4 In4 Cl20                            
   1.0000000000000000     
     3.8322261281326666   -0.0000000000000001    0.0000000000000002
    -0.0000000000000002    8.1106911031490529    0.0000000000000008
    -0.0000000000000009   -0.0000000000000002   28.9991824510510909
   Ca   In   Cl
     4     4    20
Direct
  0.6723677955279754  0.4393614639699308  0.3474621004642913
  0.1723677955279754  0.0606385360300692  0.6525378995356945
  0.3276322044720175  0.9393614639699308  0.1525378995357087
  0.8276322044720175  0.5606385360300692  0.8474621004643055
  0.1724084487176967  0.9959855284129731  0.3976944970632843
  0.6724084487176967  0.5040144715870269  0.6023055029367086
  0.8275915512823033  0.4959855284129731  0.1023055029367157
  0.3275915512822962  0.0040144715870269  0.8976944970632914
  0.1724169550976740  0.5509688757586488  0.5442722044729678
  0.6724169550976669  0.9490311242413512  0.4557277955270322
  0.8275830449023260  0.0509688757586488  0.9557277955270322
  0.3275830449023260  0.4490311242413512  0.0442722044729678
  0.6716785636307634  0.0513308796256311  0.3387900801217683
  0.1716785636307705  0.4486691203743689  0.6612099198782317
  0.3283214363692295  0.5513308796256311  0.1612099198782317
  0.8283214363692366  0.9486691203743689  0.8387900801217683
  0.3282675946747702  0.6966979651411904  0.9133803427796821
  0.8282675946747702  0.8033020348588096  0.0866196572203108
  0.6717324053252298  0.1966979651411833  0.5866196572203179
  0.1717324053252369  0.3033020348588167  0.4133803427796892
  0.8271673861761144  0.8998714338349174  0.2130246670229141
  0.3271673861761215  0.6001285661650826  0.7869753329770859
  0.1728326138238785  0.3998714338349174  0.2869753329770859
  0.6728326138238785  0.1001285661650826  0.7130246670229141
  0.3282454416909459  0.3050999763111619  0.8757294151553552
  0.8282454416909459  0.1949000236888381  0.1242705848446448
  0.6717545583090541  0.8050999763111619  0.6242705848446448
  0.1717545583090541  0.6949000236888381  0.3757294151553623

  0.00000000E+00  0.00000000E+00  0.00000000E+00
  0.00000000E+00  0.00000000E+00  0.00000000E+00
  0.00000000E+00  0.00000000E+00  0.00000000E+00
  0.00000000E+00  0.00000000E+00  0.00000000E+00
  0.00000000E+00  0.00000000E+00  0.00000000E+00
  0.00000000E+00  0.00000000E+00  0.00000000E+00
  0.00000000E+00  0.00000000E+00  0.00000000E+00
  0.00000000E+00  0.00000000E+00  0.00000000E+00
  0.00000000E+00  0.00000000E+00  0.00000000E+00
  0.00000000E+00  0.00000000E+00  0.00000000E+00
  0.00000000E+00  0.00000000E+00  0.00000000E+00
  0.00000000E+00  0.00000000E+00  0.00000000E+00
  0.00000000E+00  0.00000000E+00  0.00000000E+00
  0.00000000E+00  0.00000000E+00  0.00000000E+00
  0.00000000E+00  0.00000000E+00  0.00000000E+00
  0.00000000E+00  0.00000000E+00  0.00000000E+00
  0.00000000E+00  0.00000000E+00  0.00000000E+00
  0.00000000E+00  0.00000000E+00  0.00000000E+00
  0.00000000E+00  0.00000000E+00  0.00000000E+00
  0.00000000E+00  0.00000000E+00  0.00000000E+00
  0.00000000E+00  0.00000000E+00  0.00000000E+00
  0.00000000E+00  0.00000000E+00  0.00000000E+00
  0.00000000E+00  0.00000000E+00  0.00000000E+00
  0.00000000E+00  0.00000000E+00  0.00000000E+00
  0.00000000E+00  0.00000000E+00  0.00000000E+00
  0.00000000E+00  0.00000000E+00  0.00000000E+00
  0.00000000E+00  0.00000000E+00  0.00000000E+00
  0.00000000E+00  0.00000000E+00  0.00000000E+00
