Ga4                                     
   1.00000000000000     
     4.4725411724889828    0.0467409992512798    0.0000000000000000
    -2.1239961993941208    3.9362983407850520    0.0000000000000000
     0.0000000000000000    0.0000000000000000    4.6002347608524419
   Ga
     4
Direct
  0.1568733520623908  0.8431266479358044  0.9147086560083935
  0.3431266479376092  0.6568733520641956  0.4147086560083935
  0.8431266479376092  0.1568733520641956  0.0852913439916065
  0.6568733520623908  0.3431266479358044  0.5852913439916065
 
  0.00000000E+00  0.00000000E+00  0.00000000E+00
  0.00000000E+00  0.00000000E+00  0.00000000E+00
  0.00000000E+00  0.00000000E+00  0.00000000E+00
  0.00000000E+00  0.00000000E+00  0.00000000E+00
