Ca5 In1                                 
   1.00000000000000     
     0.0000000000000000    0.0000000000000000    5.9613690133944139
     5.6811284953542476    3.2830272361702968    0.0000000000000000
     0.0026503345644014    6.5614642101503513    0.0000000000000000
   In   Ca
     1     5
Direct
  0.5000000000000000  0.6668537849237239  0.3331463343170498
  0.0000000000000000  0.9806630178243552  0.0193417466165116
  0.5000000000000000  0.3330969056585644  0.0000108917395920
  0.0000000000000000  0.3527580108345063  0.3333467528165670
  0.5000000000000000  0.9999933391323594  0.6669048070687893
  0.0000000000000000  0.6666579416264966  0.6472494674414904
 
  0.00000000E+00  0.00000000E+00  0.00000000E+00
  0.00000000E+00  0.00000000E+00  0.00000000E+00
  0.00000000E+00  0.00000000E+00  0.00000000E+00
  0.00000000E+00  0.00000000E+00  0.00000000E+00
  0.00000000E+00  0.00000000E+00  0.00000000E+00
  0.00000000E+00  0.00000000E+00  0.00000000E+00
