Mg32 Tl28                               
   1.0000000000000000     
    11.6093791175021543   -0.0044272572794370   -0.0044275998723102
    -0.0044275998723103   11.6093791175021579   -0.0044272572794370
    -0.0044272572794371   -0.0044275998723103   11.6093791175021543
   Tl   Mg
    28    32
Direct
  0.5001471486975717  0.5002073893119459  0.0002021310611298
  0.2165725407887464  0.6283860338312977  0.0282200310716689
  0.2825294603980737  0.1286486974046497  0.0279031188498138
  0.0279031188498138  0.2825294603980737  0.1286486974046497
  0.4715484368146079  0.7829281745132946  0.1286249043882322
  0.3713412789039978  0.5282609205396653  0.2834289963388983
  0.8713699574251450  0.5277670986941843  0.2178709569937070
  0.1286486974046497  0.0279031188498138  0.2825294603980737
  0.6283860338312977  0.0282200310716689  0.2165725407887464
  0.5282609205396653  0.2834289963388983  0.3713412789039978
  0.9718039942139001  0.7833194514908968  0.3714850345488401
  0.7169389433602973  0.6288293509736818  0.4721229462227896
  0.7829281745132946  0.1286249043882322  0.4715484368146079
  0.5002073893119459  0.0002021310611298  0.5001471486975717
  0.0002021310611298  0.5001471486975717  0.5002073893119459
  0.2834289963388983  0.3713412789039978  0.5282609205396653
  0.2178709569937070  0.8713699574251450  0.5277670986941843
  0.4721229462227896  0.7169389433602973  0.6288293509736818
  0.0282200310716689  0.2165725407887464  0.6283860338312977
  0.1286249043882322  0.4715484368146079  0.7829281745132946
  0.6288293509736818  0.4721229462227896  0.7169389433602973
  0.3714850345488401  0.9718039942139001  0.7833194514908968
  0.8712429793863095  0.9725086261996552  0.7169043722716353
  0.9725086261996552  0.7169043722716353  0.8712429793863095
  0.5277670986941843  0.2178709569937070  0.8713699574251450
  0.7833194514908968  0.3714850345488401  0.9718039942139001
  0.7169043722716353  0.8712429793863095  0.9725086261996552
  0.9996734085084000  0.9996734085084000  0.9996734085084000
  0.2353793520717886  0.8816155768891960  0.0099350876605442
  0.2640702665857191  0.3818022265119865  0.0101673174350339
  0.5095381908471452  0.2643083195424509  0.1182447126641861
  0.9892524883885727  0.7638463240698243  0.1182350608589573
  0.7696631396736180  0.2697388985826024  0.2300077361915882
  0.7299367739433791  0.7697482688609512  0.2305536432248587
  0.8816155768891960  0.0099350876605442  0.2353793520717886
  0.3818022265119865  0.0101673174350339  0.2640702665857191
  0.6180785461673679  0.5099421113342899  0.2356199840084017
  0.1182447126641861  0.5095381908471452  0.2643083195424509
  0.2698319119750607  0.2698319119750607  0.2698319119750607
  0.2300077361915882  0.7696631396736180  0.2697388985826024
  0.0101673174350339  0.2640702665857191  0.3818022265119865
  0.4901565169884847  0.7647159294482861  0.3819551744733047
  0.7358508972837186  0.8819327408625384  0.4904369222626173
  0.7647159294482861  0.3819551744733047  0.4901565169884847
  0.2643083195424509  0.1182447126641861  0.5095381908471452
  0.2356199840084017  0.6180785461673679  0.5099421113342899
  0.9903646784210522  0.7365964325727958  0.6181764760051749
  0.5099421113342899  0.2356199840084017  0.6180785461673679
  0.7305119109915026  0.7305119109915026  0.7305119109915026
  0.7697482688609512  0.2305536432248587  0.7299367739433791
  0.6181764760051749  0.9903646784210522  0.7365964325727958
  0.1182350608589573  0.9892524883885727  0.7638463240698243
  0.8819327408625384  0.4904369222626173  0.7358508972837186
  0.3819551744733047  0.4901565169884847  0.7647159294482861
  0.2305536432248587  0.7299367739433791  0.7697482688609512
  0.2697388985826024  0.2300077361915882  0.7696631396736180
  0.4904369222626173  0.7358508972837186  0.8819327408625384
  0.0099350876605442  0.2353793520717886  0.8816155768891960
  0.7638463240698243  0.1182350608589573  0.9892524883885727
  0.7365964325727958  0.6181764760051749  0.9903646784210522

  0.00000000E+00  0.00000000E+00  0.00000000E+00
  0.00000000E+00  0.00000000E+00  0.00000000E+00
  0.00000000E+00  0.00000000E+00  0.00000000E+00
  0.00000000E+00  0.00000000E+00  0.00000000E+00
  0.00000000E+00  0.00000000E+00  0.00000000E+00
  0.00000000E+00  0.00000000E+00  0.00000000E+00
  0.00000000E+00  0.00000000E+00  0.00000000E+00
  0.00000000E+00  0.00000000E+00  0.00000000E+00
  0.00000000E+00  0.00000000E+00  0.00000000E+00
  0.00000000E+00  0.00000000E+00  0.00000000E+00
  0.00000000E+00  0.00000000E+00  0.00000000E+00
  0.00000000E+00  0.00000000E+00  0.00000000E+00
  0.00000000E+00  0.00000000E+00  0.00000000E+00
  0.00000000E+00  0.00000000E+00  0.00000000E+00
  0.00000000E+00  0.00000000E+00  0.00000000E+00
  0.00000000E+00  0.00000000E+00  0.00000000E+00
  0.00000000E+00  0.00000000E+00  0.00000000E+00
  0.00000000E+00  0.00000000E+00  0.00000000E+00
  0.00000000E+00  0.00000000E+00  0.00000000E+00
  0.00000000E+00  0.00000000E+00  0.00000000E+00
  0.00000000E+00  0.00000000E+00  0.00000000E+00
  0.00000000E+00  0.00000000E+00  0.00000000E+00
  0.00000000E+00  0.00000000E+00  0.00000000E+00
  0.00000000E+00  0.00000000E+00  0.00000000E+00
  0.00000000E+00  0.00000000E+00  0.00000000E+00
  0.00000000E+00  0.00000000E+00  0.00000000E+00
  0.00000000E+00  0.00000000E+00  0.00000000E+00
  0.00000000E+00  0.00000000E+00  0.00000000E+00
  0.00000000E+00  0.00000000E+00  0.00000000E+00
  0.00000000E+00  0.00000000E+00  0.00000000E+00
  0.00000000E+00  0.00000000E+00  0.00000000E+00
  0.00000000E+00  0.00000000E+00  0.00000000E+00
  0.00000000E+00  0.00000000E+00  0.00000000E+00
  0.00000000E+00  0.00000000E+00  0.00000000E+00
  0.00000000E+00  0.00000000E+00  0.00000000E+00
  0.00000000E+00  0.00000000E+00  0.00000000E+00
  0.00000000E+00  0.00000000E+00  0.00000000E+00
  0.00000000E+00  0.00000000E+00  0.00000000E+00
  0.00000000E+00  0.00000000E+00  0.00000000E+00
  0.00000000E+00  0.00000000E+00  0.00000000E+00
  0.00000000E+00  0.00000000E+00  0.00000000E+00
  0.00000000E+00  0.00000000E+00  0.00000000E+00
  0.00000000E+00  0.00000000E+00  0.00000000E+00
  0.00000000E+00  0.00000000E+00  0.00000000E+00
  0.00000000E+00  0.00000000E+00  0.00000000E+00
  0.00000000E+00  0.00000000E+00  0.00000000E+00
  0.00000000E+00  0.00000000E+00  0.00000000E+00
  0.00000000E+00  0.00000000E+00  0.00000000E+00
  0.00000000E+00  0.00000000E+00  0.00000000E+00
  0.00000000E+00  0.00000000E+00  0.00000000E+00
  0.00000000E+00  0.00000000E+00  0.00000000E+00
  0.00000000E+00  0.00000000E+00  0.00000000E+00
  0.00000000E+00  0.00000000E+00  0.00000000E+00
  0.00000000E+00  0.00000000E+00  0.00000000E+00
  0.00000000E+00  0.00000000E+00  0.00000000E+00
  0.00000000E+00  0.00000000E+00  0.00000000E+00
  0.00000000E+00  0.00000000E+00  0.00000000E+00
  0.00000000E+00  0.00000000E+00  0.00000000E+00
  0.00000000E+00  0.00000000E+00  0.00000000E+00
  0.00000000E+00  0.00000000E+00  0.00000000E+00
