BeTl                                    
   1.0000000000000000     
     4.3332323920729383    0.0174649485983784    0.0000000000000000
    -2.1509477113491009    3.7664112682324040    0.0000000000000000
     0.0000000000000000    0.0000000000000000    4.5476809043134256
   Be   Tl
     2     2
Direct
  0.0000000000000000  0.0000000000000000  0.0000000000000000
  0.0000000000000000  0.0000000000000000  0.5000000000000000
  0.6664546790564714  0.3339633339011669  0.2500000000000000
  0.3335453209435286  0.6660366660988331  0.7500000000000000

  0.00000000E+00  0.00000000E+00  0.00000000E+00
  0.00000000E+00  0.00000000E+00  0.00000000E+00
  0.00000000E+00  0.00000000E+00  0.00000000E+00
  0.00000000E+00  0.00000000E+00  0.00000000E+00
