Sr1 In2 Cl10                            
   1.00000000000000     
     3.9125607964720888    6.0036911241514792    0.0577036810134988
    -3.9125607964720888    6.0036911241514792    0.0577036810134988
     0.0000000000000000    4.3531050775557523    8.8564425059005103
   Sr   In   Cl
     1     2    10
Direct
  0.5469669091765681  0.4530330908234319  0.0000000000000000
  0.0169044473398543  0.9658318490322699  0.7475428440937932
  0.0341681509677301  0.9830955526601457  0.2524571559061997
  0.9957082197082130  0.3402209877727742  0.5983478412929344
  0.6597790122272258  0.0042917802917799  0.4016521587070656
  0.9037434895930616  0.6478406822998934  0.8954864997829688
  0.3521593177001066  0.0962565104069384  0.1045135002170312
  0.9206070265274917  0.0793929734725083  0.0000000000000000
  0.1482716430662947  0.8517283569337053  0.5000000000000000
  0.6254126776200337  0.2305863656511775  0.7564652633516715
  0.7694136343488225  0.3745873223799663  0.2435347366483285
  0.3883646219073142  0.8175001501827239  0.7651993969425490
  0.1824998498172761  0.6116353780926858  0.2348006030574510
 
  0.00000000E+00  0.00000000E+00  0.00000000E+00
  0.00000000E+00  0.00000000E+00  0.00000000E+00
  0.00000000E+00  0.00000000E+00  0.00000000E+00
  0.00000000E+00  0.00000000E+00  0.00000000E+00
  0.00000000E+00  0.00000000E+00  0.00000000E+00
  0.00000000E+00  0.00000000E+00  0.00000000E+00
  0.00000000E+00  0.00000000E+00  0.00000000E+00
  0.00000000E+00  0.00000000E+00  0.00000000E+00
  0.00000000E+00  0.00000000E+00  0.00000000E+00
  0.00000000E+00  0.00000000E+00  0.00000000E+00
  0.00000000E+00  0.00000000E+00  0.00000000E+00
  0.00000000E+00  0.00000000E+00  0.00000000E+00
  0.00000000E+00  0.00000000E+00  0.00000000E+00
