Sr21 Al40                               
   1.00000000000000     
    10.2643815943613461   -0.0000018438311137    0.0000140363267430
    -5.1321923457956649    8.8892215816453426   -0.0000135621685079
     0.0000247695177662   -0.0000090032951135   16.8900357094718956
   Sr   Al
    21    40
Direct
  0.6715748094363434  0.0000001261768219  0.9999670903133762
  0.3284319350707037  0.3284311059172893  0.9999680296355038
  0.0000002564951131  0.6715744038980560  0.9999681843400907
  0.6666658997486223  0.3333335651190410  0.1046392206040423
  0.3333321245455565  0.6666663104172201  0.1046396750166991
  0.9999995798346717  0.0000017300331123  0.1079522545671026
  0.6666614010857330  0.3333320304723770  0.3171120485221763
  0.3333293295165518  0.6666661885166221  0.3171117222748734
  0.9999979840469635  0.9999999081870712  0.3222033247686369
  0.6671088620275611  0.9999994229547582  0.3893545901549231
  0.3328844636914567  0.3328860797351538  0.3893540128470860
  0.9999984814943232  0.6671132319619275  0.3893543010581624
  0.6752535788316436  0.9999998000388928  0.6082492836716966
  0.3247509410885030  0.3247497448371988  0.6082479615938823
  0.0000014303909168  0.6752505036650831  0.6082486879132958
  0.3310787017877246  0.0000000606772801  0.6804016150937571
  0.0000020058330392  0.3310797251417412  0.6804022767763556
  0.6689225761905035  0.6689211192994691  0.6804010315715843
  0.3365584282215366  0.0000008126645454  0.8936037582158889
  0.0000020101319862  0.3365587677349353  0.8936045145702352
  0.6634440701511011  0.6634429605791468  0.8936044033598662
  0.3344334782055256  0.9999987965077253  0.0890838822977997
  0.9999971904502090  0.3344355384314639  0.0890854172053892
  0.6655622123817437  0.6655644963205773  0.0890863619656344
  0.5088754780562752  0.0000011146862207  0.2096635559624573
  0.4911189382762799  0.4911218857293136  0.2096645928617988
  0.9999977127605604  0.5088747691527331  0.2096656619208019
  0.8258925812800015  0.1586382709064580  0.2099779024397250
  0.3327389191074630  0.1741076514584066  0.2099740243901280
  0.1741004214052211  0.3327427077067426  0.2099784419284987
  0.8413617193916991  0.6672562525095742  0.2099767622393287
  0.1586308403274188  0.8258903094957759  0.2099737440669145
  0.6672554447877062  0.8413657369932679  0.2099768732938330
  0.3338913061247339  0.9999984246145104  0.3362603337264645
  0.9999941189698021  0.3338984054060106  0.3362719800149208
  0.6660972852233513  0.6661015332446283  0.3362669789973296
  0.2296559182995423  0.0000001754664538  0.4805359967531544
  0.0000002789424443  0.2296419077021241  0.4805421077709582
  0.7703533097793382  0.7703521678919287  0.4805391851992624
  0.5173054891182858  0.1767654105026253  0.5050279199295247
  0.8232415423831014  0.3405381948653670  0.5050213224145423
  0.6594643916086014  0.4826995452101173  0.5050242449942104
  0.1767602871480918  0.5172966986333876  0.5050229964498527
  0.4826998331759356  0.6594608445249648  0.5050220996883183
  0.3405383620358648  0.8232330695338277  0.5050268247501251
  0.0000068070022792  0.9999952121584457  0.5405333895325271
  0.6666683850001220  0.3333328219579244  0.6494757882565665
  0.3333351113831782  0.6666678986800463  0.6494753226286178
  0.0000032825301588  0.0000016972879848  0.6933890213295726
  0.6636109087737907  0.1636224565608870  0.7859552987450655
  0.5000147989468999  0.3363905478384126  0.7859546282458822
  0.3363913854053919  0.5000148260436390  0.7859546783999960
  0.8363779174538521  0.4999877062744176  0.7859546954595444
  0.1636243006670739  0.6636108344309193  0.7859554438208036
  0.4999880541802000  0.8363759179898906  0.7859550987425052
  0.8078406881846547  0.0000001087251249  0.7976720974715477
  0.1921634717084757  0.1921635348395796  0.7976726701106358
  0.0000005216893086  0.8078393876187064  0.7976725038495971
  0.0000038034398600  0.0000026740480905  0.9106080617968857
  0.6666694233645956  0.3333347880577264  0.9100114957834862
  0.3333352114104073  0.6666680819662503  0.9100126076965793
 
  0.00000000E+00  0.00000000E+00  0.00000000E+00
  0.00000000E+00  0.00000000E+00  0.00000000E+00
  0.00000000E+00  0.00000000E+00  0.00000000E+00
  0.00000000E+00  0.00000000E+00  0.00000000E+00
  0.00000000E+00  0.00000000E+00  0.00000000E+00
  0.00000000E+00  0.00000000E+00  0.00000000E+00
  0.00000000E+00  0.00000000E+00  0.00000000E+00
  0.00000000E+00  0.00000000E+00  0.00000000E+00
  0.00000000E+00  0.00000000E+00  0.00000000E+00
  0.00000000E+00  0.00000000E+00  0.00000000E+00
  0.00000000E+00  0.00000000E+00  0.00000000E+00
  0.00000000E+00  0.00000000E+00  0.00000000E+00
  0.00000000E+00  0.00000000E+00  0.00000000E+00
  0.00000000E+00  0.00000000E+00  0.00000000E+00
  0.00000000E+00  0.00000000E+00  0.00000000E+00
  0.00000000E+00  0.00000000E+00  0.00000000E+00
  0.00000000E+00  0.00000000E+00  0.00000000E+00
  0.00000000E+00  0.00000000E+00  0.00000000E+00
  0.00000000E+00  0.00000000E+00  0.00000000E+00
  0.00000000E+00  0.00000000E+00  0.00000000E+00
  0.00000000E+00  0.00000000E+00  0.00000000E+00
  0.00000000E+00  0.00000000E+00  0.00000000E+00
  0.00000000E+00  0.00000000E+00  0.00000000E+00
  0.00000000E+00  0.00000000E+00  0.00000000E+00
  0.00000000E+00  0.00000000E+00  0.00000000E+00
  0.00000000E+00  0.00000000E+00  0.00000000E+00
  0.00000000E+00  0.00000000E+00  0.00000000E+00
  0.00000000E+00  0.00000000E+00  0.00000000E+00
  0.00000000E+00  0.00000000E+00  0.00000000E+00
  0.00000000E+00  0.00000000E+00  0.00000000E+00
  0.00000000E+00  0.00000000E+00  0.00000000E+00
  0.00000000E+00  0.00000000E+00  0.00000000E+00
  0.00000000E+00  0.00000000E+00  0.00000000E+00
  0.00000000E+00  0.00000000E+00  0.00000000E+00
  0.00000000E+00  0.00000000E+00  0.00000000E+00
  0.00000000E+00  0.00000000E+00  0.00000000E+00
  0.00000000E+00  0.00000000E+00  0.00000000E+00
  0.00000000E+00  0.00000000E+00  0.00000000E+00
  0.00000000E+00  0.00000000E+00  0.00000000E+00
  0.00000000E+00  0.00000000E+00  0.00000000E+00
  0.00000000E+00  0.00000000E+00  0.00000000E+00
  0.00000000E+00  0.00000000E+00  0.00000000E+00
  0.00000000E+00  0.00000000E+00  0.00000000E+00
  0.00000000E+00  0.00000000E+00  0.00000000E+00
  0.00000000E+00  0.00000000E+00  0.00000000E+00
  0.00000000E+00  0.00000000E+00  0.00000000E+00
  0.00000000E+00  0.00000000E+00  0.00000000E+00
  0.00000000E+00  0.00000000E+00  0.00000000E+00
  0.00000000E+00  0.00000000E+00  0.00000000E+00
  0.00000000E+00  0.00000000E+00  0.00000000E+00
  0.00000000E+00  0.00000000E+00  0.00000000E+00
  0.00000000E+00  0.00000000E+00  0.00000000E+00
  0.00000000E+00  0.00000000E+00  0.00000000E+00
  0.00000000E+00  0.00000000E+00  0.00000000E+00
  0.00000000E+00  0.00000000E+00  0.00000000E+00
  0.00000000E+00  0.00000000E+00  0.00000000E+00
  0.00000000E+00  0.00000000E+00  0.00000000E+00
  0.00000000E+00  0.00000000E+00  0.00000000E+00
  0.00000000E+00  0.00000000E+00  0.00000000E+00
  0.00000000E+00  0.00000000E+00  0.00000000E+00
  0.00000000E+00  0.00000000E+00  0.00000000E+00
