SrAl                                    
   1.00000000000000     
    12.7735103537399954    0.0015817865976030    0.0015817857316442
     0.0015817857316442   12.7735103537399954    0.0015817865976030
     0.0015817865976030    0.0015817857316442   12.7735103537399954
   Al   Sr
    32    32
Direct
  0.9368292721865004  0.4368470653632883  0.0631381509761084
  0.4345415923135576  0.5648867175947672  0.0648523182862846
  0.7639390923757858  0.3135314560526439  0.0659308124022786
  0.7588844540992881  0.8219970255067963  0.0766552354062000
  0.5763150125032652  0.7412975299924369  0.1781328659205954
  0.9339348854529206  0.2639526677103206  0.1864966742126271
  0.8134030012500730  0.4341165989009639  0.2359695038764187
  0.3219243131204195  0.4234741568576794  0.2410191175355578
  0.6778444744300671  0.9236776887528748  0.2592688933995149
  0.1864966742126271  0.9339348854529206  0.2639526677103206
  0.0659308124022786  0.7639390923757858  0.3135314560526439
  0.4234741568576794  0.2410191175355578  0.3219243131204195
  0.2410191175355578  0.3219243131204195  0.4234741568576794
  0.2359695038764187  0.8134030012500730  0.4341165989009639
  0.5648867175947672  0.0648523182862846  0.4345415923135576
  0.0631381509761084  0.9368292721865004  0.4368470653632883
  0.5633382394684219  0.5633382394684219  0.5633382394684219
  0.0648523182862846  0.4345415923135576  0.5648867175947672
  0.7361699052443669  0.6867792919267757  0.5661401451651642
  0.7412975299924369  0.1781328659205954  0.5763150125032652
  0.9236776887528748  0.2592688933995149  0.6778444744300671
  0.5661401451651642  0.7361699052443669  0.6867792919267757
  0.6867792919267757  0.5661401451651642  0.7361699052443669
  0.1781328659205954  0.5763150125032652  0.7412975299924369
  0.8219970255067963  0.0766552354062000  0.7588844540992881
  0.3135314560526439  0.0659308124022786  0.7639390923757858
  0.4341165989009639  0.2359695038764187  0.8134030012500730
  0.0766552354062000  0.7588844540992881  0.8219970255067963
  0.2592688933995149  0.6778444744300671  0.9236776887528748
  0.2639526677103206  0.1864966742126271  0.9339348854529206
  0.9350865104481301  0.9350865104481301  0.9350865104481301
  0.4368470653632883  0.0631381509761084  0.9368292721865004
  0.6974039215858454  0.0624992253359835  0.0015071048970654
  0.7015154810751412  0.5641452576618704  0.0188754353691039
  0.0015071048970654  0.6974039215858454  0.0624992253359835
  0.4812089841547476  0.2983027400430274  0.0639755225668850
  0.1923466034940802  0.1923466034940802  0.1923466034940802
  0.4374140758367346  0.9984837930932215  0.1973547604568893
  0.9358818391081130  0.9812353369350646  0.2017260475903768
  0.2946397587245002  0.7054447587444983  0.2058775236031636
  0.7054447587444983  0.2058775236031636  0.2946397587245002
  0.0639755225668850  0.4812089841547476  0.2983027400430274
  0.5623414658214543  0.4986099630139691  0.3026112135233845
  0.8075285625593267  0.6924225733895781  0.3077065889445194
  0.5187077422956605  0.7983410484671865  0.4361669053546748
  0.9984837930932215  0.1973547604568893  0.4374140758367346
  0.2983027400430274  0.0639755225668850  0.4812089841547476
  0.3026112135233845  0.5623414658214543  0.4986099630139691
  0.8026353006750284  0.9376002636923388  0.5014675695444382
  0.7983410484671865  0.4361669053546748  0.5187077422956605
  0.4986099630139691  0.3026112135233845  0.5623414658214543
  0.0188754353691039  0.7015154810751412  0.5641452576618704
  0.3077065889445194  0.8075285625593267  0.6924225733895781
  0.0624992253359835  0.0015071048970654  0.6974039215858454
  0.5641452576618704  0.0188754353691039  0.7015154810751412
  0.2058775236031636  0.2946397587245002  0.7054447587444983
  0.7946679637100118  0.7946679637100118  0.7946679637100118
  0.4361669053546748  0.5187077422956605  0.7983410484671865
  0.9376002636923388  0.5014675695444382  0.8026353006750284
  0.6924225733895781  0.3077065889445194  0.8075285625593267
  0.9812353369350646  0.2017260475903768  0.9358818391081130
  0.5014675695444382  0.8026353006750284  0.9376002636923388
  0.2017260475903768  0.9358818391081130  0.9812353369350646
  0.1973547604568893  0.4374140758367346  0.9984837930932215
 
  0.00000000E+00  0.00000000E+00  0.00000000E+00
  0.00000000E+00  0.00000000E+00  0.00000000E+00
  0.00000000E+00  0.00000000E+00  0.00000000E+00
  0.00000000E+00  0.00000000E+00  0.00000000E+00
  0.00000000E+00  0.00000000E+00  0.00000000E+00
  0.00000000E+00  0.00000000E+00  0.00000000E+00
  0.00000000E+00  0.00000000E+00  0.00000000E+00
  0.00000000E+00  0.00000000E+00  0.00000000E+00
  0.00000000E+00  0.00000000E+00  0.00000000E+00
  0.00000000E+00  0.00000000E+00  0.00000000E+00
  0.00000000E+00  0.00000000E+00  0.00000000E+00
  0.00000000E+00  0.00000000E+00  0.00000000E+00
  0.00000000E+00  0.00000000E+00  0.00000000E+00
  0.00000000E+00  0.00000000E+00  0.00000000E+00
  0.00000000E+00  0.00000000E+00  0.00000000E+00
  0.00000000E+00  0.00000000E+00  0.00000000E+00
  0.00000000E+00  0.00000000E+00  0.00000000E+00
  0.00000000E+00  0.00000000E+00  0.00000000E+00
  0.00000000E+00  0.00000000E+00  0.00000000E+00
  0.00000000E+00  0.00000000E+00  0.00000000E+00
  0.00000000E+00  0.00000000E+00  0.00000000E+00
  0.00000000E+00  0.00000000E+00  0.00000000E+00
  0.00000000E+00  0.00000000E+00  0.00000000E+00
  0.00000000E+00  0.00000000E+00  0.00000000E+00
  0.00000000E+00  0.00000000E+00  0.00000000E+00
  0.00000000E+00  0.00000000E+00  0.00000000E+00
  0.00000000E+00  0.00000000E+00  0.00000000E+00
  0.00000000E+00  0.00000000E+00  0.00000000E+00
  0.00000000E+00  0.00000000E+00  0.00000000E+00
  0.00000000E+00  0.00000000E+00  0.00000000E+00
  0.00000000E+00  0.00000000E+00  0.00000000E+00
  0.00000000E+00  0.00000000E+00  0.00000000E+00
  0.00000000E+00  0.00000000E+00  0.00000000E+00
  0.00000000E+00  0.00000000E+00  0.00000000E+00
  0.00000000E+00  0.00000000E+00  0.00000000E+00
  0.00000000E+00  0.00000000E+00  0.00000000E+00
  0.00000000E+00  0.00000000E+00  0.00000000E+00
  0.00000000E+00  0.00000000E+00  0.00000000E+00
  0.00000000E+00  0.00000000E+00  0.00000000E+00
  0.00000000E+00  0.00000000E+00  0.00000000E+00
  0.00000000E+00  0.00000000E+00  0.00000000E+00
  0.00000000E+00  0.00000000E+00  0.00000000E+00
  0.00000000E+00  0.00000000E+00  0.00000000E+00
  0.00000000E+00  0.00000000E+00  0.00000000E+00
  0.00000000E+00  0.00000000E+00  0.00000000E+00
  0.00000000E+00  0.00000000E+00  0.00000000E+00
  0.00000000E+00  0.00000000E+00  0.00000000E+00
  0.00000000E+00  0.00000000E+00  0.00000000E+00
  0.00000000E+00  0.00000000E+00  0.00000000E+00
  0.00000000E+00  0.00000000E+00  0.00000000E+00
  0.00000000E+00  0.00000000E+00  0.00000000E+00
  0.00000000E+00  0.00000000E+00  0.00000000E+00
  0.00000000E+00  0.00000000E+00  0.00000000E+00
  0.00000000E+00  0.00000000E+00  0.00000000E+00
  0.00000000E+00  0.00000000E+00  0.00000000E+00
  0.00000000E+00  0.00000000E+00  0.00000000E+00
  0.00000000E+00  0.00000000E+00  0.00000000E+00
  0.00000000E+00  0.00000000E+00  0.00000000E+00
  0.00000000E+00  0.00000000E+00  0.00000000E+00
  0.00000000E+00  0.00000000E+00  0.00000000E+00
  0.00000000E+00  0.00000000E+00  0.00000000E+00
  0.00000000E+00  0.00000000E+00  0.00000000E+00
  0.00000000E+00  0.00000000E+00  0.00000000E+00
  0.00000000E+00  0.00000000E+00  0.00000000E+00
