Sr16 In16 F80                           
   1.0000000000000000     
    14.6451571135664107   -0.0000042241742228    0.0000000000000010
     0.0000042241742218   14.6451571135664107    0.0000000000000010
    -0.0000000000000000   -0.0000000000000000    8.0520050831702381
   Sr   In   F 
    16    16    80
Direct
  0.5394896214238045  0.7169974928191820  0.4685214836617035
  0.2169974928191891  0.9605103785761955  0.9685214836616893
  0.7830025071808038  0.0394896214238187  0.9685214836616893
  0.4605103785761742  0.2830025071808038  0.4685214836617035
  0.2575075881926168  0.0919632274487583  0.4986196539365153
  0.5919632274487725  0.2424924118073832  0.9986196539365224
  0.4080367725512275  0.7575075881926239  0.9986196539365224
  0.7424924118073761  0.9080367725512275  0.4986196539365153
  0.0394896214238187  0.2169974928191891  0.9685214836616893
  0.7169974928191820  0.4605103785761742  0.4685214836617035
  0.2830025071808038  0.5394896214238045  0.4685214836617035
  0.9605103785761955  0.7830025071808038  0.9685214836616893
  0.7575075881926239  0.5919632274487725  0.9986196539365224
  0.0919632274487583  0.7424924118073761  0.4986196539365153
  0.9080367725512275  0.2575075881926168  0.4986196539365153
  0.2424924118073832  0.4080367725512275  0.9986196539365224
  0.0000000000000000  0.0000000000000000  0.6513283920734096
  0.0000000000000000  0.0000000000000000  0.1550360435986420
  0.5000000000000000  0.0000000000000000  0.9983857043270632
  0.5000000000000000  0.0000000000000000  0.4983857043270703
  0.3176938581188153  0.1840489348115639  0.0345028156716225
  0.6840489348115568  0.1823061418811918  0.5345028156716225
  0.3159510651884361  0.8176938581188082  0.5345028156716225
  0.6823061418811918  0.8159510651884432  0.0345028156716225
  0.5000000000000000  0.5000000000000000  0.1513283920734096
  0.5000000000000000  0.5000000000000000  0.6550360435986349
  0.0000000000000000  0.5000000000000000  0.4983857043270703
  0.0000000000000000  0.5000000000000000  0.9983857043270632
  0.8176938581188082  0.6840489348115568  0.5345028156716225
  0.1840489348115639  0.6823061418811918  0.0345028156716225
  0.8159510651884432  0.3176938581188153  0.0345028156716225
  0.1823061418811918  0.3159510651884361  0.5345028156716225
  0.0000000000000000  0.0000000000000000  0.9004229421948580
  0.0000000000000000  0.0000000000000000  0.4016927955587732
  0.1412719709763053  0.0186879942903886  0.6721520108622272
  0.5186879942903815  0.3587280290236876  0.1721520108622272
  0.4813120057096114  0.6412719709762982  0.1721520108622272
  0.8587280290237018  0.9813120057096185  0.6721520108622272
  0.1136905075631773  0.0804347379614896  0.1079461623247440
  0.5804347379614896  0.3863094924368156  0.6079461623247440
  0.4195652620385104  0.6136905075631844  0.6079461623247440
  0.8863094924368156  0.9195652620385104  0.1079461623247440
  0.5000000000000000  0.0000000000000000  0.7484764076803643
  0.5000000000000000  0.0000000000000000  0.2484764076803714
  0.4556633371110621  0.1385848308604807  0.0049641677959826
  0.6385848308604807  0.0443366628889379  0.5049641677959897
  0.3614151691395193  0.9556633371110621  0.5049641677959897
  0.5443366628889379  0.8614151691395193  0.0049641677959826
  0.4290252201917255  0.1210510562143483  0.4950337612991405
  0.6210510562143412  0.0709747798082603  0.9950337612991262
  0.3789489437856446  0.9290252201917255  0.9950337612991262
  0.5709747798082745  0.8789489437856588  0.4950337612991405
  0.3616260964429614  0.3016070491017757  0.9097658407624962
  0.8016070491017615  0.1383739035570315  0.4097658407624962
  0.1983929508982172  0.8616260964429756  0.4097658407624962
  0.6383739035570244  0.6983929508982385  0.9097658407624962
  0.3591251818956138  0.2503320730393384  0.2479309190047303
  0.7503320730393384  0.1408748181043862  0.7479309190047161
  0.2496679269606616  0.8591251818956138  0.7479309190047161
  0.6408748181043862  0.7496679269606616  0.2479309190047303
  0.2876218605062988  0.0972623188458570  0.8346552636440734
  0.5972623188458641  0.2123781394936941  0.3346552636440592
  0.4027376811541430  0.7876218605062988  0.3346552636440592
  0.7123781394937012  0.9027376811541359  0.8346552636440734
  0.2908530259903870  0.0690918144881323  0.1888728573957081
  0.5690918144881323  0.2091469740096201  0.6888728573957081
  0.4309081855118606  0.7908530259903799  0.6888728573957081
  0.7091469740096201  0.9309081855118677  0.1888728573957081
  0.6948922565261242  0.7526530125740010  0.5693277142808171
  0.2526530125740152  0.8051077434738616  0.0693277142808171
  0.7473469874259990  0.1948922565261171  0.0693277142808171
  0.3051077434738829  0.2473469874259919  0.5693277142808171
  0.5000000000000000  0.5000000000000000  0.4004229421948438
  0.5000000000000000  0.5000000000000000  0.9016927955587661
  0.6412719709762982  0.5186879942903815  0.1721520108622272
  0.0186879942903886  0.8587280290237018  0.6721520108622272
  0.9813120057096185  0.1412719709763053  0.6721520108622272
  0.3587280290236876  0.4813120057096114  0.1721520108622272
  0.6136905075631844  0.5804347379614896  0.6079461623247440
  0.0804347379614896  0.8863094924368156  0.1079461623247440
  0.9195652620385104  0.1136905075631773  0.1079461623247440
  0.3863094924368156  0.4195652620385104  0.6079461623247440
  0.0000000000000000  0.5000000000000000  0.2484764076803714
  0.0000000000000000  0.5000000000000000  0.7484764076803643
  0.9556633371110621  0.6385848308604807  0.5049641677959897
  0.1385848308604807  0.5443366628889379  0.0049641677959826
  0.8614151691395193  0.4556633371110621  0.0049641677959826
  0.0443366628889379  0.3614151691395193  0.5049641677959897
  0.9290252201917255  0.6210510562143412  0.9950337612991262
  0.1210510562143483  0.5709747798082745  0.4950337612991405
  0.8789489437856588  0.4290252201917255  0.4950337612991405
  0.0709747798082603  0.3789489437856446  0.9950337612991262
  0.8616260964429756  0.8016070491017615  0.4097658407624962
  0.3016070491017757  0.6383739035570244  0.9097658407624962
  0.6983929508982385  0.3616260964429614  0.9097658407624962
  0.1383739035570315  0.1983929508982172  0.4097658407624962
  0.8591251818956138  0.7503320730393384  0.7479309190047161
  0.2503320730393384  0.6408748181043862  0.2479309190047303
  0.7496679269606616  0.3591251818956138  0.2479309190047303
  0.1408748181043862  0.2496679269606616  0.7479309190047161
  0.7876218605062988  0.5972623188458641  0.3346552636440592
  0.0972623188458570  0.7123781394937012  0.8346552636440734
  0.9027376811541359  0.2876218605062988  0.8346552636440734
  0.2123781394936941  0.4027376811541430  0.3346552636440592
  0.7908530259903799  0.5690918144881323  0.6888728573957081
  0.0690918144881323  0.7091469740096201  0.1888728573957081
  0.9309081855118677  0.2908530259903870  0.1888728573957081
  0.2091469740096201  0.4309081855118606  0.6888728573957081
  0.1948922565261171  0.2526530125740152  0.0693277142808171
  0.7526530125740010  0.3051077434738829  0.5693277142808171
  0.2473469874259919  0.6948922565261242  0.5693277142808171
  0.8051077434738616  0.7473469874259990  0.0693277142808171

  0.00000000E+00  0.00000000E+00  0.00000000E+00
  0.00000000E+00  0.00000000E+00  0.00000000E+00
  0.00000000E+00  0.00000000E+00  0.00000000E+00
  0.00000000E+00  0.00000000E+00  0.00000000E+00
  0.00000000E+00  0.00000000E+00  0.00000000E+00
  0.00000000E+00  0.00000000E+00  0.00000000E+00
  0.00000000E+00  0.00000000E+00  0.00000000E+00
  0.00000000E+00  0.00000000E+00  0.00000000E+00
  0.00000000E+00  0.00000000E+00  0.00000000E+00
  0.00000000E+00  0.00000000E+00  0.00000000E+00
  0.00000000E+00  0.00000000E+00  0.00000000E+00
  0.00000000E+00  0.00000000E+00  0.00000000E+00
  0.00000000E+00  0.00000000E+00  0.00000000E+00
  0.00000000E+00  0.00000000E+00  0.00000000E+00
  0.00000000E+00  0.00000000E+00  0.00000000E+00
  0.00000000E+00  0.00000000E+00  0.00000000E+00
  0.00000000E+00  0.00000000E+00  0.00000000E+00
  0.00000000E+00  0.00000000E+00  0.00000000E+00
  0.00000000E+00  0.00000000E+00  0.00000000E+00
  0.00000000E+00  0.00000000E+00  0.00000000E+00
  0.00000000E+00  0.00000000E+00  0.00000000E+00
  0.00000000E+00  0.00000000E+00  0.00000000E+00
  0.00000000E+00  0.00000000E+00  0.00000000E+00
  0.00000000E+00  0.00000000E+00  0.00000000E+00
  0.00000000E+00  0.00000000E+00  0.00000000E+00
  0.00000000E+00  0.00000000E+00  0.00000000E+00
  0.00000000E+00  0.00000000E+00  0.00000000E+00
  0.00000000E+00  0.00000000E+00  0.00000000E+00
  0.00000000E+00  0.00000000E+00  0.00000000E+00
  0.00000000E+00  0.00000000E+00  0.00000000E+00
  0.00000000E+00  0.00000000E+00  0.00000000E+00
  0.00000000E+00  0.00000000E+00  0.00000000E+00
  0.00000000E+00  0.00000000E+00  0.00000000E+00
  0.00000000E+00  0.00000000E+00  0.00000000E+00
  0.00000000E+00  0.00000000E+00  0.00000000E+00
  0.00000000E+00  0.00000000E+00  0.00000000E+00
  0.00000000E+00  0.00000000E+00  0.00000000E+00
  0.00000000E+00  0.00000000E+00  0.00000000E+00
  0.00000000E+00  0.00000000E+00  0.00000000E+00
  0.00000000E+00  0.00000000E+00  0.00000000E+00
  0.00000000E+00  0.00000000E+00  0.00000000E+00
  0.00000000E+00  0.00000000E+00  0.00000000E+00
  0.00000000E+00  0.00000000E+00  0.00000000E+00
  0.00000000E+00  0.00000000E+00  0.00000000E+00
  0.00000000E+00  0.00000000E+00  0.00000000E+00
  0.00000000E+00  0.00000000E+00  0.00000000E+00
  0.00000000E+00  0.00000000E+00  0.00000000E+00
  0.00000000E+00  0.00000000E+00  0.00000000E+00
  0.00000000E+00  0.00000000E+00  0.00000000E+00
  0.00000000E+00  0.00000000E+00  0.00000000E+00
  0.00000000E+00  0.00000000E+00  0.00000000E+00
  0.00000000E+00  0.00000000E+00  0.00000000E+00
  0.00000000E+00  0.00000000E+00  0.00000000E+00
  0.00000000E+00  0.00000000E+00  0.00000000E+00
  0.00000000E+00  0.00000000E+00  0.00000000E+00
  0.00000000E+00  0.00000000E+00  0.00000000E+00
  0.00000000E+00  0.00000000E+00  0.00000000E+00
  0.00000000E+00  0.00000000E+00  0.00000000E+00
  0.00000000E+00  0.00000000E+00  0.00000000E+00
  0.00000000E+00  0.00000000E+00  0.00000000E+00
  0.00000000E+00  0.00000000E+00  0.00000000E+00
  0.00000000E+00  0.00000000E+00  0.00000000E+00
  0.00000000E+00  0.00000000E+00  0.00000000E+00
  0.00000000E+00  0.00000000E+00  0.00000000E+00
  0.00000000E+00  0.00000000E+00  0.00000000E+00
  0.00000000E+00  0.00000000E+00  0.00000000E+00
  0.00000000E+00  0.00000000E+00  0.00000000E+00
  0.00000000E+00  0.00000000E+00  0.00000000E+00
  0.00000000E+00  0.00000000E+00  0.00000000E+00
  0.00000000E+00  0.00000000E+00  0.00000000E+00
  0.00000000E+00  0.00000000E+00  0.00000000E+00
  0.00000000E+00  0.00000000E+00  0.00000000E+00
  0.00000000E+00  0.00000000E+00  0.00000000E+00
  0.00000000E+00  0.00000000E+00  0.00000000E+00
  0.00000000E+00  0.00000000E+00  0.00000000E+00
  0.00000000E+00  0.00000000E+00  0.00000000E+00
  0.00000000E+00  0.00000000E+00  0.00000000E+00
  0.00000000E+00  0.00000000E+00  0.00000000E+00
  0.00000000E+00  0.00000000E+00  0.00000000E+00
  0.00000000E+00  0.00000000E+00  0.00000000E+00
  0.00000000E+00  0.00000000E+00  0.00000000E+00
  0.00000000E+00  0.00000000E+00  0.00000000E+00
  0.00000000E+00  0.00000000E+00  0.00000000E+00
  0.00000000E+00  0.00000000E+00  0.00000000E+00
  0.00000000E+00  0.00000000E+00  0.00000000E+00
  0.00000000E+00  0.00000000E+00  0.00000000E+00
  0.00000000E+00  0.00000000E+00  0.00000000E+00
  0.00000000E+00  0.00000000E+00  0.00000000E+00
  0.00000000E+00  0.00000000E+00  0.00000000E+00
  0.00000000E+00  0.00000000E+00  0.00000000E+00
  0.00000000E+00  0.00000000E+00  0.00000000E+00
  0.00000000E+00  0.00000000E+00  0.00000000E+00
  0.00000000E+00  0.00000000E+00  0.00000000E+00
  0.00000000E+00  0.00000000E+00  0.00000000E+00
  0.00000000E+00  0.00000000E+00  0.00000000E+00
  0.00000000E+00  0.00000000E+00  0.00000000E+00
  0.00000000E+00  0.00000000E+00  0.00000000E+00
  0.00000000E+00  0.00000000E+00  0.00000000E+00
  0.00000000E+00  0.00000000E+00  0.00000000E+00
  0.00000000E+00  0.00000000E+00  0.00000000E+00
  0.00000000E+00  0.00000000E+00  0.00000000E+00
  0.00000000E+00  0.00000000E+00  0.00000000E+00
  0.00000000E+00  0.00000000E+00  0.00000000E+00
  0.00000000E+00  0.00000000E+00  0.00000000E+00
  0.00000000E+00  0.00000000E+00  0.00000000E+00
  0.00000000E+00  0.00000000E+00  0.00000000E+00
  0.00000000E+00  0.00000000E+00  0.00000000E+00
  0.00000000E+00  0.00000000E+00  0.00000000E+00
  0.00000000E+00  0.00000000E+00  0.00000000E+00
  0.00000000E+00  0.00000000E+00  0.00000000E+00
  0.00000000E+00  0.00000000E+00  0.00000000E+00
  0.00000000E+00  0.00000000E+00  0.00000000E+00
