Be2 In2 F10                             
   1.0000000000000000     
     4.7098311009180778   -0.5481573209057005    2.0187465190811835
     0.4972893280629217    4.7154731980631706    2.0187465771013104
     0.0903330373318725    0.0722961796513260    7.8423192495274234
   Be   In   F 
     2     2    10
Direct
  0.5792957918094288  0.4207042086338433  0.2499999998271178
  0.4207042081905712  0.5792957913661567  0.7500000001728822
  0.0000000000000000  0.0000000000000000  0.5000000000000000
  0.0000000000000000  0.0000000000000000  0.0000000000000000
  0.7413003037900694  0.6387986483836059  0.6769724818300489
  0.3612013542829118  0.2586986938864726  0.8230275180331859
  0.2586986962099331  0.3612013516163941  0.3230285181699557
  0.6387986457170882  0.7413003061135299  0.1769724819668141
  0.9048425001569740  0.0951574990948245  0.7500000003301324
  0.0951574998430260  0.9048425009051755  0.2499999996698676
  0.7477490545202627  0.3291980954021909  0.0681446268172579
  0.6708019027840280  0.2522509435141771  0.4318553751116525
  0.2522509454797373  0.6708019045978091  0.9318553731827421
  0.3291980972159720  0.7477490564858229  0.5681446248883475

  0.00000000E+00  0.00000000E+00  0.00000000E+00
  0.00000000E+00  0.00000000E+00  0.00000000E+00
  0.00000000E+00  0.00000000E+00  0.00000000E+00
  0.00000000E+00  0.00000000E+00  0.00000000E+00
  0.00000000E+00  0.00000000E+00  0.00000000E+00
  0.00000000E+00  0.00000000E+00  0.00000000E+00
  0.00000000E+00  0.00000000E+00  0.00000000E+00
  0.00000000E+00  0.00000000E+00  0.00000000E+00
  0.00000000E+00  0.00000000E+00  0.00000000E+00
  0.00000000E+00  0.00000000E+00  0.00000000E+00
  0.00000000E+00  0.00000000E+00  0.00000000E+00
  0.00000000E+00  0.00000000E+00  0.00000000E+00
  0.00000000E+00  0.00000000E+00  0.00000000E+00
  0.00000000E+00  0.00000000E+00  0.00000000E+00
