Sr1 Ga3 F6                              
   1.00000000000000     
    -3.0739670599449895    4.3213072356588293    3.0313501162033609
     3.0721493755369038   -4.3513752716505021    3.0721493755369034
     3.0313501162033605    4.3213072356588293   -3.0739670599449895
   F    Sr   Ga
     6     1     3
Direct
  0.2741435476085812  0.5526474520697278  0.2741435476085812
  0.7236756351929046  0.0000000000000000  0.2763243648070954
  0.2744175997830069  0.9957247876872515  0.2744175997830069
  0.7255824002169931  0.0042752123127485  0.7255824002169931
  0.7258564523914188  0.4473525479302722  0.7258564523914188
  0.2763243648070954  0.0000000000000000  0.7236756351929046
  0.0000000000000000  0.0000000000000000  0.0000000000000000
  0.7518348977024587  0.5000000000000000  0.2481651022975413
  0.5000000000000000  0.0000000000000000  0.5000000000000000
  0.2481651022975413  0.5000000000000000  0.7518348977024587
 
  0.00000000E+00  0.00000000E+00  0.00000000E+00
  0.00000000E+00  0.00000000E+00  0.00000000E+00
  0.00000000E+00  0.00000000E+00  0.00000000E+00
  0.00000000E+00  0.00000000E+00  0.00000000E+00
  0.00000000E+00  0.00000000E+00  0.00000000E+00
  0.00000000E+00  0.00000000E+00  0.00000000E+00
  0.00000000E+00  0.00000000E+00  0.00000000E+00
  0.00000000E+00  0.00000000E+00  0.00000000E+00
  0.00000000E+00  0.00000000E+00  0.00000000E+00
  0.00000000E+00  0.00000000E+00  0.00000000E+00
