Be6 In33                                
   1.00000000000000     
    10.2697016674264496    0.0000000000000000    0.0000000000000000
     0.0000000000000000   10.2697016674264514    0.0000000000000000
     0.0000000000000000    0.0000000000000000   10.2697016674264532
   Be   In
     6    33
Direct
  0.1050964454278258  0.5000000000000000  0.0000000000000000
  0.8949035545721742  0.5000000000000000  0.0000000000000000
  0.5000000000000000  0.0000000000000000  0.1050964454278258
  0.0000000000000000  0.1050964454278258  0.5000000000000000
  0.0000000000000000  0.8949035545721742  0.5000000000000000
  0.5000000000000000  0.0000000000000000  0.8949035545721742
  0.0000000000000000  0.0000000000000000  0.0000000000000000
  0.2957265877849977  0.1465642915959222  0.0000000000000000
  0.7042734122150023  0.1465642915959222  0.0000000000000000
  0.5000000000000000  0.3534604667727521  0.0000000000000000
  0.5000000000000000  0.6465395332272479  0.0000000000000000
  0.2957265877849977  0.8534357084040778  0.0000000000000000
  0.7042734122150023  0.8534357084040778  0.0000000000000000
  0.0000000000000000  0.2957265877849977  0.1465642915959222
  0.0000000000000000  0.7042734122150023  0.1465642915959222
  0.5000000000000000  0.5000000000000000  0.2727353206635641
  0.1465642915959222  0.0000000000000000  0.2957265877849977
  0.8534357084040778  0.0000000000000000  0.2957265877849977
  0.2765828784623565  0.2765828784623565  0.2765828784623565
  0.7234171215376435  0.2765828784623565  0.2765828784623565
  0.2765828784623565  0.7234171215376435  0.2765828784623565
  0.7234171215376435  0.7234171215376435  0.2765828784623565
  0.0000000000000000  0.5000000000000000  0.3534604667727521
  0.3534604667727521  0.0000000000000000  0.5000000000000000
  0.6465395332272479  0.0000000000000000  0.5000000000000000
  0.5000000000000000  0.2727353206635641  0.5000000000000000
  0.2727353206635641  0.5000000000000000  0.5000000000000000
  0.7272646793364288  0.5000000000000000  0.5000000000000000
  0.5000000000000000  0.7272646793364288  0.5000000000000000
  0.0000000000000000  0.5000000000000000  0.6465395332272479
  0.2765828784623565  0.2765828784623565  0.7234171215376435
  0.7234171215376435  0.2765828784623565  0.7234171215376435
  0.2765828784623565  0.7234171215376435  0.7234171215376435
  0.7234171215376435  0.7234171215376435  0.7234171215376435
  0.1465642915959222  0.0000000000000000  0.7042734122150023
  0.8534357084040778  0.0000000000000000  0.7042734122150023
  0.5000000000000000  0.5000000000000000  0.7272646793364288
  0.0000000000000000  0.2957265877849977  0.8534357084040778
  0.0000000000000000  0.7042734122150023  0.8534357084040778
 
  0.00000000E+00  0.00000000E+00  0.00000000E+00
  0.00000000E+00  0.00000000E+00  0.00000000E+00
  0.00000000E+00  0.00000000E+00  0.00000000E+00
  0.00000000E+00  0.00000000E+00  0.00000000E+00
  0.00000000E+00  0.00000000E+00  0.00000000E+00
  0.00000000E+00  0.00000000E+00  0.00000000E+00
  0.00000000E+00  0.00000000E+00  0.00000000E+00
  0.00000000E+00  0.00000000E+00  0.00000000E+00
  0.00000000E+00  0.00000000E+00  0.00000000E+00
  0.00000000E+00  0.00000000E+00  0.00000000E+00
  0.00000000E+00  0.00000000E+00  0.00000000E+00
  0.00000000E+00  0.00000000E+00  0.00000000E+00
  0.00000000E+00  0.00000000E+00  0.00000000E+00
  0.00000000E+00  0.00000000E+00  0.00000000E+00
  0.00000000E+00  0.00000000E+00  0.00000000E+00
  0.00000000E+00  0.00000000E+00  0.00000000E+00
  0.00000000E+00  0.00000000E+00  0.00000000E+00
  0.00000000E+00  0.00000000E+00  0.00000000E+00
  0.00000000E+00  0.00000000E+00  0.00000000E+00
  0.00000000E+00  0.00000000E+00  0.00000000E+00
  0.00000000E+00  0.00000000E+00  0.00000000E+00
  0.00000000E+00  0.00000000E+00  0.00000000E+00
  0.00000000E+00  0.00000000E+00  0.00000000E+00
  0.00000000E+00  0.00000000E+00  0.00000000E+00
  0.00000000E+00  0.00000000E+00  0.00000000E+00
  0.00000000E+00  0.00000000E+00  0.00000000E+00
  0.00000000E+00  0.00000000E+00  0.00000000E+00
  0.00000000E+00  0.00000000E+00  0.00000000E+00
  0.00000000E+00  0.00000000E+00  0.00000000E+00
  0.00000000E+00  0.00000000E+00  0.00000000E+00
  0.00000000E+00  0.00000000E+00  0.00000000E+00
  0.00000000E+00  0.00000000E+00  0.00000000E+00
  0.00000000E+00  0.00000000E+00  0.00000000E+00
  0.00000000E+00  0.00000000E+00  0.00000000E+00
  0.00000000E+00  0.00000000E+00  0.00000000E+00
  0.00000000E+00  0.00000000E+00  0.00000000E+00
  0.00000000E+00  0.00000000E+00  0.00000000E+00
  0.00000000E+00  0.00000000E+00  0.00000000E+00
  0.00000000E+00  0.00000000E+00  0.00000000E+00
