Sr2 Al2 F10                             
   1.00000000000000     
     5.0097634503178323    0.0429795622500624    1.8121732639330510
     1.1397851874322331    4.8785717670019162    1.8121733155611011
    -0.1229939402725858   -0.0984319034904757    7.5532025279895860
   Sr   Al   F 
     2     2    10
Direct
  0.4659760635030707  0.5340239365075305  0.2500000000237463
  0.5340239364969221  0.4659760634924766  0.7499999999762537
  0.0000000000000000  0.0000000000000000  0.5000000000000000
  0.0000000000000000  0.0000000000000000  0.0000000000000000
  0.8940224881784999  0.6941218410539491  0.6099767770576037
  0.3058781590878183  0.1059765120354044  0.8900232226751612
  0.1059765118215097  0.3058781589460580  0.3900242229424009
  0.6941218409121817  0.8940224879645982  0.1099767773248388
  0.9520015894526423  0.0479984105345324  0.7500000000397122
  0.0479984105473577  0.9520015894654605  0.2499999999602878
  0.8006081504725202  0.3491506800813227  0.9932236954745832
  0.6508493198383647  0.1993918496909828  0.5067763044593789
  0.1993918495274798  0.6508493199186773  0.0067763045254168
  0.3491506801616353  0.8006081503090172  0.4932236955406140
 
  0.00000000E+00  0.00000000E+00  0.00000000E+00
  0.00000000E+00  0.00000000E+00  0.00000000E+00
  0.00000000E+00  0.00000000E+00  0.00000000E+00
  0.00000000E+00  0.00000000E+00  0.00000000E+00
  0.00000000E+00  0.00000000E+00  0.00000000E+00
  0.00000000E+00  0.00000000E+00  0.00000000E+00
  0.00000000E+00  0.00000000E+00  0.00000000E+00
  0.00000000E+00  0.00000000E+00  0.00000000E+00
  0.00000000E+00  0.00000000E+00  0.00000000E+00
  0.00000000E+00  0.00000000E+00  0.00000000E+00
  0.00000000E+00  0.00000000E+00  0.00000000E+00
  0.00000000E+00  0.00000000E+00  0.00000000E+00
  0.00000000E+00  0.00000000E+00  0.00000000E+00
  0.00000000E+00  0.00000000E+00  0.00000000E+00
