Be6 Tl4 Cl24                            
   1.0000000000000000     
    13.6855827017730665    0.0241773285783293    0.0000000000000000
     0.1594609586518306   14.7910569488817565    0.0000000000000000
     0.0000000000000000    0.0000000000000000    7.7093766031970556
   Cl   Tl   Be
    24     4     6
Direct
  0.6429484826248029  0.0835494181957799  0.0000000000000000
  0.1505808275311580  0.4150910141480750  0.0000000000000000
  0.7083279785680006  0.4868428052312055  0.0000000000000000
  0.2124257876194235  0.0237250153314079  0.0000000000000000
  0.4436035909388494  0.9448449616849999  0.2663507718625695
  0.9449081562528647  0.5294112112106504  0.2663707446304215
  0.2908413755120094  0.2104882830550991  0.2106591966525428
  0.9283115354446281  0.0860025331527865  0.2204977630378551
  0.4353496123432450  0.4231671440432265  0.2207787127246021
  0.7717616515727386  0.2936707276454555  0.2106585930577722
  0.2357449080955973  0.6573976216044031  0.2662621458476266
  0.5317540813340003  0.6396489105046328  0.2639720489825166
  0.0407156236291044  0.8746168517398161  0.2646777851812345
  0.7479236244719871  0.8388209077644717  0.2662321813960205
  0.2908413755120094  0.2104882830550991  0.7893408033474572
  0.9283115354446281  0.0860025331527865  0.7795022369621449
  0.4353496123432450  0.4231671440432265  0.7792212872753979
  0.7717616515727386  0.2936707276454555  0.7893414069422207
  0.2357449080955973  0.6573976216044031  0.7337378541523734
  0.5317540813340003  0.6396489105046328  0.7360279510174834
  0.0407156236291044  0.8746168517398161  0.7353222148187726
  0.7479236244719871  0.8388209077644717  0.7337678186039795
  0.4436035909388494  0.9448449616849999  0.7336492281374234
  0.9449081562528647  0.5294112112106504  0.7336292553695785
  0.3157049924751192  0.3604739206895573  0.0000000000000000
  0.8040982837903385  0.1440338051440548  0.0000000000000000
  0.0205130537619951  0.9596398785182458  0.0000000000000000
  0.5172754617225905  0.5533477839835115  0.0000000000000000
  0.2608333186595218  0.1446688350293002  0.0000000000000000
  0.7466265838852877  0.3616710491451229  0.0000000000000000
  0.7523892110609580  0.8384237010687841  0.5000000000000000
  0.2404062816539536  0.6582116029660909  0.5000000000000000
  0.9433476336316247  0.5285102872879719  0.5000000000000000
  0.4422937838252494  0.9452725784498455  0.5000000000000000

  0.00000000E+00  0.00000000E+00  0.00000000E+00
  0.00000000E+00  0.00000000E+00  0.00000000E+00
  0.00000000E+00  0.00000000E+00  0.00000000E+00
  0.00000000E+00  0.00000000E+00  0.00000000E+00
  0.00000000E+00  0.00000000E+00  0.00000000E+00
  0.00000000E+00  0.00000000E+00  0.00000000E+00
  0.00000000E+00  0.00000000E+00  0.00000000E+00
  0.00000000E+00  0.00000000E+00  0.00000000E+00
  0.00000000E+00  0.00000000E+00  0.00000000E+00
  0.00000000E+00  0.00000000E+00  0.00000000E+00
  0.00000000E+00  0.00000000E+00  0.00000000E+00
  0.00000000E+00  0.00000000E+00  0.00000000E+00
  0.00000000E+00  0.00000000E+00  0.00000000E+00
  0.00000000E+00  0.00000000E+00  0.00000000E+00
  0.00000000E+00  0.00000000E+00  0.00000000E+00
  0.00000000E+00  0.00000000E+00  0.00000000E+00
  0.00000000E+00  0.00000000E+00  0.00000000E+00
  0.00000000E+00  0.00000000E+00  0.00000000E+00
  0.00000000E+00  0.00000000E+00  0.00000000E+00
  0.00000000E+00  0.00000000E+00  0.00000000E+00
  0.00000000E+00  0.00000000E+00  0.00000000E+00
  0.00000000E+00  0.00000000E+00  0.00000000E+00
  0.00000000E+00  0.00000000E+00  0.00000000E+00
  0.00000000E+00  0.00000000E+00  0.00000000E+00
  0.00000000E+00  0.00000000E+00  0.00000000E+00
  0.00000000E+00  0.00000000E+00  0.00000000E+00
  0.00000000E+00  0.00000000E+00  0.00000000E+00
  0.00000000E+00  0.00000000E+00  0.00000000E+00
  0.00000000E+00  0.00000000E+00  0.00000000E+00
  0.00000000E+00  0.00000000E+00  0.00000000E+00
  0.00000000E+00  0.00000000E+00  0.00000000E+00
  0.00000000E+00  0.00000000E+00  0.00000000E+00
  0.00000000E+00  0.00000000E+00  0.00000000E+00
  0.00000000E+00  0.00000000E+00  0.00000000E+00
