Mg1 Ga2 F6                              
   1.00000000000000     
     3.2488511114945418    1.0612320394057013    4.0282032228809008
    -3.2488511114945418    1.0612320394057013    4.0282032228809008
    -0.0000000000000001   -3.2606880200722621    4.4553498977546422
   Mg   F    Ga
     1     6     2
Direct
  0.0000000000000000  0.0000000000000000  0.0000000000000000
  0.6917486623687452  0.6917486623687452  0.3407412433348043
  0.8298946443148196  0.2420445573939318  0.2196358847736590
  0.2420445573939318  0.8298946443148196  0.2196358847736590
  0.3082513376312548  0.3082513376312548  0.6592587566651957
  0.7579554426060682  0.1701053556851875  0.7803641152263410
  0.1701053556851875  0.7579554426060682  0.7803641152263410
  0.4807606073010859  0.4807606073010859  0.8015340245420219
  0.5192393926989141  0.5192393926989141  0.1984659754579781
 
  0.00000000E+00  0.00000000E+00  0.00000000E+00
  0.00000000E+00  0.00000000E+00  0.00000000E+00
  0.00000000E+00  0.00000000E+00  0.00000000E+00
  0.00000000E+00  0.00000000E+00  0.00000000E+00
  0.00000000E+00  0.00000000E+00  0.00000000E+00
  0.00000000E+00  0.00000000E+00  0.00000000E+00
  0.00000000E+00  0.00000000E+00  0.00000000E+00
  0.00000000E+00  0.00000000E+00  0.00000000E+00
  0.00000000E+00  0.00000000E+00  0.00000000E+00
