Ca1 Ga8                                 
   1.00000000000000     
     9.0470186942117774   -0.0003400666254676    0.0000000000000000
    -4.5238039415465856    7.8345794978196501    0.0000000000000000
     0.0000000000000000    0.0000000000000000    2.9821492312004763
   Ga   Ca
     8     1
Direct
  0.3478203783095992  0.1739336567540022  0.0000000000000000
  0.8261199626511413  0.1738868073508044  0.0000000000000000
  0.6666838598042020  0.3332921996467704  0.0000000000000000
  0.1739340637262927  0.3478370934549062  0.0000000000000000
  0.8260659362737073  0.6521629065450938  0.0000000000000000
  0.3333161401957980  0.6667078003532296  0.0000000000000000
  0.1738800373488587  0.8261131926491956  0.0000000000000000
  0.6521796216904008  0.8260663432459978  0.0000000000000000
  0.0000000000000000  0.0000000000000000  0.5000000000000000
 
  0.00000000E+00  0.00000000E+00  0.00000000E+00
  0.00000000E+00  0.00000000E+00  0.00000000E+00
  0.00000000E+00  0.00000000E+00  0.00000000E+00
  0.00000000E+00  0.00000000E+00  0.00000000E+00
  0.00000000E+00  0.00000000E+00  0.00000000E+00
  0.00000000E+00  0.00000000E+00  0.00000000E+00
  0.00000000E+00  0.00000000E+00  0.00000000E+00
  0.00000000E+00  0.00000000E+00  0.00000000E+00
  0.00000000E+00  0.00000000E+00  0.00000000E+00
