Ba8 Tl4 F28                             
   1.0000000000000000     
    -5.6760529432358036    0.0000000000000000   -0.0018899594611332
    -0.0812219596773601    0.0000000000000000   -8.7802257361663187
     0.0000000000000000  -13.0631954844734555    0.0000000000000000
   Ba   Tl   F 
     8     4    28
Direct
  0.2567943513651372  0.9435422121162276  0.7206730227899314
  0.7432056486348557  0.0564577878837724  0.2793269772100686
  0.7432056486348557  0.5564577878837724  0.2206730227899314
  0.2567943513651372  0.4435422121162276  0.7793269772100686
  0.7433379289306856  0.6735921291451774  0.5629511861627066
  0.2566620710693215  0.3264078708548226  0.4370488138372934
  0.2566620710693215  0.8264078708548226  0.0629511861627066
  0.7433379289306856  0.1735921291451774  0.9370488138372934
  0.7754083462656993  0.7094698298190210  0.8782664116656562
  0.2245916537343078  0.2905301701809719  0.1217335883343509
  0.2245916537343078  0.7905301701809790  0.3782664116656491
  0.7754083462656993  0.2094698298190281  0.6217335883343438
  0.0066339180338773  0.8045036339519385  0.2335222077078569
  0.9933660819661227  0.1954963660480686  0.7664777922921431
  0.9933660819661227  0.6954963660480615  0.7335222077078569
  0.0066339180338773  0.3045036339519314  0.2664777922921431
  0.7096790625923290  0.9632677024371148  0.6402263404723456
  0.2903209374076710  0.0367322975628852  0.3597736595276544
  0.2903209374076710  0.5367322975628852  0.1402263404723456
  0.7096790625923290  0.4632677024371148  0.8597736595276544
  0.5151314254562536  0.6913334973088752  0.7475104421287426
  0.4848685745437464  0.3086665026911248  0.2524895578712574
  0.4848685745437464  0.8086665026911248  0.2475104421287426
  0.5151314254562536  0.1913334973088752  0.7524895578712574
  0.5139278495354986  0.9058137835505491  0.8962697521443133
  0.4860721504645014  0.0941862164494509  0.1037302478556867
  0.4860721504645014  0.5941862164494509  0.3962697521443133
  0.5139278495354986  0.4058137835505491  0.6037302478556867
  0.8714939323117861  0.8784612048789100  0.4301568680123751
  0.1285060676882139  0.1215387951210900  0.5698431319876249
  0.1285060676882139  0.6215387951210900  0.9301568680123751
  0.8714939323117861  0.3784612048789100  0.0698431319876249
  0.2824974446853830  0.7746451976560351  0.5458100395537002
  0.7175025553146099  0.2253548023439649  0.4541899604462998
  0.7175025553146099  0.7253548023439649  0.0458100395537002
  0.2824974446853830  0.2746451976560351  0.9541899604462998
  0.9964405246876780  0.9217969927004788  0.8955991198654161
  0.0035594753123220  0.0782030072995283  0.1044008801345839
  0.0035594753123220  0.5782030072995212  0.3955991198654161
  0.9964405246876780  0.4217969927004717  0.6044008801345839

  0.00000000E+00  0.00000000E+00  0.00000000E+00
  0.00000000E+00  0.00000000E+00  0.00000000E+00
  0.00000000E+00  0.00000000E+00  0.00000000E+00
  0.00000000E+00  0.00000000E+00  0.00000000E+00
  0.00000000E+00  0.00000000E+00  0.00000000E+00
  0.00000000E+00  0.00000000E+00  0.00000000E+00
  0.00000000E+00  0.00000000E+00  0.00000000E+00
  0.00000000E+00  0.00000000E+00  0.00000000E+00
  0.00000000E+00  0.00000000E+00  0.00000000E+00
  0.00000000E+00  0.00000000E+00  0.00000000E+00
  0.00000000E+00  0.00000000E+00  0.00000000E+00
  0.00000000E+00  0.00000000E+00  0.00000000E+00
  0.00000000E+00  0.00000000E+00  0.00000000E+00
  0.00000000E+00  0.00000000E+00  0.00000000E+00
  0.00000000E+00  0.00000000E+00  0.00000000E+00
  0.00000000E+00  0.00000000E+00  0.00000000E+00
  0.00000000E+00  0.00000000E+00  0.00000000E+00
  0.00000000E+00  0.00000000E+00  0.00000000E+00
  0.00000000E+00  0.00000000E+00  0.00000000E+00
  0.00000000E+00  0.00000000E+00  0.00000000E+00
  0.00000000E+00  0.00000000E+00  0.00000000E+00
  0.00000000E+00  0.00000000E+00  0.00000000E+00
  0.00000000E+00  0.00000000E+00  0.00000000E+00
  0.00000000E+00  0.00000000E+00  0.00000000E+00
  0.00000000E+00  0.00000000E+00  0.00000000E+00
  0.00000000E+00  0.00000000E+00  0.00000000E+00
  0.00000000E+00  0.00000000E+00  0.00000000E+00
  0.00000000E+00  0.00000000E+00  0.00000000E+00
  0.00000000E+00  0.00000000E+00  0.00000000E+00
  0.00000000E+00  0.00000000E+00  0.00000000E+00
  0.00000000E+00  0.00000000E+00  0.00000000E+00
  0.00000000E+00  0.00000000E+00  0.00000000E+00
  0.00000000E+00  0.00000000E+00  0.00000000E+00
  0.00000000E+00  0.00000000E+00  0.00000000E+00
  0.00000000E+00  0.00000000E+00  0.00000000E+00
  0.00000000E+00  0.00000000E+00  0.00000000E+00
  0.00000000E+00  0.00000000E+00  0.00000000E+00
  0.00000000E+00  0.00000000E+00  0.00000000E+00
  0.00000000E+00  0.00000000E+00  0.00000000E+00
  0.00000000E+00  0.00000000E+00  0.00000000E+00
