Sr22 Tl14                               
   1.0000000000000000     
    -8.9528230444093158    8.9419291233013389    0.0056358071374671
     8.9584705678344516    0.0000000000000000   -9.0135345266579527
    -8.9528230444093158   -8.9419291233013389    0.0056358071374671
   Sr   Tl
    22    14
Direct
  0.9999716108945194  0.9999893215594824  0.9999716108945194
  0.3894520626674591  0.2588200579539119  0.1294879172192935
  0.8692322748291019  0.2585985418128232  0.1293636871417831
  0.8706261890095703  0.7414050674960251  0.1307558396981960
  0.5003666637419784  0.0002116406265813  0.1652232273043239
  0.1657087121473850  0.6670872626473923  0.1657087121473850
  0.5015816415952870  0.6672072843168522  0.1656705764964315
  0.1294879172192935  0.2588200579539119  0.3894520626674591
  0.1652232273043239  0.0002116406265813  0.5003666637419784
  0.4999792358727717  0.0000190555274244  0.4999792358727717
  0.8347267436023671  0.9997850245238524  0.4995847807385658
  0.4988198252454765  0.3329722765396141  0.4988198252454765
  0.8343285648941006  0.3328074576154023  0.4984120302869144
  0.1656705764964315  0.6672072843168522  0.5015816415952870
  0.5011537997319664  0.6670491762049267  0.5011537997319664
  0.8704945460908959  0.7411777029869882  0.6105217731532306
  0.4995847807385658  0.9997850245238524  0.8347267436023671
  0.4984120302869144  0.3328074576154023  0.8343285648941006
  0.8342691488153875  0.3328952777314527  0.8342691488153875
  0.1293636871417831  0.2585985418128232  0.8692322748291019
  0.1307558396981960  0.7414050674960251  0.8706261890095703
  0.6105217731532306  0.7411777029869882  0.8704945460908959
  0.6872858624708158  0.3745570546621408  0.0611252259506330
  0.2187504237754325  0.0005236748484165  0.2187504237754325
  0.7800122663471996  0.0000071338727636  0.2199429320212118
  0.2196568015895721  0.4396259869217047  0.2196568015895721
  0.6876611171875879  0.3748296082079676  0.3136400560586310
  0.6863511763860686  0.6251696499329924  0.3123196162774917
  0.9388697848011773  0.6254283567934209  0.3126969964444655
  0.0611252259506330  0.3745570546621408  0.6872858624708158
  0.3136400560586310  0.3748296082079676  0.6876611171875879
  0.3123196162774917  0.6251696499329924  0.6863511763860686
  0.2199429320212118  0.0000071338727636  0.7800122663471996
  0.7812321570810923  0.9994643123747835  0.7812321570810923
  0.7803247324315734  0.5603644940413801  0.7803247324315734
  0.3126969964444655  0.6254283567934209  0.9388697848011773

  0.00000000E+00  0.00000000E+00  0.00000000E+00
  0.00000000E+00  0.00000000E+00  0.00000000E+00
  0.00000000E+00  0.00000000E+00  0.00000000E+00
  0.00000000E+00  0.00000000E+00  0.00000000E+00
  0.00000000E+00  0.00000000E+00  0.00000000E+00
  0.00000000E+00  0.00000000E+00  0.00000000E+00
  0.00000000E+00  0.00000000E+00  0.00000000E+00
  0.00000000E+00  0.00000000E+00  0.00000000E+00
  0.00000000E+00  0.00000000E+00  0.00000000E+00
  0.00000000E+00  0.00000000E+00  0.00000000E+00
  0.00000000E+00  0.00000000E+00  0.00000000E+00
  0.00000000E+00  0.00000000E+00  0.00000000E+00
  0.00000000E+00  0.00000000E+00  0.00000000E+00
  0.00000000E+00  0.00000000E+00  0.00000000E+00
  0.00000000E+00  0.00000000E+00  0.00000000E+00
  0.00000000E+00  0.00000000E+00  0.00000000E+00
  0.00000000E+00  0.00000000E+00  0.00000000E+00
  0.00000000E+00  0.00000000E+00  0.00000000E+00
  0.00000000E+00  0.00000000E+00  0.00000000E+00
  0.00000000E+00  0.00000000E+00  0.00000000E+00
  0.00000000E+00  0.00000000E+00  0.00000000E+00
  0.00000000E+00  0.00000000E+00  0.00000000E+00
  0.00000000E+00  0.00000000E+00  0.00000000E+00
  0.00000000E+00  0.00000000E+00  0.00000000E+00
  0.00000000E+00  0.00000000E+00  0.00000000E+00
  0.00000000E+00  0.00000000E+00  0.00000000E+00
  0.00000000E+00  0.00000000E+00  0.00000000E+00
  0.00000000E+00  0.00000000E+00  0.00000000E+00
  0.00000000E+00  0.00000000E+00  0.00000000E+00
  0.00000000E+00  0.00000000E+00  0.00000000E+00
  0.00000000E+00  0.00000000E+00  0.00000000E+00
  0.00000000E+00  0.00000000E+00  0.00000000E+00
  0.00000000E+00  0.00000000E+00  0.00000000E+00
  0.00000000E+00  0.00000000E+00  0.00000000E+00
  0.00000000E+00  0.00000000E+00  0.00000000E+00
  0.00000000E+00  0.00000000E+00  0.00000000E+00
