InCl3                                   
   1.00000000000000     
     6.5800110495594311   -0.0036987501170034    0.0074178542619125
     3.2872596071087803    5.7000185179090721    0.0039325586548797
     3.2968094937192203    1.8987415680880055    6.6728365440983044
   Cl   In
     6     2
Direct
  0.9264927339734967  0.5643426697813752  0.2194790964395708
  0.5645349416843857  0.2886831801061547  0.2190139122477248
  0.2885119671370688  0.9266751308988219  0.2192273597362373
  0.7116291837740505  0.0733963520686274  0.7808280267632028
  0.4354025211545860  0.7114607254464076  0.7810638569121124
  0.0736196192573360  0.4358264942340568  0.7804090804644375
  0.3332898983355932  0.3332425661633565  0.0000006811722670
  0.6668191346834860  0.6667728813012062  0.9999779862644402
 
  0.00000000E+00  0.00000000E+00  0.00000000E+00
  0.00000000E+00  0.00000000E+00  0.00000000E+00
  0.00000000E+00  0.00000000E+00  0.00000000E+00
  0.00000000E+00  0.00000000E+00  0.00000000E+00
  0.00000000E+00  0.00000000E+00  0.00000000E+00
  0.00000000E+00  0.00000000E+00  0.00000000E+00
  0.00000000E+00  0.00000000E+00  0.00000000E+00
  0.00000000E+00  0.00000000E+00  0.00000000E+00
