Ca3 Al4                                 
   1.00000000000000     
     2.5059580122940170    1.4468779100729274    8.0115505561269877
    -2.5059580122940170    1.4468779100729274    8.0115505561269877
     0.0000000000000000   -2.8937171756301074    8.0117322000326254
   Al   Ca
     4     3
Direct
  0.1759675465687280  0.1759675465687280  0.1759224648757751
  0.2988913247134377  0.2988913247134377  0.2989155138870174
  0.7059610104802658  0.7059610104802658  0.7060039772742570
  0.8289573275549174  0.8289573275549174  0.8289036698564729
  0.0024133220438856  0.0024133220438856  0.0024468580473425
  0.4310652048272345  0.4310652048272345  0.4310721655042542
  0.5738042638115246  0.5738042638115246  0.5737953505548887
 
  0.00000000E+00  0.00000000E+00  0.00000000E+00
  0.00000000E+00  0.00000000E+00  0.00000000E+00
  0.00000000E+00  0.00000000E+00  0.00000000E+00
  0.00000000E+00  0.00000000E+00  0.00000000E+00
  0.00000000E+00  0.00000000E+00  0.00000000E+00
  0.00000000E+00  0.00000000E+00  0.00000000E+00
  0.00000000E+00  0.00000000E+00  0.00000000E+00
