Mg4 Ga8 Br16                            
   1.00000000000000     
     9.5244939899875529   -0.0003556574371072    0.0009646474810421
    -0.0007821992061269    7.8854396828791424    0.4133926082005718
     0.0009045608028402    0.7521678705170816   13.6945019984758716
   Mg   Br   Ga
     4    16     8
Direct
  0.7117683612532986  0.2873057541846151  0.0699273471887238
  0.2130790277023067  0.2123075903496030  0.4301421134588992
  0.7880221906443410  0.7898981343351537  0.5695208108707988
  0.2870260456112987  0.7105068319719976  0.9304490483479242
  0.1590154600415374  0.6205931955379569  0.0882948539067172
  0.4561437077267314  0.2137383221142102  0.0551392649699736
  0.8227100766649755  0.0114549044039407  0.1420818976443883
  0.7564495967233924  0.5296699579755781  0.1717891772080264
  0.2577546697151050  0.9698616524646013  0.3283059955775514
  0.3241057024214982  0.4880919056794895  0.3578056449678897
  0.9575382202377227  0.2860153997468800  0.4449576965701638
  0.6597089073839371  0.8794938636390697  0.4117520486895643
  0.3409531179740952  0.1227293183578553  0.5880935924022381
  0.0435480796694705  0.7163063779861218  0.5544525807815788
  0.6772940423475191  0.5140496586009249  0.6420009437651046
  0.7433771603063803  0.0320987477266144  0.6715210639683491
  0.2425675191037371  0.4683324891038723  0.8283739741404332
  0.1764917250770495  0.9863203325494041  0.8578523575030417
  0.5425962811629859  0.7840123131453467  0.9453719360005195
  0.8394958876980851  0.3770932563818832  0.9118886445824188
  0.1193166659470393  0.2689664796081104  0.0015832122105905
  0.5493099313825951  0.8386690899843359  0.1607771033643388
  0.0508235925946323  0.6611042419508095  0.3391208473765843
  0.6203702841694607  0.2314336979824319  0.4981581647725122
  0.3806916734317412  0.7708371898182591  0.5019572286896121
  0.9506406172721071  0.3412155421470260  0.6601591511544740
  0.4499312965409317  0.1589663600075326  0.8398685697217800
  0.8792701591960110  0.7285273922463489  0.9982547301657974
 
  0.00000000E+00  0.00000000E+00  0.00000000E+00
  0.00000000E+00  0.00000000E+00  0.00000000E+00
  0.00000000E+00  0.00000000E+00  0.00000000E+00
  0.00000000E+00  0.00000000E+00  0.00000000E+00
  0.00000000E+00  0.00000000E+00  0.00000000E+00
  0.00000000E+00  0.00000000E+00  0.00000000E+00
  0.00000000E+00  0.00000000E+00  0.00000000E+00
  0.00000000E+00  0.00000000E+00  0.00000000E+00
  0.00000000E+00  0.00000000E+00  0.00000000E+00
  0.00000000E+00  0.00000000E+00  0.00000000E+00
  0.00000000E+00  0.00000000E+00  0.00000000E+00
  0.00000000E+00  0.00000000E+00  0.00000000E+00
  0.00000000E+00  0.00000000E+00  0.00000000E+00
  0.00000000E+00  0.00000000E+00  0.00000000E+00
  0.00000000E+00  0.00000000E+00  0.00000000E+00
  0.00000000E+00  0.00000000E+00  0.00000000E+00
  0.00000000E+00  0.00000000E+00  0.00000000E+00
  0.00000000E+00  0.00000000E+00  0.00000000E+00
  0.00000000E+00  0.00000000E+00  0.00000000E+00
  0.00000000E+00  0.00000000E+00  0.00000000E+00
  0.00000000E+00  0.00000000E+00  0.00000000E+00
  0.00000000E+00  0.00000000E+00  0.00000000E+00
  0.00000000E+00  0.00000000E+00  0.00000000E+00
  0.00000000E+00  0.00000000E+00  0.00000000E+00
  0.00000000E+00  0.00000000E+00  0.00000000E+00
  0.00000000E+00  0.00000000E+00  0.00000000E+00
  0.00000000E+00  0.00000000E+00  0.00000000E+00
  0.00000000E+00  0.00000000E+00  0.00000000E+00
