BaCl4                                   
   1.00000000000000     
     5.0277085486662303    0.0879097670352374    0.0281759821158961
    -0.0236458975919621    8.2831669347300618    0.1284371911549773
    -0.1385472604854731   -2.9346950919203696    7.7717920448820630
   Ba   Cl
     2     8
Direct
  0.2483816958566223  0.0775467646839729  0.2796422017908711
  0.7516390854337516  0.9223654856373571  0.7201732561951886
  0.7511700705998834  0.8758808557761881  0.0783737080850315
  0.8868354727605663  0.3635897090236284  0.1389288901598817
  0.6063456443522739  0.5299935746956379  0.2902244347382705
  0.2479632379556236  0.8148904516786644  0.4787142472248291
  0.7520283099094911  0.1850055278386549  0.5211926930274089
  0.3936886665612818  0.4699621091181143  0.7097658769218640
  0.1131747126422482  0.6363335513136121  0.8610426376381923
  0.2487731039282650  0.1240319702341850  0.9215420542184560
 
  0.00000000E+00  0.00000000E+00  0.00000000E+00
  0.00000000E+00  0.00000000E+00  0.00000000E+00
  0.00000000E+00  0.00000000E+00  0.00000000E+00
  0.00000000E+00  0.00000000E+00  0.00000000E+00
  0.00000000E+00  0.00000000E+00  0.00000000E+00
  0.00000000E+00  0.00000000E+00  0.00000000E+00
  0.00000000E+00  0.00000000E+00  0.00000000E+00
  0.00000000E+00  0.00000000E+00  0.00000000E+00
  0.00000000E+00  0.00000000E+00  0.00000000E+00
  0.00000000E+00  0.00000000E+00  0.00000000E+00
