Ba13 In16                               
   1.0000000000000000     
    -6.5783952763295881   -6.5783952763295890    6.5783952763295881
    -6.5783952763295881    6.5783952763295890   -6.5783952763295881
     6.5783952763295881   -6.5783952763295890   -6.5783952763295881
   In   Ba
    16    13
Direct
  0.7038967036838528  0.0000000000000000  0.0000000000000000
  0.3437058849819437  0.1710244065964446  0.0000000000000000
  0.1710244065964446  0.3437058849819437  0.0000000000000000
  0.0000000000000000  0.7038967036838528  0.0000000000000000
  0.8289755934035554  0.8289755934035554  0.1726814783854991
  0.3437058849819437  0.0000000000000000  0.1710244065964446
  0.0000000000000000  0.3437058849819437  0.1710244065964446
  0.2961032963161472  0.2961032963161472  0.2961032963161472
  0.1710244065964446  0.0000000000000000  0.3437058849819437
  0.0000000000000000  0.1710244065964446  0.3437058849819437
  0.8273185216145009  0.6562941150180563  0.6562941150180563
  0.6562941150180563  0.8273185216145009  0.6562941150180563
  0.0000000000000000  0.0000000000000000  0.7038967036838528
  0.8289755934035554  0.1726814783854991  0.8289755934035554
  0.1726814783854991  0.8289755934035554  0.8289755934035554
  0.6562941150180563  0.6562941150180563  0.8273185216145009
  0.0000000000000000  0.0000000000000000  0.0000000000000000
  0.7337599180153944  0.4483385101714745  0.0000000000000000
  0.4483385101714745  0.7337599180153944  0.0000000000000000
  0.5516614898285255  0.5516614898285255  0.2854214078439199
  0.7145785921560801  0.2662400819846056  0.2662400819846056
  0.2662400819846056  0.7145785921560801  0.2662400819846056
  0.7337599180153944  0.0000000000000000  0.4483385101714745
  0.0000000000000000  0.7337599180153944  0.4483385101714745
  0.5516614898285255  0.2854214078439199  0.5516614898285255
  0.2854214078439199  0.5516614898285255  0.5516614898285255
  0.4483385101714745  0.0000000000000000  0.7337599180153944
  0.0000000000000000  0.4483385101714745  0.7337599180153944
  0.2662400819846056  0.2662400819846056  0.7145785921560801

  0.00000000E+00  0.00000000E+00  0.00000000E+00
  0.00000000E+00  0.00000000E+00  0.00000000E+00
  0.00000000E+00  0.00000000E+00  0.00000000E+00
  0.00000000E+00  0.00000000E+00  0.00000000E+00
  0.00000000E+00  0.00000000E+00  0.00000000E+00
  0.00000000E+00  0.00000000E+00  0.00000000E+00
  0.00000000E+00  0.00000000E+00  0.00000000E+00
  0.00000000E+00  0.00000000E+00  0.00000000E+00
  0.00000000E+00  0.00000000E+00  0.00000000E+00
  0.00000000E+00  0.00000000E+00  0.00000000E+00
  0.00000000E+00  0.00000000E+00  0.00000000E+00
  0.00000000E+00  0.00000000E+00  0.00000000E+00
  0.00000000E+00  0.00000000E+00  0.00000000E+00
  0.00000000E+00  0.00000000E+00  0.00000000E+00
  0.00000000E+00  0.00000000E+00  0.00000000E+00
  0.00000000E+00  0.00000000E+00  0.00000000E+00
  0.00000000E+00  0.00000000E+00  0.00000000E+00
  0.00000000E+00  0.00000000E+00  0.00000000E+00
  0.00000000E+00  0.00000000E+00  0.00000000E+00
  0.00000000E+00  0.00000000E+00  0.00000000E+00
  0.00000000E+00  0.00000000E+00  0.00000000E+00
  0.00000000E+00  0.00000000E+00  0.00000000E+00
  0.00000000E+00  0.00000000E+00  0.00000000E+00
  0.00000000E+00  0.00000000E+00  0.00000000E+00
  0.00000000E+00  0.00000000E+00  0.00000000E+00
  0.00000000E+00  0.00000000E+00  0.00000000E+00
  0.00000000E+00  0.00000000E+00  0.00000000E+00
  0.00000000E+00  0.00000000E+00  0.00000000E+00
  0.00000000E+00  0.00000000E+00  0.00000000E+00
