Be2 B2 I10                              
   1.00000000000000     
     7.3679670278990743   -0.0830582299334257    2.6990917722326784
     1.5335923097313893    7.2070740731983411    2.6990924776642986
    -0.8989540488117901   -0.7194397807534869   13.9825612874642662
   Be   B    I 
     2     2    10
Direct
  0.5991606613606564  0.4008393387199050  0.2500000020824729
  0.4008393386393365  0.5991606612801021  0.7499999979175271
  0.0000000000000000  0.0000000000000000  0.5000000000000000
  0.0000000000000000  0.0000000000000000  0.0000000000000000
  0.6859143372580547  0.6306292003025860  0.6524050935110353
  0.3693707967725146  0.3140846623058593  0.8475949035748087
  0.3140846627419549  0.3693707996974140  0.3475959064889693
  0.6306292032274854  0.6859143376941432  0.1524050964251913
  0.1552359315676739  0.8447640677977120  0.7499999981261922
  0.8447640684323261  0.1552359322022880  0.2500000018738078
  0.7894218202747680  0.1732218961061989  0.9438324374753861
  0.8267781084597630  0.2105781756366696  0.5561675650990949
  0.2105781797252320  0.8267781038938011  0.0561675625246139
  0.1732218915402370  0.7894218243633304  0.4438324349009051
 
  0.00000000E+00  0.00000000E+00  0.00000000E+00
  0.00000000E+00  0.00000000E+00  0.00000000E+00
  0.00000000E+00  0.00000000E+00  0.00000000E+00
  0.00000000E+00  0.00000000E+00  0.00000000E+00
  0.00000000E+00  0.00000000E+00  0.00000000E+00
  0.00000000E+00  0.00000000E+00  0.00000000E+00
  0.00000000E+00  0.00000000E+00  0.00000000E+00
  0.00000000E+00  0.00000000E+00  0.00000000E+00
  0.00000000E+00  0.00000000E+00  0.00000000E+00
  0.00000000E+00  0.00000000E+00  0.00000000E+00
  0.00000000E+00  0.00000000E+00  0.00000000E+00
  0.00000000E+00  0.00000000E+00  0.00000000E+00
  0.00000000E+00  0.00000000E+00  0.00000000E+00
  0.00000000E+00  0.00000000E+00  0.00000000E+00
