Mg17 Ga11 I1                            
   1.00000000000000     
     7.4902158709881954   -4.5840903630054193    2.9660629257813742
    -0.1231994697045326    9.0671923249353892    3.1301853805450244
    -7.3637174226129121   -4.3662920754962400    2.9613731716878973
   Ga   I    Mg
    11     1    17
Direct
  0.6677570080045854  0.8499835880752897  0.0000025709386051
  0.3698357931870646  0.3786716556461229  0.1883659842395531
  0.8055553133125457  0.2139273757208215  0.1898101367667948
  0.2266749352175452  0.8139142915658155  0.1882499790262528
  0.1707503901764156  0.3758913446334873  0.3601075118129984
  0.3505879467595108  0.1613545728122503  0.3502419416790090
  0.0003297487290368  0.8110115575694294  0.6497706358661901
  0.8105947056882314  0.0157476804965313  0.6398738846256293
  0.0384922960532563  0.6256525850117640  0.8118308543359021
  0.6157433323798998  0.0241125316419613  0.8102240829928675
  0.1814169061109112  0.1902502288084875  0.8115769837958950
  0.7831066699645319  0.5702778343512449  0.9999755382231470
  0.0115828888604597  0.3541338498572557  0.9999584076553276
  0.3325911285803826  0.9835778996410482  0.0000136109878639
  0.5536432436855279  0.2866273538427961  0.0000234280738240
  0.0109755687933983  0.0272061082821509  0.0000248055293000
  0.3493795299187354  0.6011899947490917  0.9999871862544865
  0.6994308422593321  0.6993682400982095  0.3264298015604794
  0.6193945897217716  0.9914832744856881  0.3030943793290035
  0.0062909600127981  0.5900655879789696  0.3439768469340407
  0.9966461377476392  0.0207999865093385  0.3347168037012622
  0.3982551077477794  0.7169943628307038  0.3991937870858351
  0.7012090855476956  0.3993943593121330  0.4128919202268833
  0.2883060603588703  0.9865032818884174  0.5872036391156712
  0.9990306761538505  0.3177559638816803  0.6007778476526795
  0.6619036371943352  0.6861495625006384  0.6652898824150881
  0.6622057281767511  0.2459669121061836  0.6559389475999780
  0.3162696443834534  0.6883836079984249  0.6968813209161269
  0.3729961252737013  0.3729444077041038  0.6735682806592962
 
  0.00000000E+00  0.00000000E+00  0.00000000E+00
  0.00000000E+00  0.00000000E+00  0.00000000E+00
  0.00000000E+00  0.00000000E+00  0.00000000E+00
  0.00000000E+00  0.00000000E+00  0.00000000E+00
  0.00000000E+00  0.00000000E+00  0.00000000E+00
  0.00000000E+00  0.00000000E+00  0.00000000E+00
  0.00000000E+00  0.00000000E+00  0.00000000E+00
  0.00000000E+00  0.00000000E+00  0.00000000E+00
  0.00000000E+00  0.00000000E+00  0.00000000E+00
  0.00000000E+00  0.00000000E+00  0.00000000E+00
  0.00000000E+00  0.00000000E+00  0.00000000E+00
  0.00000000E+00  0.00000000E+00  0.00000000E+00
  0.00000000E+00  0.00000000E+00  0.00000000E+00
  0.00000000E+00  0.00000000E+00  0.00000000E+00
  0.00000000E+00  0.00000000E+00  0.00000000E+00
  0.00000000E+00  0.00000000E+00  0.00000000E+00
  0.00000000E+00  0.00000000E+00  0.00000000E+00
  0.00000000E+00  0.00000000E+00  0.00000000E+00
  0.00000000E+00  0.00000000E+00  0.00000000E+00
  0.00000000E+00  0.00000000E+00  0.00000000E+00
  0.00000000E+00  0.00000000E+00  0.00000000E+00
  0.00000000E+00  0.00000000E+00  0.00000000E+00
  0.00000000E+00  0.00000000E+00  0.00000000E+00
  0.00000000E+00  0.00000000E+00  0.00000000E+00
  0.00000000E+00  0.00000000E+00  0.00000000E+00
  0.00000000E+00  0.00000000E+00  0.00000000E+00
  0.00000000E+00  0.00000000E+00  0.00000000E+00
  0.00000000E+00  0.00000000E+00  0.00000000E+00
  0.00000000E+00  0.00000000E+00  0.00000000E+00
