Ca4 B4 I20                              
   1.0000000000000000     
     0.0000000000000000   12.0085542696000473   -5.0784387147078967
    14.7318470877037697    0.0000000000000000    0.0000000000000000
     0.0000000000000000    8.7404131670086009  -12.8293990883868076
   Ca   B    I 
     4     4    20
Direct
  0.5857411923692766  0.3944303245255227  0.3104685870086357
  0.4142588076307305  0.8944303245255227  0.6895314129913643
  0.0092852695599888  0.0772316976684522  0.0796164737087111
  0.9907147304399970  0.5772316976684522  0.9203835262912889
  0.7042947033438267  0.7928486474812146  0.0414712668759520
  0.2957052966561875  0.2928486474812217  0.9585287331240480
  0.9800666759802681  0.6864684553397353  0.4174155841359593
  0.0199333240197390  0.1864684553397353  0.5825844158640479
  0.9914374290616053  0.0640025652071614  0.5310051945659708
  0.2227133055041719  0.4353140892085037  0.6596629542206784
  0.7772866944958281  0.9353140892085037  0.3403370457793145
  0.9025555346326755  0.7259471428694084  0.8183422822250463
  0.9134083621466615  0.4998616590011480  0.1544322948429127
  0.5242053802905176  0.8949228274140424  0.1206914799431758
  0.8558060135546270  0.2084664176446438  0.8105415804133713
  0.6932473127794125  0.7514863893053700  0.1810763555367672
  0.0865916378533385  0.9998616590011338  0.8455677051570802
  0.7855674608356580  0.7879759286959711  0.5987616580862678
  0.4757946197094896  0.3949228274140424  0.8793085200568242
  0.0085625709383947  0.5640025652071685  0.4689948054340363
  0.3767138609101295  0.9846682585670905  0.8895073087571390
  0.6639140732659001  0.1939745770717423  0.2733329503260009
  0.2144325391643420  0.2879759286959711  0.4012383419137393
  0.1441939864453801  0.7084664176446367  0.1894584195866216
  0.0974444653673174  0.2259471428694013  0.1816577177749537
  0.3360859267340999  0.6939745770717423  0.7266670496739991
  0.3067526872205875  0.2514863893053700  0.8189236444632328
  0.6232861390898705  0.4846682585670905  0.1104926912428610

  0.00000000E+00  0.00000000E+00  0.00000000E+00
  0.00000000E+00  0.00000000E+00  0.00000000E+00
  0.00000000E+00  0.00000000E+00  0.00000000E+00
  0.00000000E+00  0.00000000E+00  0.00000000E+00
  0.00000000E+00  0.00000000E+00  0.00000000E+00
  0.00000000E+00  0.00000000E+00  0.00000000E+00
  0.00000000E+00  0.00000000E+00  0.00000000E+00
  0.00000000E+00  0.00000000E+00  0.00000000E+00
  0.00000000E+00  0.00000000E+00  0.00000000E+00
  0.00000000E+00  0.00000000E+00  0.00000000E+00
  0.00000000E+00  0.00000000E+00  0.00000000E+00
  0.00000000E+00  0.00000000E+00  0.00000000E+00
  0.00000000E+00  0.00000000E+00  0.00000000E+00
  0.00000000E+00  0.00000000E+00  0.00000000E+00
  0.00000000E+00  0.00000000E+00  0.00000000E+00
  0.00000000E+00  0.00000000E+00  0.00000000E+00
  0.00000000E+00  0.00000000E+00  0.00000000E+00
  0.00000000E+00  0.00000000E+00  0.00000000E+00
  0.00000000E+00  0.00000000E+00  0.00000000E+00
  0.00000000E+00  0.00000000E+00  0.00000000E+00
  0.00000000E+00  0.00000000E+00  0.00000000E+00
  0.00000000E+00  0.00000000E+00  0.00000000E+00
  0.00000000E+00  0.00000000E+00  0.00000000E+00
  0.00000000E+00  0.00000000E+00  0.00000000E+00
  0.00000000E+00  0.00000000E+00  0.00000000E+00
  0.00000000E+00  0.00000000E+00  0.00000000E+00
  0.00000000E+00  0.00000000E+00  0.00000000E+00
  0.00000000E+00  0.00000000E+00  0.00000000E+00
