Sr1 In2 F10                             
   1.0000000000000000     
     3.1432760725295870    3.6440246271809205    0.8087381867007400
    -3.1432760725295870    3.6440246271809205    0.8087381867007400
     0.0000000000000000    3.5462538758750246    8.3472687426610133
   Sr   In   F 
     1     2    10
Direct
  0.4224180602489582  0.5775819397510418  0.0000000000000000
  0.2226649305311810  0.0568334017464593  0.6397618515122758
  0.9431665982535336  0.7773350694688190  0.3602381484877242
  0.2953621011867043  0.4777832231443284  0.4188032754785382
  0.5222167768556645  0.7046378988132886  0.5811967245214547
  0.9875780854035909  0.7249601691694139  0.8953704894396992
  0.2750398308305861  0.0124219145964162  0.1046295105603008
  0.8188432535458503  0.1811567464541497  0.0000000000000000
  0.0369135389599933  0.9630864610400067  0.5000000000000000
  0.9228842437006293  0.3532718587895047  0.7689819250727083
  0.6467281412104953  0.0771157562993778  0.2310180749272917
  0.5213068926459243  0.0711234533731471  0.7396768459872334
  0.9288765466268600  0.4786931073540757  0.2603231540127595

  0.00000000E+00  0.00000000E+00  0.00000000E+00
  0.00000000E+00  0.00000000E+00  0.00000000E+00
  0.00000000E+00  0.00000000E+00  0.00000000E+00
  0.00000000E+00  0.00000000E+00  0.00000000E+00
  0.00000000E+00  0.00000000E+00  0.00000000E+00
  0.00000000E+00  0.00000000E+00  0.00000000E+00
  0.00000000E+00  0.00000000E+00  0.00000000E+00
  0.00000000E+00  0.00000000E+00  0.00000000E+00
  0.00000000E+00  0.00000000E+00  0.00000000E+00
  0.00000000E+00  0.00000000E+00  0.00000000E+00
  0.00000000E+00  0.00000000E+00  0.00000000E+00
  0.00000000E+00  0.00000000E+00  0.00000000E+00
  0.00000000E+00  0.00000000E+00  0.00000000E+00
