Ca4 Al10                                
   1.00000000000000     
     4.6167986382336901    4.6167986382336901   -3.8448352600645070
     4.6167986382336901   -4.6167986382336901    3.8448352600645070
    -4.6167986382336901   -4.6167986382336901   -3.8448352600645070
   Al   Ca
    10     4
Direct
  0.8229687923896876  0.3101697249612556  0.1331385173509361
  0.4872009325715609  0.3101697249612556  0.1770312076103124
  0.8668614826490639  0.6898302750387444  0.1770312076103124
  0.2488993178205874  0.0000000000000000  0.2488993178205874
  0.1770312076103124  0.3101697249612556  0.4872009325715609
  0.8229687923896876  0.6898302750387444  0.5127990674284391
  0.7511006821794126  0.0000000000000000  0.7511006821794126
  0.1331385173509361  0.3101697249612556  0.8229687923896876
  0.5127990674284391  0.6898302750387444  0.8229687923896876
  0.1770312076103124  0.6898302750387444  0.8668614826490639
  0.6983010609719571  0.0000000000000000  0.3016989390280429
  0.3016989390280429  0.6033978780560929  0.3016989390280429
  0.3016989390280429  0.0000000000000000  0.6983010609719571
  0.6983010609719571  0.3966021219439071  0.6983010609719571
 
  0.00000000E+00  0.00000000E+00  0.00000000E+00
  0.00000000E+00  0.00000000E+00  0.00000000E+00
  0.00000000E+00  0.00000000E+00  0.00000000E+00
  0.00000000E+00  0.00000000E+00  0.00000000E+00
  0.00000000E+00  0.00000000E+00  0.00000000E+00
  0.00000000E+00  0.00000000E+00  0.00000000E+00
  0.00000000E+00  0.00000000E+00  0.00000000E+00
  0.00000000E+00  0.00000000E+00  0.00000000E+00
  0.00000000E+00  0.00000000E+00  0.00000000E+00
  0.00000000E+00  0.00000000E+00  0.00000000E+00
  0.00000000E+00  0.00000000E+00  0.00000000E+00
  0.00000000E+00  0.00000000E+00  0.00000000E+00
  0.00000000E+00  0.00000000E+00  0.00000000E+00
  0.00000000E+00  0.00000000E+00  0.00000000E+00
