Mg2 In2 Cl10                            
   1.00000000000000     
     6.4057474316415455   -1.2449870394551812    2.4885128035473949
     0.1890442901969104    6.5228714157707879    2.4885128204454783
     0.0356958331401185    0.0285701280897226    9.8869491754346885
   Mg   In   Cl
     2     2    10
Direct
  0.6284577784842398  0.3715422227289125  0.2499999998029381
  0.3715422215157602  0.6284577772710875  0.7500000001970619
  0.0000000000000000  0.0000000000000000  0.5000000000000000
  0.0000000000000000  0.0000000000000000  0.0000000000000000
  0.7428132479282468  0.6644410244010572  0.6587682863366737
  0.3355589759317041  0.2571857519841672  0.8412317137333076
  0.2571857520717558  0.3355589755989428  0.3412327136633309
  0.6644410240682959  0.7428132480158354  0.1587682862666924
  0.9240180796406321  0.0759819208427004  0.7499999998825047
  0.0759819203593679  0.9240180791572925  0.2500000001174953
  0.7882749344551172  0.2912910714467074  0.0272998687949837
  0.7087089285128343  0.2117250665226038  0.4727001310237497
  0.2117250655448828  0.7087089285532926  0.9727001312050163
  0.2912910714871657  0.7882749334773962  0.5272998689762503
 
  0.00000000E+00  0.00000000E+00  0.00000000E+00
  0.00000000E+00  0.00000000E+00  0.00000000E+00
  0.00000000E+00  0.00000000E+00  0.00000000E+00
  0.00000000E+00  0.00000000E+00  0.00000000E+00
  0.00000000E+00  0.00000000E+00  0.00000000E+00
  0.00000000E+00  0.00000000E+00  0.00000000E+00
  0.00000000E+00  0.00000000E+00  0.00000000E+00
  0.00000000E+00  0.00000000E+00  0.00000000E+00
  0.00000000E+00  0.00000000E+00  0.00000000E+00
  0.00000000E+00  0.00000000E+00  0.00000000E+00
  0.00000000E+00  0.00000000E+00  0.00000000E+00
  0.00000000E+00  0.00000000E+00  0.00000000E+00
  0.00000000E+00  0.00000000E+00  0.00000000E+00
  0.00000000E+00  0.00000000E+00  0.00000000E+00
