Be10 Al4 F32                            
   1.00000000000000     
     2.8006470923785347   -4.3634896034631536    0.0000000000000000
     2.8006470923785347    4.3634896034631536    0.0000000000000000
     0.0000000000000000    0.0000000000000000   20.1595420184928003
   Be   Al   F 
    10     4    32
Direct
  0.0000000000000000  0.0000000000000000  0.8086290531852640
  0.0000000000000000  0.0000000000000000  0.1913709468147360
  0.5000000000000000  0.5000000000000000  0.6913709468147360
  0.5000000000000000  0.5000000000000000  0.3086290531852640
  0.5000000000000000  0.5000000000000000  0.5000000000000000
  0.0000000000000000  0.0000000000000000  0.0000000000000000
  0.0000000000000000  0.5000000000000000  0.6672480502961591
  0.5000000000000000  0.0000000000000000  0.3327519497038409
  0.5000000000000000  0.0000000000000000  0.8327519497038409
  0.0000000000000000  0.5000000000000000  0.1672480502961591
  0.5000000000000000  0.0000000000000000  0.5987743197035940
  0.0000000000000000  0.5000000000000000  0.4012256802964060
  0.0000000000000000  0.5000000000000000  0.9012256802964060
  0.5000000000000000  0.0000000000000000  0.0987743197035940
  0.3971489538726587  0.2157914289752725  0.6533648937064811
  0.6028510461273413  0.7842085710247275  0.6533648937064811
  0.2157914289752725  0.3971489538726587  0.3466351062935189
  0.7842085710247275  0.6028510461273413  0.3466351062935189
  0.1028510461273413  0.2842085710247275  0.8466351062935189
  0.8971489538726587  0.7157914289752725  0.8466351062935189
  0.2842085710247275  0.1028510461273413  0.1533648937064811
  0.7157914289752725  0.8971489538726587  0.1533648937064811
  0.1358525586398471  0.7461115499114115  0.6147582353371490
  0.8641474413601529  0.2538884500885885  0.6147582353371490
  0.7461115499114115  0.1358525586398471  0.3852417646628510
  0.2538884500885885  0.8641474413601529  0.3852417646628510
  0.3641474413601529  0.7538884500885885  0.8852417646628510
  0.6358525586398471  0.2461115499114115  0.8852417646628510
  0.7083898099360653  0.9351415327735637  0.0347402781143487
  0.2916101900639347  0.0648584672264363  0.0347402781143487
  0.9351415327735637  0.7083898099360653  0.9652597218856513
  0.0648584672264363  0.2916101900639347  0.9652597218856513
  0.7916101900639347  0.5648584672264363  0.4652597218856513
  0.2083898099360653  0.4351415327735637  0.4652597218856513
  0.5648584672264363  0.7916101900639347  0.5347402781143487
  0.4351415327735637  0.2083898099360653  0.5347402781143487
  0.9751844684042013  0.7137076998683582  0.2197353877345449
  0.0248155315957987  0.2862923001316418  0.2197353877345449
  0.7137076998683582  0.9751844684042013  0.7802646122654551
  0.2862923001316418  0.0248155315957987  0.7802646122654551
  0.5248155315957987  0.7862923001316418  0.2802646122654551
  0.4751844684042013  0.2137076998683582  0.2802646122654551
  0.7862923001316418  0.5248155315957987  0.7197353877345449
  0.2137076998683582  0.4751844684042013  0.7197353877345449
  0.2461115499114115  0.6358525586398471  0.1147582353371490
  0.7538884500885885  0.3641474413601529  0.1147582353371490
 
  0.00000000E+00  0.00000000E+00  0.00000000E+00
  0.00000000E+00  0.00000000E+00  0.00000000E+00
  0.00000000E+00  0.00000000E+00  0.00000000E+00
  0.00000000E+00  0.00000000E+00  0.00000000E+00
  0.00000000E+00  0.00000000E+00  0.00000000E+00
  0.00000000E+00  0.00000000E+00  0.00000000E+00
  0.00000000E+00  0.00000000E+00  0.00000000E+00
  0.00000000E+00  0.00000000E+00  0.00000000E+00
  0.00000000E+00  0.00000000E+00  0.00000000E+00
  0.00000000E+00  0.00000000E+00  0.00000000E+00
  0.00000000E+00  0.00000000E+00  0.00000000E+00
  0.00000000E+00  0.00000000E+00  0.00000000E+00
  0.00000000E+00  0.00000000E+00  0.00000000E+00
  0.00000000E+00  0.00000000E+00  0.00000000E+00
  0.00000000E+00  0.00000000E+00  0.00000000E+00
  0.00000000E+00  0.00000000E+00  0.00000000E+00
  0.00000000E+00  0.00000000E+00  0.00000000E+00
  0.00000000E+00  0.00000000E+00  0.00000000E+00
  0.00000000E+00  0.00000000E+00  0.00000000E+00
  0.00000000E+00  0.00000000E+00  0.00000000E+00
  0.00000000E+00  0.00000000E+00  0.00000000E+00
  0.00000000E+00  0.00000000E+00  0.00000000E+00
  0.00000000E+00  0.00000000E+00  0.00000000E+00
  0.00000000E+00  0.00000000E+00  0.00000000E+00
  0.00000000E+00  0.00000000E+00  0.00000000E+00
  0.00000000E+00  0.00000000E+00  0.00000000E+00
  0.00000000E+00  0.00000000E+00  0.00000000E+00
  0.00000000E+00  0.00000000E+00  0.00000000E+00
  0.00000000E+00  0.00000000E+00  0.00000000E+00
  0.00000000E+00  0.00000000E+00  0.00000000E+00
  0.00000000E+00  0.00000000E+00  0.00000000E+00
  0.00000000E+00  0.00000000E+00  0.00000000E+00
  0.00000000E+00  0.00000000E+00  0.00000000E+00
  0.00000000E+00  0.00000000E+00  0.00000000E+00
  0.00000000E+00  0.00000000E+00  0.00000000E+00
  0.00000000E+00  0.00000000E+00  0.00000000E+00
  0.00000000E+00  0.00000000E+00  0.00000000E+00
  0.00000000E+00  0.00000000E+00  0.00000000E+00
  0.00000000E+00  0.00000000E+00  0.00000000E+00
  0.00000000E+00  0.00000000E+00  0.00000000E+00
  0.00000000E+00  0.00000000E+00  0.00000000E+00
  0.00000000E+00  0.00000000E+00  0.00000000E+00
  0.00000000E+00  0.00000000E+00  0.00000000E+00
  0.00000000E+00  0.00000000E+00  0.00000000E+00
  0.00000000E+00  0.00000000E+00  0.00000000E+00
  0.00000000E+00  0.00000000E+00  0.00000000E+00
