Ba1 Al2 Br10                            
   1.00000000000000     
     4.4655904072768307    6.5707622433785353    0.5103268031993742
    -4.4655904072768307    6.5707622433785353    0.5103268031993741
     0.0000000000000001    5.4380793816312440    8.6007188332746907
   Ba   Al   Br
     1     2    10
Direct
  0.5611713044370319  0.4388286955629681  0.0000000000000000
  0.0027997964165536  0.0112187179930743  0.7328027273087372
  0.9887812820069257  0.9972002035834464  0.2671972726912628
  0.2184530822643467  0.2507992857010990  0.5645763745518551
  0.7492007142989010  0.7815469177356533  0.4354236254481449
  0.7896384963702943  0.7622932647099745  0.9297213643929112
  0.2377067352900255  0.2103615036297057  0.0702786356070888
  0.9221543181463616  0.0778456818536384  0.0000000000000000
  0.0893263695360531  0.9106736304639469  0.5000000000000000
  0.7255246730267046  0.2739041488898408  0.6960989447344161
  0.7260958511101592  0.2744753269732954  0.3039010552655839
  0.2953501316856375  0.7622037545890024  0.7760678812202642
  0.2377962454109976  0.7046498683143625  0.2239321187797358
 
  0.00000000E+00  0.00000000E+00  0.00000000E+00
  0.00000000E+00  0.00000000E+00  0.00000000E+00
  0.00000000E+00  0.00000000E+00  0.00000000E+00
  0.00000000E+00  0.00000000E+00  0.00000000E+00
  0.00000000E+00  0.00000000E+00  0.00000000E+00
  0.00000000E+00  0.00000000E+00  0.00000000E+00
  0.00000000E+00  0.00000000E+00  0.00000000E+00
  0.00000000E+00  0.00000000E+00  0.00000000E+00
  0.00000000E+00  0.00000000E+00  0.00000000E+00
  0.00000000E+00  0.00000000E+00  0.00000000E+00
  0.00000000E+00  0.00000000E+00  0.00000000E+00
  0.00000000E+00  0.00000000E+00  0.00000000E+00
  0.00000000E+00  0.00000000E+00  0.00000000E+00
