Mg16 Tl12 F1                            
   1.0000000000000000     
     7.9966013628858628   -4.6077516093358799    3.2419348256603744
     0.0039142217007429    9.2400288563072017    3.2646767647297223
    -8.0180005076124843   -4.6258111761092700    3.2702505306302605
   Tl   F    Mg
    12     1    16
Direct
  0.7692721175723705  0.4728515772969217  0.9958258097955976
  0.6523805779791516  0.7849117430546357  0.0001759095193279
  0.3645205926102975  0.3986960624915099  0.2045242687204336
  0.1580093466425723  0.7978132810067677  0.1933744031769535
  0.8660630545114500  0.2151923357094674  0.2161713395531919
  0.3634205343968944  0.2045029757852461  0.3976594765435166
  0.2948752484753854  0.5251368039257756  0.5240038962440039
  0.7701641905896608  0.9969438334909313  0.4733483602430653
  0.9658901198472805  0.8053078543952807  0.6027035956064921
  0.6536331743685579  0.0006325596426393  0.7860142254679516
  0.9656551531625936  0.6023329721840724  0.8054477382519067
  0.1578907961892995  0.1937810664390298  0.7980172832129426
  0.3875214401582738  0.0003228142841181  0.0001547945683242
  0.5019632376904752  0.2131073001998587  0.0003818540478306
  0.3146581334745449  0.5968547913816877  0.0003214451568496
  0.0151944951111176  0.0007963371316677  0.0016963968872474
  0.0080449521721917  0.3420916666473701  0.0049492476108810
  0.6799490756325213  0.6399878476845302  0.2446874784168855
  0.5015028087916917  0.0004318393153326  0.2128673335404017
  0.0353472262123020  0.6042295057401574  0.3565481029025577
  0.0067093612140283  0.0022344755651176  0.3409555312840737
  0.4305809949977117  0.7533901065390864  0.3944451627005066
  0.7186230365474700  0.4040157489772014  0.4039834769167143
  0.3148483348157143  0.0001618961028953  0.5970628550754427
  0.0367871770683195  0.3577646028768200  0.6048480984565785
  0.6657552654415611  0.6596108119739696  0.6598777384207182
  0.6794704507461375  0.2448439551111434  0.6395908867705415
  0.2906705483857408  0.7875231904467128  0.7878651093614195
  0.4297985551946439  0.3945310446000576  0.7525001815476529

  0.00000000E+00  0.00000000E+00  0.00000000E+00
  0.00000000E+00  0.00000000E+00  0.00000000E+00
  0.00000000E+00  0.00000000E+00  0.00000000E+00
  0.00000000E+00  0.00000000E+00  0.00000000E+00
  0.00000000E+00  0.00000000E+00  0.00000000E+00
  0.00000000E+00  0.00000000E+00  0.00000000E+00
  0.00000000E+00  0.00000000E+00  0.00000000E+00
  0.00000000E+00  0.00000000E+00  0.00000000E+00
  0.00000000E+00  0.00000000E+00  0.00000000E+00
  0.00000000E+00  0.00000000E+00  0.00000000E+00
  0.00000000E+00  0.00000000E+00  0.00000000E+00
  0.00000000E+00  0.00000000E+00  0.00000000E+00
  0.00000000E+00  0.00000000E+00  0.00000000E+00
  0.00000000E+00  0.00000000E+00  0.00000000E+00
  0.00000000E+00  0.00000000E+00  0.00000000E+00
  0.00000000E+00  0.00000000E+00  0.00000000E+00
  0.00000000E+00  0.00000000E+00  0.00000000E+00
  0.00000000E+00  0.00000000E+00  0.00000000E+00
  0.00000000E+00  0.00000000E+00  0.00000000E+00
  0.00000000E+00  0.00000000E+00  0.00000000E+00
  0.00000000E+00  0.00000000E+00  0.00000000E+00
  0.00000000E+00  0.00000000E+00  0.00000000E+00
  0.00000000E+00  0.00000000E+00  0.00000000E+00
  0.00000000E+00  0.00000000E+00  0.00000000E+00
  0.00000000E+00  0.00000000E+00  0.00000000E+00
  0.00000000E+00  0.00000000E+00  0.00000000E+00
  0.00000000E+00  0.00000000E+00  0.00000000E+00
  0.00000000E+00  0.00000000E+00  0.00000000E+00
  0.00000000E+00  0.00000000E+00  0.00000000E+00
