Ba10 B4 Br32                            
   1.00000000000000     
     7.8550053124083634   -7.7082308417131760    0.0000000000000000
     7.8550053124083616    7.7082308417131742    0.0000000000000000
     0.0000000000000000    0.0000000000000000   17.3399124693576105
   Ba   B    Br
    10     4    32
Direct
  0.0000000000000000  0.0000000000000000  0.7191152760711077
  0.0000000000000000  0.0000000000000000  0.2808847239288923
  0.5000000000000000  0.5000000000000000  0.7808847239288923
  0.5000000000000000  0.5000000000000000  0.2191152760711077
  0.5000000000000000  0.5000000000000000  0.5000000000000000
  0.0000000000000000  0.0000000000000000  0.0000000000000000
  0.0000000000000000  0.5000000000000000  0.6323819611914629
  0.5000000000000000  0.0000000000000000  0.3676180388085371
  0.5000000000000000  0.0000000000000000  0.8676180388085371
  0.0000000000000000  0.5000000000000000  0.1323819611914629
  0.5000000000000000  0.0000000000000000  0.6173520152590228
  0.0000000000000000  0.5000000000000000  0.3826479847409772
  0.0000000000000000  0.5000000000000000  0.8826479847409772
  0.5000000000000000  0.0000000000000000  0.1173520152590228
  0.6292850188417205  0.0732118591005744  0.6866971944198994
  0.3707149811582795  0.9267881408994256  0.6866971944198994
  0.0732118591005744  0.6292850188417205  0.3133028055801006
  0.9267881408994256  0.3707149811582795  0.3133028055801006
  0.8707149811582795  0.4267881408994256  0.8133028055801006
  0.1292850188417205  0.5732118591005744  0.8133028055801006
  0.4267881408994256  0.8707149811582795  0.1866971944198994
  0.5732118591005744  0.1292850188417205  0.1866971944198994
  0.0269462818362030  0.7814852832394052  0.6125400362739555
  0.9730537181637970  0.2185147167605948  0.6125400362739555
  0.7814852832394052  0.0269462818362030  0.3874599637260445
  0.2185147167605948  0.9730537181637970  0.3874599637260445
  0.4730537181637970  0.7185147167605948  0.8874599637260445
  0.5269462818362030  0.2814852832394052  0.8874599637260445
  0.6317229212819768  0.9252729354592972  0.0492310623847914
  0.3682770787180232  0.0747270645407028  0.0492310623847914
  0.9252729354592972  0.6317229212819768  0.9507689376152015
  0.0747270645407028  0.3682770787180232  0.9507689376152015
  0.8682770787180232  0.5747270645407028  0.4507689376152086
  0.1317229212819768  0.4252729354592972  0.4507689376152086
  0.5747270645407028  0.8682770787180232  0.5492310623847985
  0.4252729354592972  0.1317229212819768  0.5492310623847985
  0.9818072766357488  0.8122089746403418  0.1375362724673153
  0.0181927233642512  0.1877910253596582  0.1375362724673153
  0.8122089746403418  0.9818072766357488  0.8624637275326847
  0.1877910253596582  0.0181927233642512  0.8624637275326847
  0.5181927233642512  0.6877910253596582  0.3624637275326847
  0.4818072766357488  0.3122089746403418  0.3624637275326847
  0.6877910253596582  0.5181927233642512  0.6375362724673153
  0.3122089746403418  0.4818072766357488  0.6375362724673153
  0.2814852832394052  0.5269462818361959  0.1125400362739555
  0.7185147167605948  0.4730537181637970  0.1125400362739555
 
  0.00000000E+00  0.00000000E+00  0.00000000E+00
  0.00000000E+00  0.00000000E+00  0.00000000E+00
  0.00000000E+00  0.00000000E+00  0.00000000E+00
  0.00000000E+00  0.00000000E+00  0.00000000E+00
  0.00000000E+00  0.00000000E+00  0.00000000E+00
  0.00000000E+00  0.00000000E+00  0.00000000E+00
  0.00000000E+00  0.00000000E+00  0.00000000E+00
  0.00000000E+00  0.00000000E+00  0.00000000E+00
  0.00000000E+00  0.00000000E+00  0.00000000E+00
  0.00000000E+00  0.00000000E+00  0.00000000E+00
  0.00000000E+00  0.00000000E+00  0.00000000E+00
  0.00000000E+00  0.00000000E+00  0.00000000E+00
  0.00000000E+00  0.00000000E+00  0.00000000E+00
  0.00000000E+00  0.00000000E+00  0.00000000E+00
  0.00000000E+00  0.00000000E+00  0.00000000E+00
  0.00000000E+00  0.00000000E+00  0.00000000E+00
  0.00000000E+00  0.00000000E+00  0.00000000E+00
  0.00000000E+00  0.00000000E+00  0.00000000E+00
  0.00000000E+00  0.00000000E+00  0.00000000E+00
  0.00000000E+00  0.00000000E+00  0.00000000E+00
  0.00000000E+00  0.00000000E+00  0.00000000E+00
  0.00000000E+00  0.00000000E+00  0.00000000E+00
  0.00000000E+00  0.00000000E+00  0.00000000E+00
  0.00000000E+00  0.00000000E+00  0.00000000E+00
  0.00000000E+00  0.00000000E+00  0.00000000E+00
  0.00000000E+00  0.00000000E+00  0.00000000E+00
  0.00000000E+00  0.00000000E+00  0.00000000E+00
  0.00000000E+00  0.00000000E+00  0.00000000E+00
  0.00000000E+00  0.00000000E+00  0.00000000E+00
  0.00000000E+00  0.00000000E+00  0.00000000E+00
  0.00000000E+00  0.00000000E+00  0.00000000E+00
  0.00000000E+00  0.00000000E+00  0.00000000E+00
  0.00000000E+00  0.00000000E+00  0.00000000E+00
  0.00000000E+00  0.00000000E+00  0.00000000E+00
  0.00000000E+00  0.00000000E+00  0.00000000E+00
  0.00000000E+00  0.00000000E+00  0.00000000E+00
  0.00000000E+00  0.00000000E+00  0.00000000E+00
  0.00000000E+00  0.00000000E+00  0.00000000E+00
  0.00000000E+00  0.00000000E+00  0.00000000E+00
  0.00000000E+00  0.00000000E+00  0.00000000E+00
  0.00000000E+00  0.00000000E+00  0.00000000E+00
  0.00000000E+00  0.00000000E+00  0.00000000E+00
  0.00000000E+00  0.00000000E+00  0.00000000E+00
  0.00000000E+00  0.00000000E+00  0.00000000E+00
  0.00000000E+00  0.00000000E+00  0.00000000E+00
  0.00000000E+00  0.00000000E+00  0.00000000E+00
