Ba1                                     
   1.00000000000000     
    -3.9501314759165962    0.0000000000000000    0.0000000000000000
     0.0000000000000000    0.0000000000000000   -3.9492030572221615
     0.0000000000000000   -3.9491273937279461    0.0000000000000000
   Ba
     1
Direct
  0.5000000000000000  0.5000000000000000  0.5000000000000000
 
  0.00000000E+00  0.00000000E+00  0.00000000E+00
