Mg4 Tl4 Cl20                            
   1.0000000000000000     
     0.0000000000000000    8.1469060030763654    0.8926670524877175
    15.5075410841469026    0.0000000000000000    0.0000000000000000
     0.0000000000000000   -0.7316499959713010   -7.3160969089352372
   Mg   Tl   Cl
     4     4    20
Direct
  0.3433452155430317  0.3622315875806947  0.3247423731853019
  0.6566547844569754  0.8622315875806947  0.6752576268146981
  0.0783002302890452  0.1310221916499330  0.1612906406139771
  0.9216997697109548  0.6310221916499259  0.8387093593860229
  0.4392501167306122  0.7093233033890982  0.1858167120520235
  0.5607498832693878  0.2093233033891053  0.8141832879479765
  0.0185710946498290  0.5294501111705543  0.3041265610770694
  0.9814289053501710  0.0294501111705543  0.6958734389229306
  0.1856182064723271  0.0661163303889083  0.4980731880828557
  0.3357864327797131  0.5269827724908396  0.3828759949003029
  0.6642135672202869  0.0269827724908396  0.6171240050996900
  0.6671345196083749  0.7101701358910759  0.7825738280505661
  0.8570480114926013  0.4940223439252946  0.9734740885991542
  0.7162105120320987  0.0215558134313767  0.1197926322395730
  0.9687997548159402  0.1864638610954259  0.8361334940841374
  0.4146106235974258  0.8468646832226199  0.4489994680799185
  0.1429519885074129  0.9940223439252946  0.0265259114008387
  0.9406038338977609  0.8630277524109786  0.6243343252215396
  0.2837894879679084  0.5215558134313767  0.8802073677604199
  0.8143817935276729  0.5661163303889154  0.5019268119171443
  0.6398888535279639  0.8900248180157817  0.0096527081937552
  0.8118944249075923  0.1603432753374250  0.2449834738142229
  0.0593961661022391  0.3630277524109786  0.3756656747784604
  0.0312002451840598  0.6864638610954330  0.1638665059158626
  0.3328654803916180  0.2101701358910688  0.2174261719494197
  0.1881055750924077  0.6603432753374250  0.7550165261857842
  0.5853893764025742  0.3468646832226270  0.5510005319200815
  0.3601111464720361  0.3900248180157888  0.9903472918062519

  0.00000000E+00  0.00000000E+00  0.00000000E+00
  0.00000000E+00  0.00000000E+00  0.00000000E+00
  0.00000000E+00  0.00000000E+00  0.00000000E+00
  0.00000000E+00  0.00000000E+00  0.00000000E+00
  0.00000000E+00  0.00000000E+00  0.00000000E+00
  0.00000000E+00  0.00000000E+00  0.00000000E+00
  0.00000000E+00  0.00000000E+00  0.00000000E+00
  0.00000000E+00  0.00000000E+00  0.00000000E+00
  0.00000000E+00  0.00000000E+00  0.00000000E+00
  0.00000000E+00  0.00000000E+00  0.00000000E+00
  0.00000000E+00  0.00000000E+00  0.00000000E+00
  0.00000000E+00  0.00000000E+00  0.00000000E+00
  0.00000000E+00  0.00000000E+00  0.00000000E+00
  0.00000000E+00  0.00000000E+00  0.00000000E+00
  0.00000000E+00  0.00000000E+00  0.00000000E+00
  0.00000000E+00  0.00000000E+00  0.00000000E+00
  0.00000000E+00  0.00000000E+00  0.00000000E+00
  0.00000000E+00  0.00000000E+00  0.00000000E+00
  0.00000000E+00  0.00000000E+00  0.00000000E+00
  0.00000000E+00  0.00000000E+00  0.00000000E+00
  0.00000000E+00  0.00000000E+00  0.00000000E+00
  0.00000000E+00  0.00000000E+00  0.00000000E+00
  0.00000000E+00  0.00000000E+00  0.00000000E+00
  0.00000000E+00  0.00000000E+00  0.00000000E+00
  0.00000000E+00  0.00000000E+00  0.00000000E+00
  0.00000000E+00  0.00000000E+00  0.00000000E+00
  0.00000000E+00  0.00000000E+00  0.00000000E+00
  0.00000000E+00  0.00000000E+00  0.00000000E+00
