Ca1                                     
   1.00000000000000     
     3.6435823930754339    0.0000000000000000   -0.0607250487409735
     0.0000000000000000    3.6441697683552112    0.0000000000000000
    -0.0106261659404471    0.0000000000000000   22.1283071078353260
   Ca
     1
Direct
  0.0000000000000000  0.5000000000000000  0.2500000000000000
 
  0.00000000E+00  0.00000000E+00  0.00000000E+00
