Sr4 B10 F2                              
   1.00000000000000     
     8.3851137346279323    2.6384539182515394    0.6535283614277633
    -1.9993452639378786    6.7902050958228974   -0.4066283189052130
    -4.2495452080387617   -4.2891595431515128    4.0001012136741361
   F    Sr   B 
     2     4    10
Direct
  0.2173065377072092  0.3679662973031128  0.3229360396775363
  0.0130103537212278  0.8904137217361026  0.1175050799976844
  0.0825848396064117  0.6747192091481580  0.3514052378790637
  0.1484314463718377  0.9996908962952276  0.9645504753012091
  0.6081752944858962  0.6351484701609067  0.6888144421212843
  0.0369683304589685  0.2385675926234541  0.4624050713222303
  0.5506068743224972  0.9709788139720104  0.0671580255324002
  0.4347488716675869  0.7611280670423213  0.0460540172344608
  0.4776195809124033  0.8374442049201463  0.3418754816545331
  0.6620633251503563  0.7488737685317304  0.3649136045952517
  0.6708409944006064  0.0440671566575617  0.4194149466830979
  0.7521901540758478  0.8492411929241968  0.2776886450515264
  0.4811819537157334  0.9813367302111615  0.5969377502272835
  0.6734331338077197  0.2514005946383762  0.9175003532428221
  0.6570367353157494  0.1715447891655657  0.6617632932675903
  0.5338015742799698  0.0772784946699616  0.8988775362120194
 
  0.00000000E+00  0.00000000E+00  0.00000000E+00
  0.00000000E+00  0.00000000E+00  0.00000000E+00
  0.00000000E+00  0.00000000E+00  0.00000000E+00
  0.00000000E+00  0.00000000E+00  0.00000000E+00
  0.00000000E+00  0.00000000E+00  0.00000000E+00
  0.00000000E+00  0.00000000E+00  0.00000000E+00
  0.00000000E+00  0.00000000E+00  0.00000000E+00
  0.00000000E+00  0.00000000E+00  0.00000000E+00
  0.00000000E+00  0.00000000E+00  0.00000000E+00
  0.00000000E+00  0.00000000E+00  0.00000000E+00
  0.00000000E+00  0.00000000E+00  0.00000000E+00
  0.00000000E+00  0.00000000E+00  0.00000000E+00
  0.00000000E+00  0.00000000E+00  0.00000000E+00
  0.00000000E+00  0.00000000E+00  0.00000000E+00
  0.00000000E+00  0.00000000E+00  0.00000000E+00
  0.00000000E+00  0.00000000E+00  0.00000000E+00
