Be8 Tl6                                 
   1.0000000000000000     
     5.8569434038089989    6.7660233430580377    0.0000000000000000
    -2.9267577945790819    8.4561506866754641    0.0000000000000000
     0.0000000000000000    0.0000000000000000    3.6446624133132373
   Tl   Be
     6     8
Direct
  0.0596810287543903  0.3155966767474396  0.0000000000000000
  0.3386771356187452  0.4884582535427953  0.0000000000000000
  0.8871570106332456  0.7672759658626518  0.0000000000000000
  0.4638019228265904  0.0652337131578378  0.5000000000000000
  0.6363532750787826  0.6135682521382293  0.5000000000000000
  0.1848844275173320  0.8925257529252093  0.5000000000000000
  0.6808186239692446  0.1072014622413135  0.0000000000000000
  0.6786176060194009  0.3542658823675850  0.0000000000000000
  0.4283342582843375  0.8575928062836127  0.0000000000000000
  0.9260791607743570  0.1095295767633289  0.0000000000000000
  0.8425715591341145  0.2736586477240408  0.5000000000000000
  0.5973462389966073  0.2713576062255925  0.5000000000000000
  0.0950085800035012  0.5233376739943267  0.5000000000000000
  0.8448691723893802  0.0263977300260194  0.5000000000000000

  0.00000000E+00  0.00000000E+00  0.00000000E+00
  0.00000000E+00  0.00000000E+00  0.00000000E+00
  0.00000000E+00  0.00000000E+00  0.00000000E+00
  0.00000000E+00  0.00000000E+00  0.00000000E+00
  0.00000000E+00  0.00000000E+00  0.00000000E+00
  0.00000000E+00  0.00000000E+00  0.00000000E+00
  0.00000000E+00  0.00000000E+00  0.00000000E+00
  0.00000000E+00  0.00000000E+00  0.00000000E+00
  0.00000000E+00  0.00000000E+00  0.00000000E+00
  0.00000000E+00  0.00000000E+00  0.00000000E+00
  0.00000000E+00  0.00000000E+00  0.00000000E+00
  0.00000000E+00  0.00000000E+00  0.00000000E+00
  0.00000000E+00  0.00000000E+00  0.00000000E+00
  0.00000000E+00  0.00000000E+00  0.00000000E+00
