Ca1 Al2 F6                              
   1.00000000000000     
     3.3755957087548083    1.3244867032190166    4.2399675044526530
    -3.3755957087548087    1.3244867032190164    4.2399675044526530
     0.0000000000000000   -3.1904635186604207    4.5442279062150481
   Ca   F    Al
     1     6     2
Direct
  0.0000000000000000  0.0000000000000000  0.0000000000000000
  0.6746301293506178  0.6746301293506178  0.3689079164115583
  0.8089187867560454  0.2870257600327264  0.2159024574096691
  0.2870257600327264  0.8089187867560454  0.2159024574096691
  0.3253698706493822  0.3253698706493822  0.6310920835884417
  0.7129742399672665  0.1910812132439546  0.7840975425903309
  0.1910812132439546  0.7129742399672665  0.7840975425903309
  0.4832105162396232  0.4832105162396232  0.7848432536927632
  0.5167894837603768  0.5167894837603768  0.2151567463072297
 
  0.00000000E+00  0.00000000E+00  0.00000000E+00
  0.00000000E+00  0.00000000E+00  0.00000000E+00
  0.00000000E+00  0.00000000E+00  0.00000000E+00
  0.00000000E+00  0.00000000E+00  0.00000000E+00
  0.00000000E+00  0.00000000E+00  0.00000000E+00
  0.00000000E+00  0.00000000E+00  0.00000000E+00
  0.00000000E+00  0.00000000E+00  0.00000000E+00
  0.00000000E+00  0.00000000E+00  0.00000000E+00
  0.00000000E+00  0.00000000E+00  0.00000000E+00
