Be1 Ga4                                 
   1.00000000000000     
    -4.3072136220522452   -0.4419070801884010    0.8569670764592354
    -0.4419070801884011   -4.3072136220522461    0.8569670764592358
     0.8930020743817882    0.8930020743817881    4.5159311224801124
   Be   Ga
     1     4
Direct
  0.0000000000000000  0.0000000000000000  0.0000000000000000
  0.6781195941615508  0.6781195941615508  0.1002041983765736
  0.7604698009104212  0.2395301990895788  0.5000000000000000
  0.2395301990895788  0.7604698009104212  0.5000000000000000
  0.3218804058384492  0.3218804058384492  0.8997958016234264
 
  0.00000000E+00  0.00000000E+00  0.00000000E+00
  0.00000000E+00  0.00000000E+00  0.00000000E+00
  0.00000000E+00  0.00000000E+00  0.00000000E+00
  0.00000000E+00  0.00000000E+00  0.00000000E+00
  0.00000000E+00  0.00000000E+00  0.00000000E+00
