Sr4 In10 F2                             
   1.0000000000000000     
     9.9440168785851402   -0.4153390861826400   -0.7060673236937943
    -5.4154399259055390    7.2332083159473077    0.0900382093059624
    -5.4215068817694965   -2.2965788797080888    7.1829584315718273
   F    Sr   In
     2     4    10
Direct
  0.1687173398377553  0.5203396534024805  0.5397634080975777
  0.9425071102201841  0.0229711505286332  0.8002220354013900
  0.8140578602496547  0.4329780182677467  0.2563432683308235
  0.1373791258653085  0.9505672686771049  0.0787292484546356
  0.5168634845408704  0.7828233217120868  0.5843496585327728
  0.1410884681570437  0.3077991371097824  0.7282715538673727
  0.1617392143525933  0.2615039539070025  0.3119967292823986
  0.7315579599347686  0.7757231447832780  0.1063257074066470
  0.0467244660453829  0.4938138117881294  0.0255268546688541
  0.5603182181541797  0.5499086537857636  0.3187707830629805
  0.5490342594158975  0.9087781092672600  0.2194492781170965
  0.0883816602699454  0.7579438757300494  0.7420474317410495
  0.2379636142094768  0.9747188216451335  0.5169390824321667
  0.5950172343182274  0.4333440332059695  0.7690333113740806
  0.6781228189813575  0.2740913921773824  0.5648130179600130
  0.6305271654473330  0.0524956540121835  0.9372186312701203

  0.00000000E+00  0.00000000E+00  0.00000000E+00
  0.00000000E+00  0.00000000E+00  0.00000000E+00
  0.00000000E+00  0.00000000E+00  0.00000000E+00
  0.00000000E+00  0.00000000E+00  0.00000000E+00
  0.00000000E+00  0.00000000E+00  0.00000000E+00
  0.00000000E+00  0.00000000E+00  0.00000000E+00
  0.00000000E+00  0.00000000E+00  0.00000000E+00
  0.00000000E+00  0.00000000E+00  0.00000000E+00
  0.00000000E+00  0.00000000E+00  0.00000000E+00
  0.00000000E+00  0.00000000E+00  0.00000000E+00
  0.00000000E+00  0.00000000E+00  0.00000000E+00
  0.00000000E+00  0.00000000E+00  0.00000000E+00
  0.00000000E+00  0.00000000E+00  0.00000000E+00
  0.00000000E+00  0.00000000E+00  0.00000000E+00
  0.00000000E+00  0.00000000E+00  0.00000000E+00
  0.00000000E+00  0.00000000E+00  0.00000000E+00
