Ca2 B2 Br10                             
   1.00000000000000     
     8.8833523864801425   -0.3416015270228696    2.0346189017081957
     1.6134187212321900    8.7422806906973314    2.0346190325151574
     0.2594505843288082    0.2076442521347638    8.1746408629879337
   Ca   B    Br
     2     2    10
Direct
  0.4404479809285249  0.5595520194509689  0.2499999998551630
  0.5595520190714751  0.4404479805490382  0.7500000001448370
  0.0000000000000000  0.0000000000000000  0.5000000000000000
  0.0000000000000000  0.0000000000000000  0.0000000000000000
  0.8624351101121164  0.8663731807171828  0.5739437351963730
  0.1336268198737258  0.1375638831901043  0.9260562692188543
  0.1375638898878861  0.1336268192828172  0.4260572648036316
  0.8663731801262742  0.8624351168098983  0.0739437307811457
  0.8005387552663805  0.1994612435473826  0.7500000014614372
  0.1994612447336195  0.8005387564526174  0.2499999985385628
  0.6783629241507541  0.6016201500602634  0.9441733973441657
  0.3983798484365835  0.3216370751158735  0.5558266048467431
  0.3216370758492459  0.3983798499397366  0.0558266026558343
  0.6016201515634307  0.6783629248841265  0.4441733951532569
 
  0.00000000E+00  0.00000000E+00  0.00000000E+00
  0.00000000E+00  0.00000000E+00  0.00000000E+00
  0.00000000E+00  0.00000000E+00  0.00000000E+00
  0.00000000E+00  0.00000000E+00  0.00000000E+00
  0.00000000E+00  0.00000000E+00  0.00000000E+00
  0.00000000E+00  0.00000000E+00  0.00000000E+00
  0.00000000E+00  0.00000000E+00  0.00000000E+00
  0.00000000E+00  0.00000000E+00  0.00000000E+00
  0.00000000E+00  0.00000000E+00  0.00000000E+00
  0.00000000E+00  0.00000000E+00  0.00000000E+00
  0.00000000E+00  0.00000000E+00  0.00000000E+00
  0.00000000E+00  0.00000000E+00  0.00000000E+00
  0.00000000E+00  0.00000000E+00  0.00000000E+00
  0.00000000E+00  0.00000000E+00  0.00000000E+00
