Ba2 Al2 I6                              
   1.00000000000000     
     2.4146063494169789   -7.7514497310154411    0.0000000000000000
     2.4146063494169789    7.7514497310154411    0.0000000000000000
     0.0000000000000000    0.0000000000000000   12.2621808754991655
   Ba   Al   I 
     2     2     6
Direct
  0.0000000000000000  0.0000000000000000  0.0000000000000000
  0.0000000000000000  0.0000000000000000  0.5000000000000000
  0.2453308190181502  0.7546691809818498  0.2500000000000000
  0.7546691809818498  0.2453308190181502  0.7500000000000000
  0.6464489965412525  0.3535510034587475  0.0753955603746945
  0.3535510034587475  0.6464489965412525  0.9246044396253055
  0.3535510034587475  0.6464489965412525  0.5753955603746945
  0.6464489965412525  0.3535510034587475  0.4246044396253055
  0.8904141087704858  0.1095858912295213  0.2500000000000000
  0.1095858912295213  0.8904141087704858  0.7500000000000000
 
  0.00000000E+00  0.00000000E+00  0.00000000E+00
  0.00000000E+00  0.00000000E+00  0.00000000E+00
  0.00000000E+00  0.00000000E+00  0.00000000E+00
  0.00000000E+00  0.00000000E+00  0.00000000E+00
  0.00000000E+00  0.00000000E+00  0.00000000E+00
  0.00000000E+00  0.00000000E+00  0.00000000E+00
  0.00000000E+00  0.00000000E+00  0.00000000E+00
  0.00000000E+00  0.00000000E+00  0.00000000E+00
  0.00000000E+00  0.00000000E+00  0.00000000E+00
  0.00000000E+00  0.00000000E+00  0.00000000E+00
