Mg2 Al2 I6                              
   1.00000000000000     
     8.7990002418509974    0.1304490491537929    0.0000000000000000
    -4.2941131874313889    7.1751560637753409    0.0000000000000000
     0.0000000000000000    0.0000000000000000    6.9561141601246383
   I    Mg   Al
     6     2     2
Direct
  0.1844912899134030  0.3240013340667005  0.2500000000000000
  0.1281310398600368  0.8015522972232390  0.2500000000000000
  0.6978747285389630  0.8768729908226476  0.2500000000000000
  0.3021252714610370  0.1231270091773524  0.7500000000000000
  0.8718689601399632  0.1984477027767610  0.7500000000000000
  0.8155087100865970  0.6759986659332995  0.7500000000000000
  0.0000000000000000  0.0000000000000000  0.0000000000000000
  0.0000000000000000  0.0000000000000000  0.5000000000000000
  0.8325728361971088  0.2940309372150907  0.2500000000000000
  0.1674271638028912  0.7059690627849093  0.7500000000000000
 
  0.00000000E+00  0.00000000E+00  0.00000000E+00
  0.00000000E+00  0.00000000E+00  0.00000000E+00
  0.00000000E+00  0.00000000E+00  0.00000000E+00
  0.00000000E+00  0.00000000E+00  0.00000000E+00
  0.00000000E+00  0.00000000E+00  0.00000000E+00
  0.00000000E+00  0.00000000E+00  0.00000000E+00
  0.00000000E+00  0.00000000E+00  0.00000000E+00
  0.00000000E+00  0.00000000E+00  0.00000000E+00
  0.00000000E+00  0.00000000E+00  0.00000000E+00
  0.00000000E+00  0.00000000E+00  0.00000000E+00
