Ca10 B12                                
   1.00000000000000     
    -3.0996525633599448   -5.3687669812260292    0.0000000000000000
    -3.0996526704196343    5.3687672281264911    0.0000000000000000
     0.0000000000000000    0.0000000000000000  -11.4954870500128354
   Ca   B 
    10    12
Direct
  0.6588535564298397  0.6666742130733780  0.2500000000000000
  0.0078305983418190  0.3411450897407988  0.2500000000000000
  0.3333250123036819  0.9921687754283894  0.2500000000000000
  0.0077606091160689  0.6666440300440115  0.7500000000000000
  0.3333574768406393  0.3411064346401531  0.7500000000000000
  0.6588936001285006  0.9922404159553864  0.7500000000000000
  0.0000035226067965  0.9999965727145224  0.0000972539112922
  0.0000035226067965  0.9999965727145224  0.4999027460887078
  0.6666706374113929  0.3333295520863473  0.0000371995243071
  0.6666706374113929  0.3333295520863473  0.4999628004756929
  0.5017721952455645  0.8351613495723882  0.0626863961885462
  0.3333961754052197  0.4982285811191431  0.0626871400130611
  0.1648395045914057  0.6665969656434783  0.0626891633873043
  0.5017721952455645  0.8351613495723882  0.4373136038114538
  0.3333961754052197  0.4982285811191431  0.4373128599869389
  0.1648395045914057  0.6665969656434783  0.4373108366126957
  0.3332717269135514  0.8351178195308364  0.5627624490313963
  0.1648820262638822  0.4981521423749555  0.5627634291522554
  0.5018537849819111  0.6667275375172821  0.5627612757772695
  0.3332717269135514  0.8351178195308364  0.9372375509686037
  0.1648820262638822  0.4981521423749555  0.9372365708477446
  0.5018537849819111  0.6667275375172821  0.9372387242227305
 
  0.00000000E+00  0.00000000E+00  0.00000000E+00
  0.00000000E+00  0.00000000E+00  0.00000000E+00
  0.00000000E+00  0.00000000E+00  0.00000000E+00
  0.00000000E+00  0.00000000E+00  0.00000000E+00
  0.00000000E+00  0.00000000E+00  0.00000000E+00
  0.00000000E+00  0.00000000E+00  0.00000000E+00
  0.00000000E+00  0.00000000E+00  0.00000000E+00
  0.00000000E+00  0.00000000E+00  0.00000000E+00
  0.00000000E+00  0.00000000E+00  0.00000000E+00
  0.00000000E+00  0.00000000E+00  0.00000000E+00
  0.00000000E+00  0.00000000E+00  0.00000000E+00
  0.00000000E+00  0.00000000E+00  0.00000000E+00
  0.00000000E+00  0.00000000E+00  0.00000000E+00
  0.00000000E+00  0.00000000E+00  0.00000000E+00
  0.00000000E+00  0.00000000E+00  0.00000000E+00
  0.00000000E+00  0.00000000E+00  0.00000000E+00
  0.00000000E+00  0.00000000E+00  0.00000000E+00
  0.00000000E+00  0.00000000E+00  0.00000000E+00
  0.00000000E+00  0.00000000E+00  0.00000000E+00
  0.00000000E+00  0.00000000E+00  0.00000000E+00
  0.00000000E+00  0.00000000E+00  0.00000000E+00
  0.00000000E+00  0.00000000E+00  0.00000000E+00
