Ca1 Tl12                                
   1.0000000000000000     
    -5.6973427764355282    5.6973427764355282    3.2721418295019307
     5.6973427764355282   -5.6973427764355282    3.2721418295019307
     5.6973427764355282    5.6973427764355282   -3.2721418295019307
   Tl   Ca
    12     1
Direct
  0.5000000000000000  0.0000000000000000  0.0000000000000000
  0.0000000000000000  0.5000000000000000  0.0000000000000000
  0.7072092080200250  0.5000000000000000  0.2072092080200250
  0.5000000000000000  0.7072092080200250  0.2072092080200250
  0.3534158258709539  0.0000000000000000  0.3534158258709539
  0.0000000000000000  0.3534158258709539  0.3534158258709539
  0.0000000000000000  0.0000000000000000  0.5000000000000000
  0.5000000000000000  0.5000000000000000  0.5000000000000000
  0.6465841741290461  0.0000000000000000  0.6465841741290461
  0.0000000000000000  0.6465841741290461  0.6465841741290461
  0.5000000000000000  0.2927907919799750  0.7927907919799750
  0.2927907919799750  0.5000000000000000  0.7927907919799750
  0.0000000000000000  0.0000000000000000  0.0000000000000000

  0.00000000E+00  0.00000000E+00  0.00000000E+00
  0.00000000E+00  0.00000000E+00  0.00000000E+00
  0.00000000E+00  0.00000000E+00  0.00000000E+00
  0.00000000E+00  0.00000000E+00  0.00000000E+00
  0.00000000E+00  0.00000000E+00  0.00000000E+00
  0.00000000E+00  0.00000000E+00  0.00000000E+00
  0.00000000E+00  0.00000000E+00  0.00000000E+00
  0.00000000E+00  0.00000000E+00  0.00000000E+00
  0.00000000E+00  0.00000000E+00  0.00000000E+00
  0.00000000E+00  0.00000000E+00  0.00000000E+00
  0.00000000E+00  0.00000000E+00  0.00000000E+00
  0.00000000E+00  0.00000000E+00  0.00000000E+00
  0.00000000E+00  0.00000000E+00  0.00000000E+00
