Ca2 Ga2 F10                             
   1.00000000000000     
     5.1042782687669295    0.0276017032432648    1.8868176936527181
     1.1454933090432280    4.9741591422351883    1.8868177251200531
    -0.0077529174801063   -0.0062032316228902    7.5421469918585720
   Ca   Ga   F 
     2     2    10
Direct
  0.4550390121123229  0.5449609878874639  0.2499999999994529
  0.5449609878876771  0.4550390121125361  0.7500000000005471
  0.0000000000000000  0.0000000000000000  0.5000000000000000
  0.0000000000000000  0.0000000000000000  0.0000000000000000
  0.8179266476850842  0.7271163265194645  0.6229680077264845
  0.2728836736062661  0.1820723522337033  0.8770319922460743
  0.1820723523149184  0.2728836734805355  0.3770329922735201
  0.7271163263937339  0.8179266477662992  0.1229680077539257
  0.9210573434443319  0.0789426565243616  0.7500000000174154
  0.0789426565556681  0.9210573434756384  0.2499999999825846
  0.7367605390956413  0.3267880057470904  0.0222351384529702
  0.6732119941735064  0.2632394608316488  0.4777648616375245
  0.2632394609043587  0.6732119942529096  0.9777648615470298
  0.3267880058264936  0.7367605391683583  0.5222351383624755
 
  0.00000000E+00  0.00000000E+00  0.00000000E+00
  0.00000000E+00  0.00000000E+00  0.00000000E+00
  0.00000000E+00  0.00000000E+00  0.00000000E+00
  0.00000000E+00  0.00000000E+00  0.00000000E+00
  0.00000000E+00  0.00000000E+00  0.00000000E+00
  0.00000000E+00  0.00000000E+00  0.00000000E+00
  0.00000000E+00  0.00000000E+00  0.00000000E+00
  0.00000000E+00  0.00000000E+00  0.00000000E+00
  0.00000000E+00  0.00000000E+00  0.00000000E+00
  0.00000000E+00  0.00000000E+00  0.00000000E+00
  0.00000000E+00  0.00000000E+00  0.00000000E+00
  0.00000000E+00  0.00000000E+00  0.00000000E+00
  0.00000000E+00  0.00000000E+00  0.00000000E+00
  0.00000000E+00  0.00000000E+00  0.00000000E+00
