Ca8 Ga12                                
   1.00000000000000     
     7.0527345815813796    0.0000000000000004    0.0000000079637408
     0.0000000000000004    7.0527345815813796    0.0000000079637408
    -3.5263667300144719   -3.5263667300144719    9.8765502866630861
   Ca   Ga
     8    12
Direct
  0.2966179755044394  0.5155546760130463  0.5932359510204321
  0.2966179754995011  0.0776812749908871  0.5932359510105556
  0.3276812749908871  0.0466179754995011  0.0932359510105556
  0.9533820245004989  0.6723187250091129  0.9067640489894444
  0.9533820244955606  0.2344453239869537  0.9067640489795679
  0.7655546760130463  0.0466179755044394  0.0932359510204321
  0.9223187250091129  0.7033820245004989  0.4067640489894444
  0.4844453239869537  0.7033820244955606  0.4067640489795679
  0.8021526649404151  0.1103874335063537  0.6043053298824788
  0.8021526649385819  0.4939188963726551  0.6043053298788124
  0.7439188963726551  0.5521526649385819  0.1043053298788124
  0.4478473350614109  0.2560811036273449  0.8956946701211876
  0.4478473350595849  0.6396125664936463  0.8956946701175212
  0.3603874335063537  0.5521526649404151  0.1043053298824788
  0.5060811036273449  0.1978473350614181  0.3956946701211876
  0.8896125664936463  0.1978473350595849  0.3956946701175212
  0.1250000000000000  0.3750000000000000  0.2500000000000000
  0.1250000000000000  0.8750000000000000  0.2500000000000000
  0.1250000000000000  0.8750000000000000  0.7500000000000000
  0.6250000000000000  0.8750000000000000  0.7500000000000000
 
  0.00000000E+00  0.00000000E+00  0.00000000E+00
  0.00000000E+00  0.00000000E+00  0.00000000E+00
  0.00000000E+00  0.00000000E+00  0.00000000E+00
  0.00000000E+00  0.00000000E+00  0.00000000E+00
  0.00000000E+00  0.00000000E+00  0.00000000E+00
  0.00000000E+00  0.00000000E+00  0.00000000E+00
  0.00000000E+00  0.00000000E+00  0.00000000E+00
  0.00000000E+00  0.00000000E+00  0.00000000E+00
  0.00000000E+00  0.00000000E+00  0.00000000E+00
  0.00000000E+00  0.00000000E+00  0.00000000E+00
  0.00000000E+00  0.00000000E+00  0.00000000E+00
  0.00000000E+00  0.00000000E+00  0.00000000E+00
  0.00000000E+00  0.00000000E+00  0.00000000E+00
  0.00000000E+00  0.00000000E+00  0.00000000E+00
  0.00000000E+00  0.00000000E+00  0.00000000E+00
  0.00000000E+00  0.00000000E+00  0.00000000E+00
  0.00000000E+00  0.00000000E+00  0.00000000E+00
  0.00000000E+00  0.00000000E+00  0.00000000E+00
  0.00000000E+00  0.00000000E+00  0.00000000E+00
  0.00000000E+00  0.00000000E+00  0.00000000E+00
