Ca10 B4 Br32                            
   1.00000000000000     
     6.9451113658270840   -6.9190242938998949    0.0000000000000000
     6.9451113658270840    6.9190242938998949    0.0000000000000000
     0.0000000000000000    0.0000000000000000   17.3274963612692581
   Ca   B    Br
    10     4    32
Direct
  0.0000000000000000  0.0000000000000000  0.7464356722641767
  0.0000000000000000  0.0000000000000000  0.2535643277358233
  0.5000000000000000  0.5000000000000000  0.7535643277358233
  0.5000000000000000  0.5000000000000000  0.2464356722641767
  0.5000000000000000  0.5000000000000000  0.5000000000000000
  0.0000000000000000  0.0000000000000000  0.0000000000000000
  0.0000000000000000  0.5000000000000000  0.6669864738498319
  0.5000000000000000  0.0000000000000000  0.3330135261501681
  0.5000000000000000  0.0000000000000000  0.8330135261501681
  0.0000000000000000  0.5000000000000000  0.1669864738498319
  0.5000000000000000  0.0000000000000000  0.6141394798888626
  0.0000000000000000  0.5000000000000000  0.3858605201111374
  0.0000000000000000  0.5000000000000000  0.8858605201111374
  0.5000000000000000  0.0000000000000000  0.1141394798888626
  0.6470981458627847  0.0795395758120989  0.6859656684690307
  0.3529018541372153  0.9204604241879082  0.6859656684690307
  0.0795395758120989  0.6470981458627847  0.3140343315309693
  0.9204604241879082  0.3529018541372153  0.3140343315309693
  0.8529018541372153  0.4204604241879011  0.8140343315309693
  0.1470981458627847  0.5795395758120918  0.8140343315309693
  0.4204604241879011  0.8529018541372153  0.1859656684690378
  0.5795395758120918  0.1470981458627847  0.1859656684690378
  0.9578017520967066  0.7824531645805592  0.6481705432808269
  0.0421982479032934  0.2175468354194408  0.6481705432808269
  0.7824531645805592  0.9578017520967066  0.3518294567191731
  0.2175468354194408  0.0421982479032934  0.3518294567191731
  0.5421982479032934  0.7175468354194408  0.8518294567191731
  0.4578017520967066  0.2824531645805592  0.8518294567191731
  0.6459679696873906  0.9167757861986843  0.0479090749809643
  0.3540320303126094  0.0832242138013157  0.0479090749809643
  0.9167757861986843  0.6459679696873906  0.9520909250190428
  0.0832242138013157  0.3540320303126094  0.9520909250190428
  0.8540320303126094  0.5832242138013157  0.4520909250190357
  0.1459679696873906  0.4167757861986843  0.4520909250190357
  0.5832242138013157  0.8540320303126094  0.5479090749809572
  0.4167757861986843  0.1459679696873906  0.5479090749809572
  0.0328858405152772  0.8107620575933510  0.1274591538488181
  0.9671141594847228  0.1892379424066490  0.1274591538488181
  0.8107620575933510  0.0328858405152772  0.8725408461511890
  0.1892379424066490  0.9671141594847228  0.8725408461511890
  0.4671141594847228  0.6892379424066490  0.3725408461511890
  0.5328858405152772  0.3107620575933510  0.3725408461511890
  0.6892379424066490  0.4671141594847228  0.6274591538488110
  0.3107620575933510  0.5328858405152772  0.6274591538488110
  0.2824531645805592  0.4578017520967066  0.1481705432808269
  0.7175468354194408  0.5421982479032934  0.1481705432808269
 
  0.00000000E+00  0.00000000E+00  0.00000000E+00
  0.00000000E+00  0.00000000E+00  0.00000000E+00
  0.00000000E+00  0.00000000E+00  0.00000000E+00
  0.00000000E+00  0.00000000E+00  0.00000000E+00
  0.00000000E+00  0.00000000E+00  0.00000000E+00
  0.00000000E+00  0.00000000E+00  0.00000000E+00
  0.00000000E+00  0.00000000E+00  0.00000000E+00
  0.00000000E+00  0.00000000E+00  0.00000000E+00
  0.00000000E+00  0.00000000E+00  0.00000000E+00
  0.00000000E+00  0.00000000E+00  0.00000000E+00
  0.00000000E+00  0.00000000E+00  0.00000000E+00
  0.00000000E+00  0.00000000E+00  0.00000000E+00
  0.00000000E+00  0.00000000E+00  0.00000000E+00
  0.00000000E+00  0.00000000E+00  0.00000000E+00
  0.00000000E+00  0.00000000E+00  0.00000000E+00
  0.00000000E+00  0.00000000E+00  0.00000000E+00
  0.00000000E+00  0.00000000E+00  0.00000000E+00
  0.00000000E+00  0.00000000E+00  0.00000000E+00
  0.00000000E+00  0.00000000E+00  0.00000000E+00
  0.00000000E+00  0.00000000E+00  0.00000000E+00
  0.00000000E+00  0.00000000E+00  0.00000000E+00
  0.00000000E+00  0.00000000E+00  0.00000000E+00
  0.00000000E+00  0.00000000E+00  0.00000000E+00
  0.00000000E+00  0.00000000E+00  0.00000000E+00
  0.00000000E+00  0.00000000E+00  0.00000000E+00
  0.00000000E+00  0.00000000E+00  0.00000000E+00
  0.00000000E+00  0.00000000E+00  0.00000000E+00
  0.00000000E+00  0.00000000E+00  0.00000000E+00
  0.00000000E+00  0.00000000E+00  0.00000000E+00
  0.00000000E+00  0.00000000E+00  0.00000000E+00
  0.00000000E+00  0.00000000E+00  0.00000000E+00
  0.00000000E+00  0.00000000E+00  0.00000000E+00
  0.00000000E+00  0.00000000E+00  0.00000000E+00
  0.00000000E+00  0.00000000E+00  0.00000000E+00
  0.00000000E+00  0.00000000E+00  0.00000000E+00
  0.00000000E+00  0.00000000E+00  0.00000000E+00
  0.00000000E+00  0.00000000E+00  0.00000000E+00
  0.00000000E+00  0.00000000E+00  0.00000000E+00
  0.00000000E+00  0.00000000E+00  0.00000000E+00
  0.00000000E+00  0.00000000E+00  0.00000000E+00
  0.00000000E+00  0.00000000E+00  0.00000000E+00
  0.00000000E+00  0.00000000E+00  0.00000000E+00
  0.00000000E+00  0.00000000E+00  0.00000000E+00
  0.00000000E+00  0.00000000E+00  0.00000000E+00
  0.00000000E+00  0.00000000E+00  0.00000000E+00
  0.00000000E+00  0.00000000E+00  0.00000000E+00
