Be4 Tl10 Br2                            
   1.0000000000000000     
     6.2832150760798857   -0.2563508792408616   -0.0174547752276722
    -0.2472643517837696    6.2844590595040417    0.0051586046330939
     3.0191901184841452    2.9805543918388433   12.0960015762279998
   Br   Be   Tl
     2     4    10
Direct
  0.5799409642210733  0.5754881755780588  0.4984028477617173
  0.0781588266738567  0.0772084440953478  0.4986517111919682
  0.4814247158482772  0.2199015073827866  0.0013305289375438
  0.8168335335533428  0.3170502424561548  0.0004792328658993
  0.0723279058513526  0.5746321078229215  0.0006758562581552
  0.7197257348782600  0.9819340312155660  0.0011621122638985
  0.1317024423838475  0.9937073397944900  0.0008009428973281
  0.4935460259535773  0.6326382768563903  0.0000562578473122
  0.5763012607859181  0.0771563566213302  0.2231349597094621
  0.1100973655824760  0.2496628155547356  0.1902581020954557
  0.7469970715771197  0.6102559918984412  0.1908304183841381
  0.1274206812037804  0.6249032185451497  0.4092540499963420
  0.7927738458258489  0.2945536106280287  0.7787175760900098
  0.2962323533747480  0.4367579050103387  0.8108130344909483
  0.9368112830314743  0.7985702269056958  0.8099483352842682
  0.5396059892550369  0.0354797496345469  0.5854840339255389

  0.00000000E+00  0.00000000E+00  0.00000000E+00
  0.00000000E+00  0.00000000E+00  0.00000000E+00
  0.00000000E+00  0.00000000E+00  0.00000000E+00
  0.00000000E+00  0.00000000E+00  0.00000000E+00
  0.00000000E+00  0.00000000E+00  0.00000000E+00
  0.00000000E+00  0.00000000E+00  0.00000000E+00
  0.00000000E+00  0.00000000E+00  0.00000000E+00
  0.00000000E+00  0.00000000E+00  0.00000000E+00
  0.00000000E+00  0.00000000E+00  0.00000000E+00
  0.00000000E+00  0.00000000E+00  0.00000000E+00
  0.00000000E+00  0.00000000E+00  0.00000000E+00
  0.00000000E+00  0.00000000E+00  0.00000000E+00
  0.00000000E+00  0.00000000E+00  0.00000000E+00
  0.00000000E+00  0.00000000E+00  0.00000000E+00
  0.00000000E+00  0.00000000E+00  0.00000000E+00
  0.00000000E+00  0.00000000E+00  0.00000000E+00
