Ba17 In11 Cl1                           
   1.0000000000000000     
     9.4509166627893251   -5.5015917488448851    3.8402682277642013
     0.0211172053147694   11.0844934210109560    3.9166016460010895
    -9.2919064727818590   -5.4276809730186422    3.5484291685149185
   In   Cl   Ba
    11     1    17
Direct
  0.6294473934865579  0.8648936770187632  0.9994011074216047
  0.3834531310934111  0.3744746511231938  0.2175556204765385
  0.8360574846582267  0.1976538098259013  0.1810703635341042
  0.1701832474483211  0.7940559044858375  0.1696835167892417
  0.1994721120014304  0.3707024046396299  0.3719077260269970
  0.3829135173517457  0.2136204293435497  0.3842451807420346
  0.9990133676153903  0.8304908202177970  0.6156604493574704
  0.8273968415061788  0.9993216504969595  0.6284143643030689
  0.0000687191207263  0.6242603695436770  0.8313388949807958
  0.6550463322552034  0.0167764593550999  0.8192702182482421
  0.1664989760387883  0.1585393621856497  0.7833850210484172
  0.7100130811029643  0.5155047357834093  0.0005770023870468
  0.0443993089804877  0.3403388703468480  0.0006003395623466
  0.2911681508574659  0.9691193214902682  0.9997573611968988
  0.5446915415608586  0.2482547444155614  0.9999265671346578
  0.0102961986268681  0.0280284543306024  0.9996486065159900
  0.3300283093043319  0.6216146076988309  0.9995368110968528
  0.6831389070927472  0.6844424244021425  0.2722263937090048
  0.5986870328232854  0.0166491596444658  0.3155445935245140
  0.9826037196221407  0.5747451663150045  0.2774198652681648
  0.9936058981720635  0.9905509458538901  0.3049701197723778
  0.4218366986495141  0.7243868128284916  0.4162060264564786
  0.7455624424621732  0.4400216166391786  0.4435089009561395
  0.3016110708314557  0.9968465867476652  0.5567920164616709
  0.0057663319434909  0.3080233073473764  0.5841552136729860
  0.6876550697288550  0.6851559132941460  0.6929331659692437
  0.7052224529429338  0.2965725335374714  0.7224189334541009
  0.2826863726595832  0.7008033161296154  0.6836667442753352
  0.4124322900628101  0.4134919449589276  0.7281798756576805

  0.00000000E+00  0.00000000E+00  0.00000000E+00
  0.00000000E+00  0.00000000E+00  0.00000000E+00
  0.00000000E+00  0.00000000E+00  0.00000000E+00
  0.00000000E+00  0.00000000E+00  0.00000000E+00
  0.00000000E+00  0.00000000E+00  0.00000000E+00
  0.00000000E+00  0.00000000E+00  0.00000000E+00
  0.00000000E+00  0.00000000E+00  0.00000000E+00
  0.00000000E+00  0.00000000E+00  0.00000000E+00
  0.00000000E+00  0.00000000E+00  0.00000000E+00
  0.00000000E+00  0.00000000E+00  0.00000000E+00
  0.00000000E+00  0.00000000E+00  0.00000000E+00
  0.00000000E+00  0.00000000E+00  0.00000000E+00
  0.00000000E+00  0.00000000E+00  0.00000000E+00
  0.00000000E+00  0.00000000E+00  0.00000000E+00
  0.00000000E+00  0.00000000E+00  0.00000000E+00
  0.00000000E+00  0.00000000E+00  0.00000000E+00
  0.00000000E+00  0.00000000E+00  0.00000000E+00
  0.00000000E+00  0.00000000E+00  0.00000000E+00
  0.00000000E+00  0.00000000E+00  0.00000000E+00
  0.00000000E+00  0.00000000E+00  0.00000000E+00
  0.00000000E+00  0.00000000E+00  0.00000000E+00
  0.00000000E+00  0.00000000E+00  0.00000000E+00
  0.00000000E+00  0.00000000E+00  0.00000000E+00
  0.00000000E+00  0.00000000E+00  0.00000000E+00
  0.00000000E+00  0.00000000E+00  0.00000000E+00
  0.00000000E+00  0.00000000E+00  0.00000000E+00
  0.00000000E+00  0.00000000E+00  0.00000000E+00
  0.00000000E+00  0.00000000E+00  0.00000000E+00
  0.00000000E+00  0.00000000E+00  0.00000000E+00
