Ba4 B4 F20                              
   1.00000000000000     
     4.5527206850738917   -0.0002559408681714   -0.0117598305952602
     0.0004309887414839    9.2201033261240113    0.0009193533864555
    -0.1404245031788999   -0.0006617946178123    8.7266751337019564
   B    Ba   F 
     4     4    20
Direct
  0.4355061385528032  0.2733510044173926  0.9808372778047527
  0.9360795327480389  0.1056383141836008  0.3048374300892647
  0.0639106166127803  0.6056457293940127  0.6951411996001511
  0.5644907690892182  0.7733442627403946  0.0191299278621173
  0.0015449892299273  0.5188335737158667  0.1754690119736253
  0.5008812487825196  0.8094211971205851  0.4521363602311510
  0.4991315133390444  0.3094157558175539  0.5478298442673761
  0.9984397972749406  0.0188308535667332  0.8244946799107993
  0.4460652338181674  0.8464200625150156  0.1429430249410899
  0.9920550107248403  0.7389369111638544  0.3433227595015609
  0.5101245166483039  0.1245503684107163  0.9725659645355904
  0.1261085582855230  0.2855338642937610  0.9766156604819116
  0.0119830478077674  0.0576733182036691  0.1621825328183206
  0.0220529225349040  0.2558485671762583  0.3263638625370646
  0.5398381544196980  0.3321356884104318  0.1198355831853704
  0.3706300957211539  0.5981736841349274  0.6736947657533605
  0.4895863904754023  0.5259245987450001  0.3448174706407983
  0.9277158880988452  0.5246902898188566  0.5765174563729829
  0.0722352163025732  0.0246830769155011  0.4234730006682454
  0.5103897133079300  0.0259261233474390  0.6551481816237157
  0.6293547874273244  0.0981670761676199  0.3262774251127212
  0.4601764660106511  0.8321395557056661  0.8801325991289346
  0.9779759157024159  0.7558589752975990  0.6736035889104386
  0.9880062940535552  0.5576886584579057  0.8377999691863991
  0.8738868928949799  0.7855408465584404  0.0233606587439468
  0.4898611935628026  0.6245442024186261  0.0273924075692733
  0.0079475441331454  0.2389450085637179  0.6566494458388021
  0.5539215524407766  0.3464384327388359  0.8570279107102721
 
  0.00000000E+00  0.00000000E+00  0.00000000E+00
  0.00000000E+00  0.00000000E+00  0.00000000E+00
  0.00000000E+00  0.00000000E+00  0.00000000E+00
  0.00000000E+00  0.00000000E+00  0.00000000E+00
  0.00000000E+00  0.00000000E+00  0.00000000E+00
  0.00000000E+00  0.00000000E+00  0.00000000E+00
  0.00000000E+00  0.00000000E+00  0.00000000E+00
  0.00000000E+00  0.00000000E+00  0.00000000E+00
  0.00000000E+00  0.00000000E+00  0.00000000E+00
  0.00000000E+00  0.00000000E+00  0.00000000E+00
  0.00000000E+00  0.00000000E+00  0.00000000E+00
  0.00000000E+00  0.00000000E+00  0.00000000E+00
  0.00000000E+00  0.00000000E+00  0.00000000E+00
  0.00000000E+00  0.00000000E+00  0.00000000E+00
  0.00000000E+00  0.00000000E+00  0.00000000E+00
  0.00000000E+00  0.00000000E+00  0.00000000E+00
  0.00000000E+00  0.00000000E+00  0.00000000E+00
  0.00000000E+00  0.00000000E+00  0.00000000E+00
  0.00000000E+00  0.00000000E+00  0.00000000E+00
  0.00000000E+00  0.00000000E+00  0.00000000E+00
  0.00000000E+00  0.00000000E+00  0.00000000E+00
  0.00000000E+00  0.00000000E+00  0.00000000E+00
  0.00000000E+00  0.00000000E+00  0.00000000E+00
  0.00000000E+00  0.00000000E+00  0.00000000E+00
  0.00000000E+00  0.00000000E+00  0.00000000E+00
  0.00000000E+00  0.00000000E+00  0.00000000E+00
  0.00000000E+00  0.00000000E+00  0.00000000E+00
  0.00000000E+00  0.00000000E+00  0.00000000E+00
