Ca4 B10                                 
   1.00000000000000     
     4.0312131395430173    4.0312131395430173   -2.8035961899958792
     4.0312131395430173   -4.0312131395430173    2.8035961899958792
    -4.0312131395430173   -4.0312131395430173   -2.8035961899958792
   B    Ca
    10     4
Direct
  0.8460657937361091  0.3814544043303272  0.2275201980664434
  0.5353886105942109  0.3814544043303272  0.1539342062638909
  0.7724798019335566  0.6185455956696728  0.1539342062638909
  0.1447403685271027  0.0000000000000000  0.1447403685271027
  0.1539342062638909  0.3814544043303272  0.5353886105942109
  0.8460657937361091  0.6185455956696728  0.4646113894057891
  0.8552596314728973  0.0000000000000000  0.8552596314728973
  0.2275201980664434  0.3814544043303272  0.8460657937361091
  0.4646113894057891  0.6185455956696728  0.8460657937361091
  0.1539342062638909  0.6185455956696728  0.7724798019335566
  0.6939100226948653  0.0000000000000000  0.3060899773051347
  0.3060899773051347  0.6121799546102693  0.3060899773051347
  0.3060899773051347  0.0000000000000000  0.6939100226948653
  0.6939100226948653  0.3878200453897307  0.6939100226948653
 
  0.00000000E+00  0.00000000E+00  0.00000000E+00
  0.00000000E+00  0.00000000E+00  0.00000000E+00
  0.00000000E+00  0.00000000E+00  0.00000000E+00
  0.00000000E+00  0.00000000E+00  0.00000000E+00
  0.00000000E+00  0.00000000E+00  0.00000000E+00
  0.00000000E+00  0.00000000E+00  0.00000000E+00
  0.00000000E+00  0.00000000E+00  0.00000000E+00
  0.00000000E+00  0.00000000E+00  0.00000000E+00
  0.00000000E+00  0.00000000E+00  0.00000000E+00
  0.00000000E+00  0.00000000E+00  0.00000000E+00
  0.00000000E+00  0.00000000E+00  0.00000000E+00
  0.00000000E+00  0.00000000E+00  0.00000000E+00
  0.00000000E+00  0.00000000E+00  0.00000000E+00
  0.00000000E+00  0.00000000E+00  0.00000000E+00
