Sr6 B10                                 
   1.00000000000000     
     4.4623675082680929   -0.2326969544716820    0.0000000000000000
    -2.4317053911651993    3.7487184900584345    0.0000000000000000
     0.0000000000000000    0.0000000000000000   24.1521336958962465
   B    Sr
    10     6
Direct
  0.3634051884962162  0.6364949495372869  0.2143326368352945
  0.2495343018025054  0.2461890065298817  0.2500000000000000
  0.1713654324457750  0.8284014797761117  0.2500000000000000
  0.7536548362125117  0.7502473781773134  0.2500000000000000
  0.3634051884962162  0.6364949495372869  0.2856673631647055
  0.6365948115037838  0.3635050504627131  0.7143326368352945
  0.2463451637874883  0.2497526218226866  0.7500000000000000
  0.8286345675542250  0.1715985202238883  0.7500000000000000
  0.7504656981974946  0.7538109934701183  0.7500000000000000
  0.6365948115037838  0.3635050504627131  0.7856673631647055
  0.0000000000000000  0.0000000000000000  0.0000000000000000
  0.6956708191453842  0.3043106940564968  0.1626081567406956
  0.6956708191453842  0.3043106940564968  0.3373918432593044
  0.0000000000000000  0.0000000000000000  0.5000000000000000
  0.3043291808546158  0.6956893059435032  0.6626081567406956
  0.3043291808546158  0.6956893059435032  0.8373918432593044
 
  0.00000000E+00  0.00000000E+00  0.00000000E+00
  0.00000000E+00  0.00000000E+00  0.00000000E+00
  0.00000000E+00  0.00000000E+00  0.00000000E+00
  0.00000000E+00  0.00000000E+00  0.00000000E+00
  0.00000000E+00  0.00000000E+00  0.00000000E+00
  0.00000000E+00  0.00000000E+00  0.00000000E+00
  0.00000000E+00  0.00000000E+00  0.00000000E+00
  0.00000000E+00  0.00000000E+00  0.00000000E+00
  0.00000000E+00  0.00000000E+00  0.00000000E+00
  0.00000000E+00  0.00000000E+00  0.00000000E+00
  0.00000000E+00  0.00000000E+00  0.00000000E+00
  0.00000000E+00  0.00000000E+00  0.00000000E+00
  0.00000000E+00  0.00000000E+00  0.00000000E+00
  0.00000000E+00  0.00000000E+00  0.00000000E+00
  0.00000000E+00  0.00000000E+00  0.00000000E+00
  0.00000000E+00  0.00000000E+00  0.00000000E+00
