GaBr                                    
   1.00000000000000     
     0.0000000000000000    3.1594599890412240    3.1594599890412240
     3.1594599890412240    0.0000000000000000    3.1594599890412240
     3.1594599890412240    3.1594599890412240    0.0000000000000000
   Br   Ga
     1     1
Direct
  0.0000000000000000  0.0000000000000000  0.0000000000000000
  0.5000000000000000  0.5000000000000000  0.5000000000000000
 
  0.00000000E+00  0.00000000E+00  0.00000000E+00
  0.00000000E+00  0.00000000E+00  0.00000000E+00
