Mg1 B3 F6                               
   1.00000000000000     
    -2.5471166761833617    5.5911487931121391    2.3928614801133121
     1.9677681083810048   -5.5094632330276738    1.9677681083810039
     2.3928614801133117    5.5911487931121382   -2.5471166761833608
   F    Mg   B 
     6     1     3
Direct
  0.3904057926301121  0.5954470174864284  0.3904057926301121
  0.7169923993519802  0.0000000000000000  0.2830076006480198
  0.8916640102379034  0.5131812278369594  0.8916640102379034
  0.1083359897620966  0.4868187721630406  0.1083359897620966
  0.6095942073698950  0.4045529825135716  0.6095942073698950
  0.2830076006480198  0.0000000000000000  0.7169923993519802
  0.0000000000000000  0.0000000000000000  0.0000000000000000
  0.7765676011900453  0.5000000000000000  0.2234323988099547
  0.5000000000000000  0.0000000000000000  0.5000000000000000
  0.2234323988099547  0.5000000000000000  0.7765676011900453
 
  0.00000000E+00  0.00000000E+00  0.00000000E+00
  0.00000000E+00  0.00000000E+00  0.00000000E+00
  0.00000000E+00  0.00000000E+00  0.00000000E+00
  0.00000000E+00  0.00000000E+00  0.00000000E+00
  0.00000000E+00  0.00000000E+00  0.00000000E+00
  0.00000000E+00  0.00000000E+00  0.00000000E+00
  0.00000000E+00  0.00000000E+00  0.00000000E+00
  0.00000000E+00  0.00000000E+00  0.00000000E+00
  0.00000000E+00  0.00000000E+00  0.00000000E+00
  0.00000000E+00  0.00000000E+00  0.00000000E+00
