Sr15 Tl1                                
   1.0000000000000000     
     4.2268871013719727   -7.3211828366161589   -0.0000000000000000
     4.2268871013719727    7.3211828366161589    0.0000000000000000
     0.0000000000000000   -0.0000000000000000   13.5065775533576016
   Sr   Tl
    15     1
Direct
  0.0000000000000000  0.0000000000000000  0.0000000000000000
  0.9940180983110665  0.4970090491542791  0.5000000000000000
  0.0008254450168508  0.5004127225098571  0.0000000000000000
  0.5029909508432198  0.4970090491567802  0.5000000000000000
  0.4995872774930135  0.5004127225069865  0.0000000000000000
  0.5029909508457209  0.0059819016889335  0.5000000000000000
  0.4995872774901429  0.9991745549831492  0.0000000000000000
  0.1620741991640600  0.3241493983208272  0.2623228281432830
  0.1620741991640600  0.3241493983208272  0.7376771718567170
  0.1620741991567627  0.8379258008432373  0.2623228281432830
  0.1620741991567627  0.8379258008432373  0.7376771718567170
  0.6758506016791728  0.8379258008359400  0.2623228281432830
  0.6758506016791728  0.8379258008359400  0.7376771718567170
  0.6666669999999968  0.3333330000000032  0.2459148996284242
  0.6666669999999968  0.3333330000000032  0.7540851003715758
  0.0000000000000000  0.0000000000000000  0.5000000000000000

  0.00000000E+00  0.00000000E+00  0.00000000E+00
  0.00000000E+00  0.00000000E+00  0.00000000E+00
  0.00000000E+00  0.00000000E+00  0.00000000E+00
  0.00000000E+00  0.00000000E+00  0.00000000E+00
  0.00000000E+00  0.00000000E+00  0.00000000E+00
  0.00000000E+00  0.00000000E+00  0.00000000E+00
  0.00000000E+00  0.00000000E+00  0.00000000E+00
  0.00000000E+00  0.00000000E+00  0.00000000E+00
  0.00000000E+00  0.00000000E+00  0.00000000E+00
  0.00000000E+00  0.00000000E+00  0.00000000E+00
  0.00000000E+00  0.00000000E+00  0.00000000E+00
  0.00000000E+00  0.00000000E+00  0.00000000E+00
  0.00000000E+00  0.00000000E+00  0.00000000E+00
  0.00000000E+00  0.00000000E+00  0.00000000E+00
  0.00000000E+00  0.00000000E+00  0.00000000E+00
  0.00000000E+00  0.00000000E+00  0.00000000E+00
