Sr4 I2                                  
   1.00000000000000     
     8.1119728626432455    0.0000000000000000    0.0000000000000000
     0.0000000000000000    8.1119728626432455    0.0000000000000000
     0.0000000000000000    0.0000000000000000    4.5709616203605217
   Sr   I 
     4     2
Direct
  0.2844300280766277  0.2844300280766277  0.0000000000000000
  0.7155699719233723  0.7155699719233723  0.0000000000000000
  0.7844300280766277  0.2155699719233723  0.5000000000000000
  0.2155699719233723  0.7844300280766277  0.5000000000000000
  0.0000000000000000  0.0000000000000000  0.0000000000000000
  0.5000000000000000  0.5000000000000000  0.5000000000000000
 
  0.00000000E+00  0.00000000E+00  0.00000000E+00
  0.00000000E+00  0.00000000E+00  0.00000000E+00
  0.00000000E+00  0.00000000E+00  0.00000000E+00
  0.00000000E+00  0.00000000E+00  0.00000000E+00
  0.00000000E+00  0.00000000E+00  0.00000000E+00
  0.00000000E+00  0.00000000E+00  0.00000000E+00
