Sr32 B28                                
   1.00000000000000     
    11.1286430209767460   -0.0000211771794602   -0.0000211728884867
    -0.0000211728884867   11.1286430209767460   -0.0000211771794602
    -0.0000211771794602   -0.0000211728884867   11.1286430209767460
   B    Sr
    28    32
Direct
  0.5901118656837880  0.9098827954049327  0.0901030039988342
  0.7184581029445241  0.8136316972216164  0.0910438055675939
  0.7732856516794442  0.3087058304158461  0.1059424454601441
  0.8940039091057059  0.2732756926991158  0.1912751049329557
  0.5910365540981175  0.7815268726858307  0.1863457059707727
  0.6863460918953024  0.9089429835028469  0.2184605477863926
  0.1912751049329557  0.8940039091057059  0.2732756926991158
  0.8087014720778569  0.3940138563760769  0.2266737946613375
  0.3136390123490500  0.4089537380756170  0.2815412769461361
  0.4089537380756170  0.2815412769461361  0.3136390123490500
  0.1059424454601441  0.7732856516794442  0.3087058304158461
  0.2266737946613375  0.8087014720778569  0.3940138563760769
  0.2815412769461361  0.3136390123490500  0.4089537380756170
  0.4098941393625495  0.4098941393625495  0.4098941393625495
  0.9098827954049327  0.0901030039988342  0.5901118656837880
  0.7815268726858307  0.1863457059707727  0.5910365540981175
  0.7266842151874187  0.6912699527358512  0.6059554443859554
  0.6059554443859554  0.7266842151874187  0.6912699527358512
  0.9089429835028469  0.2184605477863926  0.6863460918953024
  0.8136316972216164  0.0910438055675939  0.7184581029445241
  0.3087058304158461  0.1059424454601441  0.7732856516794442
  0.6912699527358512  0.6059554443859554  0.7266842151874187
  0.1863457059707727  0.5910365540981175  0.7815268726858307
  0.0910438055675939  0.7184581029445241  0.8136316972216164
  0.3940138563760769  0.2266737946613375  0.8087014720778569
  0.2732756926991158  0.1912751049329557  0.8940039091057059
  0.2184605477863926  0.6863460918953024  0.9089429835028469
  0.0901030039988342  0.5901118656837880  0.9098827954049327
  0.7780080593751677  0.5490644121900417  0.0086080011626137
  0.7824622054353227  0.0568824444425360  0.0253298193779941
  0.4913781230385084  0.2220011795200989  0.0490484334217740
  0.0253298193779941  0.7824622054353227  0.0568824444425360
  0.1951474348334443  0.1951474348334443  0.1951474348334443
  0.3194194539959554  0.6804732924483972  0.1805001024915356
  0.0490484334217740  0.4913781230385084  0.2220011795200989
  0.5568887589951999  0.4746680782362276  0.2175194349075866
  0.4430815433347703  0.9746216206404839  0.2824368884398893
  0.9509293685304527  0.9913756202866679  0.2780015479930427
  0.6804732924483972  0.1805001024915356  0.3194194539959554
  0.8048524051696901  0.6951467823854713  0.3048487997384868
  0.9746216206404839  0.2824368884398893  0.4430815433347703
  0.5086036710505226  0.7219751125496146  0.4509219811401834
  0.2175194349075866  0.5568887589951999  0.4746680782362276
  0.2220011795200989  0.0490484334217740  0.4913781230385084
  0.7219751125496146  0.4509219811401834  0.5086036710505226
  0.7175270715497746  0.9431016415546694  0.5253344488408302
  0.0086080011626137  0.7780080593751677  0.5490644121900417
  0.4746680782362276  0.2175194349075866  0.5568887589951999
  0.3048487997384868  0.8048524051696901  0.6951467823854713
  0.1805001024915356  0.3194194539959554  0.6804732924483972
  0.4509219811401834  0.5086036710505226  0.7219751125496146
  0.9431016415546694  0.5253344488408302  0.7175270715497746
  0.0568824444425360  0.0253298193779941  0.7824622054353227
  0.5490644121900417  0.0086080011626137  0.7780080593751677
  0.8194566997114237  0.8194566997114237  0.8194566997114237
  0.6951467823854713  0.3048487997384868  0.8048524051696901
  0.5253344488408302  0.7175270715497746  0.9431016415546694
  0.9913756202866679  0.2780015479930427  0.9509293685304527
  0.2824368884398893  0.4430815433347703  0.9746216206404839
  0.2780015479930427  0.9509293685304527  0.9913756202866679
 
  0.00000000E+00  0.00000000E+00  0.00000000E+00
  0.00000000E+00  0.00000000E+00  0.00000000E+00
  0.00000000E+00  0.00000000E+00  0.00000000E+00
  0.00000000E+00  0.00000000E+00  0.00000000E+00
  0.00000000E+00  0.00000000E+00  0.00000000E+00
  0.00000000E+00  0.00000000E+00  0.00000000E+00
  0.00000000E+00  0.00000000E+00  0.00000000E+00
  0.00000000E+00  0.00000000E+00  0.00000000E+00
  0.00000000E+00  0.00000000E+00  0.00000000E+00
  0.00000000E+00  0.00000000E+00  0.00000000E+00
  0.00000000E+00  0.00000000E+00  0.00000000E+00
  0.00000000E+00  0.00000000E+00  0.00000000E+00
  0.00000000E+00  0.00000000E+00  0.00000000E+00
  0.00000000E+00  0.00000000E+00  0.00000000E+00
  0.00000000E+00  0.00000000E+00  0.00000000E+00
  0.00000000E+00  0.00000000E+00  0.00000000E+00
  0.00000000E+00  0.00000000E+00  0.00000000E+00
  0.00000000E+00  0.00000000E+00  0.00000000E+00
  0.00000000E+00  0.00000000E+00  0.00000000E+00
  0.00000000E+00  0.00000000E+00  0.00000000E+00
  0.00000000E+00  0.00000000E+00  0.00000000E+00
  0.00000000E+00  0.00000000E+00  0.00000000E+00
  0.00000000E+00  0.00000000E+00  0.00000000E+00
  0.00000000E+00  0.00000000E+00  0.00000000E+00
  0.00000000E+00  0.00000000E+00  0.00000000E+00
  0.00000000E+00  0.00000000E+00  0.00000000E+00
  0.00000000E+00  0.00000000E+00  0.00000000E+00
  0.00000000E+00  0.00000000E+00  0.00000000E+00
  0.00000000E+00  0.00000000E+00  0.00000000E+00
  0.00000000E+00  0.00000000E+00  0.00000000E+00
  0.00000000E+00  0.00000000E+00  0.00000000E+00
  0.00000000E+00  0.00000000E+00  0.00000000E+00
  0.00000000E+00  0.00000000E+00  0.00000000E+00
  0.00000000E+00  0.00000000E+00  0.00000000E+00
  0.00000000E+00  0.00000000E+00  0.00000000E+00
  0.00000000E+00  0.00000000E+00  0.00000000E+00
  0.00000000E+00  0.00000000E+00  0.00000000E+00
  0.00000000E+00  0.00000000E+00  0.00000000E+00
  0.00000000E+00  0.00000000E+00  0.00000000E+00
  0.00000000E+00  0.00000000E+00  0.00000000E+00
  0.00000000E+00  0.00000000E+00  0.00000000E+00
  0.00000000E+00  0.00000000E+00  0.00000000E+00
  0.00000000E+00  0.00000000E+00  0.00000000E+00
  0.00000000E+00  0.00000000E+00  0.00000000E+00
  0.00000000E+00  0.00000000E+00  0.00000000E+00
  0.00000000E+00  0.00000000E+00  0.00000000E+00
  0.00000000E+00  0.00000000E+00  0.00000000E+00
  0.00000000E+00  0.00000000E+00  0.00000000E+00
  0.00000000E+00  0.00000000E+00  0.00000000E+00
  0.00000000E+00  0.00000000E+00  0.00000000E+00
  0.00000000E+00  0.00000000E+00  0.00000000E+00
  0.00000000E+00  0.00000000E+00  0.00000000E+00
  0.00000000E+00  0.00000000E+00  0.00000000E+00
  0.00000000E+00  0.00000000E+00  0.00000000E+00
  0.00000000E+00  0.00000000E+00  0.00000000E+00
  0.00000000E+00  0.00000000E+00  0.00000000E+00
  0.00000000E+00  0.00000000E+00  0.00000000E+00
  0.00000000E+00  0.00000000E+00  0.00000000E+00
  0.00000000E+00  0.00000000E+00  0.00000000E+00
  0.00000000E+00  0.00000000E+00  0.00000000E+00
