F8                                      
   1.00000000000000     
     3.2048924643819650    0.0000000000000000    0.0000000000000000
    -0.0000000000000001    4.9248899919607636    0.0000000000000000
     0.0000000000000000    0.0000000000000000    4.8757758479555244
   F 
     8
Direct
  0.0000000000000000  0.0000000000000000  0.0000000000000000
  0.5000000000000000  0.5000000000000000  0.5000000000000000
  0.2125791662474796  0.5000000000000000  0.0000000000000000
  0.7874208337525275  0.5000000000000000  0.0000000000000000
  0.5000000000000000  0.0000000000000000  0.2412425868861874
  0.5000000000000000  0.0000000000000000  0.7587574131138197
  0.0000000000000000  0.7398070359966695  0.5000000000000000
  0.0000000000000000  0.2601929640033305  0.5000000000000000
 
  0.00000000E+00  0.00000000E+00  0.00000000E+00
  0.00000000E+00  0.00000000E+00  0.00000000E+00
  0.00000000E+00  0.00000000E+00  0.00000000E+00
  0.00000000E+00  0.00000000E+00  0.00000000E+00
  0.00000000E+00  0.00000000E+00  0.00000000E+00
  0.00000000E+00  0.00000000E+00  0.00000000E+00
  0.00000000E+00  0.00000000E+00  0.00000000E+00
  0.00000000E+00  0.00000000E+00  0.00000000E+00
