Sr4 B4 Cl20                             
   1.0000000000000000     
     8.8721295049332021    0.0000000000000000    0.0000000000000000
     0.0000000000000000   14.2110727766803961   -4.3324734251874890
     0.0000000000000000    2.1550996497768318    7.5860554947077690
   Sr   B    Cl
     4     4    20
Direct
  0.1249146229990643  0.4978716079055019  0.2499973490359721
  0.6249146229990572  0.5021283920944981  0.2500026509640279
  0.8750853770009428  0.5021283920944981  0.7500026509640279
  0.3750853770009357  0.4978716079055019  0.7499973490359721
  0.7549404982811296  0.8926222568117836  0.6444103393107241
  0.2549404982811225  0.1073777431882164  0.8555896606892759
  0.2450595017188704  0.1073777431882164  0.3555896606892688
  0.7450595017188704  0.8926222568117836  0.1444103393107312
  0.6268594473017330  0.4073794746447490  0.5767548158194344
  0.1268594473017330  0.5926205253552510  0.9232451841805656
  0.3731405526982670  0.5926205253552510  0.4232451841805656
  0.8731405526982670  0.4073794746447490  0.0767548158194344
  0.7582201051832769  0.0013981292899317  0.5647077794883799
  0.2582201051832769  0.9986018707100683  0.9352922205116201
  0.2417798948167231  0.9986018707100683  0.4352922205116201
  0.7417798948167231  0.0013981292899317  0.0647077794883799
  0.4236243692640613  0.1632114377198235  0.8131941254183985
  0.9236243692640613  0.8367885622801765  0.6868058745816015
  0.5763756307359387  0.8367885622801765  0.1868058745816015
  0.0763756307359387  0.1632114377198235  0.3131941254183985
  0.5831038499438463  0.8391819887616094  0.6809687235184398
  0.0831038499438463  0.1608180112383906  0.8190312764815602
  0.4168961500561537  0.1608180112383906  0.3190312764815602
  0.9168961500561537  0.8391819887616094  0.1809687235184398
  0.3767729970741200  0.4071483408665486  0.0792529796476273
  0.8767729970741200  0.5928516591334514  0.4207470203523727
  0.6232270029258800  0.5928516591334514  0.9207470203523727
  0.1232270029258800  0.4071483408665486  0.5792529796476344

  0.00000000E+00  0.00000000E+00  0.00000000E+00
  0.00000000E+00  0.00000000E+00  0.00000000E+00
  0.00000000E+00  0.00000000E+00  0.00000000E+00
  0.00000000E+00  0.00000000E+00  0.00000000E+00
  0.00000000E+00  0.00000000E+00  0.00000000E+00
  0.00000000E+00  0.00000000E+00  0.00000000E+00
  0.00000000E+00  0.00000000E+00  0.00000000E+00
  0.00000000E+00  0.00000000E+00  0.00000000E+00
  0.00000000E+00  0.00000000E+00  0.00000000E+00
  0.00000000E+00  0.00000000E+00  0.00000000E+00
  0.00000000E+00  0.00000000E+00  0.00000000E+00
  0.00000000E+00  0.00000000E+00  0.00000000E+00
  0.00000000E+00  0.00000000E+00  0.00000000E+00
  0.00000000E+00  0.00000000E+00  0.00000000E+00
  0.00000000E+00  0.00000000E+00  0.00000000E+00
  0.00000000E+00  0.00000000E+00  0.00000000E+00
  0.00000000E+00  0.00000000E+00  0.00000000E+00
  0.00000000E+00  0.00000000E+00  0.00000000E+00
  0.00000000E+00  0.00000000E+00  0.00000000E+00
  0.00000000E+00  0.00000000E+00  0.00000000E+00
  0.00000000E+00  0.00000000E+00  0.00000000E+00
  0.00000000E+00  0.00000000E+00  0.00000000E+00
  0.00000000E+00  0.00000000E+00  0.00000000E+00
  0.00000000E+00  0.00000000E+00  0.00000000E+00
  0.00000000E+00  0.00000000E+00  0.00000000E+00
  0.00000000E+00  0.00000000E+00  0.00000000E+00
  0.00000000E+00  0.00000000E+00  0.00000000E+00
  0.00000000E+00  0.00000000E+00  0.00000000E+00
