Ca4 B2 F10                              
   1.00000000000000     
     6.5841523228697305    0.0193805822102304    0.5205053785820435
     0.0148420482853632    7.0269055825635425    0.2013641100411049
     3.6658660297166357    3.6592272040398326    4.8934253489301689
   F    B    Ca
    10     2     4
Direct
  0.8613449396145114  0.0225587223023282  0.1656660987562262
  0.3035763095681432  0.3363204290435036  0.3603437149781215
  0.3252955883433444  0.9946890243491922  0.4131844163471570
  0.1059724477059873  0.2039347414489328  0.1970137926389270
  0.8094774092280659  0.5448016635620405  0.3647664076855861
  0.3096901436593029  0.7830660664964029  0.1178353935511822
  0.7003529768085812  0.1850665038099422  0.8499415777081154
  0.3106876672160226  0.5407952444618687  0.6149344865002391
  0.8461855119752784  0.5679224784415666  0.9706765944871378
  0.6395080709099830  0.0694128347597811  0.5183676948593643
  0.2291324311382041  0.0868248389977992  0.5595735805102251
  0.8347554087664903  0.9738345054926043  0.4091957865054709
  0.3972143005083737  0.1955396026733141  0.7941928829294440
  0.9478986966350078  0.5680872053620334  0.6167303503052466
  0.1994943392307889  0.6277669821065572  0.9454169527866654
  0.6797137586919462  0.7996791566921360  0.1021602694509269
 
  0.00000000E+00  0.00000000E+00  0.00000000E+00
  0.00000000E+00  0.00000000E+00  0.00000000E+00
  0.00000000E+00  0.00000000E+00  0.00000000E+00
  0.00000000E+00  0.00000000E+00  0.00000000E+00
  0.00000000E+00  0.00000000E+00  0.00000000E+00
  0.00000000E+00  0.00000000E+00  0.00000000E+00
  0.00000000E+00  0.00000000E+00  0.00000000E+00
  0.00000000E+00  0.00000000E+00  0.00000000E+00
  0.00000000E+00  0.00000000E+00  0.00000000E+00
  0.00000000E+00  0.00000000E+00  0.00000000E+00
  0.00000000E+00  0.00000000E+00  0.00000000E+00
  0.00000000E+00  0.00000000E+00  0.00000000E+00
  0.00000000E+00  0.00000000E+00  0.00000000E+00
  0.00000000E+00  0.00000000E+00  0.00000000E+00
  0.00000000E+00  0.00000000E+00  0.00000000E+00
  0.00000000E+00  0.00000000E+00  0.00000000E+00
