Sr40 Tl4                                
   1.0000000000000000     
     0.0000000000000000   10.5831083461351838   10.5831083461351838
    10.5831083461351838    0.0000000000000000   10.5831083461351838
    10.5831083461351838   10.5831083461351838    0.0000000000000000
   Sr   Tl
    40     4
Direct
  0.6178657471163049  0.6178657471163049  0.8821342528836951
  0.3678657471163049  0.6321342528836951  0.6321342528836951
  0.6321342528836951  0.3678657471163049  0.3678657471163049
  0.3678657471163049  0.3678657471163049  0.6321342528836951
  0.3678657471163049  0.6321342528836951  0.3678657471163049
  0.6321342528836951  0.3678657471163049  0.6321342528836951
  0.8821342528836951  0.6178657471163049  0.8821342528836951
  0.8821342528836951  0.6178657471163049  0.6178657471163049
  0.6178657471163049  0.8821342528836951  0.8821342528836951
  0.6178657471163049  0.8821342528836951  0.6178657471163049
  0.6321342528836951  0.6321342528836951  0.3678657471163049
  0.8821342528836951  0.8821342528836951  0.6178657471163049
  0.7933333020975368  0.0697048925383399  0.3436275032665961
  0.4566666979024632  0.4566666979024632  0.1802951074616601
  0.1802951074616601  0.9063724967334039  0.4566666979024632
  0.4566666979024632  0.9063724967334039  0.4566666979024632
  0.9063724967334039  0.4566666979024632  0.1802951074616601
  0.9063724967334039  0.4566666979024632  0.4566666979024632
  0.1802951074616601  0.4566666979024632  0.4566666979024632
  0.3436275032665961  0.0697048925383399  0.7933333020975368
  0.7933333020975368  0.0697048925383399  0.7933333020975368
  0.0697048925383399  0.7933333020975368  0.3436275032665961
  0.7933333020975368  0.7933333020975368  0.3436275032665961
  0.0697048925383399  0.3436275032665961  0.7933333020975368
  0.3436275032665961  0.7933333020975368  0.0697048925383399
  0.7933333020975368  0.7933333020975368  0.0697048925383399
  0.7933333020975368  0.3436275032665961  0.7933333020975368
  0.1802951074616601  0.4566666979024632  0.9063724967334039
  0.4566666979024632  0.4566666979024632  0.9063724967334039
  0.4566666979024632  0.9063724967334039  0.1802951074616601
  0.4566666979024632  0.1802951074616601  0.9063724967334039
  0.9063724967334039  0.1802951074616601  0.4566666979024632
  0.4566666979024632  0.1802951074616601  0.4566666979024632
  0.3436275032665961  0.7933333020975368  0.7933333020975368
  0.0697048925383399  0.7933333020975368  0.7933333020975368
  0.7933333020975368  0.3436275032665961  0.0697048925383399
  0.1250000000000000  0.1250000000000000  0.1250000000000000
  0.6250000000000000  0.1250000000000000  0.1250000000000000
  0.1250000000000000  0.1250000000000000  0.6250000000000000
  0.1250000000000000  0.6250000000000000  0.1250000000000000
  0.6250000000000000  0.6250000000000000  0.6250000000000000
  0.1250000000000000  0.6250000000000000  0.6250000000000000
  0.6250000000000000  0.6250000000000000  0.1250000000000000
  0.6250000000000000  0.1250000000000000  0.6250000000000000

  0.00000000E+00  0.00000000E+00  0.00000000E+00
  0.00000000E+00  0.00000000E+00  0.00000000E+00
  0.00000000E+00  0.00000000E+00  0.00000000E+00
  0.00000000E+00  0.00000000E+00  0.00000000E+00
  0.00000000E+00  0.00000000E+00  0.00000000E+00
  0.00000000E+00  0.00000000E+00  0.00000000E+00
  0.00000000E+00  0.00000000E+00  0.00000000E+00
  0.00000000E+00  0.00000000E+00  0.00000000E+00
  0.00000000E+00  0.00000000E+00  0.00000000E+00
  0.00000000E+00  0.00000000E+00  0.00000000E+00
  0.00000000E+00  0.00000000E+00  0.00000000E+00
  0.00000000E+00  0.00000000E+00  0.00000000E+00
  0.00000000E+00  0.00000000E+00  0.00000000E+00
  0.00000000E+00  0.00000000E+00  0.00000000E+00
  0.00000000E+00  0.00000000E+00  0.00000000E+00
  0.00000000E+00  0.00000000E+00  0.00000000E+00
  0.00000000E+00  0.00000000E+00  0.00000000E+00
  0.00000000E+00  0.00000000E+00  0.00000000E+00
  0.00000000E+00  0.00000000E+00  0.00000000E+00
  0.00000000E+00  0.00000000E+00  0.00000000E+00
  0.00000000E+00  0.00000000E+00  0.00000000E+00
  0.00000000E+00  0.00000000E+00  0.00000000E+00
  0.00000000E+00  0.00000000E+00  0.00000000E+00
  0.00000000E+00  0.00000000E+00  0.00000000E+00
  0.00000000E+00  0.00000000E+00  0.00000000E+00
  0.00000000E+00  0.00000000E+00  0.00000000E+00
  0.00000000E+00  0.00000000E+00  0.00000000E+00
  0.00000000E+00  0.00000000E+00  0.00000000E+00
  0.00000000E+00  0.00000000E+00  0.00000000E+00
  0.00000000E+00  0.00000000E+00  0.00000000E+00
  0.00000000E+00  0.00000000E+00  0.00000000E+00
  0.00000000E+00  0.00000000E+00  0.00000000E+00
  0.00000000E+00  0.00000000E+00  0.00000000E+00
  0.00000000E+00  0.00000000E+00  0.00000000E+00
  0.00000000E+00  0.00000000E+00  0.00000000E+00
  0.00000000E+00  0.00000000E+00  0.00000000E+00
  0.00000000E+00  0.00000000E+00  0.00000000E+00
  0.00000000E+00  0.00000000E+00  0.00000000E+00
  0.00000000E+00  0.00000000E+00  0.00000000E+00
  0.00000000E+00  0.00000000E+00  0.00000000E+00
  0.00000000E+00  0.00000000E+00  0.00000000E+00
  0.00000000E+00  0.00000000E+00  0.00000000E+00
  0.00000000E+00  0.00000000E+00  0.00000000E+00
  0.00000000E+00  0.00000000E+00  0.00000000E+00
