Sr23 Al30                               
   1.00000000000000     
    -0.0000865377725467   -8.2012384285687574    8.4123623049205154
     7.1029063804760835   -4.1008793755939132   -8.4121162756451362
     7.1027714545168683    4.1009013571751103    8.4119834317557185
   Al   Sr
    30    23
Direct
  0.2207804284229624  0.6855740349825439  0.0859429019110252
  0.4789161009352512  0.7715481419504755  0.0797023348452797
  0.7727704045073835  0.8611178818163978  0.0888242141582793
  0.3289059398487382  0.1586981457124139  0.1259728707234729
  0.0888078538175634  0.2272383840764505  0.1389287047001986
  0.8740641735300514  0.3288999875804208  0.1586963184298327
  0.3144455962371566  0.9140803211583162  0.2207510683686138
  0.8611259601232177  0.0887816925687517  0.2272748424478550
  0.0797111710050515  0.5211381080249566  0.2284606654014283
  0.6549596910611797  0.6936921632822433  0.2569075615123495
  0.0859232677379751  0.7793072381490944  0.3144398833236295
  0.2569345013945394  0.3450652414085127  0.3063136561262283
  0.8413095111615831  0.8740519217327218  0.3289187369319819
  0.6937891396528784  0.2568116636949114  0.3450683548028266
  0.2284550555705138  0.9203179272174182  0.4789196557776521
  0.7715498754161132  0.0797360041655111  0.5210866063848556
  0.3063235621013547  0.7431122321499046  0.6549486262908104
  0.1587086179174761  0.1259649515756252  0.6711017984704313
  0.7431557526359711  0.6550021536324380  0.6937701833944487
  0.9140663245588527  0.2207292468352335  0.6855677341184077
  0.3450428179760863  0.3062727025231595  0.7431712312346903
  0.9202911741503286  0.4789150162385738  0.7715459679414920
  0.1389333321027877  0.9112230349453014  0.7727744589811607
  0.6855688575108587  0.0859594304254827  0.7793097948870837
  0.1259784546561420  0.6710787798008582  0.8412958987098094
  0.9112383272963740  0.7727777395710476  0.8611415256853476
  0.6710970891614210  0.8413215287538733  0.8740676396632594
  0.2272830890861641  0.1389156306929777  0.9112398626816258
  0.5210826402698316  0.2284585063056923  0.9202865714286617
  0.7792884078485827  0.3144422952058861  0.9140652078496885
  0.3373015249943236  0.4258322283715898  0.0461619957902641
  0.0786822496958806  0.9213294877674585  0.0786597957251089
  0.9150352799143704  0.6177147217869035  0.0790317610494995
  0.6177318140462873  0.0790213272544733  0.0850013066545756
  0.5814875928958969  0.3838479067297627  0.1816061663029345
  0.3388193981954686  0.6611776051492058  0.3388420076135858
  0.5741569659808974  0.9538300702981033  0.3372984187778698
  0.8183447716053536  0.5813926373840488  0.3839270226497575
  0.0790504185611383  0.0849976434754893  0.3822778608630131
  0.3839392605091660  0.1816876923708222  0.4186364381846701
  0.9539438220291387  0.3373121740656444  0.4258061306775858
  0.4997726527310249  0.5002479326715417  0.4997556864050736
  0.0461468089594277  0.6627592484105733  0.5742050276541306
  0.6161523629849199  0.8184149566116119  0.5814941269330802
  0.9210102384270868  0.9150520851230439  0.6177261559835401
  0.1816043335625963  0.4185398916200569  0.6161505223842596
  0.4258087920248386  0.0461202333549480  0.6627346579764080
  0.6611390597378275  0.3388926290888676  0.6611326327104905
  0.4186115746249470  0.6160798328645924  0.8183399939455498
  0.3822874399292147  0.9209731091846578  0.9150514263555607
  0.0849873635999714  0.3822793792544985  0.9210031346557273
  0.9213402602999636  0.0786470824164027  0.9213494750398112
  0.6627388969958901  0.5742180185685370  0.9539133784850407
 
  0.00000000E+00  0.00000000E+00  0.00000000E+00
  0.00000000E+00  0.00000000E+00  0.00000000E+00
  0.00000000E+00  0.00000000E+00  0.00000000E+00
  0.00000000E+00  0.00000000E+00  0.00000000E+00
  0.00000000E+00  0.00000000E+00  0.00000000E+00
  0.00000000E+00  0.00000000E+00  0.00000000E+00
  0.00000000E+00  0.00000000E+00  0.00000000E+00
  0.00000000E+00  0.00000000E+00  0.00000000E+00
  0.00000000E+00  0.00000000E+00  0.00000000E+00
  0.00000000E+00  0.00000000E+00  0.00000000E+00
  0.00000000E+00  0.00000000E+00  0.00000000E+00
  0.00000000E+00  0.00000000E+00  0.00000000E+00
  0.00000000E+00  0.00000000E+00  0.00000000E+00
  0.00000000E+00  0.00000000E+00  0.00000000E+00
  0.00000000E+00  0.00000000E+00  0.00000000E+00
  0.00000000E+00  0.00000000E+00  0.00000000E+00
  0.00000000E+00  0.00000000E+00  0.00000000E+00
  0.00000000E+00  0.00000000E+00  0.00000000E+00
  0.00000000E+00  0.00000000E+00  0.00000000E+00
  0.00000000E+00  0.00000000E+00  0.00000000E+00
  0.00000000E+00  0.00000000E+00  0.00000000E+00
  0.00000000E+00  0.00000000E+00  0.00000000E+00
  0.00000000E+00  0.00000000E+00  0.00000000E+00
  0.00000000E+00  0.00000000E+00  0.00000000E+00
  0.00000000E+00  0.00000000E+00  0.00000000E+00
  0.00000000E+00  0.00000000E+00  0.00000000E+00
  0.00000000E+00  0.00000000E+00  0.00000000E+00
  0.00000000E+00  0.00000000E+00  0.00000000E+00
  0.00000000E+00  0.00000000E+00  0.00000000E+00
  0.00000000E+00  0.00000000E+00  0.00000000E+00
  0.00000000E+00  0.00000000E+00  0.00000000E+00
  0.00000000E+00  0.00000000E+00  0.00000000E+00
  0.00000000E+00  0.00000000E+00  0.00000000E+00
  0.00000000E+00  0.00000000E+00  0.00000000E+00
  0.00000000E+00  0.00000000E+00  0.00000000E+00
  0.00000000E+00  0.00000000E+00  0.00000000E+00
  0.00000000E+00  0.00000000E+00  0.00000000E+00
  0.00000000E+00  0.00000000E+00  0.00000000E+00
  0.00000000E+00  0.00000000E+00  0.00000000E+00
  0.00000000E+00  0.00000000E+00  0.00000000E+00
  0.00000000E+00  0.00000000E+00  0.00000000E+00
  0.00000000E+00  0.00000000E+00  0.00000000E+00
  0.00000000E+00  0.00000000E+00  0.00000000E+00
  0.00000000E+00  0.00000000E+00  0.00000000E+00
  0.00000000E+00  0.00000000E+00  0.00000000E+00
  0.00000000E+00  0.00000000E+00  0.00000000E+00
  0.00000000E+00  0.00000000E+00  0.00000000E+00
  0.00000000E+00  0.00000000E+00  0.00000000E+00
  0.00000000E+00  0.00000000E+00  0.00000000E+00
  0.00000000E+00  0.00000000E+00  0.00000000E+00
  0.00000000E+00  0.00000000E+00  0.00000000E+00
  0.00000000E+00  0.00000000E+00  0.00000000E+00
  0.00000000E+00  0.00000000E+00  0.00000000E+00
