Mg7 Tl13                                
   1.0000000000000000     
     6.3104357853713466    0.3778547025628357    0.8207226712396348
    -2.8524938925163594    5.1703940910461341   -0.9842718708354867
     2.1228392071929201   -1.6490996919638650   16.7596381030161368
   Tl   Mg
    13     7
Direct
  0.2704666131697664  0.6802064058768309  0.0081202486760290
  0.3218442138398743  0.3124987023044028  0.1098915345045555
  0.2840729120826566  0.8789554677168354  0.2254218769679284
  0.8246617678722004  0.9877565891437499  0.2239245760636095
  0.4345904823632551  0.5075144393746314  0.3209448594752118
  0.0364282317430380  0.6032328178211372  0.5233620753078796
  0.5804252628128168  0.7258788228125397  0.5320696211333384
  0.4354600978316654  0.0969063840989861  0.4322673420188892
  0.5595937842035426  0.2985995116040172  0.6443500824656780
  0.2369650164363364  0.0362371496369676  0.8937763190204677
  0.6806427518475289  0.9347401976120864  0.7423777547119172
  0.7036414168226983  0.5492733154522185  0.8451609304685235
  0.7600790092007017  0.1874082050732895  0.9545454807653115
  0.7996511500951371  0.7892929060694556  0.0367779558566497
  0.8172554713488793  0.4092883748726024  0.1491727737433663
  0.9200912989121406  0.5138885300090692  0.3449242714370229
  0.9443050601793601  0.0690096667540985  0.4034792409090713
  0.0679194523126370  0.1994722643456583  0.6029381318741471
  0.1439958944289614  0.8008777889162459  0.7048170795672419
  0.1779121124967986  0.4189644605051939  0.8020778450331534

  0.00000000E+00  0.00000000E+00  0.00000000E+00
  0.00000000E+00  0.00000000E+00  0.00000000E+00
  0.00000000E+00  0.00000000E+00  0.00000000E+00
  0.00000000E+00  0.00000000E+00  0.00000000E+00
  0.00000000E+00  0.00000000E+00  0.00000000E+00
  0.00000000E+00  0.00000000E+00  0.00000000E+00
  0.00000000E+00  0.00000000E+00  0.00000000E+00
  0.00000000E+00  0.00000000E+00  0.00000000E+00
  0.00000000E+00  0.00000000E+00  0.00000000E+00
  0.00000000E+00  0.00000000E+00  0.00000000E+00
  0.00000000E+00  0.00000000E+00  0.00000000E+00
  0.00000000E+00  0.00000000E+00  0.00000000E+00
  0.00000000E+00  0.00000000E+00  0.00000000E+00
  0.00000000E+00  0.00000000E+00  0.00000000E+00
  0.00000000E+00  0.00000000E+00  0.00000000E+00
  0.00000000E+00  0.00000000E+00  0.00000000E+00
  0.00000000E+00  0.00000000E+00  0.00000000E+00
  0.00000000E+00  0.00000000E+00  0.00000000E+00
  0.00000000E+00  0.00000000E+00  0.00000000E+00
  0.00000000E+00  0.00000000E+00  0.00000000E+00
