Sr41 B67                                
   1.00000000000000     
    12.5434584968773084    0.0000000000000000    0.0000000000000000
     0.0000000000000000   12.5434584968773084    0.0000000000000000
     0.0000000000000000    0.0000000000000000   12.5434584968773084
   Sr   B 
    41    67
Direct
  0.6314179399145985  0.3685820600854015  0.1490343161524450
  0.6314179399145985  0.8509656838475550  0.3685820600854015
  0.1490343161524450  0.6314179399145985  0.6314179399145985
  0.3685820600854015  0.8509656838475550  0.6314179399145985
  0.0000000000000000  0.7525899875089763  0.0000000000000000
  0.8509656838475550  0.6314179399145985  0.6314179399145985
  0.1490343161524450  0.3685820600854015  0.3685820600854015
  0.6314179399145985  0.1490343161524450  0.3685820600854015
  0.8223548657027280  0.1776451342972720  0.1776451342972720
  0.8509656838475550  0.6314179399145985  0.3685820600854015
  0.0000000000000000  0.0000000000000000  0.2474100124910166
  0.6314179399145985  0.6314179399145985  0.1490343161524450
  0.3685820600854015  0.6314179399145985  0.8509656838475550
  0.1776451342972720  0.1776451342972720  0.8223548657027280
  0.6314179399145985  0.3685820600854015  0.8509656838475550
  0.0000000000000000  0.5000000000000000  0.0000000000000000
  0.6314179399145985  0.1490343161524450  0.6314179399145985
  0.1490343161524450  0.6314179399145985  0.3685820600854015
  0.8223548657027280  0.1776451342972720  0.8223548657027280
  0.1490343161524450  0.3685820600854015  0.6314179399145985
  0.1776451342972720  0.1776451342972720  0.1776451342972720
  0.6314179399145985  0.6314179399145985  0.8509656838475550
  0.6314179399145985  0.8509656838475550  0.6314179399145985
  0.8223548657027280  0.8223548657027280  0.1776451342972720
  0.2474100124910166  0.0000000000000000  0.0000000000000000
  0.3685820600854015  0.1490343161524450  0.6314179399145985
  0.8509656838475550  0.3685820600854015  0.6314179399145985
  0.0000000000000000  0.0000000000000000  0.5000000000000000
  0.1776451342972720  0.8223548657027280  0.1776451342972720
  0.3685820600854015  0.6314179399145985  0.1490343161524450
  0.0000000000000000  0.2474100124910166  0.0000000000000000
  0.1776451342972720  0.8223548657027280  0.8223548657027280
  0.7525899875089763  0.0000000000000000  0.0000000000000000
  0.3685820600854015  0.3685820600854015  0.8509656838475550
  0.3685820600854015  0.3685820600854015  0.1490343161524450
  0.3685820600854015  0.1490343161524450  0.3685820600854015
  0.5000000000000000  0.0000000000000000  0.0000000000000000
  0.8509656838475550  0.3685820600854015  0.3685820600854015
  0.3685820600854015  0.8509656838475550  0.3685820600854015
  0.0000000000000000  0.0000000000000000  0.7525899875089763
  0.8223548657027280  0.8223548657027280  0.8223548657027280
  0.5000000000000000  0.3943760731700081  0.3943760731700081
  0.8485804671668618  0.1514195328331382  0.5000000000000000
  0.3943760731700081  0.5000000000000000  0.6056239268299919
  0.7874605380058810  0.0000000000000000  0.5000000000000000
  0.6258897205202203  0.0000000000000000  0.8150522299795924
  0.8150522299795924  0.0000000000000000  0.6258897205202203
  0.5000000000000000  0.0000000000000000  0.2125394619941190
  0.3741102794797797  0.8150522299795924  0.0000000000000000
  0.0000000000000000  0.7874605380058810  0.5000000000000000
  0.2125394619941190  0.0000000000000000  0.5000000000000000
  0.6258897205202203  0.0000000000000000  0.1849477700204076
  0.5000000000000000  0.8485804671668618  0.1514195328331382
  0.7874605380058810  0.5000000000000000  0.0000000000000000
  0.1849477700204076  0.6258897205202203  0.0000000000000000
  0.8485804671668618  0.5000000000000000  0.1514195328331382
  0.2932579623976892  0.5000000000000000  0.5000000000000000
  0.1849477700204076  0.3741102794797797  0.0000000000000000
  0.5000000000000000  0.5000000000000000  0.2932579623976892
  0.5000000000000000  0.8485804671668618  0.8485804671668618
  0.5000000000000000  0.0000000000000000  0.7874605380058810
  0.3943760731700081  0.3943760731700081  0.5000000000000000
  0.5000000000000000  0.1514195328331382  0.1514195328331382
  0.5000000000000000  0.6056239268299919  0.3943760731700081
  0.3741102794797797  0.0000000000000000  0.1849477700204076
  0.1849477700204076  0.0000000000000000  0.6258897205202203
  0.8150522299795924  0.0000000000000000  0.3741102794797797
  0.1514195328331382  0.5000000000000000  0.1514195328331382
  0.0000000000000000  0.1849477700204076  0.6258897205202203
  0.3741102794797797  0.0000000000000000  0.8150522299795924
  0.0000000000000000  0.8150522299795924  0.3741102794797797
  0.1514195328331382  0.1514195328331382  0.5000000000000000
  0.5000000000000000  0.5000000000000000  0.5000000000000000
  0.5000000000000000  0.2125394619941190  0.0000000000000000
  0.5000000000000000  0.6056239268299919  0.6056239268299919
  0.6056239268299919  0.3943760731700081  0.5000000000000000
  0.1849477700204076  0.0000000000000000  0.3741102794797797
  0.6056239268299919  0.5000000000000000  0.6056239268299919
  0.5000000000000000  0.7874605380058810  0.0000000000000000
  0.0000000000000000  0.3741102794797797  0.8150522299795924
  0.0000000000000000  0.6258897205202203  0.8150522299795924
  0.5000000000000000  0.2932579623976892  0.5000000000000000
  0.5000000000000000  0.7067420376023108  0.5000000000000000
  0.8485804671668618  0.8485804671668618  0.5000000000000000
  0.0000000000000000  0.1849477700204076  0.3741102794797797
  0.1514195328331382  0.8485804671668618  0.5000000000000000
  0.0000000000000000  0.3741102794797797  0.1849477700204076
  0.0000000000000000  0.6258897205202203  0.1849477700204076
  0.0000000000000000  0.8150522299795924  0.6258897205202203
  0.3943760731700081  0.6056239268299919  0.5000000000000000
  0.6258897205202203  0.1849477700204076  0.0000000000000000
  0.8150522299795924  0.6258897205202203  0.0000000000000000
  0.2125394619941190  0.5000000000000000  0.0000000000000000
  0.3741102794797797  0.1849477700204076  0.0000000000000000
  0.6258897205202203  0.8150522299795924  0.0000000000000000
  0.8485804671668618  0.5000000000000000  0.8485804671668618
  0.7067420376023108  0.5000000000000000  0.5000000000000000
  0.0000000000000000  0.5000000000000000  0.2125394619941190
  0.5000000000000000  0.1514195328331382  0.8485804671668618
  0.5000000000000000  0.3943760731700081  0.6056239268299919
  0.3943760731700081  0.5000000000000000  0.3943760731700081
  0.0000000000000000  0.2125394619941190  0.5000000000000000
  0.8150522299795924  0.3741102794797797  0.0000000000000000
  0.1514195328331382  0.5000000000000000  0.8485804671668618
  0.6056239268299919  0.5000000000000000  0.3943760731700081
  0.6056239268299919  0.6056239268299919  0.5000000000000000
  0.5000000000000000  0.5000000000000000  0.7067420376023108
  0.0000000000000000  0.5000000000000000  0.7874605380058810
 
  0.00000000E+00  0.00000000E+00  0.00000000E+00
  0.00000000E+00  0.00000000E+00  0.00000000E+00
  0.00000000E+00  0.00000000E+00  0.00000000E+00
  0.00000000E+00  0.00000000E+00  0.00000000E+00
  0.00000000E+00  0.00000000E+00  0.00000000E+00
  0.00000000E+00  0.00000000E+00  0.00000000E+00
  0.00000000E+00  0.00000000E+00  0.00000000E+00
  0.00000000E+00  0.00000000E+00  0.00000000E+00
  0.00000000E+00  0.00000000E+00  0.00000000E+00
  0.00000000E+00  0.00000000E+00  0.00000000E+00
  0.00000000E+00  0.00000000E+00  0.00000000E+00
  0.00000000E+00  0.00000000E+00  0.00000000E+00
  0.00000000E+00  0.00000000E+00  0.00000000E+00
  0.00000000E+00  0.00000000E+00  0.00000000E+00
  0.00000000E+00  0.00000000E+00  0.00000000E+00
  0.00000000E+00  0.00000000E+00  0.00000000E+00
  0.00000000E+00  0.00000000E+00  0.00000000E+00
  0.00000000E+00  0.00000000E+00  0.00000000E+00
  0.00000000E+00  0.00000000E+00  0.00000000E+00
  0.00000000E+00  0.00000000E+00  0.00000000E+00
  0.00000000E+00  0.00000000E+00  0.00000000E+00
  0.00000000E+00  0.00000000E+00  0.00000000E+00
  0.00000000E+00  0.00000000E+00  0.00000000E+00
  0.00000000E+00  0.00000000E+00  0.00000000E+00
  0.00000000E+00  0.00000000E+00  0.00000000E+00
  0.00000000E+00  0.00000000E+00  0.00000000E+00
  0.00000000E+00  0.00000000E+00  0.00000000E+00
  0.00000000E+00  0.00000000E+00  0.00000000E+00
  0.00000000E+00  0.00000000E+00  0.00000000E+00
  0.00000000E+00  0.00000000E+00  0.00000000E+00
  0.00000000E+00  0.00000000E+00  0.00000000E+00
  0.00000000E+00  0.00000000E+00  0.00000000E+00
  0.00000000E+00  0.00000000E+00  0.00000000E+00
  0.00000000E+00  0.00000000E+00  0.00000000E+00
  0.00000000E+00  0.00000000E+00  0.00000000E+00
  0.00000000E+00  0.00000000E+00  0.00000000E+00
  0.00000000E+00  0.00000000E+00  0.00000000E+00
  0.00000000E+00  0.00000000E+00  0.00000000E+00
  0.00000000E+00  0.00000000E+00  0.00000000E+00
  0.00000000E+00  0.00000000E+00  0.00000000E+00
  0.00000000E+00  0.00000000E+00  0.00000000E+00
  0.00000000E+00  0.00000000E+00  0.00000000E+00
  0.00000000E+00  0.00000000E+00  0.00000000E+00
  0.00000000E+00  0.00000000E+00  0.00000000E+00
  0.00000000E+00  0.00000000E+00  0.00000000E+00
  0.00000000E+00  0.00000000E+00  0.00000000E+00
  0.00000000E+00  0.00000000E+00  0.00000000E+00
  0.00000000E+00  0.00000000E+00  0.00000000E+00
  0.00000000E+00  0.00000000E+00  0.00000000E+00
  0.00000000E+00  0.00000000E+00  0.00000000E+00
  0.00000000E+00  0.00000000E+00  0.00000000E+00
  0.00000000E+00  0.00000000E+00  0.00000000E+00
  0.00000000E+00  0.00000000E+00  0.00000000E+00
  0.00000000E+00  0.00000000E+00  0.00000000E+00
  0.00000000E+00  0.00000000E+00  0.00000000E+00
  0.00000000E+00  0.00000000E+00  0.00000000E+00
  0.00000000E+00  0.00000000E+00  0.00000000E+00
  0.00000000E+00  0.00000000E+00  0.00000000E+00
  0.00000000E+00  0.00000000E+00  0.00000000E+00
  0.00000000E+00  0.00000000E+00  0.00000000E+00
  0.00000000E+00  0.00000000E+00  0.00000000E+00
  0.00000000E+00  0.00000000E+00  0.00000000E+00
  0.00000000E+00  0.00000000E+00  0.00000000E+00
  0.00000000E+00  0.00000000E+00  0.00000000E+00
  0.00000000E+00  0.00000000E+00  0.00000000E+00
  0.00000000E+00  0.00000000E+00  0.00000000E+00
  0.00000000E+00  0.00000000E+00  0.00000000E+00
  0.00000000E+00  0.00000000E+00  0.00000000E+00
  0.00000000E+00  0.00000000E+00  0.00000000E+00
  0.00000000E+00  0.00000000E+00  0.00000000E+00
  0.00000000E+00  0.00000000E+00  0.00000000E+00
  0.00000000E+00  0.00000000E+00  0.00000000E+00
  0.00000000E+00  0.00000000E+00  0.00000000E+00
  0.00000000E+00  0.00000000E+00  0.00000000E+00
  0.00000000E+00  0.00000000E+00  0.00000000E+00
  0.00000000E+00  0.00000000E+00  0.00000000E+00
  0.00000000E+00  0.00000000E+00  0.00000000E+00
  0.00000000E+00  0.00000000E+00  0.00000000E+00
  0.00000000E+00  0.00000000E+00  0.00000000E+00
  0.00000000E+00  0.00000000E+00  0.00000000E+00
  0.00000000E+00  0.00000000E+00  0.00000000E+00
  0.00000000E+00  0.00000000E+00  0.00000000E+00
  0.00000000E+00  0.00000000E+00  0.00000000E+00
  0.00000000E+00  0.00000000E+00  0.00000000E+00
  0.00000000E+00  0.00000000E+00  0.00000000E+00
  0.00000000E+00  0.00000000E+00  0.00000000E+00
  0.00000000E+00  0.00000000E+00  0.00000000E+00
  0.00000000E+00  0.00000000E+00  0.00000000E+00
  0.00000000E+00  0.00000000E+00  0.00000000E+00
  0.00000000E+00  0.00000000E+00  0.00000000E+00
  0.00000000E+00  0.00000000E+00  0.00000000E+00
  0.00000000E+00  0.00000000E+00  0.00000000E+00
  0.00000000E+00  0.00000000E+00  0.00000000E+00
  0.00000000E+00  0.00000000E+00  0.00000000E+00
  0.00000000E+00  0.00000000E+00  0.00000000E+00
  0.00000000E+00  0.00000000E+00  0.00000000E+00
  0.00000000E+00  0.00000000E+00  0.00000000E+00
  0.00000000E+00  0.00000000E+00  0.00000000E+00
  0.00000000E+00  0.00000000E+00  0.00000000E+00
  0.00000000E+00  0.00000000E+00  0.00000000E+00
  0.00000000E+00  0.00000000E+00  0.00000000E+00
  0.00000000E+00  0.00000000E+00  0.00000000E+00
  0.00000000E+00  0.00000000E+00  0.00000000E+00
  0.00000000E+00  0.00000000E+00  0.00000000E+00
  0.00000000E+00  0.00000000E+00  0.00000000E+00
  0.00000000E+00  0.00000000E+00  0.00000000E+00
  0.00000000E+00  0.00000000E+00  0.00000000E+00
  0.00000000E+00  0.00000000E+00  0.00000000E+00
