Tl3Cl                                   
   1.0000000000000000     
    -2.3386483220806578    2.3386483220806578    5.7434922964576396
     2.3386483220806578   -2.3386483220806578    5.7434922964576396
     2.3386483220806578    2.3386483220806578   -5.7434922964576396
   Cl   Tl
     1     3
Direct
  0.0000000000000000  0.0000000000000000  0.0000000000000000
  0.7500000000000000  0.2500000000000000  0.5000000000000000
  0.2500000000000000  0.7500000000000000  0.5000000000000000
  0.5000000000000000  0.5000000000000000  0.0000000000000000

  0.00000000E+00  0.00000000E+00  0.00000000E+00
  0.00000000E+00  0.00000000E+00  0.00000000E+00
  0.00000000E+00  0.00000000E+00  0.00000000E+00
  0.00000000E+00  0.00000000E+00  0.00000000E+00
