Sr5 Al1                                 
   1.00000000000000     
     3.5151063046954119    6.0643600682061489    0.0000000000000000
    -3.5151063046954119    6.0643600682061489    0.0000000000000000
     0.0000000000000000    0.0000000000000000    6.3068558513085486
   Al   Sr
     1     5
Direct
  0.0004222959254321  0.9995777040745679  0.0000000000000000
  0.3330587650237078  0.3330610052109648  0.0000000000000000
  0.6669389947890352  0.6669412349762922  0.0000000000000000
  0.6949782732335095  0.0000835063606104  0.5000000000000000
  0.9999164936393896  0.3050217267664905  0.5000000000000000
  0.3046851773889330  0.6953148226110670  0.5000000000000000
 
  0.00000000E+00  0.00000000E+00  0.00000000E+00
  0.00000000E+00  0.00000000E+00  0.00000000E+00
  0.00000000E+00  0.00000000E+00  0.00000000E+00
  0.00000000E+00  0.00000000E+00  0.00000000E+00
  0.00000000E+00  0.00000000E+00  0.00000000E+00
  0.00000000E+00  0.00000000E+00  0.00000000E+00
