Mg4 Al8 Br16                            
   1.00000000000000     
     9.4655079727885987   -0.4690611962715238   -0.0604773049552190
    -0.3907214064194569    7.5886042099855917    0.1495284851987597
    -0.0733431403537990    0.2855878017197481   15.2089421683976997
   Mg   Br   Al
     4    16     8
Direct
  0.7145454396593465  0.2245419621382609  0.0443688746770334
  0.2061075109860298  0.2472883960673329  0.4525279862856664
  0.7909754016912416  0.7519721984617576  0.5471294374277846
  0.2883226459323964  0.7761672253876526  0.9559621150952822
  0.1898219603944682  0.7753049415748023  0.1094820184581593
  0.4519284063239724  0.2527175111042723  0.0430759745329397
  0.7838611133399951  0.9739961880447794  0.1478010935548824
  0.8194819731176040  0.5027185343525602  0.1202653796411823
  0.2820301614303204  0.0148852008302072  0.3501452106404486
  0.3033644969012741  0.5358617524006419  0.3734075535232151
  0.9419792509906699  0.2493371304704368  0.4608833672674209
  0.6785030064900894  0.7713437774153249  0.3962336490205018
  0.3186958242857258  0.2274456384228571  0.6033598722988742
  0.0551098722734764  0.7496729977637671  0.5386920623920659
  0.6936432004710369  0.4633533795670388  0.6262063890688268
  0.7152003117110226  0.9843479076484130  0.6495736842241087
  0.1834158841498947  0.4981026809457205  0.8800464557273671
  0.2190354584659886  0.0268785781280414  0.8525412115495641
  0.5509467309702032  0.7479923979183596  0.9573310964547872
  0.8129591626460027  0.2256912187239024  0.8907654534923921
  0.0595830479498076  0.1730084457351424  0.9752648757133571
  0.5579324102415910  0.6496861482254914  0.1396102367472452
  0.0538621900442422  0.7140900024255927  0.3552554262533931
  0.5608892177502867  0.1683419537024022  0.5229852278911267
  0.4361124727815309  0.8302116272163431  0.4766150921029961
  0.9432974238760394  0.2854487506485128  0.6443267381380622
  0.4450662027959140  0.3510672230064387  0.8608281963443218
  0.9433292223298224  0.8281262316739415  0.0249153214770033
 
  0.00000000E+00  0.00000000E+00  0.00000000E+00
  0.00000000E+00  0.00000000E+00  0.00000000E+00
  0.00000000E+00  0.00000000E+00  0.00000000E+00
  0.00000000E+00  0.00000000E+00  0.00000000E+00
  0.00000000E+00  0.00000000E+00  0.00000000E+00
  0.00000000E+00  0.00000000E+00  0.00000000E+00
  0.00000000E+00  0.00000000E+00  0.00000000E+00
  0.00000000E+00  0.00000000E+00  0.00000000E+00
  0.00000000E+00  0.00000000E+00  0.00000000E+00
  0.00000000E+00  0.00000000E+00  0.00000000E+00
  0.00000000E+00  0.00000000E+00  0.00000000E+00
  0.00000000E+00  0.00000000E+00  0.00000000E+00
  0.00000000E+00  0.00000000E+00  0.00000000E+00
  0.00000000E+00  0.00000000E+00  0.00000000E+00
  0.00000000E+00  0.00000000E+00  0.00000000E+00
  0.00000000E+00  0.00000000E+00  0.00000000E+00
  0.00000000E+00  0.00000000E+00  0.00000000E+00
  0.00000000E+00  0.00000000E+00  0.00000000E+00
  0.00000000E+00  0.00000000E+00  0.00000000E+00
  0.00000000E+00  0.00000000E+00  0.00000000E+00
  0.00000000E+00  0.00000000E+00  0.00000000E+00
  0.00000000E+00  0.00000000E+00  0.00000000E+00
  0.00000000E+00  0.00000000E+00  0.00000000E+00
  0.00000000E+00  0.00000000E+00  0.00000000E+00
  0.00000000E+00  0.00000000E+00  0.00000000E+00
  0.00000000E+00  0.00000000E+00  0.00000000E+00
  0.00000000E+00  0.00000000E+00  0.00000000E+00
  0.00000000E+00  0.00000000E+00  0.00000000E+00
