Mg4 B2 Cl10                             
   1.00000000000000     
     7.9387218538623605    0.9904629102668967    0.5057378290922871
     0.9904629102668968    7.9387218538623596    0.5057378290922874
     4.8159762475512977    4.8159762475512986    8.3098818082561081
   Cl   Mg   B 
    10     4     2
Direct
  0.6288684885678535  0.9870197130098219  0.9963973266696726
  0.9870197130098219  0.6288684885678535  0.9963973266696726
  0.7884502733576397  0.1559720088606582  0.1745460529314968
  0.2660886236618936  0.2660886236618936  0.1742642533516729
  0.4674535777443225  0.4674535777443225  0.4153059860692636
  0.1559720088606582  0.7884502733576397  0.1745460529314968
  0.9913188104183348  0.3422306282197169  0.7001229147789516
  0.3559476474207983  0.3559476474207983  0.7828741528687502
  0.6385095251998933  0.6385095251998933  0.8563016105239711
  0.3422306282197169  0.9913188104183348  0.7001229147789516
  0.1345366280337714  0.1345366280337714  0.0837175972929245
  0.6612686631735158  0.2872692155495855  0.9824660222377304
  0.2872692155495855  0.6612686631735158  0.9824660222377304
  0.9791835159189617  0.9791835159189617  0.8308045518547047
  0.5670060482641119  0.2489766325991312  0.5748336074015086
  0.2489766325991312  0.5670060482641119  0.5748336074015086
 
  0.00000000E+00  0.00000000E+00  0.00000000E+00
  0.00000000E+00  0.00000000E+00  0.00000000E+00
  0.00000000E+00  0.00000000E+00  0.00000000E+00
  0.00000000E+00  0.00000000E+00  0.00000000E+00
  0.00000000E+00  0.00000000E+00  0.00000000E+00
  0.00000000E+00  0.00000000E+00  0.00000000E+00
  0.00000000E+00  0.00000000E+00  0.00000000E+00
  0.00000000E+00  0.00000000E+00  0.00000000E+00
  0.00000000E+00  0.00000000E+00  0.00000000E+00
  0.00000000E+00  0.00000000E+00  0.00000000E+00
  0.00000000E+00  0.00000000E+00  0.00000000E+00
  0.00000000E+00  0.00000000E+00  0.00000000E+00
  0.00000000E+00  0.00000000E+00  0.00000000E+00
  0.00000000E+00  0.00000000E+00  0.00000000E+00
  0.00000000E+00  0.00000000E+00  0.00000000E+00
  0.00000000E+00  0.00000000E+00  0.00000000E+00
