Mg22 Ga14                               
   1.00000000000000     
     0.0000000000000000    7.2268145503533683    7.2268145503533683
     7.2268145503533683    0.0000000000000000    7.2268145503533683
     7.2268145503533683    7.2268145503533683    0.0000000000000000
   Mg   Ga
    22    14
Direct
  0.0000000000000000  0.0000000000000000  0.0000000000000000
  0.5000000000000000  0.5000000000000000  0.5000000000000000
  0.1268810652433459  0.1268810652433459  0.1268810652433459
  0.3806421957300188  0.8731189347566541  0.8731189347566541
  0.8731189347566541  0.3806421957300188  0.8731189347566541
  0.8731189347566541  0.8731189347566541  0.3806421957300188
  0.1268810652433459  0.6193578042699812  0.1268810652433459
  0.1268810652433459  0.1268810652433459  0.6193578042699812
  0.6193578042699812  0.1268810652433459  0.1268810652433459
  0.8731189347566541  0.8731189347566541  0.8731189347566541
  0.5000000000000000  0.8210946715342828  0.5000000000000000
  0.8210946715342828  0.5000000000000000  0.5000000000000000
  0.5000000000000000  0.8210946715342828  0.1789053284657172
  0.1789053284657172  0.5000000000000000  0.8210946715342828
  0.8210946715342828  0.5000000000000000  0.1789053284657172
  0.5000000000000000  0.5000000000000000  0.8210946715342828
  0.1789053284657172  0.8210946715342828  0.5000000000000000
  0.5000000000000000  0.1789053284657172  0.8210946715342828
  0.5000000000000000  0.5000000000000000  0.1789053284657172
  0.8210946715342828  0.1789053284657172  0.5000000000000000
  0.1789053284657172  0.5000000000000000  0.5000000000000000
  0.5000000000000000  0.1789053284657172  0.5000000000000000
  0.2154076574956321  0.7845923425043679  0.2154076574956321
  0.2154076574956321  0.7845923425043679  0.7845923425043679
  0.7845923425043679  0.2154076574956321  0.2154076574956321
  0.7845923425043679  0.7845923425043679  0.2154076574956321
  0.2154076574956321  0.2154076574956321  0.7845923425043679
  0.7845923425043679  0.2154076574956321  0.7845923425043679
  0.3147352486900417  0.3147342486900442  0.3147342486900442
  0.9442037460701300  0.6852657513099558  0.6852657513099558
  0.6852657513099558  0.9442037460701300  0.6852657513099558
  0.6852657513099558  0.6852657513099558  0.9442037460701300
  0.3147342486900442  0.0557962539298700  0.3147342486900442
  0.3147342486900442  0.3147342486900442  0.0557962539298700
  0.0557962539298700  0.3147342486900442  0.3147342486900442
  0.6852657513099558  0.6852657513099558  0.6852647513099583
 
  0.00000000E+00  0.00000000E+00  0.00000000E+00
  0.00000000E+00  0.00000000E+00  0.00000000E+00
  0.00000000E+00  0.00000000E+00  0.00000000E+00
  0.00000000E+00  0.00000000E+00  0.00000000E+00
  0.00000000E+00  0.00000000E+00  0.00000000E+00
  0.00000000E+00  0.00000000E+00  0.00000000E+00
  0.00000000E+00  0.00000000E+00  0.00000000E+00
  0.00000000E+00  0.00000000E+00  0.00000000E+00
  0.00000000E+00  0.00000000E+00  0.00000000E+00
  0.00000000E+00  0.00000000E+00  0.00000000E+00
  0.00000000E+00  0.00000000E+00  0.00000000E+00
  0.00000000E+00  0.00000000E+00  0.00000000E+00
  0.00000000E+00  0.00000000E+00  0.00000000E+00
  0.00000000E+00  0.00000000E+00  0.00000000E+00
  0.00000000E+00  0.00000000E+00  0.00000000E+00
  0.00000000E+00  0.00000000E+00  0.00000000E+00
  0.00000000E+00  0.00000000E+00  0.00000000E+00
  0.00000000E+00  0.00000000E+00  0.00000000E+00
  0.00000000E+00  0.00000000E+00  0.00000000E+00
  0.00000000E+00  0.00000000E+00  0.00000000E+00
  0.00000000E+00  0.00000000E+00  0.00000000E+00
  0.00000000E+00  0.00000000E+00  0.00000000E+00
  0.00000000E+00  0.00000000E+00  0.00000000E+00
  0.00000000E+00  0.00000000E+00  0.00000000E+00
  0.00000000E+00  0.00000000E+00  0.00000000E+00
  0.00000000E+00  0.00000000E+00  0.00000000E+00
  0.00000000E+00  0.00000000E+00  0.00000000E+00
  0.00000000E+00  0.00000000E+00  0.00000000E+00
  0.00000000E+00  0.00000000E+00  0.00000000E+00
  0.00000000E+00  0.00000000E+00  0.00000000E+00
  0.00000000E+00  0.00000000E+00  0.00000000E+00
  0.00000000E+00  0.00000000E+00  0.00000000E+00
  0.00000000E+00  0.00000000E+00  0.00000000E+00
  0.00000000E+00  0.00000000E+00  0.00000000E+00
  0.00000000E+00  0.00000000E+00  0.00000000E+00
  0.00000000E+00  0.00000000E+00  0.00000000E+00
