Ba1 Tl2 I6                              
   1.0000000000000000     
     5.2062919409520223    4.1453153913993255    6.9127558284790762
    -5.2062919409520223    4.1453153913993255    6.9127558284790762
     0.0000000000000000   -3.7578256826198984    5.3358867619277657
   Ba   I    Tl
     1     6     2
Direct
  0.0000000000000000  0.0000000000000000  0.0000000000000000
  0.7695233142833189  0.7695233142833189  0.2321909713809234
  0.7028280435510013  0.2971237742853674  0.2535226745346790
  0.2971237742853674  0.7028280435510013  0.2535226745346790
  0.2304766857166811  0.2304766857166811  0.7678090286190766
  0.7028762257146326  0.2971719564489987  0.7464773254653210
  0.2971719564489987  0.7028762257146326  0.7464773254653210
  0.3281563721278715  0.3281563721278715  0.1674530173860305
  0.6718436278721285  0.6718436278721285  0.8325469826139695

  0.00000000E+00  0.00000000E+00  0.00000000E+00
  0.00000000E+00  0.00000000E+00  0.00000000E+00
  0.00000000E+00  0.00000000E+00  0.00000000E+00
  0.00000000E+00  0.00000000E+00  0.00000000E+00
  0.00000000E+00  0.00000000E+00  0.00000000E+00
  0.00000000E+00  0.00000000E+00  0.00000000E+00
  0.00000000E+00  0.00000000E+00  0.00000000E+00
  0.00000000E+00  0.00000000E+00  0.00000000E+00
  0.00000000E+00  0.00000000E+00  0.00000000E+00
