Sr1                                     
   1.00000000000000     
     3.7888582006439715    0.0000000000000000    0.0000000000000000
     0.0000000000000000    3.7888582006439715    0.0000000000000000
     0.0000000000000000    0.0000000000000000    3.8396919790371462
   Sr
     1
Direct
  0.0000000000000000  0.0000000000000000  0.0000000000000000
 
  0.00000000E+00  0.00000000E+00  0.00000000E+00
