Ba4 Al4 Br20                            
   1.0000000000000000     
    10.9999224050601381    0.0000000000000000    0.0000000000000000
     0.0000000000000000    8.0664809964727162    1.6777635212751598
     0.0000000000000000    6.3546909631606097   12.7804819222056150
   Ba   Al   Br
     4     4    20
Direct
  0.0441920149409896  0.6069016054308420  0.2776716957347531
  0.5441920149409896  0.3930983945691580  0.2223283042652469
  0.9558079850590104  0.3930983945691580  0.7223283042652469
  0.4558079850590104  0.6069016054308420  0.7776716957347531
  0.7798302013880587  0.1329524673071418  0.5478179590572836
  0.2798302013880587  0.8670475326928582  0.9521820409427164
  0.2201697986119413  0.8670475326928582  0.4521820409427164
  0.7201697986119413  0.1329524673071418  0.0478179590572836
  0.5699941964500752  0.2126663697441273  0.5108899141177048
  0.0699941964500752  0.7873336302558727  0.9891100858822952
  0.4300058035499248  0.7873336302558727  0.4891100858822952
  0.9300058035499248  0.2126663697441273  0.0108899141177048
  0.8737987594087073  0.1881590444855732  0.3795122677446727
  0.3737987594087073  0.8118409555144268  0.1204877322553273
  0.1262012405912927  0.8118409555144268  0.6204877322553273
  0.6262012405912927  0.1881590444855732  0.8795122677446727
  0.3715180133689131  0.0056669415569459  0.7665100922104813
  0.8715180133689131  0.9943330584430541  0.7334899077895187
  0.6284819866310869  0.9943330584430541  0.2334899077895187
  0.1284819866310869  0.0056669415569459  0.2665100922104813
  0.7341719611369300  0.7494843227846744  0.6337133456710831
  0.2341719611369300  0.2505156772153256  0.8662866543289169
  0.2658280388630700  0.2505156772153256  0.3662866543289169
  0.7658280388630700  0.7494843227846744  0.1337133456710831
  0.3302348962161119  0.5010522073474988  0.0264023873347696
  0.8302348962161119  0.4989477926525012  0.4735976126652304
  0.6697651037838881  0.4989477926525012  0.9735976126652304
  0.1697651037838881  0.5010522073474988  0.5264023873347696

  0.00000000E+00  0.00000000E+00  0.00000000E+00
  0.00000000E+00  0.00000000E+00  0.00000000E+00
  0.00000000E+00  0.00000000E+00  0.00000000E+00
  0.00000000E+00  0.00000000E+00  0.00000000E+00
  0.00000000E+00  0.00000000E+00  0.00000000E+00
  0.00000000E+00  0.00000000E+00  0.00000000E+00
  0.00000000E+00  0.00000000E+00  0.00000000E+00
  0.00000000E+00  0.00000000E+00  0.00000000E+00
  0.00000000E+00  0.00000000E+00  0.00000000E+00
  0.00000000E+00  0.00000000E+00  0.00000000E+00
  0.00000000E+00  0.00000000E+00  0.00000000E+00
  0.00000000E+00  0.00000000E+00  0.00000000E+00
  0.00000000E+00  0.00000000E+00  0.00000000E+00
  0.00000000E+00  0.00000000E+00  0.00000000E+00
  0.00000000E+00  0.00000000E+00  0.00000000E+00
  0.00000000E+00  0.00000000E+00  0.00000000E+00
  0.00000000E+00  0.00000000E+00  0.00000000E+00
  0.00000000E+00  0.00000000E+00  0.00000000E+00
  0.00000000E+00  0.00000000E+00  0.00000000E+00
  0.00000000E+00  0.00000000E+00  0.00000000E+00
  0.00000000E+00  0.00000000E+00  0.00000000E+00
  0.00000000E+00  0.00000000E+00  0.00000000E+00
  0.00000000E+00  0.00000000E+00  0.00000000E+00
  0.00000000E+00  0.00000000E+00  0.00000000E+00
  0.00000000E+00  0.00000000E+00  0.00000000E+00
  0.00000000E+00  0.00000000E+00  0.00000000E+00
  0.00000000E+00  0.00000000E+00  0.00000000E+00
  0.00000000E+00  0.00000000E+00  0.00000000E+00
