Ba13 B16                                
   1.00000000000000     
    -5.8278258648361421   -5.8278258648361421    5.8278258648361421
    -5.8278258648361421    5.8278258648361421   -5.8278258648361421
     5.8278258648361421   -5.8278258648361421   -5.8278258648361421
   B    Ba
    16    13
Direct
  0.7372435980078436  0.0000000000000000  0.0000000000000000
  0.3873960718950258  0.1011402398517802  0.0000000000000000
  0.1011402398517802  0.3873960718950258  0.0000000000000000
  0.0000000000000000  0.7372435980078436  0.0000000000000000
  0.8988597601482198  0.8988597601482198  0.2862558320432527
  0.3873960718950258  0.0000000000000000  0.1011402398517802
  0.0000000000000000  0.3873960718950258  0.1011402398517802
  0.2627564019921564  0.2627564019921564  0.2627564019921564
  0.1011402398517802  0.0000000000000000  0.3873960718950258
  0.0000000000000000  0.1011402398517802  0.3873960718950258
  0.7137441679567473  0.6126039281049742  0.6126039281049742
  0.6126039281049742  0.7137441679567473  0.6126039281049742
  0.0000000000000000  0.0000000000000000  0.7372435980078436
  0.8988597601482198  0.2862558320432527  0.8988597601482198
  0.2862558320432527  0.8988597601482198  0.8988597601482198
  0.6126039281049742  0.6126039281049742  0.7137441679567473
  0.0000000000000000  0.0000000000000000  0.0000000000000000
  0.7560742025490299  0.5215067594792728  0.0000000000000000
  0.5215067594792728  0.7560742025490299  0.0000000000000000
  0.4784932405207272  0.4784932405207272  0.2345674430697571
  0.7654325569302429  0.2439257974509701  0.2439257974509701
  0.2439257974509701  0.7654325569302429  0.2439257974509701
  0.7560742025490299  0.0000000000000000  0.5215067594792728
  0.0000000000000000  0.7560742025490299  0.5215067594792728
  0.4784932405207272  0.2345674430697571  0.4784932405207272
  0.2345674430697571  0.4784932405207272  0.4784932405207272
  0.5215067594792728  0.0000000000000000  0.7560742025490299
  0.0000000000000000  0.5215067594792728  0.7560742025490299
  0.2439257974509701  0.2439257974509701  0.7654325569302429
 
  0.00000000E+00  0.00000000E+00  0.00000000E+00
  0.00000000E+00  0.00000000E+00  0.00000000E+00
  0.00000000E+00  0.00000000E+00  0.00000000E+00
  0.00000000E+00  0.00000000E+00  0.00000000E+00
  0.00000000E+00  0.00000000E+00  0.00000000E+00
  0.00000000E+00  0.00000000E+00  0.00000000E+00
  0.00000000E+00  0.00000000E+00  0.00000000E+00
  0.00000000E+00  0.00000000E+00  0.00000000E+00
  0.00000000E+00  0.00000000E+00  0.00000000E+00
  0.00000000E+00  0.00000000E+00  0.00000000E+00
  0.00000000E+00  0.00000000E+00  0.00000000E+00
  0.00000000E+00  0.00000000E+00  0.00000000E+00
  0.00000000E+00  0.00000000E+00  0.00000000E+00
  0.00000000E+00  0.00000000E+00  0.00000000E+00
  0.00000000E+00  0.00000000E+00  0.00000000E+00
  0.00000000E+00  0.00000000E+00  0.00000000E+00
  0.00000000E+00  0.00000000E+00  0.00000000E+00
  0.00000000E+00  0.00000000E+00  0.00000000E+00
  0.00000000E+00  0.00000000E+00  0.00000000E+00
  0.00000000E+00  0.00000000E+00  0.00000000E+00
  0.00000000E+00  0.00000000E+00  0.00000000E+00
  0.00000000E+00  0.00000000E+00  0.00000000E+00
  0.00000000E+00  0.00000000E+00  0.00000000E+00
  0.00000000E+00  0.00000000E+00  0.00000000E+00
  0.00000000E+00  0.00000000E+00  0.00000000E+00
  0.00000000E+00  0.00000000E+00  0.00000000E+00
  0.00000000E+00  0.00000000E+00  0.00000000E+00
  0.00000000E+00  0.00000000E+00  0.00000000E+00
  0.00000000E+00  0.00000000E+00  0.00000000E+00
