Be8 Tl10                                
   1.0000000000000000     
     5.9950023884753838    0.5261649148817686    0.3406238268451279
    -2.6047668557471879    5.3591130094070349    0.0651290779337671
     0.6634312555168156    0.5321286312441174   11.4496936776541407
   Tl   Be
    10     8
Direct
  0.2399245371051535  0.5236217536131633  0.8525860672776773
  0.0591149888786475  0.4509955317024605  0.1573024963608063
  0.6292178195313625  0.8098808113565070  0.2730222114930356
  0.3685478159918674  0.1996545409449766  0.3135203886071878
  0.8621501022320928  0.3155799561893460  0.4494324655378108
  0.4318860885625213  0.7092317653047289  0.5531866715666780
  0.4368083117497150  0.0596560646794586  0.9950759774604734
  0.7809667841602064  0.4765990607112229  0.7153728645311475
  0.2585436669525194  0.1513039184451657  0.6070103196010024
  0.7250724397191135  0.6500555626795403  0.9972679618202847
  0.0775173991434457  0.9537760188213298  0.1513135804845263
  0.9987628970551299  0.1300398645361014  0.9964990524589723
  0.9279346214884683  0.8495600460152701  0.4973284821229456
  0.0403261618056376  0.7484271414712751  0.3214994218472782
  0.4651627690957270  0.9700421269217046  0.7664486272226370
  0.8012300398978383  0.9254228896991350  0.6845930924382060
  0.7972695775956566  0.0895819104162001  0.8450132180705623
  0.1000639790348927  0.9870710364924307  0.8240271010987712

  0.00000000E+00  0.00000000E+00  0.00000000E+00
  0.00000000E+00  0.00000000E+00  0.00000000E+00
  0.00000000E+00  0.00000000E+00  0.00000000E+00
  0.00000000E+00  0.00000000E+00  0.00000000E+00
  0.00000000E+00  0.00000000E+00  0.00000000E+00
  0.00000000E+00  0.00000000E+00  0.00000000E+00
  0.00000000E+00  0.00000000E+00  0.00000000E+00
  0.00000000E+00  0.00000000E+00  0.00000000E+00
  0.00000000E+00  0.00000000E+00  0.00000000E+00
  0.00000000E+00  0.00000000E+00  0.00000000E+00
  0.00000000E+00  0.00000000E+00  0.00000000E+00
  0.00000000E+00  0.00000000E+00  0.00000000E+00
  0.00000000E+00  0.00000000E+00  0.00000000E+00
  0.00000000E+00  0.00000000E+00  0.00000000E+00
  0.00000000E+00  0.00000000E+00  0.00000000E+00
  0.00000000E+00  0.00000000E+00  0.00000000E+00
  0.00000000E+00  0.00000000E+00  0.00000000E+00
  0.00000000E+00  0.00000000E+00  0.00000000E+00
