Sr1 Ga2 Br10                            
   1.00000000000000     
     4.2772936345120902    6.3586024670072634    0.4585213335421237
    -4.2772936345120911    6.3586024670072634    0.4585213335421242
    -0.0000000000000004    5.2202646385452853    8.9118849890466727
   Sr   Ga   Br
     1     2    10
Direct
  0.5584261878087560  0.4415738121912440  0.0000000000000000
  0.9922218802490761  0.0194955007560864  0.7266015721563406
  0.9805044992439136  0.0077781197509239  0.2733984278436594
  0.2136765459108361  0.2567104884187472  0.5907507090125250
  0.7432895115812528  0.7863234540891639  0.4092492909874750
  0.8016695556684965  0.7450414584627651  0.9218141534254158
  0.2549585415372349  0.1983304443315035  0.0781858465745842
  0.9169829926760826  0.0830170073239245  0.0000000000000000
  0.0991539239601380  0.9008460760398620  0.5000000000000000
  0.6890784233130205  0.2842794177407271  0.7080425055738715
  0.7157205822592729  0.3109215766869795  0.2919574944261285
  0.3201655415864977  0.7418491857945710  0.7748518320862843
  0.2581508142054290  0.6798344584135023  0.2251481679137157
 
  0.00000000E+00  0.00000000E+00  0.00000000E+00
  0.00000000E+00  0.00000000E+00  0.00000000E+00
  0.00000000E+00  0.00000000E+00  0.00000000E+00
  0.00000000E+00  0.00000000E+00  0.00000000E+00
  0.00000000E+00  0.00000000E+00  0.00000000E+00
  0.00000000E+00  0.00000000E+00  0.00000000E+00
  0.00000000E+00  0.00000000E+00  0.00000000E+00
  0.00000000E+00  0.00000000E+00  0.00000000E+00
  0.00000000E+00  0.00000000E+00  0.00000000E+00
  0.00000000E+00  0.00000000E+00  0.00000000E+00
  0.00000000E+00  0.00000000E+00  0.00000000E+00
  0.00000000E+00  0.00000000E+00  0.00000000E+00
  0.00000000E+00  0.00000000E+00  0.00000000E+00
