SrBr2                                   
   1.00000000000000     
     7.8901554985255213    0.0000000000000000    0.0000000000000000
     0.0000000000000000   11.4954199868117168    0.0000000000000000
     0.0000000000000000    0.0000000000000000    4.8118166034548029
   Br   Sr
     8     4
Direct
  0.1174172769269646  0.1095456413208922  0.2500000000000000
  0.6246333088544489  0.1294857887017216  0.2500000000000000
  0.3825827230730354  0.6095456413208922  0.2500000000000000
  0.8753666911455511  0.6294857887017216  0.2500000000000000
  0.1246333088544489  0.3705142112982784  0.7500000000000000
  0.6174172769269646  0.3904543586791078  0.7500000000000000
  0.3753666911455511  0.8705142112982784  0.7500000000000000
  0.8825827230730354  0.8904543586791078  0.7500000000000000
  0.3657289962215913  0.3323357927808885  0.2500000000000000
  0.1342710037784087  0.8323357927808885  0.2500000000000000
  0.8657289962215913  0.1676642072191115  0.7500000000000000
  0.6342710037784087  0.6676642072191115  0.7500000000000000
 
  0.00000000E+00  0.00000000E+00  0.00000000E+00
  0.00000000E+00  0.00000000E+00  0.00000000E+00
  0.00000000E+00  0.00000000E+00  0.00000000E+00
  0.00000000E+00  0.00000000E+00  0.00000000E+00
  0.00000000E+00  0.00000000E+00  0.00000000E+00
  0.00000000E+00  0.00000000E+00  0.00000000E+00
  0.00000000E+00  0.00000000E+00  0.00000000E+00
  0.00000000E+00  0.00000000E+00  0.00000000E+00
  0.00000000E+00  0.00000000E+00  0.00000000E+00
  0.00000000E+00  0.00000000E+00  0.00000000E+00
  0.00000000E+00  0.00000000E+00  0.00000000E+00
  0.00000000E+00  0.00000000E+00  0.00000000E+00
