Ba28 B11                                
   1.00000000000000     
     5.3038562555817368    0.0000000313853525   -0.4561852304427393
    -0.0779018477200021    7.4596176500341835   -0.9057227993488849
     0.6613641987653393    0.9266268344889319   38.7501580117120668
   Ba   B 
    28    11
Direct
  0.8105596981791621  0.9647421752205574  0.6211193967881599
  0.5861242685082146  0.9854792886513337  0.1722495375744444
  0.7237047906649110  0.3342793154417265  0.4474085813365747
  0.6562355472329244  0.2322086148351374  0.3124710941208377
  0.3231803296067000  0.3388829290647237  0.6463606595987770
  0.8525976036479292  0.5577606446578613  0.7051952073711760
  0.5350537518518692  0.6053378590558509  0.0701065034858033
  0.0000000001807194  0.6001850920126586  0.9999999999866702
  0.6185601210123934  0.6045284302685445  0.2371192414841730
  0.9305899481862099  0.3292601826730248  0.8611808970316162
  0.2601513776711357  0.3124155130750879  0.5203027544192835
  0.2762952091369328  0.8868707341970676  0.5525914186545222
  0.8806971487416106  0.9737089277620399  0.7613932976878957
  0.3437644527670685  0.9197385207350735  0.6875289058729734
  0.4649462484247522  0.5352313556141723  0.9298934965108003
  0.6768196701818638  0.6925222694716737  0.3536393403882414
  0.4138757312289343  0.8132297510637869  0.8277504624528476
  0.1474023964193236  0.8525664372689761  0.2948057926490222
  0.1193028512637682  0.2123156301147233  0.2386067023276226
  0.7926221715742443  0.4976067473493373  0.5852443432698422
  0.3814398790073028  0.3674091888542961  0.7628807585166868
  0.5000000001973532  0.1891993746513165  0.9999999999991971
  0.7398486225964618  0.7921137587527980  0.4796972455730852
  0.9660284094862206  0.9622250666506034  0.9320568186530949
  0.0694100515413254  0.4680792855720455  0.1388191029794044
  0.2073778282485463  0.9123624041091603  0.4147556567441271
  0.1894403016304480  0.3436227783858783  0.3788806032239762
  0.0339715907128735  0.0301692479928803  0.0679431813164229
  0.6911781539595694  0.0763377310612938  0.3823563077407215
  0.1535328605829420  0.4757771842330030  0.3070657210255590
  0.7736270042268032  0.1101340318249626  0.5472550091990414
  0.9678372815820566  0.3438936741666367  0.9356745632742474
  0.3088218459231342  0.6939824233762550  0.6176436922488833
  0.8464671394096044  0.1687104632216148  0.6929342789922970
  0.0321627186200644  0.4082201108128984  0.0643254366916750
  0.6241563093222595  0.9901294053217740  0.2483116190598835
  0.3758436907476295  0.7418177862183768  0.7516883809291599
  0.2263729955675018  0.5628790225197022  0.4527449908258916
  0.5000000001572076  0.7980656437411113  0.9999999999953673
 
  0.00000000E+00  0.00000000E+00  0.00000000E+00
  0.00000000E+00  0.00000000E+00  0.00000000E+00
  0.00000000E+00  0.00000000E+00  0.00000000E+00
  0.00000000E+00  0.00000000E+00  0.00000000E+00
  0.00000000E+00  0.00000000E+00  0.00000000E+00
  0.00000000E+00  0.00000000E+00  0.00000000E+00
  0.00000000E+00  0.00000000E+00  0.00000000E+00
  0.00000000E+00  0.00000000E+00  0.00000000E+00
  0.00000000E+00  0.00000000E+00  0.00000000E+00
  0.00000000E+00  0.00000000E+00  0.00000000E+00
  0.00000000E+00  0.00000000E+00  0.00000000E+00
  0.00000000E+00  0.00000000E+00  0.00000000E+00
  0.00000000E+00  0.00000000E+00  0.00000000E+00
  0.00000000E+00  0.00000000E+00  0.00000000E+00
  0.00000000E+00  0.00000000E+00  0.00000000E+00
  0.00000000E+00  0.00000000E+00  0.00000000E+00
  0.00000000E+00  0.00000000E+00  0.00000000E+00
  0.00000000E+00  0.00000000E+00  0.00000000E+00
  0.00000000E+00  0.00000000E+00  0.00000000E+00
  0.00000000E+00  0.00000000E+00  0.00000000E+00
  0.00000000E+00  0.00000000E+00  0.00000000E+00
  0.00000000E+00  0.00000000E+00  0.00000000E+00
  0.00000000E+00  0.00000000E+00  0.00000000E+00
  0.00000000E+00  0.00000000E+00  0.00000000E+00
  0.00000000E+00  0.00000000E+00  0.00000000E+00
  0.00000000E+00  0.00000000E+00  0.00000000E+00
  0.00000000E+00  0.00000000E+00  0.00000000E+00
  0.00000000E+00  0.00000000E+00  0.00000000E+00
  0.00000000E+00  0.00000000E+00  0.00000000E+00
  0.00000000E+00  0.00000000E+00  0.00000000E+00
  0.00000000E+00  0.00000000E+00  0.00000000E+00
  0.00000000E+00  0.00000000E+00  0.00000000E+00
  0.00000000E+00  0.00000000E+00  0.00000000E+00
  0.00000000E+00  0.00000000E+00  0.00000000E+00
  0.00000000E+00  0.00000000E+00  0.00000000E+00
  0.00000000E+00  0.00000000E+00  0.00000000E+00
  0.00000000E+00  0.00000000E+00  0.00000000E+00
  0.00000000E+00  0.00000000E+00  0.00000000E+00
  0.00000000E+00  0.00000000E+00  0.00000000E+00
