Sr10 Al4 Br32                           
   1.00000000000000     
     4.9523451118724218   -8.1115431103780171    0.0000000000000000
     4.9523451118724218    8.1115431103780171    0.0000000000000000
     0.0000000000000000    0.0000000000000000   18.3578824219919063
   Sr   Al   Br
    10     4    32
Direct
  0.0000000000000000  0.0000000000000000  0.7182809144553346
  0.0000000000000000  0.0000000000000000  0.2817190855446654
  0.5000000000000000  0.5000000000000000  0.7817190855446654
  0.5000000000000000  0.5000000000000000  0.2182809144553346
  0.5000000000000000  0.5000000000000000  0.5000000000000000
  0.0000000000000000  0.0000000000000000  0.0000000000000000
  0.0000000000000000  0.5000000000000000  0.6377241944598069
  0.5000000000000000  0.0000000000000000  0.3622758055401931
  0.5000000000000000  0.0000000000000000  0.8622758055401931
  0.0000000000000000  0.5000000000000000  0.1377241944598069
  0.5000000000000000  0.0000000000000000  0.6157751106186922
  0.0000000000000000  0.5000000000000000  0.3842248893813078
  0.0000000000000000  0.5000000000000000  0.8842248893813078
  0.5000000000000000  0.0000000000000000  0.1157751106186922
  0.5342863807299238  0.1938381009247010  0.7121150874684901
  0.4657136192700762  0.8061618990752990  0.7121150874684901
  0.1938381009247010  0.5342863807299238  0.2878849125315099
  0.8061618990752990  0.4657136192700762  0.2878849125315099
  0.9657136192700762  0.3061618990752990  0.7878849125315099
  0.0342863807299238  0.6938381009247010  0.7878849125315099
  0.3061618990752990  0.9657136192700762  0.2121150874684901
  0.6938381009247010  0.0342863807299238  0.2121150874684901
  0.1870061591061756  0.8750042914824263  0.6127898878592859
  0.8129938408938244  0.1249957085175666  0.6127898878592859
  0.8750042914824263  0.1870061591061756  0.3872101121407141
  0.1249957085175666  0.8129938408938244  0.3872101121407141
  0.3129938408938244  0.6249957085175737  0.8872101121407141
  0.6870061591061756  0.3750042914824334  0.8872101121407141
  0.6676326811443332  0.9840952480010969  0.0161017864644961
  0.3323673188556668  0.0159047519989031  0.0161017864644961
  0.9840952480010969  0.6676326811443332  0.9838982135355039
  0.0159047519989031  0.3323673188556668  0.9838982135355039
  0.8323673188556668  0.5159047519988960  0.4838982135355039
  0.1676326811443332  0.4840952480010969  0.4838982135355039
  0.5159047519988960  0.8323673188556668  0.5161017864644961
  0.4840952480010969  0.1676326811443332  0.5161017864644961
  0.8637535190656322  0.7648262265524011  0.1498734188682178
  0.1362464809343678  0.2351737734475989  0.1498734188682178
  0.7648262265524011  0.8637535190656322  0.8501265811317822
  0.2351737734475989  0.1362464809343678  0.8501265811317822
  0.6362464809343678  0.7351737734475989  0.3501265811317822
  0.3637535190656322  0.2648262265524011  0.3501265811317822
  0.7351737734475989  0.6362464809343678  0.6498734188682178
  0.2648262265524011  0.3637535190656322  0.6498734188682178
  0.3750042914824334  0.6870061591061756  0.1127898878592859
  0.6249957085175737  0.3129938408938244  0.1127898878592859
 
  0.00000000E+00  0.00000000E+00  0.00000000E+00
  0.00000000E+00  0.00000000E+00  0.00000000E+00
  0.00000000E+00  0.00000000E+00  0.00000000E+00
  0.00000000E+00  0.00000000E+00  0.00000000E+00
  0.00000000E+00  0.00000000E+00  0.00000000E+00
  0.00000000E+00  0.00000000E+00  0.00000000E+00
  0.00000000E+00  0.00000000E+00  0.00000000E+00
  0.00000000E+00  0.00000000E+00  0.00000000E+00
  0.00000000E+00  0.00000000E+00  0.00000000E+00
  0.00000000E+00  0.00000000E+00  0.00000000E+00
  0.00000000E+00  0.00000000E+00  0.00000000E+00
  0.00000000E+00  0.00000000E+00  0.00000000E+00
  0.00000000E+00  0.00000000E+00  0.00000000E+00
  0.00000000E+00  0.00000000E+00  0.00000000E+00
  0.00000000E+00  0.00000000E+00  0.00000000E+00
  0.00000000E+00  0.00000000E+00  0.00000000E+00
  0.00000000E+00  0.00000000E+00  0.00000000E+00
  0.00000000E+00  0.00000000E+00  0.00000000E+00
  0.00000000E+00  0.00000000E+00  0.00000000E+00
  0.00000000E+00  0.00000000E+00  0.00000000E+00
  0.00000000E+00  0.00000000E+00  0.00000000E+00
  0.00000000E+00  0.00000000E+00  0.00000000E+00
  0.00000000E+00  0.00000000E+00  0.00000000E+00
  0.00000000E+00  0.00000000E+00  0.00000000E+00
  0.00000000E+00  0.00000000E+00  0.00000000E+00
  0.00000000E+00  0.00000000E+00  0.00000000E+00
  0.00000000E+00  0.00000000E+00  0.00000000E+00
  0.00000000E+00  0.00000000E+00  0.00000000E+00
  0.00000000E+00  0.00000000E+00  0.00000000E+00
  0.00000000E+00  0.00000000E+00  0.00000000E+00
  0.00000000E+00  0.00000000E+00  0.00000000E+00
  0.00000000E+00  0.00000000E+00  0.00000000E+00
  0.00000000E+00  0.00000000E+00  0.00000000E+00
  0.00000000E+00  0.00000000E+00  0.00000000E+00
  0.00000000E+00  0.00000000E+00  0.00000000E+00
  0.00000000E+00  0.00000000E+00  0.00000000E+00
  0.00000000E+00  0.00000000E+00  0.00000000E+00
  0.00000000E+00  0.00000000E+00  0.00000000E+00
  0.00000000E+00  0.00000000E+00  0.00000000E+00
  0.00000000E+00  0.00000000E+00  0.00000000E+00
  0.00000000E+00  0.00000000E+00  0.00000000E+00
  0.00000000E+00  0.00000000E+00  0.00000000E+00
  0.00000000E+00  0.00000000E+00  0.00000000E+00
  0.00000000E+00  0.00000000E+00  0.00000000E+00
  0.00000000E+00  0.00000000E+00  0.00000000E+00
  0.00000000E+00  0.00000000E+00  0.00000000E+00
