Mg4 B4 Cl2                              
   1.00000000000000     
     3.2406891604830692    0.0000070637300073    0.0000036462453507
    -1.6203380726245364    2.8065217607876325   -0.0000039930263647
     0.0000006575341732   -0.0000024002223007   14.2213321364213243
   B    Cl   Mg
     4     2     4
Direct
  0.3333256071618749  0.6666735711333089  0.0031055642281075
  0.3333258724849486  0.6666747409469451  0.4969581402015635
  0.6666748989639260  0.3333262627023856  0.5030515735811818
  0.6666746968487800  0.3333250299384147  0.9969993517547877
  0.6669095479835718  0.3330909628190639  0.2500307755173452
  0.3330891207345417  0.6669097507949502  0.7500186527982748
  0.0000206631887849  0.9999774924398466  0.1090996597321592
  0.0000216336941392  0.9999769960380220  0.3909692888828289
  0.9999784187197847  0.0000238788489142  0.6090541848211686
  0.9999795402196412  0.0000213143381487  0.8909928084826007
 
  0.00000000E+00  0.00000000E+00  0.00000000E+00
  0.00000000E+00  0.00000000E+00  0.00000000E+00
  0.00000000E+00  0.00000000E+00  0.00000000E+00
  0.00000000E+00  0.00000000E+00  0.00000000E+00
  0.00000000E+00  0.00000000E+00  0.00000000E+00
  0.00000000E+00  0.00000000E+00  0.00000000E+00
  0.00000000E+00  0.00000000E+00  0.00000000E+00
  0.00000000E+00  0.00000000E+00  0.00000000E+00
  0.00000000E+00  0.00000000E+00  0.00000000E+00
  0.00000000E+00  0.00000000E+00  0.00000000E+00
