Be1 In2 F8                              
   1.00000000000000     
     4.4422970872168062   -3.2728677841225622    0.1318789635267716
     4.4422970872168062    3.2728677841225613    0.1318789635267716
    -1.1394537281366399    0.0000000000000000    4.1376339591978777
   In   Be   F 
     2     1     8
Direct
  0.3308600580602956  0.3308600580602956  0.1429122715246294
  0.6691399419397044  0.6691399419397044  0.8570877284753706
  0.0000000000000000  0.0000000000000000  0.0000000000000000
  0.5879304287749534  0.5879304287749534  0.3001331916996151
  0.6937612667406725  0.0695197306580653  0.1588101427837358
  0.0695197306580653  0.6937612667406725  0.1588101427837358
  0.1349140411760246  0.1349140411760246  0.3241007877327675
  0.8650859588239754  0.8650859588239754  0.6758992122672325
  0.9304802693419347  0.3062387332593275  0.8411898572162642
  0.3062387332593275  0.9304802693419347  0.8411898572162642
  0.4120695712250466  0.4120695712250466  0.6998668083003849
 
  0.00000000E+00  0.00000000E+00  0.00000000E+00
  0.00000000E+00  0.00000000E+00  0.00000000E+00
  0.00000000E+00  0.00000000E+00  0.00000000E+00
  0.00000000E+00  0.00000000E+00  0.00000000E+00
  0.00000000E+00  0.00000000E+00  0.00000000E+00
  0.00000000E+00  0.00000000E+00  0.00000000E+00
  0.00000000E+00  0.00000000E+00  0.00000000E+00
  0.00000000E+00  0.00000000E+00  0.00000000E+00
  0.00000000E+00  0.00000000E+00  0.00000000E+00
  0.00000000E+00  0.00000000E+00  0.00000000E+00
  0.00000000E+00  0.00000000E+00  0.00000000E+00
