Ba2I                                    
   1.00000000000000     
     8.4137655860343976    0.0000000000000000    0.0000000000000000
     0.0000000000000000    8.4137655860343976    0.0000000000000000
     0.0000000000000000    0.0000000000000000    4.8981362368302390
   Ba   I 
     4     2
Direct
  0.2870673411552005  0.2870673411552005  0.0000000000000000
  0.7129326588447995  0.7129326588447995  0.0000000000000000
  0.7870673411552005  0.2129326588447995  0.5000000000000000
  0.2129326588447995  0.7870673411552005  0.5000000000000000
  0.0000000000000000  0.0000000000000000  0.0000000000000000
  0.5000000000000000  0.5000000000000000  0.5000000000000000
 
  0.00000000E+00  0.00000000E+00  0.00000000E+00
  0.00000000E+00  0.00000000E+00  0.00000000E+00
  0.00000000E+00  0.00000000E+00  0.00000000E+00
  0.00000000E+00  0.00000000E+00  0.00000000E+00
  0.00000000E+00  0.00000000E+00  0.00000000E+00
  0.00000000E+00  0.00000000E+00  0.00000000E+00
