BeGa                                    
   1.00000000000000     
     1.4064058774009471    0.8130253973971736    3.8221249135904731
    -1.4064058774009471    0.8130253973971736    3.8221249135904731
     0.0000000000000000   -1.6252369323763913    3.8221641732168106
   Be   Ga
     1     1
Direct
  0.0000000000000000  0.0000000000000000  0.0000000000000000
  0.5000000000000000  0.5000000000000000  0.5000000000000000
 
  0.00000000E+00  0.00000000E+00  0.00000000E+00
  0.00000000E+00  0.00000000E+00  0.00000000E+00
