Sr1 Al3 Br6                             
   1.00000000000000     
     7.9037846371496059   -0.0002882699230241   -0.0002205637454331
    -0.0002882699230241    7.9037846371496050   -0.0002205637454331
     3.9515908832764826    3.9515908832764826    5.5888597265831459
   Br   Sr   Al
     6     1     3
Direct
  0.7325987415648711  0.2674012584351289  0.0000000000000000
  0.2673514926600618  0.2673514926600618  0.0000284734125842
  0.2674012584351289  0.7325987415648711  0.0000000000000000
  0.7326485073399311  0.7326485073399311  0.9999715265874158
  0.7325257580481122  0.7325257580481122  0.5348084817241627
  0.2674742419518878  0.2674742419518878  0.4651915182758373
  0.0000000000000000  0.0000000000000000  0.0000000000000000
  0.5000000000000000  0.5000000000000000  0.0000000000000000
  0.2499964680455307  0.7500035319544693  0.5000000000000000
  0.7500035319544693  0.2499964680455307  0.5000000000000000
 
  0.00000000E+00  0.00000000E+00  0.00000000E+00
  0.00000000E+00  0.00000000E+00  0.00000000E+00
  0.00000000E+00  0.00000000E+00  0.00000000E+00
  0.00000000E+00  0.00000000E+00  0.00000000E+00
  0.00000000E+00  0.00000000E+00  0.00000000E+00
  0.00000000E+00  0.00000000E+00  0.00000000E+00
  0.00000000E+00  0.00000000E+00  0.00000000E+00
  0.00000000E+00  0.00000000E+00  0.00000000E+00
  0.00000000E+00  0.00000000E+00  0.00000000E+00
  0.00000000E+00  0.00000000E+00  0.00000000E+00
