Al2Br3                                  
   1.00000000000000     
    -8.4666567927337919   -1.6186959356379489    0.7278627429093613
     2.9882258096424277   -5.1144013855512727    2.8362981933631852
    -4.8176456743710112   -1.9982914740773245    8.9878993023415124
   Al   Br
     4     6
Direct
  0.5633581937186776  0.3644692987921303  0.1217459460425090
  0.8584394477041073  0.0234423511612434  0.3693046598921441
  0.5643167364803219  0.9574140362984664  0.3334642248511486
  0.2944918770213079  0.6326603158852890  0.8782506796865448
  0.0653353316968435  0.5343555974781964  0.1905912237725786
  0.1069767953842131  0.9406577453031133  0.3849303812001992
  0.4573475948635064  0.5472728910764673  0.3635879971803817
  0.2502612461894245  0.2496639037459190  0.9218675810300709
  0.6516351891705838  0.9763541236372006  0.7107128446185627
  0.1880375877710350  0.7739097366219738  0.7255444617258604
 
  0.00000000E+00  0.00000000E+00  0.00000000E+00
  0.00000000E+00  0.00000000E+00  0.00000000E+00
  0.00000000E+00  0.00000000E+00  0.00000000E+00
  0.00000000E+00  0.00000000E+00  0.00000000E+00
  0.00000000E+00  0.00000000E+00  0.00000000E+00
  0.00000000E+00  0.00000000E+00  0.00000000E+00
  0.00000000E+00  0.00000000E+00  0.00000000E+00
  0.00000000E+00  0.00000000E+00  0.00000000E+00
  0.00000000E+00  0.00000000E+00  0.00000000E+00
  0.00000000E+00  0.00000000E+00  0.00000000E+00
