Ba2 Ga2 Br10                            
   1.0000000000000000     
     5.5322587362440974   -0.0000000000000001    0.0000000000000003
    -0.0000000000000012   11.5809386669481444    0.0000000000000008
     0.0000000000000003    0.0000000000000003    9.8122101277836027
   Ba   Ga   Br
     2     2    10
Direct
  0.0000000000000000  0.0000000000000000  0.5000000000000000
  0.5000000000000000  0.5000000000000000  0.0000000000000000
  0.5000000000000000  0.0000000000000000  0.0000000000000000
  0.0000000000000000  0.5000000000000000  0.5000000000000000
  0.5000000000000000  0.7229903646409355  0.5000000000000000
  0.5000000000000000  0.2770096353590645  0.5000000000000000
  0.5000000000000000  0.0000000000000000  0.3096760721451659
  0.5000000000000000  0.0000000000000000  0.6903239278548341
  0.0000000000000000  0.0000000000000000  0.0000000000000000
  0.0000000000000000  0.2229903646409355  0.0000000000000000
  0.0000000000000000  0.7770096353590645  0.0000000000000000
  0.0000000000000000  0.5000000000000000  0.8096760721451659
  0.0000000000000000  0.5000000000000000  0.1903239278548341
  0.5000000000000000  0.5000000000000000  0.5000000000000000

  0.00000000E+00  0.00000000E+00  0.00000000E+00
  0.00000000E+00  0.00000000E+00  0.00000000E+00
  0.00000000E+00  0.00000000E+00  0.00000000E+00
  0.00000000E+00  0.00000000E+00  0.00000000E+00
  0.00000000E+00  0.00000000E+00  0.00000000E+00
  0.00000000E+00  0.00000000E+00  0.00000000E+00
  0.00000000E+00  0.00000000E+00  0.00000000E+00
  0.00000000E+00  0.00000000E+00  0.00000000E+00
  0.00000000E+00  0.00000000E+00  0.00000000E+00
  0.00000000E+00  0.00000000E+00  0.00000000E+00
  0.00000000E+00  0.00000000E+00  0.00000000E+00
  0.00000000E+00  0.00000000E+00  0.00000000E+00
  0.00000000E+00  0.00000000E+00  0.00000000E+00
  0.00000000E+00  0.00000000E+00  0.00000000E+00
