Mg1                                     
   1.00000000000000     
    -1.8081472983246303    1.8081472983246303    1.7359809070930177
     1.8081472983246303   -1.8081472983246303    1.7359809070930174
     1.8081472983246303    1.8081472983246303   -1.7359809070930174
   Mg
     1
Direct
  0.0000000000000000  0.0000000000000000  0.0000000000000000
 
  0.00000000E+00  0.00000000E+00  0.00000000E+00
