In2Cl                                   
   1.00000000000000     
     4.8876021232294473    2.8221265656167098    7.9826035520025167
    -4.8876021232294473    2.8221265656167098    7.9826035520025167
     0.0000000000000000   -5.6433977829498811    7.9823011656581171
   Cl   In
     2     4
Direct
  0.2499993506877942  0.2499993506877942  0.2499972783072906
  0.5000006493122058  0.5000006493122058  0.5000027216927094
  0.3750000000000000  0.8750000000000000  0.3750000000000000
  0.3750000000000000  0.3750000000000000  0.3750000000000000
  0.8750000000000000  0.3750000000000000  0.3750000000000000
  0.3750000000000000  0.3750000000000000  0.8750000000000000
 
  0.00000000E+00  0.00000000E+00  0.00000000E+00
  0.00000000E+00  0.00000000E+00  0.00000000E+00
  0.00000000E+00  0.00000000E+00  0.00000000E+00
  0.00000000E+00  0.00000000E+00  0.00000000E+00
  0.00000000E+00  0.00000000E+00  0.00000000E+00
  0.00000000E+00  0.00000000E+00  0.00000000E+00
