Ca10 In4 Cl32                           
   1.0000000000000000     
     6.5146084073923110   -6.1594124575296085    0.0000000000000000
     6.5146084073923110    6.1594124575296085    0.0000000000000000
     0.0000000000000000    0.0000000000000000   16.9673888166125764
   Ca   In   Cl
    10     4    32
Direct
  0.0000000000000000  0.0000000000000000  0.7495611532366695
  0.0000000000000000  0.0000000000000000  0.2504388467633305
  0.5000000000000000  0.5000000000000000  0.7504388467633305
  0.5000000000000000  0.5000000000000000  0.2495611532366695
  0.5000000000000000  0.5000000000000000  0.5000000000000000
  0.0000000000000000  0.0000000000000000  0.0000000000000000
  0.0000000000000000  0.5000000000000000  0.5996460943050650
  0.5000000000000000  0.0000000000000000  0.4003539056949350
  0.5000000000000000  0.0000000000000000  0.9003539056949350
  0.0000000000000000  0.5000000000000000  0.0996460943050650
  0.5000000000000000  0.0000000000000000  0.6520702165211034
  0.0000000000000000  0.5000000000000000  0.3479297834788966
  0.0000000000000000  0.5000000000000000  0.8479297834788966
  0.5000000000000000  0.0000000000000000  0.1520702165211034
  0.4595883362736330  0.1906695129818985  0.7670432282954067
  0.5404116637263670  0.8093304870181015  0.7670432282954067
  0.1906695129818985  0.4595883362736330  0.2329567717045933
  0.8093304870181015  0.5404116637263670  0.2329567717045933
  0.0404116637263741  0.3093304870181015  0.7329567717045933
  0.9595883362736259  0.6906695129818985  0.7329567717045933
  0.3093304870181015  0.0404116637263741  0.2670432282954067
  0.6906695129818985  0.9595883362736259  0.2670432282954067
  0.2244952587212197  0.9580180786247965  0.6422149662107302
  0.7755047412787803  0.0419819213752035  0.6422149662107302
  0.9580180786247965  0.2244952587212197  0.3577850337892698
  0.0419819213752035  0.7755047412787803  0.3577850337892698
  0.2755047412787803  0.5419819213752035  0.8577850337892698
  0.7244952587212197  0.4580180786247965  0.8577850337892698
  0.6827443286677095  0.9500379498300902  0.0380780770645686
  0.3172556713322976  0.0499620501699098  0.0380780770645686
  0.9500379498300902  0.6827443286677095  0.9619219229354314
  0.0499620501699098  0.3172556713322976  0.9619219229354314
  0.8172556713322905  0.5499620501699098  0.4619219229354314
  0.1827443286677095  0.4500379498300973  0.4619219229354314
  0.5499620501699027  0.8172556713322905  0.5380780770645686
  0.4500379498300973  0.1827443286677095  0.5380780770645686
  0.0452815281432706  0.8034344025071150  0.1307569049965736
  0.9547184718567294  0.1965655974928850  0.1307569049965736
  0.8034344025071150  0.0452815281432706  0.8692430950034264
  0.1965655974928850  0.9547184718567294  0.8692430950034264
  0.4547184718567294  0.6965655974928850  0.3692430950034264
  0.5452815281432706  0.3034344025071150  0.3692430950034264
  0.6965655974928850  0.4547184718567294  0.6307569049965736
  0.3034344025071150  0.5452815281432706  0.6307569049965736
  0.4580180786247965  0.7244952587212197  0.1422149662107302
  0.5419819213752035  0.2755047412787803  0.1422149662107302

  0.00000000E+00  0.00000000E+00  0.00000000E+00
  0.00000000E+00  0.00000000E+00  0.00000000E+00
  0.00000000E+00  0.00000000E+00  0.00000000E+00
  0.00000000E+00  0.00000000E+00  0.00000000E+00
  0.00000000E+00  0.00000000E+00  0.00000000E+00
  0.00000000E+00  0.00000000E+00  0.00000000E+00
  0.00000000E+00  0.00000000E+00  0.00000000E+00
  0.00000000E+00  0.00000000E+00  0.00000000E+00
  0.00000000E+00  0.00000000E+00  0.00000000E+00
  0.00000000E+00  0.00000000E+00  0.00000000E+00
  0.00000000E+00  0.00000000E+00  0.00000000E+00
  0.00000000E+00  0.00000000E+00  0.00000000E+00
  0.00000000E+00  0.00000000E+00  0.00000000E+00
  0.00000000E+00  0.00000000E+00  0.00000000E+00
  0.00000000E+00  0.00000000E+00  0.00000000E+00
  0.00000000E+00  0.00000000E+00  0.00000000E+00
  0.00000000E+00  0.00000000E+00  0.00000000E+00
  0.00000000E+00  0.00000000E+00  0.00000000E+00
  0.00000000E+00  0.00000000E+00  0.00000000E+00
  0.00000000E+00  0.00000000E+00  0.00000000E+00
  0.00000000E+00  0.00000000E+00  0.00000000E+00
  0.00000000E+00  0.00000000E+00  0.00000000E+00
  0.00000000E+00  0.00000000E+00  0.00000000E+00
  0.00000000E+00  0.00000000E+00  0.00000000E+00
  0.00000000E+00  0.00000000E+00  0.00000000E+00
  0.00000000E+00  0.00000000E+00  0.00000000E+00
  0.00000000E+00  0.00000000E+00  0.00000000E+00
  0.00000000E+00  0.00000000E+00  0.00000000E+00
  0.00000000E+00  0.00000000E+00  0.00000000E+00
  0.00000000E+00  0.00000000E+00  0.00000000E+00
  0.00000000E+00  0.00000000E+00  0.00000000E+00
  0.00000000E+00  0.00000000E+00  0.00000000E+00
  0.00000000E+00  0.00000000E+00  0.00000000E+00
  0.00000000E+00  0.00000000E+00  0.00000000E+00
  0.00000000E+00  0.00000000E+00  0.00000000E+00
  0.00000000E+00  0.00000000E+00  0.00000000E+00
  0.00000000E+00  0.00000000E+00  0.00000000E+00
  0.00000000E+00  0.00000000E+00  0.00000000E+00
  0.00000000E+00  0.00000000E+00  0.00000000E+00
  0.00000000E+00  0.00000000E+00  0.00000000E+00
  0.00000000E+00  0.00000000E+00  0.00000000E+00
  0.00000000E+00  0.00000000E+00  0.00000000E+00
  0.00000000E+00  0.00000000E+00  0.00000000E+00
  0.00000000E+00  0.00000000E+00  0.00000000E+00
  0.00000000E+00  0.00000000E+00  0.00000000E+00
  0.00000000E+00  0.00000000E+00  0.00000000E+00
