Ba4 B4 Br2                              
   1.00000000000000     
     4.5587123971552854   -0.6820957461714664   -0.0017116752872372
    -2.8779861835276797    3.5859322611655973    0.0017684438312619
     0.0050996850059981   -0.0020962967774357   17.4749571175021927
   Ba   B    Br
     4     4     2
Direct
  0.0078550713728518  0.9985768307333700  0.1108824428703201
  0.0077218942886290  0.9986139500913538  0.3891425834293045
  0.9922024983959190  0.0012985681163329  0.6108635635923463
  0.9922435819466600  0.0015181849601262  0.8891701920084429
  0.2672609358092046  0.7338174123089800  0.9989378537674654
  0.2672063818764272  0.7337564641459480  0.5010810453787755
  0.7326846754398204  0.2660822102858234  0.4988710231981486
  0.7328651280898413  0.2662706198555114  0.0011594703021984
  0.7102220676527580  0.2927488805042202  0.2500313716955418
  0.2897377651278958  0.7073168789983342  0.7500204537574575
 
  0.00000000E+00  0.00000000E+00  0.00000000E+00
  0.00000000E+00  0.00000000E+00  0.00000000E+00
  0.00000000E+00  0.00000000E+00  0.00000000E+00
  0.00000000E+00  0.00000000E+00  0.00000000E+00
  0.00000000E+00  0.00000000E+00  0.00000000E+00
  0.00000000E+00  0.00000000E+00  0.00000000E+00
  0.00000000E+00  0.00000000E+00  0.00000000E+00
  0.00000000E+00  0.00000000E+00  0.00000000E+00
  0.00000000E+00  0.00000000E+00  0.00000000E+00
  0.00000000E+00  0.00000000E+00  0.00000000E+00
