Al10 I18                                
   1.00000000000000     
     0.0588937944028400   -6.7011850913109150    8.1657738791495742
     5.8018554459491867   -4.5288626466675259   -9.7007157150769814
     7.5906586102703519    5.6271733893074218   10.5974325335204060
   I    Al
    18    10
Direct
  0.1892275841850193  0.8939490298910400  0.9274651293421172
  0.8265710190624702  0.2955288995262393  0.1206478202185366
  0.3804219792226604  0.7709224570989903  0.0685875278818315
  0.3804625185634336  0.4029992188533669  0.1739356073123801
  0.1030478012059106  0.6320503564439903  0.3288610946817840
  0.1549845003058223  0.0447552315390354  0.2699310232737986
  0.2675405730733829  0.0226526790645849  0.5272967143707845
  0.6990670386614539  0.5529855579693006  0.5523437752866371
  0.5492045814394544  0.8026717461067605  0.3080421455564917
  0.7303523106798195  0.1890680971469081  0.4847507737842207
  0.3267797607455947  0.6413614112994566  0.5259017542325068
  0.8274194598274818  0.9021798356142128  0.5317757206898577
  0.0500995677898146  0.2551224868609268  0.8103651072361160
  0.8961503580242578  0.5206518204456572  0.7515808857867725
  0.4735796343072778  0.3862995001441192  0.7760557125170067
  0.6209629320579992  0.1904615439396977  0.8656479194974480
  0.9543846742103668  0.6525788949276290  0.0956753576686395
  0.7822229317039984  0.9210885290029864  0.8599510756883717
  0.6586564879065264  0.4889018338049667  0.9486538081751377
  0.1716651307582566  0.8430032384536901  0.0833055830978893
  0.4322443611052122  0.0289949681808750  0.3143645578346437
  0.3366220337941499  0.6121660186881286  0.3336400366573073
  0.0483970473588400  0.1407026301600354  0.5445009460909276
  0.9714073686475899  0.8031510132960307  0.6082081141299938
  0.7019779519779163  0.4123169896351015  0.6381828275293842
  0.5184969320655810  0.9521366016740629  0.5638600017424906
  0.8188869932319065  0.1619004317196229  0.9147202701655885
  0.1292664680877849  0.4794989785125523  0.0718487095513467
 
  0.00000000E+00  0.00000000E+00  0.00000000E+00
  0.00000000E+00  0.00000000E+00  0.00000000E+00
  0.00000000E+00  0.00000000E+00  0.00000000E+00
  0.00000000E+00  0.00000000E+00  0.00000000E+00
  0.00000000E+00  0.00000000E+00  0.00000000E+00
  0.00000000E+00  0.00000000E+00  0.00000000E+00
  0.00000000E+00  0.00000000E+00  0.00000000E+00
  0.00000000E+00  0.00000000E+00  0.00000000E+00
  0.00000000E+00  0.00000000E+00  0.00000000E+00
  0.00000000E+00  0.00000000E+00  0.00000000E+00
  0.00000000E+00  0.00000000E+00  0.00000000E+00
  0.00000000E+00  0.00000000E+00  0.00000000E+00
  0.00000000E+00  0.00000000E+00  0.00000000E+00
  0.00000000E+00  0.00000000E+00  0.00000000E+00
  0.00000000E+00  0.00000000E+00  0.00000000E+00
  0.00000000E+00  0.00000000E+00  0.00000000E+00
  0.00000000E+00  0.00000000E+00  0.00000000E+00
  0.00000000E+00  0.00000000E+00  0.00000000E+00
  0.00000000E+00  0.00000000E+00  0.00000000E+00
  0.00000000E+00  0.00000000E+00  0.00000000E+00
  0.00000000E+00  0.00000000E+00  0.00000000E+00
  0.00000000E+00  0.00000000E+00  0.00000000E+00
  0.00000000E+00  0.00000000E+00  0.00000000E+00
  0.00000000E+00  0.00000000E+00  0.00000000E+00
  0.00000000E+00  0.00000000E+00  0.00000000E+00
  0.00000000E+00  0.00000000E+00  0.00000000E+00
  0.00000000E+00  0.00000000E+00  0.00000000E+00
  0.00000000E+00  0.00000000E+00  0.00000000E+00
