Sr8 In6                                 
   1.0000000000000000     
     7.1939705680860140    8.2332873490545531    0.0000000000000000
    -3.6062933067212715   10.3000054947635267    0.0000000000000000
     0.0000000000000000    0.0000000000000000    5.2807988249575271
   In   Sr
     6     8
Direct
  0.1718965868840812  0.2300066094480897  0.0000000000000000
  0.3108500562688121  0.5977959762739715  0.0000000000000000
  0.7967453285192860  0.7438295261653849  0.0000000000000000
  0.3515840194549611  0.1513719366799791  0.5000000000000000
  0.7269649236063671  0.6363467840627948  0.5000000000000000
  0.2125611172269259  0.7832359490871283  0.5000000000000000
  0.4861566526686047  0.2298480178493776  0.0000000000000000
  0.8022592648156390  0.4253918535937515  0.0000000000000000
  0.4266302702663012  0.8572598755214287  0.0000000000000000
  0.0000054439143469  0.9111583589308410  0.0000000000000000
  0.0376480166679656  0.1510749438867265  0.5000000000000000
  0.5231802300188946  0.4698019799079631  0.5000000000000000
  0.0967779172960164  0.5239022061759826  0.5000000000000000
  0.7209401723917921  0.9549759824165562  0.5000000000000000

  0.00000000E+00  0.00000000E+00  0.00000000E+00
  0.00000000E+00  0.00000000E+00  0.00000000E+00
  0.00000000E+00  0.00000000E+00  0.00000000E+00
  0.00000000E+00  0.00000000E+00  0.00000000E+00
  0.00000000E+00  0.00000000E+00  0.00000000E+00
  0.00000000E+00  0.00000000E+00  0.00000000E+00
  0.00000000E+00  0.00000000E+00  0.00000000E+00
  0.00000000E+00  0.00000000E+00  0.00000000E+00
  0.00000000E+00  0.00000000E+00  0.00000000E+00
  0.00000000E+00  0.00000000E+00  0.00000000E+00
  0.00000000E+00  0.00000000E+00  0.00000000E+00
  0.00000000E+00  0.00000000E+00  0.00000000E+00
  0.00000000E+00  0.00000000E+00  0.00000000E+00
  0.00000000E+00  0.00000000E+00  0.00000000E+00
