Sr6 Al4 Cl24                            
   1.00000000000000     
    11.9438591231955513   -0.0015272220043632    0.0000000000000000
     0.0001110537019678   11.8315428301069154    0.0000000000000000
     0.0000000000000000    0.0000000000000000    6.8860823732013898
   Cl   Al   Sr
    24     4     6
Direct
  0.6430238531980237  0.1655696191496645  0.0000000000000000
  0.1430652000212405  0.3344136951605066  0.0000000000000000
  0.8570865998609349  0.6659921105636286  0.0000000000000000
  0.3570402642706654  0.8340369489512440  0.0000000000000000
  0.4999701238423881  0.9998265622836797  0.2616051482205890
  0.9999810007763728  0.5001971166962633  0.2616922457789244
  0.2063484098154262  0.0943113201416637  0.2330714650313794
  0.8904870218063010  0.1986332673102638  0.2358233835110681
  0.3903797459590592  0.3014063783068863  0.2358729024949042
  0.7063399643349300  0.4055012122151922  0.2331772387127842
  0.2935181985132402  0.5942911705118590  0.2331717228045989
  0.6096186240521035  0.6984394480278553  0.2358292571203293
  0.1096704601065213  0.8015025732948118  0.2359026564293458
  0.7935674171654341  0.9056935408151503  0.2332300065367150
  0.2063484098154262  0.0943113201416637  0.7669285349686206
  0.8904870218063081  0.1986332673102638  0.7641766164889319
  0.3903797459590592  0.3014063783068863  0.7641270975050958
  0.7063399643349300  0.4055012122151922  0.7668227612872087
  0.2935181985132402  0.5942911705118590  0.7668282771954011
  0.6096186240521035  0.6984394480278553  0.7641707428796707
  0.1096704601065213  0.8015025732948118  0.7640973435706542
  0.7935674171654341  0.9056935408151503  0.7667699934632850
  0.4999701238423881  0.9998265622836797  0.7383948517794110
  0.9999810007763728  0.5001971166962633  0.7383077542210756
  0.2810318584135771  0.2201570556127663  0.0000000000000000
  0.7810643137960938  0.2797939811012498  0.0000000000000000
  0.2188575687480210  0.7200787767757859  0.0000000000000000
  0.7188957725428367  0.7799343893294477  0.0000000000000000
  0.0000388782602272  0.0000740418776815  0.0000000000000000
  0.5000079044050167  0.5000433169297054  0.0000000000000000
  0.6715140022852140  0.0745491217368439  0.5000000000000000
  0.1715620402925921  0.4254090814209164  0.5000000000000000
  0.8283224780891985  0.5746994039763820  0.5000000000000000
  0.3283273330728278  0.9252432782068993  0.5000000000000000
 
  0.00000000E+00  0.00000000E+00  0.00000000E+00
  0.00000000E+00  0.00000000E+00  0.00000000E+00
  0.00000000E+00  0.00000000E+00  0.00000000E+00
  0.00000000E+00  0.00000000E+00  0.00000000E+00
  0.00000000E+00  0.00000000E+00  0.00000000E+00
  0.00000000E+00  0.00000000E+00  0.00000000E+00
  0.00000000E+00  0.00000000E+00  0.00000000E+00
  0.00000000E+00  0.00000000E+00  0.00000000E+00
  0.00000000E+00  0.00000000E+00  0.00000000E+00
  0.00000000E+00  0.00000000E+00  0.00000000E+00
  0.00000000E+00  0.00000000E+00  0.00000000E+00
  0.00000000E+00  0.00000000E+00  0.00000000E+00
  0.00000000E+00  0.00000000E+00  0.00000000E+00
  0.00000000E+00  0.00000000E+00  0.00000000E+00
  0.00000000E+00  0.00000000E+00  0.00000000E+00
  0.00000000E+00  0.00000000E+00  0.00000000E+00
  0.00000000E+00  0.00000000E+00  0.00000000E+00
  0.00000000E+00  0.00000000E+00  0.00000000E+00
  0.00000000E+00  0.00000000E+00  0.00000000E+00
  0.00000000E+00  0.00000000E+00  0.00000000E+00
  0.00000000E+00  0.00000000E+00  0.00000000E+00
  0.00000000E+00  0.00000000E+00  0.00000000E+00
  0.00000000E+00  0.00000000E+00  0.00000000E+00
  0.00000000E+00  0.00000000E+00  0.00000000E+00
  0.00000000E+00  0.00000000E+00  0.00000000E+00
  0.00000000E+00  0.00000000E+00  0.00000000E+00
  0.00000000E+00  0.00000000E+00  0.00000000E+00
  0.00000000E+00  0.00000000E+00  0.00000000E+00
  0.00000000E+00  0.00000000E+00  0.00000000E+00
  0.00000000E+00  0.00000000E+00  0.00000000E+00
  0.00000000E+00  0.00000000E+00  0.00000000E+00
  0.00000000E+00  0.00000000E+00  0.00000000E+00
  0.00000000E+00  0.00000000E+00  0.00000000E+00
  0.00000000E+00  0.00000000E+00  0.00000000E+00
