BeCl                                    
   1.00000000000000     
     3.1514309754998178   -0.0009041760290116    0.0000000000000000
    -1.5764985146869068    2.7287425019518037    0.0000000000000000
     0.0000000000000000    0.0000000000000000    3.3313311513416601
   Be   Cl
     1     1
Direct
  0.6670473876669547  0.3329512963450156  0.7500000000000000
  0.3329526123330453  0.6670487036549844  0.2500000000000000
 
  0.00000000E+00  0.00000000E+00  0.00000000E+00
  0.00000000E+00  0.00000000E+00  0.00000000E+00
