Mg2 Tl2 Cl10                            
   1.00000000000000     
     6.2988538836909855    0.1286179913528245    3.0074527527539505
     1.5058357161892810    6.1175611089578954    3.0074535763095671
    -0.4283822622035974   -0.3428362425346584   12.6540291077232432
   Mg   Tl   Cl
     2     2    10
Direct
  0.4505882784077215  0.5494117205479938  0.2500000001806200
  0.5494117215922785  0.4505882794520062  0.7499999998193800
  0.0000000000000000  0.0000000000000000  0.5000000000000000
  0.0000000000000000  0.0000000000000000  0.0000000000000000
  0.5936480124478507  0.8043497041455367  0.6596290768039523
  0.1956503141145518  0.4063509706123725  0.8403709220027977
  0.4063509875521518  0.1956502958544633  0.3403719231960523
  0.8043496858854482  0.5936480293876301  0.1596290779972023
  0.8495994650965031  0.1504005311026262  0.7500000029316993
  0.1504005349034969  0.8495994688973738  0.2499999970683007
  0.6069802392952539  0.5303367877506844  0.0315636906754051
  0.4696631998463516  0.3930197464927616  0.4684363292569813
  0.3930197607047461  0.4696632122493156  0.9684363093245949
  0.5303368001536484  0.6069802535072384  0.5315636707430187
 
  0.00000000E+00  0.00000000E+00  0.00000000E+00
  0.00000000E+00  0.00000000E+00  0.00000000E+00
  0.00000000E+00  0.00000000E+00  0.00000000E+00
  0.00000000E+00  0.00000000E+00  0.00000000E+00
  0.00000000E+00  0.00000000E+00  0.00000000E+00
  0.00000000E+00  0.00000000E+00  0.00000000E+00
  0.00000000E+00  0.00000000E+00  0.00000000E+00
  0.00000000E+00  0.00000000E+00  0.00000000E+00
  0.00000000E+00  0.00000000E+00  0.00000000E+00
  0.00000000E+00  0.00000000E+00  0.00000000E+00
  0.00000000E+00  0.00000000E+00  0.00000000E+00
  0.00000000E+00  0.00000000E+00  0.00000000E+00
  0.00000000E+00  0.00000000E+00  0.00000000E+00
  0.00000000E+00  0.00000000E+00  0.00000000E+00
