Ca1 Al2 I6                              
   1.00000000000000     
     4.0450455056000330    2.3350057725952156    6.6012855014180243
    -4.0450455056000330    2.3350057725952156    6.6012855014180243
     0.0000000000000000   -4.6650687953156291    6.5995380212874997
   Ca   I    Al
     1     6     2
Direct
  0.0000000000000000  0.0000000000000000  0.0000000000000000
  0.7356050482252954  0.7356050482252954  0.2643913754433100
  0.7356609305835349  0.2643427191296723  0.2643547839418687
  0.2643427191296723  0.7356609305835349  0.2643547839418687
  0.2643949517747046  0.2643949517747046  0.7356086245566900
  0.7356572808703277  0.2643390694164651  0.7356452160581313
  0.2643390694164651  0.7356572808703277  0.7356452160581313
  0.2500055752793244  0.2500055752793244  0.2499919545455782
  0.7499944247206756  0.7499944247206756  0.7500080454544218
 
  0.00000000E+00  0.00000000E+00  0.00000000E+00
  0.00000000E+00  0.00000000E+00  0.00000000E+00
  0.00000000E+00  0.00000000E+00  0.00000000E+00
  0.00000000E+00  0.00000000E+00  0.00000000E+00
  0.00000000E+00  0.00000000E+00  0.00000000E+00
  0.00000000E+00  0.00000000E+00  0.00000000E+00
  0.00000000E+00  0.00000000E+00  0.00000000E+00
  0.00000000E+00  0.00000000E+00  0.00000000E+00
  0.00000000E+00  0.00000000E+00  0.00000000E+00
