Sr4                                     
   1.00000000000000     
     4.2216377460851540   -0.0000000080105730    0.0000000000000000
    -2.1108193782680758    3.6560452283473568    0.0000000000000000
     0.0000000000000000    0.0000000000000000   14.3632107123365067
   Sr
     4
Direct
  0.0000000000000000  0.0000000000000000  0.0000000000000000
  0.3333340000000007  0.6666680000000014  0.2500000000000000
  0.0000000000000000  0.0000000000000000  0.5000000000000000
  0.6666659999999993  0.3333330000000032  0.7500000000000000
 
  0.00000000E+00  0.00000000E+00  0.00000000E+00
  0.00000000E+00  0.00000000E+00  0.00000000E+00
  0.00000000E+00  0.00000000E+00  0.00000000E+00
  0.00000000E+00  0.00000000E+00  0.00000000E+00
