Ba3Al2F12                               
   1.00000000000000     
     9.7809950507456467   -0.0001194355095303    0.0000000000000000
    -0.0001233222010544   10.1201886722174699    0.0000000000000000
     0.0000000000000000    0.0000000000000000    9.4696696260438760
   Al   Ba   F 
     8    12    48
Direct
  0.3558025057298195  0.3972882521003314  0.1866642855852874
  0.6442009150822017  0.6027267614169816  0.1866640260062127
  0.8558218719787902  0.1027202849421442  0.3133392103490280
  0.1441861742926349  0.8972992478997313  0.3133391114716773
  0.8558218719787902  0.1027202849421442  0.6866607896509720
  0.1441861742926349  0.8972992478997313  0.6866608885283227
  0.3558025057298195  0.3972882521003314  0.8133357144147126
  0.6442009150822017  0.6027267614169816  0.8133359739937873
  0.1514854982648330  0.1443999049897755  0.0000000000000000
  0.7083150148511734  0.2724972172352338  0.0000000000000000
  0.2916917197717481  0.7275190475369797  0.0000000000000000
  0.8485238565411350  0.8556161605147423  0.0000000000000000
  0.0000013725528873  0.5000089671171750  0.2472637740307846
  0.5000054657414807  0.0000070223002737  0.2527363704971251
  0.2083143229818489  0.2275241283661558  0.5000000000000000
  0.6514582294464404  0.3556020142084719  0.5000000000000000
  0.3485470175021419  0.6444132278550114  0.5000000000000000
  0.7916905432894623  0.7724916491330518  0.5000000000000000
  0.5000054657414807  0.0000070223002737  0.7472636295028749
  0.0000013725528873  0.5000089671171750  0.7527362259692154
  0.6431068536122098  0.0245916247967486  0.0000000000000000
  0.9651660827485458  0.3590504729957331  0.0000000000000000
  0.2938585658918456  0.4087811436857436  0.0000000000000000
  0.7061448322725496  0.5912290088349081  0.0000000000000000
  0.0348376319715911  0.6409762815084363  0.0000000000000000
  0.3569035320653597  0.9754246174876755  0.0000000000000000
  0.4999992762312573  0.5000111534367448  0.1321661195256780
  0.9090775760952070  0.1063700882839385  0.1346221889000461
  0.0909294711931992  0.8936535053505708  0.1346224351519680
  0.4458590336026873  0.2495971279797331  0.1451690613324530
  0.5541478878534321  0.7504192885489118  0.1451678545981565
  0.7328242516718149  0.4476590263152787  0.2189731522067717
  0.2671748896385182  0.5523542475951473  0.2189711663809248
  0.1992060892140657  0.3101803977200106  0.2232131927430743
  0.8007980623377335  0.6898329227963842  0.2232116137602631
  0.6992384472506643  0.1898080010035486  0.2767883320934459
  0.3007652515378112  0.8102039425259662  0.2767876811967156
  0.2328713733894645  0.0523667104100198  0.2810338479190548
  0.7671470546986541  0.9476474412513625  0.2810334227156730
  0.9458732613500302  0.2504285828640604  0.3548377378651821
  0.0541240079950711  0.7495959074917167  0.3548356756569717
  0.4090676385362357  0.3936528810107305  0.3653842918252650
  0.5909363413534692  0.6063651345415124  0.3653844134914408
  0.0000102826694572  0.0000187360276911  0.3678144502336735
  0.7938770199209273  0.0912033878886689  0.5000000000000000
  0.4651589989712619  0.1409743516039157  0.5000000000000000
  0.1430950918539935  0.4754030098378124  0.5000000000000000
  0.8569098958244936  0.5246158461517183  0.5000000000000000
  0.5348476732961629  0.8590471130105612  0.5000000000000000
  0.2061306149290516  0.9088085304987175  0.5000000000000000
  0.0000102826694572  0.0000187360276911  0.6321855497663265
  0.4090676385362357  0.3936528810107305  0.6346157081747350
  0.5909363413534692  0.6063651345415124  0.6346155865085592
  0.9458732613500302  0.2504285828640604  0.6451622621348179
  0.0541240079950711  0.7495959074917167  0.6451643243430283
  0.2328713733894645  0.0523667104100198  0.7189661520809452
  0.7671470546986541  0.9476474412513625  0.7189665772843270
  0.6992384472506643  0.1898080010035486  0.7232116679065541
  0.3007652515378112  0.8102039425259662  0.7232123188032844
  0.1992060892140657  0.3101803977200106  0.7767868072569257
  0.8007980623377335  0.6898329227963842  0.7767883862397369
  0.7328242516718149  0.4476590263152787  0.7810268477932283
  0.2671748896385182  0.5523542475951473  0.7810288336190752
  0.4458590336026873  0.2495971279797331  0.8548309386675470
  0.5541478878534321  0.7504192885489118  0.8548321454018506
  0.9090775760952070  0.1063700882839385  0.8653778110999539
  0.0909294711931992  0.8936535053505708  0.8653775648480320
  0.4999992762312573  0.5000111534367448  0.8678338804743220
 
  0.00000000E+00  0.00000000E+00  0.00000000E+00
  0.00000000E+00  0.00000000E+00  0.00000000E+00
  0.00000000E+00  0.00000000E+00  0.00000000E+00
  0.00000000E+00  0.00000000E+00  0.00000000E+00
  0.00000000E+00  0.00000000E+00  0.00000000E+00
  0.00000000E+00  0.00000000E+00  0.00000000E+00
  0.00000000E+00  0.00000000E+00  0.00000000E+00
  0.00000000E+00  0.00000000E+00  0.00000000E+00
  0.00000000E+00  0.00000000E+00  0.00000000E+00
  0.00000000E+00  0.00000000E+00  0.00000000E+00
  0.00000000E+00  0.00000000E+00  0.00000000E+00
  0.00000000E+00  0.00000000E+00  0.00000000E+00
  0.00000000E+00  0.00000000E+00  0.00000000E+00
  0.00000000E+00  0.00000000E+00  0.00000000E+00
  0.00000000E+00  0.00000000E+00  0.00000000E+00
  0.00000000E+00  0.00000000E+00  0.00000000E+00
  0.00000000E+00  0.00000000E+00  0.00000000E+00
  0.00000000E+00  0.00000000E+00  0.00000000E+00
  0.00000000E+00  0.00000000E+00  0.00000000E+00
  0.00000000E+00  0.00000000E+00  0.00000000E+00
  0.00000000E+00  0.00000000E+00  0.00000000E+00
  0.00000000E+00  0.00000000E+00  0.00000000E+00
  0.00000000E+00  0.00000000E+00  0.00000000E+00
  0.00000000E+00  0.00000000E+00  0.00000000E+00
  0.00000000E+00  0.00000000E+00  0.00000000E+00
  0.00000000E+00  0.00000000E+00  0.00000000E+00
  0.00000000E+00  0.00000000E+00  0.00000000E+00
  0.00000000E+00  0.00000000E+00  0.00000000E+00
  0.00000000E+00  0.00000000E+00  0.00000000E+00
  0.00000000E+00  0.00000000E+00  0.00000000E+00
  0.00000000E+00  0.00000000E+00  0.00000000E+00
  0.00000000E+00  0.00000000E+00  0.00000000E+00
  0.00000000E+00  0.00000000E+00  0.00000000E+00
  0.00000000E+00  0.00000000E+00  0.00000000E+00
  0.00000000E+00  0.00000000E+00  0.00000000E+00
  0.00000000E+00  0.00000000E+00  0.00000000E+00
  0.00000000E+00  0.00000000E+00  0.00000000E+00
  0.00000000E+00  0.00000000E+00  0.00000000E+00
  0.00000000E+00  0.00000000E+00  0.00000000E+00
  0.00000000E+00  0.00000000E+00  0.00000000E+00
  0.00000000E+00  0.00000000E+00  0.00000000E+00
  0.00000000E+00  0.00000000E+00  0.00000000E+00
  0.00000000E+00  0.00000000E+00  0.00000000E+00
  0.00000000E+00  0.00000000E+00  0.00000000E+00
  0.00000000E+00  0.00000000E+00  0.00000000E+00
  0.00000000E+00  0.00000000E+00  0.00000000E+00
  0.00000000E+00  0.00000000E+00  0.00000000E+00
  0.00000000E+00  0.00000000E+00  0.00000000E+00
  0.00000000E+00  0.00000000E+00  0.00000000E+00
  0.00000000E+00  0.00000000E+00  0.00000000E+00
  0.00000000E+00  0.00000000E+00  0.00000000E+00
  0.00000000E+00  0.00000000E+00  0.00000000E+00
  0.00000000E+00  0.00000000E+00  0.00000000E+00
  0.00000000E+00  0.00000000E+00  0.00000000E+00
  0.00000000E+00  0.00000000E+00  0.00000000E+00
  0.00000000E+00  0.00000000E+00  0.00000000E+00
  0.00000000E+00  0.00000000E+00  0.00000000E+00
  0.00000000E+00  0.00000000E+00  0.00000000E+00
  0.00000000E+00  0.00000000E+00  0.00000000E+00
  0.00000000E+00  0.00000000E+00  0.00000000E+00
  0.00000000E+00  0.00000000E+00  0.00000000E+00
  0.00000000E+00  0.00000000E+00  0.00000000E+00
  0.00000000E+00  0.00000000E+00  0.00000000E+00
  0.00000000E+00  0.00000000E+00  0.00000000E+00
  0.00000000E+00  0.00000000E+00  0.00000000E+00
  0.00000000E+00  0.00000000E+00  0.00000000E+00
  0.00000000E+00  0.00000000E+00  0.00000000E+00
  0.00000000E+00  0.00000000E+00  0.00000000E+00
