Ba17 Tl11 Cl1                           
   1.0000000000000000     
    10.4289183868745994   -7.0597092390359597    4.4583852371344426
    -1.1932427238000238   11.8123317364517497    4.2183601640404866
    -8.5454280528699371   -4.5136935094135762    3.2998550301106548
   Tl   Cl   Ba
    11     1    17
Direct
  0.6414688420519283  0.8558755327222869  0.9759457070418236
  0.5260551629980057  0.4986048986746496  0.3982596388241006
  0.7786894951388845  0.2222384917169222  0.2111673022932763
  0.1110695597050295  0.8582708721412828  0.1402710472082589
  0.1357096169712619  0.3845030760500308  0.3432154385586017
  0.4822358306183929  0.2173375743554971  0.3824553343936898
  0.9901597344085360  0.7918896184630029  0.4268911355258496
  0.8950656429193913  0.9473629767567147  0.6270164368585114
  0.0421660622932620  0.5883787972798586  0.8697331468250553
  0.5431421664124372  0.0214179463857818  0.8567258028443092
  0.1905013606291632  0.1845428501874196  0.7539423303710748
  0.6432506038640184  0.4844468702094460  0.9270522111204329
  0.8749515044234570  0.1308952073205845  0.9391748986518280
  0.1501477146023547  0.8937329488651073  0.8232466562957370
  0.5151352439761610  0.2703543681605041  0.0444567485507292
  0.2232272596762854  0.1988264523465801  0.1318921437811369
  0.2591315596968400  0.5195384274155757  0.0920837913768295
  0.6679443659865782  0.6956294918778525  0.2214169094698448
  0.5001411280848487  0.9601960180745124  0.1990225989978285
  0.9971574185291985  0.5531778216222563  0.2039643623017824
  0.9926844044693013  0.0375556961512444  0.3162977415533632
  0.5619948778262938  0.7989339539060651  0.5628464717688360
  0.8123392510732899  0.5042270133821845  0.4822536674682212
  0.3224599289999830  0.9934770242169009  0.5306465663029130
  0.9729393525586048  0.2839330836502469  0.5966703329677969
  0.7958178122153612  0.7213392932866896  0.8416779055595072
  0.7038185390400784  0.3014360930448703  0.7484726667025470
  0.2799756222972718  0.6740597363219010  0.7079333874244043
  0.3915759385337765  0.4071578654140211  0.6452686189617509

  0.00000000E+00  0.00000000E+00  0.00000000E+00
  0.00000000E+00  0.00000000E+00  0.00000000E+00
  0.00000000E+00  0.00000000E+00  0.00000000E+00
  0.00000000E+00  0.00000000E+00  0.00000000E+00
  0.00000000E+00  0.00000000E+00  0.00000000E+00
  0.00000000E+00  0.00000000E+00  0.00000000E+00
  0.00000000E+00  0.00000000E+00  0.00000000E+00
  0.00000000E+00  0.00000000E+00  0.00000000E+00
  0.00000000E+00  0.00000000E+00  0.00000000E+00
  0.00000000E+00  0.00000000E+00  0.00000000E+00
  0.00000000E+00  0.00000000E+00  0.00000000E+00
  0.00000000E+00  0.00000000E+00  0.00000000E+00
  0.00000000E+00  0.00000000E+00  0.00000000E+00
  0.00000000E+00  0.00000000E+00  0.00000000E+00
  0.00000000E+00  0.00000000E+00  0.00000000E+00
  0.00000000E+00  0.00000000E+00  0.00000000E+00
  0.00000000E+00  0.00000000E+00  0.00000000E+00
  0.00000000E+00  0.00000000E+00  0.00000000E+00
  0.00000000E+00  0.00000000E+00  0.00000000E+00
  0.00000000E+00  0.00000000E+00  0.00000000E+00
  0.00000000E+00  0.00000000E+00  0.00000000E+00
  0.00000000E+00  0.00000000E+00  0.00000000E+00
  0.00000000E+00  0.00000000E+00  0.00000000E+00
  0.00000000E+00  0.00000000E+00  0.00000000E+00
  0.00000000E+00  0.00000000E+00  0.00000000E+00
  0.00000000E+00  0.00000000E+00  0.00000000E+00
  0.00000000E+00  0.00000000E+00  0.00000000E+00
  0.00000000E+00  0.00000000E+00  0.00000000E+00
  0.00000000E+00  0.00000000E+00  0.00000000E+00
