Be12 Tl4 Br36                           
   1.0000000000000000     
     9.8305988324630071    0.6241460936526408    0.0125619563022489
     0.2941495353910913   11.4865333564586969   -0.0053948078323934
     0.0560726734069641   -0.0345936893423259   20.4091589593947411
   Tl   Be   Br
     4    12    36
Direct
  0.3723336408034257  0.4102167887897963  0.1602860988169539
  0.0126184633217221  0.3949670323657841  0.3159256750589421
  0.1297552501025976  0.5889859447205197  0.6603867965742580
  0.4927364221981207  0.6017113117754036  0.8147415059999048
  0.6283774989228590  0.7775619262373468  0.9751769764136213
  0.0451914104420723  0.2271651138162980  0.0394484410967380
  0.1346122921895088  0.7599010850654011  0.2086160342432350
  0.7000009101916191  0.7522610174851181  0.2926152899671521
  0.5962016930048790  0.2594238341005166  0.4657970091262484
  0.1642784971850375  0.8094846143365615  0.5270140307453417
  0.8725298246480193  0.2214800194412945  0.4762303040606071
  0.4489382339651087  0.7781174129687614  0.5389912476377816
  0.3730716155276710  0.2396219209207189  0.7086384054592472
  0.7968426338875858  0.2471012924098517  0.7921926710527813
  0.9046785773363837  0.7407561675931333  0.9654722186009081
  0.3293451862472949  0.1913807922632600  0.0260248273973573
  0.1848206147057141  0.3611142639291458  0.0303288485458211
  0.1678003584301138  0.0666431608889653  0.0406716311518167
  0.4606915784073493  0.1882187630054943  0.1141357576924165
  0.4521994305738204  0.6043376869589565  0.1121317288947523
  0.8411037193164930  0.2540785927252429  0.0393519655855457
  0.5428485488827519  0.8130954634282119  0.0720952043060379
  0.3028014340733449  0.3408009151553699  0.2814758854397041
  0.7863782460522870  0.8937132076262984  0.2698794296782552
  0.6057140379775632  0.6136429126735408  0.3133354249066116
  0.2306979346930831  0.8912406048105126  0.2383939136415520
  0.0468509939485315  0.6243188517543032  0.1745823699616835
  0.9047950466770800  0.3151794843772322  0.2132660775003643
  0.0558902203290614  0.8333159396294647  0.4398129476014816
  0.3924472964372825  0.2887075619094617  0.4666828959536886
  0.0299087694436366  0.2013992064138606  0.4006988304201826
  0.0283898251449344  0.5852372129079768  0.3794499550417285
  0.7399197378225608  0.3884878219135715  0.4715088638193805
  0.7142429759593085  0.0954522045331885  0.4610830383110169
  0.3231590879563981  0.9367990641616259  0.5412062467866505
  0.3125947721390148  0.6415015326190954  0.5301664716284193
  0.0497251904252636  0.3947900118026482  0.6125738028145875
  0.0337708140657043  0.8098363976658760  0.6157183612847064
  0.6531325817536811  0.7535121929890778  0.5383332919836263
  0.9567599742965456  0.1864601887165875  0.5730180899845152
  0.2032261874109764  0.6595225223176442  0.7804744530625953
  0.8935905785844440  0.3843752530244657  0.8128282637347866
  0.7092954179565041  0.1062375678522613  0.7693036931870196
  0.4589483738122908  0.3750049037859426  0.6729823091569855
  0.2751787591643762  0.1094867252678000  0.7387328313906920
  0.6027175409485963  0.6826872872634269  0.7128075085587469
  0.4377807594330321  0.1656906434270411  0.9384188648920357
  0.1084267277074460  0.7126028513766656  0.9673708208195393
  0.4725273867430673  0.4120155428089660  0.8779118896828777
  0.4720899113911869  0.7957117745384252  0.8998280889073271
  0.7859861830962558  0.9042884131745552  0.9599418213384538
  0.7618768342662179  0.6109369982771895  0.9705408900832637

  0.00000000E+00  0.00000000E+00  0.00000000E+00
  0.00000000E+00  0.00000000E+00  0.00000000E+00
  0.00000000E+00  0.00000000E+00  0.00000000E+00
  0.00000000E+00  0.00000000E+00  0.00000000E+00
  0.00000000E+00  0.00000000E+00  0.00000000E+00
  0.00000000E+00  0.00000000E+00  0.00000000E+00
  0.00000000E+00  0.00000000E+00  0.00000000E+00
  0.00000000E+00  0.00000000E+00  0.00000000E+00
  0.00000000E+00  0.00000000E+00  0.00000000E+00
  0.00000000E+00  0.00000000E+00  0.00000000E+00
  0.00000000E+00  0.00000000E+00  0.00000000E+00
  0.00000000E+00  0.00000000E+00  0.00000000E+00
  0.00000000E+00  0.00000000E+00  0.00000000E+00
  0.00000000E+00  0.00000000E+00  0.00000000E+00
  0.00000000E+00  0.00000000E+00  0.00000000E+00
  0.00000000E+00  0.00000000E+00  0.00000000E+00
  0.00000000E+00  0.00000000E+00  0.00000000E+00
  0.00000000E+00  0.00000000E+00  0.00000000E+00
  0.00000000E+00  0.00000000E+00  0.00000000E+00
  0.00000000E+00  0.00000000E+00  0.00000000E+00
  0.00000000E+00  0.00000000E+00  0.00000000E+00
  0.00000000E+00  0.00000000E+00  0.00000000E+00
  0.00000000E+00  0.00000000E+00  0.00000000E+00
  0.00000000E+00  0.00000000E+00  0.00000000E+00
  0.00000000E+00  0.00000000E+00  0.00000000E+00
  0.00000000E+00  0.00000000E+00  0.00000000E+00
  0.00000000E+00  0.00000000E+00  0.00000000E+00
  0.00000000E+00  0.00000000E+00  0.00000000E+00
  0.00000000E+00  0.00000000E+00  0.00000000E+00
  0.00000000E+00  0.00000000E+00  0.00000000E+00
  0.00000000E+00  0.00000000E+00  0.00000000E+00
  0.00000000E+00  0.00000000E+00  0.00000000E+00
  0.00000000E+00  0.00000000E+00  0.00000000E+00
  0.00000000E+00  0.00000000E+00  0.00000000E+00
  0.00000000E+00  0.00000000E+00  0.00000000E+00
  0.00000000E+00  0.00000000E+00  0.00000000E+00
  0.00000000E+00  0.00000000E+00  0.00000000E+00
  0.00000000E+00  0.00000000E+00  0.00000000E+00
  0.00000000E+00  0.00000000E+00  0.00000000E+00
  0.00000000E+00  0.00000000E+00  0.00000000E+00
  0.00000000E+00  0.00000000E+00  0.00000000E+00
  0.00000000E+00  0.00000000E+00  0.00000000E+00
  0.00000000E+00  0.00000000E+00  0.00000000E+00
  0.00000000E+00  0.00000000E+00  0.00000000E+00
  0.00000000E+00  0.00000000E+00  0.00000000E+00
  0.00000000E+00  0.00000000E+00  0.00000000E+00
  0.00000000E+00  0.00000000E+00  0.00000000E+00
  0.00000000E+00  0.00000000E+00  0.00000000E+00
  0.00000000E+00  0.00000000E+00  0.00000000E+00
  0.00000000E+00  0.00000000E+00  0.00000000E+00
  0.00000000E+00  0.00000000E+00  0.00000000E+00
  0.00000000E+00  0.00000000E+00  0.00000000E+00
