InBr                                    
   1.00000000000000     
    -4.6188364884404258    0.0005313518030058    0.0000000000000000
     0.0000000000000000    0.0000000000000000   -4.6921019486232893
    -2.3086780878252675   -6.3021041489850136    0.0000000000000000
   Br   In
     2     2
Direct
  0.8523341078540270  0.2500000000000000  0.2959889599458592
  0.1476658921459730  0.7500000000000000  0.7040110400541408
  0.3909495831083447  0.7500000000000000  0.2208752316022640
  0.6090504168916553  0.2500000000000000  0.7791247683977360
 
  0.00000000E+00  0.00000000E+00  0.00000000E+00
  0.00000000E+00  0.00000000E+00  0.00000000E+00
  0.00000000E+00  0.00000000E+00  0.00000000E+00
  0.00000000E+00  0.00000000E+00  0.00000000E+00
