Mg10 In6 Br38                           
   1.0000000000000000     
    -9.9989070017848611    9.9988671597630656    5.7768745302721527
     9.9989070017848611   -9.9988671597630656    5.7768745302721527
     9.9988671597630656    9.9989070017848611   -5.7768745302721527
   Mg   In   Br
    10     6    38
Direct
  0.8467484757464661  0.9434041988452648  0.7901526745917522
  0.1532515242535339  0.0565958011547565  0.2098473254082478
  0.9434041988452648  0.1532515242535339  0.0966557230987988
  0.0565958011547565  0.8467484757464661  0.9033442769012012
  0.6406686372923431  0.0277040091870902  0.6683726464794759
  0.3593313627076640  0.9722959908128956  0.3316273535205241
  0.0277040091870902  0.3593313627076640  0.3870353718947896
  0.9722959908128956  0.6406686372923431  0.6129646281052032
  0.7500000000000000  0.2500000000000000  0.5000000000000000
  0.2500000000000000  0.7500000000000000  0.5000000000000000
  0.7976744007239418  0.3388268632275526  0.1365002639515112
  0.2023255992760511  0.6611731367724474  0.8634997360484959
  0.3388268632275526  0.2023255992760511  0.5411524625037032
  0.6611731367724474  0.7976744007239418  0.4588475374962968
  0.7461307253323923  0.7461307253323923  0.0000000000000000
  0.2538692746676148  0.2538692746676148  0.0000000000000000
  0.4448668787637402  0.8250906592973024  0.8959910199896512
  0.5551331212362598  0.1749093407026976  0.1040089800103488
  0.9290986393076324  0.5488758587740676  0.1040089800103488
  0.8250906592973024  0.9290986393076324  0.3802237805335409
  0.0709013606923676  0.4511241412259253  0.8959910199896512
  0.1749093407026976  0.0709013606923676  0.6197762194664591
  0.5488758587740676  0.4448668787637402  0.6197762194664591
  0.4511241412259253  0.5551331212362598  0.3802237805335409
  0.7203495792627947  0.9000921844163159  0.0585663351188401
  0.2796504207372053  0.0999078155836912  0.9414336648811670
  0.8415258492974758  0.6617832441439262  0.9414336648811670
  0.9000921844163159  0.8415258492974758  0.1797426051535496
  0.1584741507025385  0.3382167558560738  0.0585663351188401
  0.0999078155836912  0.1584741507025385  0.8202573948464433
  0.6617832441439262  0.7203495792627947  0.8202573948464433
  0.3382167558560738  0.2796504207372053  0.1797426051535496
  0.7658817539841678  0.0401461352712431  0.8060278892553967
  0.2341182460158322  0.9598538647287569  0.1939721107446033
  0.0401461352712431  0.2341182460158322  0.2742643812870682
  0.9598538647287569  0.7658817539841678  0.7257356187129247
  0.0000000000000000  0.0000000000000000  0.0000000000000000
  0.9102258144018407  0.4086588674232843  0.3188846818251605
  0.0897741855981522  0.5913411325767157  0.6811153181748324
  0.4086588674232843  0.0897741855981522  0.4984320530214887
  0.5913411325767157  0.9102258144018407  0.5015679469785113
  0.5829476926507553  0.0825774918123940  0.3334906061634442
  0.4170523073492447  0.9174225081876060  0.6665093938365558
  0.7490868856489143  0.2494570864872898  0.6665093938365558
  0.0825774918123940  0.7490868856489143  0.4996307991616433
  0.2509131143510857  0.7505429135127031  0.3334906061634442
  0.9174225081876060  0.2509131143510857  0.5003692008383567
  0.2494570864872898  0.5829476926507553  0.5003692008383567
  0.7505429135127031  0.4170523073492447  0.4996307991616433
  0.8282921760299189  0.2106363991497062  0.0389285751796251
  0.1717078239700740  0.7893636008502938  0.9610714248203749
  0.2106363991497062  0.1717078239700740  0.3823442231198442
  0.7893636008502938  0.8282921760299189  0.6176557768801558
  0.5000000000000000  0.5000000000000000  0.0000000000000000

  0.00000000E+00  0.00000000E+00  0.00000000E+00
  0.00000000E+00  0.00000000E+00  0.00000000E+00
  0.00000000E+00  0.00000000E+00  0.00000000E+00
  0.00000000E+00  0.00000000E+00  0.00000000E+00
  0.00000000E+00  0.00000000E+00  0.00000000E+00
  0.00000000E+00  0.00000000E+00  0.00000000E+00
  0.00000000E+00  0.00000000E+00  0.00000000E+00
  0.00000000E+00  0.00000000E+00  0.00000000E+00
  0.00000000E+00  0.00000000E+00  0.00000000E+00
  0.00000000E+00  0.00000000E+00  0.00000000E+00
  0.00000000E+00  0.00000000E+00  0.00000000E+00
  0.00000000E+00  0.00000000E+00  0.00000000E+00
  0.00000000E+00  0.00000000E+00  0.00000000E+00
  0.00000000E+00  0.00000000E+00  0.00000000E+00
  0.00000000E+00  0.00000000E+00  0.00000000E+00
  0.00000000E+00  0.00000000E+00  0.00000000E+00
  0.00000000E+00  0.00000000E+00  0.00000000E+00
  0.00000000E+00  0.00000000E+00  0.00000000E+00
  0.00000000E+00  0.00000000E+00  0.00000000E+00
  0.00000000E+00  0.00000000E+00  0.00000000E+00
  0.00000000E+00  0.00000000E+00  0.00000000E+00
  0.00000000E+00  0.00000000E+00  0.00000000E+00
  0.00000000E+00  0.00000000E+00  0.00000000E+00
  0.00000000E+00  0.00000000E+00  0.00000000E+00
  0.00000000E+00  0.00000000E+00  0.00000000E+00
  0.00000000E+00  0.00000000E+00  0.00000000E+00
  0.00000000E+00  0.00000000E+00  0.00000000E+00
  0.00000000E+00  0.00000000E+00  0.00000000E+00
  0.00000000E+00  0.00000000E+00  0.00000000E+00
  0.00000000E+00  0.00000000E+00  0.00000000E+00
  0.00000000E+00  0.00000000E+00  0.00000000E+00
  0.00000000E+00  0.00000000E+00  0.00000000E+00
  0.00000000E+00  0.00000000E+00  0.00000000E+00
  0.00000000E+00  0.00000000E+00  0.00000000E+00
  0.00000000E+00  0.00000000E+00  0.00000000E+00
  0.00000000E+00  0.00000000E+00  0.00000000E+00
  0.00000000E+00  0.00000000E+00  0.00000000E+00
  0.00000000E+00  0.00000000E+00  0.00000000E+00
  0.00000000E+00  0.00000000E+00  0.00000000E+00
  0.00000000E+00  0.00000000E+00  0.00000000E+00
  0.00000000E+00  0.00000000E+00  0.00000000E+00
  0.00000000E+00  0.00000000E+00  0.00000000E+00
  0.00000000E+00  0.00000000E+00  0.00000000E+00
  0.00000000E+00  0.00000000E+00  0.00000000E+00
  0.00000000E+00  0.00000000E+00  0.00000000E+00
  0.00000000E+00  0.00000000E+00  0.00000000E+00
  0.00000000E+00  0.00000000E+00  0.00000000E+00
  0.00000000E+00  0.00000000E+00  0.00000000E+00
  0.00000000E+00  0.00000000E+00  0.00000000E+00
  0.00000000E+00  0.00000000E+00  0.00000000E+00
  0.00000000E+00  0.00000000E+00  0.00000000E+00
  0.00000000E+00  0.00000000E+00  0.00000000E+00
  0.00000000E+00  0.00000000E+00  0.00000000E+00
  0.00000000E+00  0.00000000E+00  0.00000000E+00
