Mg8 Tl4 I28                             
   1.0000000000000000     
     7.9263124876241786    0.0040630605410319   -1.1681599109400362
     0.0097575559838378   22.0483023687934754    0.0108158714050230
    -1.8185489197530960    0.0028627334603535   12.6736701246558745
   I    Tl   Mg
    28     4     8
Direct
  0.1917422591945268  0.7733171565864936  0.1320441482372843
  0.6648907902915084  0.6598950301256181  0.0614241984934409
  0.1061072619956818  0.5102578455767031  0.0819759850390795
  0.2494986315851548  0.9972411066828784  0.2628725013856936
  0.8162197488688179  0.1739440800902798  0.0717425449901725
  0.3716328879150694  0.2100767008257733  0.1756567938952216
  0.6606283486507678  0.8663599190835853  0.0935354575374703
  0.0828174136730695  0.3520290555282202  0.3010100928580997
  0.4090781071435714  0.8018131545936242  0.3492721431580321
  0.9060310145076755  0.7251405407697860  0.3635926592953425
  0.8416010353536905  0.5239198309750677  0.3411464602928262
  0.0559575978032711  0.1632096347488385  0.4115970950302739
  0.5923369194129435  0.1019572297296065  0.5472459911056617
  0.5953817389306479  0.2659530409202162  0.3690263663583622
  0.1922946348447496  0.7267532651241382  0.6321181603389974
  0.6643908806728049  0.8402069053621801  0.5608887008096133
  0.1099712478392263  0.9896957699102344  0.5835187249443905
  0.2512366894419955  0.5027699822956251  0.7634865046390971
  0.8158895136886173  0.3261806029040883  0.5711167935400780
  0.3714666185857141  0.2898958667035103  0.6756320794602217
  0.6615647762164798  0.6337532987529428  0.5939773184456101
  0.0819584647301923  0.1479994736794552  0.8009583667278761
  0.4095557596295407  0.6982776279549725  0.8494908931954512
  0.9058917044533672  0.7749729201912174  0.8632458292549714
  0.8414068012017708  0.9760734470446124  0.8407571352066938
  0.0546363266707175  0.3368962667865389  0.9108380828531963
  0.5902911849737080  0.3974110235253789  0.0499397043446450
  0.5952383266934902  0.2341207059105486  0.8693995001382930
  0.8453060599903921  0.0077610847531133  0.1037402987578062
  0.5397052405031673  0.6466442480646819  0.3133263787762672
  0.8468526625138111  0.4923325229982041  0.6044452065395234
  0.5393355604183796  0.8533722014243565  0.8128549144254862
  0.8525016054963146  0.7634991671577183  0.1536398884339718
  0.8892917658013246  0.4485310662927091  0.1829070907500068
  0.2581200060122200  0.0575083573536119  0.4481146842474573
  0.0698294443510932  0.2336501806510682  0.2346991671491097
  0.8528463719948149  0.7366289842044935  0.6534409748449050
  0.8904393168298341  0.0513631772860563  0.6827040399524265
  0.2572996675933723  0.4423175220096027  0.9482431545211867
  0.0694756135265209  0.2663700054222744  0.7343739700257501

  0.00000000E+00  0.00000000E+00  0.00000000E+00
  0.00000000E+00  0.00000000E+00  0.00000000E+00
  0.00000000E+00  0.00000000E+00  0.00000000E+00
  0.00000000E+00  0.00000000E+00  0.00000000E+00
  0.00000000E+00  0.00000000E+00  0.00000000E+00
  0.00000000E+00  0.00000000E+00  0.00000000E+00
  0.00000000E+00  0.00000000E+00  0.00000000E+00
  0.00000000E+00  0.00000000E+00  0.00000000E+00
  0.00000000E+00  0.00000000E+00  0.00000000E+00
  0.00000000E+00  0.00000000E+00  0.00000000E+00
  0.00000000E+00  0.00000000E+00  0.00000000E+00
  0.00000000E+00  0.00000000E+00  0.00000000E+00
  0.00000000E+00  0.00000000E+00  0.00000000E+00
  0.00000000E+00  0.00000000E+00  0.00000000E+00
  0.00000000E+00  0.00000000E+00  0.00000000E+00
  0.00000000E+00  0.00000000E+00  0.00000000E+00
  0.00000000E+00  0.00000000E+00  0.00000000E+00
  0.00000000E+00  0.00000000E+00  0.00000000E+00
  0.00000000E+00  0.00000000E+00  0.00000000E+00
  0.00000000E+00  0.00000000E+00  0.00000000E+00
  0.00000000E+00  0.00000000E+00  0.00000000E+00
  0.00000000E+00  0.00000000E+00  0.00000000E+00
  0.00000000E+00  0.00000000E+00  0.00000000E+00
  0.00000000E+00  0.00000000E+00  0.00000000E+00
  0.00000000E+00  0.00000000E+00  0.00000000E+00
  0.00000000E+00  0.00000000E+00  0.00000000E+00
  0.00000000E+00  0.00000000E+00  0.00000000E+00
  0.00000000E+00  0.00000000E+00  0.00000000E+00
  0.00000000E+00  0.00000000E+00  0.00000000E+00
  0.00000000E+00  0.00000000E+00  0.00000000E+00
  0.00000000E+00  0.00000000E+00  0.00000000E+00
  0.00000000E+00  0.00000000E+00  0.00000000E+00
  0.00000000E+00  0.00000000E+00  0.00000000E+00
  0.00000000E+00  0.00000000E+00  0.00000000E+00
  0.00000000E+00  0.00000000E+00  0.00000000E+00
  0.00000000E+00  0.00000000E+00  0.00000000E+00
  0.00000000E+00  0.00000000E+00  0.00000000E+00
  0.00000000E+00  0.00000000E+00  0.00000000E+00
  0.00000000E+00  0.00000000E+00  0.00000000E+00
  0.00000000E+00  0.00000000E+00  0.00000000E+00
