Mg6 Ga4 F24                             
   1.00000000000000     
     9.4723547722541017    1.4912355596503197    0.0000000000000000
     1.5654393949129801    8.6031298137268468    0.0000000000000000
     0.0000000000000000    0.0000000000000000    5.0311505859127896
   F    Ga   Mg
    24     4     6
Direct
  0.7181587945681969  0.1042931061916477  0.0000000000000000
  0.1464711487210337  0.2797234968378675  0.0000000000000000
  0.7889473209610287  0.5089318698777916  0.0000000000000000
  0.3066771506744033  0.7952063972434402  0.0000000000000000
  0.5211505404999173  0.0168257480638658  0.2515316505375651
  0.0571250802226615  0.5890808153429319  0.2534649973212524
  0.2605313345126703  0.0338889984608883  0.2602443527103091
  0.9202619034535857  0.2082397021606326  0.2508111638060342
  0.3681264465406073  0.2908372031659212  0.2644236270018965
  0.6050244415734696  0.3767219866039468  0.2499075924521108
  0.3110732023242733  0.5743245365283656  0.2571716866601790
  0.5512035637301835  0.7100559565954185  0.2482319584354471
  0.0527885772226284  0.8781488437554543  0.2411617501007726
  0.7891932805272575  0.8071505594765185  0.2570734359009634
  0.2605313345126703  0.0338889984608883  0.7397556472896909
  0.9202619034535857  0.2082397021606326  0.7491888361939658
  0.3681264465406073  0.2908372031659212  0.7355763729981035
  0.6050244415734696  0.3767219866039468  0.7500924075478892
  0.3110732023242733  0.5743245365283656  0.7428283133398210
  0.5512035637301835  0.7100559565954185  0.7517680415645529
  0.0527885772226284  0.8781488437554543  0.7588382498992274
  0.7891932805272575  0.8071505594765185  0.7429265640990366
  0.5211505404999173  0.0168257480638658  0.7484683494624349
  0.0571250802226615  0.5890808153429319  0.7465350026787547
  0.3494368314128309  0.1394637518590329  0.0000000000000000
  0.7714698047861930  0.2867772030526510  0.0000000000000000
  0.1547731458434498  0.7005840936321022  0.0000000000000000
  0.6951183858580947  0.7348074815853565  0.0000000000000000
  0.0768102139383160  0.0789587780495182  0.0000000000000000
  0.4720962391745971  0.5641938626703364  0.0000000000000000
  0.5529373670655033  0.2083954051829693  0.5000000000000000
  0.2178917825962259  0.4512638693303614  0.5000000000000000
  0.9501683600192763  0.7809035931605806  0.5000000000000000
  0.4256867131663995  0.8955483910184441  0.5000000000000000
 
  0.00000000E+00  0.00000000E+00  0.00000000E+00
  0.00000000E+00  0.00000000E+00  0.00000000E+00
  0.00000000E+00  0.00000000E+00  0.00000000E+00
  0.00000000E+00  0.00000000E+00  0.00000000E+00
  0.00000000E+00  0.00000000E+00  0.00000000E+00
  0.00000000E+00  0.00000000E+00  0.00000000E+00
  0.00000000E+00  0.00000000E+00  0.00000000E+00
  0.00000000E+00  0.00000000E+00  0.00000000E+00
  0.00000000E+00  0.00000000E+00  0.00000000E+00
  0.00000000E+00  0.00000000E+00  0.00000000E+00
  0.00000000E+00  0.00000000E+00  0.00000000E+00
  0.00000000E+00  0.00000000E+00  0.00000000E+00
  0.00000000E+00  0.00000000E+00  0.00000000E+00
  0.00000000E+00  0.00000000E+00  0.00000000E+00
  0.00000000E+00  0.00000000E+00  0.00000000E+00
  0.00000000E+00  0.00000000E+00  0.00000000E+00
  0.00000000E+00  0.00000000E+00  0.00000000E+00
  0.00000000E+00  0.00000000E+00  0.00000000E+00
  0.00000000E+00  0.00000000E+00  0.00000000E+00
  0.00000000E+00  0.00000000E+00  0.00000000E+00
  0.00000000E+00  0.00000000E+00  0.00000000E+00
  0.00000000E+00  0.00000000E+00  0.00000000E+00
  0.00000000E+00  0.00000000E+00  0.00000000E+00
  0.00000000E+00  0.00000000E+00  0.00000000E+00
  0.00000000E+00  0.00000000E+00  0.00000000E+00
  0.00000000E+00  0.00000000E+00  0.00000000E+00
  0.00000000E+00  0.00000000E+00  0.00000000E+00
  0.00000000E+00  0.00000000E+00  0.00000000E+00
  0.00000000E+00  0.00000000E+00  0.00000000E+00
  0.00000000E+00  0.00000000E+00  0.00000000E+00
  0.00000000E+00  0.00000000E+00  0.00000000E+00
  0.00000000E+00  0.00000000E+00  0.00000000E+00
  0.00000000E+00  0.00000000E+00  0.00000000E+00
  0.00000000E+00  0.00000000E+00  0.00000000E+00
