Mg4 Ga4 Br20                            
   1.0000000000000000     
     0.0000000000000000    9.6647354896052704   -0.5926975989181982
    11.5048918773838711    0.0000000000000000    0.0000000000000000
     0.0000000000000000    0.9475841375280978  -10.4731032824015422
   Mg   Ga   Br
     4     4    20
Direct
  0.3210902496002532  0.3880154768226092  0.4494157189484582
  0.6789097503997397  0.8880154768226092  0.5505842810515418
  0.0299895617159436  0.1192384931401378  0.9305626969270975
  0.9700104382840564  0.6192384931401378  0.0694373030729096
  0.4793846061172502  0.6807526361986405  0.1593229097058497
  0.5206153938827427  0.1807526361986334  0.8406770902941574
  0.9564814891101534  0.6128465028051338  0.4596813498553090
  0.0435185108898466  0.1128465028051338  0.5403186501446982
  0.1819901064383771  0.9622579172250596  0.5877021503419115
  0.1634546084438213  0.5637391314476687  0.5493012444716285
  0.8365453915561787  0.0637391314476687  0.4506987555283644
  0.7386152273863189  0.6175412012419628  0.0035896897515357
  0.0833988192051223  0.4218552639423407  0.0530070058244192
  0.6669758987614500  0.1296203631831006  0.1126902070489351
  0.9691436902142740  0.2318102927470065  0.7281162127841299
  0.5848530553560209  0.8229431402874425  0.3603724790539928
  0.9166011807948919  0.9218552639423407  0.9469929941755808
  0.8458012487943734  0.7344830492213319  0.6308698685631882
  0.3330241012385500  0.6296203631831006  0.8873097929510649
  0.8180098935616300  0.4622579172250667  0.4122978496580885
  0.5389426125856360  0.9438942432968958  0.7558835599356399
  0.8640889424578404  0.2686012684406336  0.0844443609361178
  0.1541987512056266  0.2344830492213248  0.3691301314368118
  0.0308563097857260  0.7318102927470136  0.2718837872158701
  0.2613847726136740  0.1175412012419628  0.9964103102484572
  0.1359110575421596  0.7686012684406336  0.9155556390638822
  0.4151469446439791  0.3229431402874567  0.6396275209460001
  0.4610573874143711  0.4438942432968958  0.2441164400643601

  0.00000000E+00  0.00000000E+00  0.00000000E+00
  0.00000000E+00  0.00000000E+00  0.00000000E+00
  0.00000000E+00  0.00000000E+00  0.00000000E+00
  0.00000000E+00  0.00000000E+00  0.00000000E+00
  0.00000000E+00  0.00000000E+00  0.00000000E+00
  0.00000000E+00  0.00000000E+00  0.00000000E+00
  0.00000000E+00  0.00000000E+00  0.00000000E+00
  0.00000000E+00  0.00000000E+00  0.00000000E+00
  0.00000000E+00  0.00000000E+00  0.00000000E+00
  0.00000000E+00  0.00000000E+00  0.00000000E+00
  0.00000000E+00  0.00000000E+00  0.00000000E+00
  0.00000000E+00  0.00000000E+00  0.00000000E+00
  0.00000000E+00  0.00000000E+00  0.00000000E+00
  0.00000000E+00  0.00000000E+00  0.00000000E+00
  0.00000000E+00  0.00000000E+00  0.00000000E+00
  0.00000000E+00  0.00000000E+00  0.00000000E+00
  0.00000000E+00  0.00000000E+00  0.00000000E+00
  0.00000000E+00  0.00000000E+00  0.00000000E+00
  0.00000000E+00  0.00000000E+00  0.00000000E+00
  0.00000000E+00  0.00000000E+00  0.00000000E+00
  0.00000000E+00  0.00000000E+00  0.00000000E+00
  0.00000000E+00  0.00000000E+00  0.00000000E+00
  0.00000000E+00  0.00000000E+00  0.00000000E+00
  0.00000000E+00  0.00000000E+00  0.00000000E+00
  0.00000000E+00  0.00000000E+00  0.00000000E+00
  0.00000000E+00  0.00000000E+00  0.00000000E+00
  0.00000000E+00  0.00000000E+00  0.00000000E+00
  0.00000000E+00  0.00000000E+00  0.00000000E+00
