Ca2 Al2 Cl10                            
   1.0000000000000000     
     4.4383441385107192   -0.0000000000000001    0.0000000000000003
    -0.0000000000000009   10.9345110883369792    0.0000000000000009
     0.0000000000000002    0.0000000000000003   10.8640790704563628
   Ca   Al   Cl
     2     2    10
Direct
  0.0000000000000000  0.0000000000000000  0.5000000000000000
  0.5000000000000000  0.5000000000000000  0.0000000000000000
  0.5000000000000000  0.0000000000000000  0.0000000000000000
  0.0000000000000000  0.5000000000000000  0.5000000000000000
  0.5000000000000000  0.8462965744300135  0.5000000000000000
  0.5000000000000000  0.1537034255699865  0.5000000000000000
  0.5000000000000000  0.0000000000000000  0.1973559959856459
  0.5000000000000000  0.0000000000000000  0.8026440040143541
  0.0000000000000000  0.0000000000000000  0.0000000000000000
  0.0000000000000000  0.3462965744300135  0.0000000000000000
  0.0000000000000000  0.6537034255699865  0.0000000000000000
  0.0000000000000000  0.5000000000000000  0.6973559959856459
  0.0000000000000000  0.5000000000000000  0.3026440040143541
  0.5000000000000000  0.5000000000000000  0.5000000000000000

  0.00000000E+00  0.00000000E+00  0.00000000E+00
  0.00000000E+00  0.00000000E+00  0.00000000E+00
  0.00000000E+00  0.00000000E+00  0.00000000E+00
  0.00000000E+00  0.00000000E+00  0.00000000E+00
  0.00000000E+00  0.00000000E+00  0.00000000E+00
  0.00000000E+00  0.00000000E+00  0.00000000E+00
  0.00000000E+00  0.00000000E+00  0.00000000E+00
  0.00000000E+00  0.00000000E+00  0.00000000E+00
  0.00000000E+00  0.00000000E+00  0.00000000E+00
  0.00000000E+00  0.00000000E+00  0.00000000E+00
  0.00000000E+00  0.00000000E+00  0.00000000E+00
  0.00000000E+00  0.00000000E+00  0.00000000E+00
  0.00000000E+00  0.00000000E+00  0.00000000E+00
  0.00000000E+00  0.00000000E+00  0.00000000E+00
