Sr10 Al6 Cl38                           
   1.00000000000000     
    -0.0781254106993290    0.6373738999894150    9.4305407566069590
     8.4180150601110846    8.3453662071266201   -4.1353516411268778
    -9.0189503295798410    9.5713633153736186    5.4205666389595253
   Al   Sr   Cl
     6    10    38
Direct
  0.3096669870445439  0.9884095783124778  0.9637168620772556
  0.8019483448609819  0.0019727442585662  0.0350149854639170
  0.1408489509126341  0.4579622957097271  0.1910993493565272
  0.7047353929909974  0.8152098352451276  0.4563081691134556
  0.2806189695757055  0.1879042056107707  0.5389713522731938
  0.8349216879141892  0.5458368712938508  0.8156074819617558
  0.8127566675031801  0.6776095814421197  0.1316724403589973
  0.5428050241963902  0.2498693576503328  0.2156665480990867
  0.2766801294273051  0.8087578160175823  0.2208184992274056
  0.9394810342347029  0.1914737201621222  0.3589974763797414
  0.3337993668937642  0.5743487768812301  0.4237321681570378
  0.6433165243345016  0.4313479448575848  0.5781473931211778
  0.0470878531800452  0.8178233554265191  0.6537208252434539
  0.7230612249090953  0.2025688603576725  0.7795816014458623
  0.4458521859338518  0.7544888221740891  0.7781545762785811
  0.1775361750117526  0.3230351853783162  0.8691182653563558
  0.9999390129014500  0.0003937587018896  0.0820634806419704
  0.5739788429453156  0.9750553873141570  0.8841328038115535
  0.7136095215340532  0.5204016664469790  0.9926339041495922
  0.2064172178203805  0.7990412141010310  0.0172526150482071
  0.6456682654201060  0.8230824223199846  0.0614449301611444
  0.2625495254483852  0.3145869387325391  0.1839328100252828
  0.9142865340224375  0.3151844073197552  0.1948264041646368
  0.3270171751745181  0.0303684490935012  0.1221406443597957
  0.6289180102060428  0.0358944980716558  0.2036088193951642
  0.0147474548562911  0.6011357594848761  0.2103931757533815
  0.3627937958591403  0.5962351531828531  0.1995333225766345
  0.5948459875544643  0.4798971125516900  0.2616185140788190
  0.0291309930240686  0.4416647897662358  0.3763987705346707
  0.6106180548237106  0.7735455398879765  0.3199458222364413
  0.9672020175576108  0.8671021658796789  0.3282484964772934
  0.2200672471214418  0.1560861949040557  0.3888035439102921
  0.5659839086153511  0.2483007723377995  0.4214047280264808
  0.6934267947976309  0.6281469267077853  0.4594388498666646
  0.1787883997065336  0.7487210339767856  0.4327726152626852
  0.2987318743014953  0.0118459544630696  0.5334614748665203
  0.6877086865215531  0.9915448741165136  0.4635750192915111
  0.7911047984419497  0.2556349074416744  0.5728075746643455
  0.2817255914227843  0.3739594796194154  0.5391850877798277
  0.4134202056838348  0.7575350905522953  0.5789356950049083
  0.7714538066963570  0.8443733720668547  0.6027430498262802
  0.0120912057256604  0.1324960228323917  0.6544080141710538
  0.3650488082273498  0.2280846151951295  0.6791712446293943
  0.9579663281098831  0.5619857777820556  0.6314495602322339
  0.3842042935280006  0.5220259097917577  0.7382194397409094
  0.6182942599943786  0.4076430204592185  0.8010365685109804
  0.9600478560680230  0.3977523872736697  0.8048364568992952
  0.2940071845304786  0.9415150927495901  0.8091710495097431
  0.9385038421412517  0.9823917749146531  0.8658204831902339
  0.0558413057385820  0.6813848166625860  0.8206744649577331
  0.7148801874605084  0.6879892307591504  0.8163726170817753
  0.3667018350134086  0.1734328280619550  0.9290338767673134
  0.8127581395253216  0.1843685206900290  0.9935423178372389
  0.2509045125566089  0.4798231830087119  0.0138837606441911
 
  0.00000000E+00  0.00000000E+00  0.00000000E+00
  0.00000000E+00  0.00000000E+00  0.00000000E+00
  0.00000000E+00  0.00000000E+00  0.00000000E+00
  0.00000000E+00  0.00000000E+00  0.00000000E+00
  0.00000000E+00  0.00000000E+00  0.00000000E+00
  0.00000000E+00  0.00000000E+00  0.00000000E+00
  0.00000000E+00  0.00000000E+00  0.00000000E+00
  0.00000000E+00  0.00000000E+00  0.00000000E+00
  0.00000000E+00  0.00000000E+00  0.00000000E+00
  0.00000000E+00  0.00000000E+00  0.00000000E+00
  0.00000000E+00  0.00000000E+00  0.00000000E+00
  0.00000000E+00  0.00000000E+00  0.00000000E+00
  0.00000000E+00  0.00000000E+00  0.00000000E+00
  0.00000000E+00  0.00000000E+00  0.00000000E+00
  0.00000000E+00  0.00000000E+00  0.00000000E+00
  0.00000000E+00  0.00000000E+00  0.00000000E+00
  0.00000000E+00  0.00000000E+00  0.00000000E+00
  0.00000000E+00  0.00000000E+00  0.00000000E+00
  0.00000000E+00  0.00000000E+00  0.00000000E+00
  0.00000000E+00  0.00000000E+00  0.00000000E+00
  0.00000000E+00  0.00000000E+00  0.00000000E+00
  0.00000000E+00  0.00000000E+00  0.00000000E+00
  0.00000000E+00  0.00000000E+00  0.00000000E+00
  0.00000000E+00  0.00000000E+00  0.00000000E+00
  0.00000000E+00  0.00000000E+00  0.00000000E+00
  0.00000000E+00  0.00000000E+00  0.00000000E+00
  0.00000000E+00  0.00000000E+00  0.00000000E+00
  0.00000000E+00  0.00000000E+00  0.00000000E+00
  0.00000000E+00  0.00000000E+00  0.00000000E+00
  0.00000000E+00  0.00000000E+00  0.00000000E+00
  0.00000000E+00  0.00000000E+00  0.00000000E+00
  0.00000000E+00  0.00000000E+00  0.00000000E+00
  0.00000000E+00  0.00000000E+00  0.00000000E+00
  0.00000000E+00  0.00000000E+00  0.00000000E+00
  0.00000000E+00  0.00000000E+00  0.00000000E+00
  0.00000000E+00  0.00000000E+00  0.00000000E+00
  0.00000000E+00  0.00000000E+00  0.00000000E+00
  0.00000000E+00  0.00000000E+00  0.00000000E+00
  0.00000000E+00  0.00000000E+00  0.00000000E+00
  0.00000000E+00  0.00000000E+00  0.00000000E+00
  0.00000000E+00  0.00000000E+00  0.00000000E+00
  0.00000000E+00  0.00000000E+00  0.00000000E+00
  0.00000000E+00  0.00000000E+00  0.00000000E+00
  0.00000000E+00  0.00000000E+00  0.00000000E+00
  0.00000000E+00  0.00000000E+00  0.00000000E+00
  0.00000000E+00  0.00000000E+00  0.00000000E+00
  0.00000000E+00  0.00000000E+00  0.00000000E+00
  0.00000000E+00  0.00000000E+00  0.00000000E+00
  0.00000000E+00  0.00000000E+00  0.00000000E+00
  0.00000000E+00  0.00000000E+00  0.00000000E+00
  0.00000000E+00  0.00000000E+00  0.00000000E+00
  0.00000000E+00  0.00000000E+00  0.00000000E+00
  0.00000000E+00  0.00000000E+00  0.00000000E+00
  0.00000000E+00  0.00000000E+00  0.00000000E+00
