Be8 Tl8 Cl40                            
   1.0000000000000000     
    13.0905638161653037    0.0000000000000000    0.0000000000000000
     0.0000000000000000    9.0481881043497161    1.9545106394626754
     0.0000000000000000    4.2944460411070065   19.0939922442630845
   Be   Tl   Cl
     8     8    40
Direct
  0.1853459007063236  0.0499435784141298  0.0621134252713702
  0.8146540992936764  0.9500564215858702  0.9378865747286369
  0.6853459007063236  0.9500564215858702  0.4378865747286298
  0.3146540992936764  0.0499435784141298  0.5621134252713631
  0.9569026918100718  0.4091911418016139  0.0666908511781159
  0.0430973081899282  0.5908088581983932  0.9333091488218912
  0.4569026918100718  0.5908088581983932  0.4333091488218841
  0.5430973081899282  0.4091911418016139  0.5666908511781088
  0.7425606459949279  0.6673023559246047  0.3470747439274220
  0.2574393540050650  0.3326976440753810  0.6529252560725709
  0.2425606459949279  0.3326976440753810  0.1529252560725851
  0.7574393540050721  0.6673023559246047  0.8470747439274291
  0.6947852361155924  0.8871032084265096  0.1300277944115393
  0.3052147638844076  0.1128967915734975  0.8699722055884678
  0.1947852361155924  0.1128967915734975  0.3699722055884607
  0.8052147638844076  0.8871032084265096  0.6300277944115322
  0.3518947096205736  0.5582731982757352  0.1042599074066288
  0.6481052903794264  0.4417268017242790  0.8957400925933783
  0.8518947096205736  0.4417268017242790  0.3957400925933712
  0.1481052903794193  0.5582731982757352  0.6042599074066217
  0.9843991042121587  0.6505510287324938  0.0151619682737874
  0.0156008957878484  0.3494489712675062  0.9848380317262126
  0.4843991042121516  0.3494489712675062  0.4848380317262198
  0.5156008957878413  0.6505510287324938  0.5151619682737874
  0.3884777302888338  0.9319286339408279  0.6486866495931025
  0.6115222697111733  0.0680713660591721  0.3513133504068975
  0.8884777302888267  0.0680713660591721  0.8513133504068975
  0.1115222697111733  0.9319286339408279  0.1486866495931025
  0.5521265588049573  0.0601653641338373  0.0876942397037723
  0.4478734411950498  0.9398346358661627  0.9123057602962135
  0.0521265588049573  0.9398346358661627  0.4123057602962206
  0.9478734411950427  0.0601653641338373  0.5876942397037865
  0.7958971354792581  0.9291044014400853  0.2380654448287416
  0.2041028645207419  0.0708955985599147  0.7619345551712584
  0.2958971354792581  0.0708955985599147  0.2619345551712584
  0.7041028645207419  0.9291044014400853  0.7380654448287416
  0.8324559438302543  0.0054466006415907  0.0250668986904756
  0.1675440561697314  0.9945533993584093  0.9749331013095244
  0.3324559438302686  0.9945533993584093  0.4749331013095244
  0.6675440561697457  0.0054466006415907  0.5250668986904756
  0.5524988638542041  0.6873643951842681  0.3338509996491581
  0.4475011361457959  0.3126356048157319  0.6661490003508419
  0.0524988638542041  0.3126356048157319  0.1661490003508490
  0.9475011361457959  0.6873643951842681  0.8338509996491581
  0.8246886789025254  0.3342498286104387  0.1062232641343215
  0.1753113210974746  0.6657501713895613  0.8937767358656785
  0.3246886789025254  0.6657501713895613  0.3937767358656856
  0.6753113210974746  0.3342498286104387  0.6062232641343215
  0.2855962709801503  0.2178484375269960  0.0486428672138786
  0.7144037290198568  0.7821515624730040  0.9513571327861214
  0.7855962709801432  0.7821515624730040  0.4513571327861214
  0.2144037290198497  0.2178484375269960  0.5486428672138786
  0.7121405426405829  0.6021971283561101  0.1945335506342758
  0.2878594573594242  0.3978028716438757  0.8054664493657313
  0.2121405426405829  0.3978028716438757  0.3054664493657242
  0.7878594573594171  0.6021971283561101  0.6945335506342687

  0.00000000E+00  0.00000000E+00  0.00000000E+00
  0.00000000E+00  0.00000000E+00  0.00000000E+00
  0.00000000E+00  0.00000000E+00  0.00000000E+00
  0.00000000E+00  0.00000000E+00  0.00000000E+00
  0.00000000E+00  0.00000000E+00  0.00000000E+00
  0.00000000E+00  0.00000000E+00  0.00000000E+00
  0.00000000E+00  0.00000000E+00  0.00000000E+00
  0.00000000E+00  0.00000000E+00  0.00000000E+00
  0.00000000E+00  0.00000000E+00  0.00000000E+00
  0.00000000E+00  0.00000000E+00  0.00000000E+00
  0.00000000E+00  0.00000000E+00  0.00000000E+00
  0.00000000E+00  0.00000000E+00  0.00000000E+00
  0.00000000E+00  0.00000000E+00  0.00000000E+00
  0.00000000E+00  0.00000000E+00  0.00000000E+00
  0.00000000E+00  0.00000000E+00  0.00000000E+00
  0.00000000E+00  0.00000000E+00  0.00000000E+00
  0.00000000E+00  0.00000000E+00  0.00000000E+00
  0.00000000E+00  0.00000000E+00  0.00000000E+00
  0.00000000E+00  0.00000000E+00  0.00000000E+00
  0.00000000E+00  0.00000000E+00  0.00000000E+00
  0.00000000E+00  0.00000000E+00  0.00000000E+00
  0.00000000E+00  0.00000000E+00  0.00000000E+00
  0.00000000E+00  0.00000000E+00  0.00000000E+00
  0.00000000E+00  0.00000000E+00  0.00000000E+00
  0.00000000E+00  0.00000000E+00  0.00000000E+00
  0.00000000E+00  0.00000000E+00  0.00000000E+00
  0.00000000E+00  0.00000000E+00  0.00000000E+00
  0.00000000E+00  0.00000000E+00  0.00000000E+00
  0.00000000E+00  0.00000000E+00  0.00000000E+00
  0.00000000E+00  0.00000000E+00  0.00000000E+00
  0.00000000E+00  0.00000000E+00  0.00000000E+00
  0.00000000E+00  0.00000000E+00  0.00000000E+00
  0.00000000E+00  0.00000000E+00  0.00000000E+00
  0.00000000E+00  0.00000000E+00  0.00000000E+00
  0.00000000E+00  0.00000000E+00  0.00000000E+00
  0.00000000E+00  0.00000000E+00  0.00000000E+00
  0.00000000E+00  0.00000000E+00  0.00000000E+00
  0.00000000E+00  0.00000000E+00  0.00000000E+00
  0.00000000E+00  0.00000000E+00  0.00000000E+00
  0.00000000E+00  0.00000000E+00  0.00000000E+00
  0.00000000E+00  0.00000000E+00  0.00000000E+00
  0.00000000E+00  0.00000000E+00  0.00000000E+00
  0.00000000E+00  0.00000000E+00  0.00000000E+00
  0.00000000E+00  0.00000000E+00  0.00000000E+00
  0.00000000E+00  0.00000000E+00  0.00000000E+00
  0.00000000E+00  0.00000000E+00  0.00000000E+00
  0.00000000E+00  0.00000000E+00  0.00000000E+00
  0.00000000E+00  0.00000000E+00  0.00000000E+00
  0.00000000E+00  0.00000000E+00  0.00000000E+00
  0.00000000E+00  0.00000000E+00  0.00000000E+00
  0.00000000E+00  0.00000000E+00  0.00000000E+00
  0.00000000E+00  0.00000000E+00  0.00000000E+00
  0.00000000E+00  0.00000000E+00  0.00000000E+00
  0.00000000E+00  0.00000000E+00  0.00000000E+00
  0.00000000E+00  0.00000000E+00  0.00000000E+00
  0.00000000E+00  0.00000000E+00  0.00000000E+00
