Sr2 Tl2 Br10                            
   1.00000000000000     
     7.0112885902931836   -0.0443963547494481    2.6586115890779678
     1.4931516528568682    6.8505934148606276    2.6586116446769923
    -0.2101976274164829   -0.1682213560705376   11.1036701707202603
   Sr   Tl   Br
     2     2    10
Direct
  0.4375199591699186  0.5624800408556823  0.2499999999379838
  0.5624800408300814  0.4375199591443177  0.7500000000620162
  0.0000000000000000  0.0000000000000000  0.5000000000000000
  0.0000000000000000  0.0000000000000000  0.0000000000000000
  0.6965106859624939  0.8179735909512402  0.5982423951219999
  0.1820264086536767  0.3034883140134355  0.9017576050241374
  0.3034883140374944  0.1820264090487598  0.4017586048780046
  0.8179735913463233  0.6965106859865671  0.0982423949758626
  0.9136355474692834  0.0863644524232257  0.7500000001079172
  0.0863644525307166  0.9136355475767743  0.2499999998920828
  0.6498446043607800  0.2763575148739292  0.0418751454082980
  0.7236424851728529  0.3501553956362855  0.4581248546485028
  0.3501553956392200  0.7236424851260708  0.9581248545917020
  0.2763575148271471  0.6498446043637145  0.5418751453514972
 
  0.00000000E+00  0.00000000E+00  0.00000000E+00
  0.00000000E+00  0.00000000E+00  0.00000000E+00
  0.00000000E+00  0.00000000E+00  0.00000000E+00
  0.00000000E+00  0.00000000E+00  0.00000000E+00
  0.00000000E+00  0.00000000E+00  0.00000000E+00
  0.00000000E+00  0.00000000E+00  0.00000000E+00
  0.00000000E+00  0.00000000E+00  0.00000000E+00
  0.00000000E+00  0.00000000E+00  0.00000000E+00
  0.00000000E+00  0.00000000E+00  0.00000000E+00
  0.00000000E+00  0.00000000E+00  0.00000000E+00
  0.00000000E+00  0.00000000E+00  0.00000000E+00
  0.00000000E+00  0.00000000E+00  0.00000000E+00
  0.00000000E+00  0.00000000E+00  0.00000000E+00
  0.00000000E+00  0.00000000E+00  0.00000000E+00
