Ba32 In28                               
   1.0000000000000000     
    13.7852130888951709    0.0002040340374131    0.0002040514981195
     0.0002040514981195   13.7852130888951709    0.0002040340374131
     0.0002040340374131    0.0002040514981195   13.7852130888951709
   In   Ba
    28    32
Direct
  0.4362277630624121  0.5638469744432015  0.0641594363810754
  0.2500939013191825  0.6943524717170604  0.0722376466804278
  0.2551173680081007  0.1866588807866449  0.0756772476432630
  0.0756772476432630  0.2551173680081007  0.1866588807866449
  0.4277599005792041  0.7499624294792397  0.1944371770106059
  0.3056637975390188  0.5722515484799757  0.2500035681686086
  0.8133735707816001  0.5756921749568775  0.2449092017101790
  0.1866588807866449  0.0756772476432630  0.2551173680081007
  0.6943524717170604  0.0722376466804278  0.2500939013191825
  0.5722515484799757  0.2500035681686086  0.3056637975390188
  0.9242990611263835  0.7551136046193818  0.3132981153999523
  0.7448824221922550  0.6866715007901121  0.4243318128156091
  0.7499624294792397  0.1944371770106059  0.4277599005792041
  0.5638469744432015  0.0641594363810754  0.4362277630624121
  0.0641594363810754  0.4362277630624121  0.5638469744432015
  0.2500035681686086  0.3056637975390188  0.5722515484799757
  0.2449092017101790  0.8133735707816001  0.5756921749568775
  0.4243318128156091  0.7448824221922550  0.6866715007901121
  0.0722376466804278  0.2500939013191825  0.6943524717170604
  0.1944371770106059  0.4277599005792041  0.7499624294792397
  0.6866715007901121  0.4243318128156091  0.7448824221922550
  0.3132981153999523  0.9242990611263835  0.7551136046193818
  0.8055981562538008  0.9277347765225841  0.7500082786142954
  0.9277347765225841  0.7500082786142954  0.8055981562538008
  0.5756921749568775  0.2449092017101790  0.8133735707816001
  0.7551136046193818  0.3132981153999523  0.9242990611263835
  0.7500082786142954  0.8055981562538008  0.9277347765225841
  0.9360296899413783  0.9360296899413783  0.9360296899413783
  0.1976093529582315  0.9420110505381984  0.0041312374787168
  0.2038737504346742  0.4379013809920949  0.0227492384712633
  0.5041972929182208  0.3023317014142322  0.0580528766661601
  0.9772680914346026  0.7037631395576511  0.0620963817839666
  0.8132324275224221  0.3132310240716762  0.1868073225688249
  0.6893165339766796  0.8106308616385860  0.1893002268161226
  0.9420110505381984  0.0041312374787168  0.1976093529582315
  0.4379013809920949  0.0227492384712633  0.2038737504346742
  0.5621885063300311  0.5227659672735427  0.2964020760524662
  0.0580528766661601  0.5041972929182208  0.3023317014142322
  0.3106913016184052  0.3106913016184052  0.3106913016184052
  0.1868073225688249  0.8132324275224221  0.3132310240716762
  0.0227492384712633  0.2038737504346742  0.4379013809920949
  0.4958805971424596  0.8025829674420280  0.4420481149545594
  0.7960850452635100  0.9379247499509944  0.4772245410597122
  0.8025829674420280  0.4420481149545594  0.4958805971424596
  0.3023317014142322  0.0580528766661601  0.5041972929182208
  0.2964020760524662  0.5621885063300311  0.5227659672735427
  0.9958575495891608  0.6977412708438138  0.5579373167657948
  0.5227659672735427  0.2964020760524662  0.5621885063300311
  0.6867736274487655  0.6867736274487655  0.6867736274487655
  0.8106308616385860  0.1893002268161226  0.6893165339766796
  0.5579373167657948  0.9958575495891608  0.6977412708438138
  0.0620963817839666  0.9772680914346026  0.7037631395576511
  0.9379247499509944  0.4772245410597122  0.7960850452635100
  0.4420481149545594  0.4958805971424596  0.8025829674420280
  0.1893002268161226  0.6893165339766796  0.8106308616385860
  0.3132310240716762  0.1868073225688249  0.8132324275224221
  0.4772245410597122  0.7960850452635100  0.9379247499509944
  0.0041312374787168  0.1976093529582315  0.9420110505381984
  0.7037631395576511  0.0620963817839666  0.9772680914346026
  0.6977412708438138  0.5579373167657948  0.9958575495891608

  0.00000000E+00  0.00000000E+00  0.00000000E+00
  0.00000000E+00  0.00000000E+00  0.00000000E+00
  0.00000000E+00  0.00000000E+00  0.00000000E+00
  0.00000000E+00  0.00000000E+00  0.00000000E+00
  0.00000000E+00  0.00000000E+00  0.00000000E+00
  0.00000000E+00  0.00000000E+00  0.00000000E+00
  0.00000000E+00  0.00000000E+00  0.00000000E+00
  0.00000000E+00  0.00000000E+00  0.00000000E+00
  0.00000000E+00  0.00000000E+00  0.00000000E+00
  0.00000000E+00  0.00000000E+00  0.00000000E+00
  0.00000000E+00  0.00000000E+00  0.00000000E+00
  0.00000000E+00  0.00000000E+00  0.00000000E+00
  0.00000000E+00  0.00000000E+00  0.00000000E+00
  0.00000000E+00  0.00000000E+00  0.00000000E+00
  0.00000000E+00  0.00000000E+00  0.00000000E+00
  0.00000000E+00  0.00000000E+00  0.00000000E+00
  0.00000000E+00  0.00000000E+00  0.00000000E+00
  0.00000000E+00  0.00000000E+00  0.00000000E+00
  0.00000000E+00  0.00000000E+00  0.00000000E+00
  0.00000000E+00  0.00000000E+00  0.00000000E+00
  0.00000000E+00  0.00000000E+00  0.00000000E+00
  0.00000000E+00  0.00000000E+00  0.00000000E+00
  0.00000000E+00  0.00000000E+00  0.00000000E+00
  0.00000000E+00  0.00000000E+00  0.00000000E+00
  0.00000000E+00  0.00000000E+00  0.00000000E+00
  0.00000000E+00  0.00000000E+00  0.00000000E+00
  0.00000000E+00  0.00000000E+00  0.00000000E+00
  0.00000000E+00  0.00000000E+00  0.00000000E+00
  0.00000000E+00  0.00000000E+00  0.00000000E+00
  0.00000000E+00  0.00000000E+00  0.00000000E+00
  0.00000000E+00  0.00000000E+00  0.00000000E+00
  0.00000000E+00  0.00000000E+00  0.00000000E+00
  0.00000000E+00  0.00000000E+00  0.00000000E+00
  0.00000000E+00  0.00000000E+00  0.00000000E+00
  0.00000000E+00  0.00000000E+00  0.00000000E+00
  0.00000000E+00  0.00000000E+00  0.00000000E+00
  0.00000000E+00  0.00000000E+00  0.00000000E+00
  0.00000000E+00  0.00000000E+00  0.00000000E+00
  0.00000000E+00  0.00000000E+00  0.00000000E+00
  0.00000000E+00  0.00000000E+00  0.00000000E+00
  0.00000000E+00  0.00000000E+00  0.00000000E+00
  0.00000000E+00  0.00000000E+00  0.00000000E+00
  0.00000000E+00  0.00000000E+00  0.00000000E+00
  0.00000000E+00  0.00000000E+00  0.00000000E+00
  0.00000000E+00  0.00000000E+00  0.00000000E+00
  0.00000000E+00  0.00000000E+00  0.00000000E+00
  0.00000000E+00  0.00000000E+00  0.00000000E+00
  0.00000000E+00  0.00000000E+00  0.00000000E+00
  0.00000000E+00  0.00000000E+00  0.00000000E+00
  0.00000000E+00  0.00000000E+00  0.00000000E+00
  0.00000000E+00  0.00000000E+00  0.00000000E+00
  0.00000000E+00  0.00000000E+00  0.00000000E+00
  0.00000000E+00  0.00000000E+00  0.00000000E+00
  0.00000000E+00  0.00000000E+00  0.00000000E+00
  0.00000000E+00  0.00000000E+00  0.00000000E+00
  0.00000000E+00  0.00000000E+00  0.00000000E+00
  0.00000000E+00  0.00000000E+00  0.00000000E+00
  0.00000000E+00  0.00000000E+00  0.00000000E+00
  0.00000000E+00  0.00000000E+00  0.00000000E+00
  0.00000000E+00  0.00000000E+00  0.00000000E+00
