Ba1 In2 Cl10                            
   1.0000000000000000     
     3.6395170708874693    6.1576632274473031   -0.5730139531317410
    -3.6395170708874693    6.1576632274473031   -0.5730139531317410
     0.0000000000000000    3.4559295018980789    9.3555031440366161
   Ba   In   Cl
     1     2    10
Direct
  0.4951120410662426  0.5048879589337503  0.0000000000000000
  0.0174150188702384  0.9832108045205246  0.7391538134735853
  0.0167891954794754  0.9825849811297616  0.2608461865264147
  0.8698633573173566  0.3793957332101527  0.6769954498057302
  0.6206042667898473  0.1301366426826434  0.3230045501942698
  0.0952769211666364  0.6134520033328812  0.8511639857466236
  0.3865479966671188  0.9047230788333636  0.1488360142533764
  0.9160528063165856  0.0839471936834144  0.0000000000000000
  0.1441780658759910  0.8558219341240090  0.5000000000000000
  0.6119949112199095  0.1445842270305988  0.7392593160343210
  0.8554157729694012  0.3880050887800905  0.2607406839656790
  0.4042204142678827  0.8894717680067004  0.7499968874750209
  0.1105282319932996  0.5957795857321173  0.2500031125249791

  0.00000000E+00  0.00000000E+00  0.00000000E+00
  0.00000000E+00  0.00000000E+00  0.00000000E+00
  0.00000000E+00  0.00000000E+00  0.00000000E+00
  0.00000000E+00  0.00000000E+00  0.00000000E+00
  0.00000000E+00  0.00000000E+00  0.00000000E+00
  0.00000000E+00  0.00000000E+00  0.00000000E+00
  0.00000000E+00  0.00000000E+00  0.00000000E+00
  0.00000000E+00  0.00000000E+00  0.00000000E+00
  0.00000000E+00  0.00000000E+00  0.00000000E+00
  0.00000000E+00  0.00000000E+00  0.00000000E+00
  0.00000000E+00  0.00000000E+00  0.00000000E+00
  0.00000000E+00  0.00000000E+00  0.00000000E+00
  0.00000000E+00  0.00000000E+00  0.00000000E+00
