Mg4 Al2 Br10                            
   1.00000000000000     
     7.3748191716759051    0.0798161861078946    0.2363218258567488
     0.0346269453864717    9.8951348022867549   -0.0304295072472916
     3.8641665859701506    5.1098833361667673    8.1556000716467789
   Br   Mg   Al
    10     4     2
Direct
  0.1008926431728412  0.0984408432733588  0.9381805728939128
  0.5550606736261798  0.4355111619606546  0.0371405004303469
  0.4962515211668759  0.9764960340250113  0.3450695536224870
  0.9987332654886174  0.3098093875186194  0.1479204688678379
  0.7376691638515211  0.6574022300209421  0.2221247506003863
  0.2426314304483981  0.6864453119683418  0.2135931609850061
  0.6429728575132003  0.1841844521899034  0.8752599750702643
  0.3563835322728295  0.5377686060906086  0.6663940127886363
  0.9896836452712279  0.8398524503058198  0.7756859639432250
  0.4888571060552707  0.8757127087334098  0.7626087919963211
  0.3419494626165474  0.3141115644426122  0.9365688450091270
  0.7755617067964380  0.2067546482822777  0.0615315966812915
  0.1098084802122585  0.8066404355274202  0.9975959120590332
  0.6017839189354746  0.7188932587377721  0.0055530333357865
  0.3478259200925535  0.1145316634257156  0.5335731547762919
  0.7136346724797491  0.7371452434975225  0.4811997069400604
 
  0.00000000E+00  0.00000000E+00  0.00000000E+00
  0.00000000E+00  0.00000000E+00  0.00000000E+00
  0.00000000E+00  0.00000000E+00  0.00000000E+00
  0.00000000E+00  0.00000000E+00  0.00000000E+00
  0.00000000E+00  0.00000000E+00  0.00000000E+00
  0.00000000E+00  0.00000000E+00  0.00000000E+00
  0.00000000E+00  0.00000000E+00  0.00000000E+00
  0.00000000E+00  0.00000000E+00  0.00000000E+00
  0.00000000E+00  0.00000000E+00  0.00000000E+00
  0.00000000E+00  0.00000000E+00  0.00000000E+00
  0.00000000E+00  0.00000000E+00  0.00000000E+00
  0.00000000E+00  0.00000000E+00  0.00000000E+00
  0.00000000E+00  0.00000000E+00  0.00000000E+00
  0.00000000E+00  0.00000000E+00  0.00000000E+00
  0.00000000E+00  0.00000000E+00  0.00000000E+00
  0.00000000E+00  0.00000000E+00  0.00000000E+00
