Sr4 Tl4 F20                             
   1.0000000000000000     
     4.3224991652617435    0.0000000000000000    0.0000000000000003
    -0.0000000000000003    5.4562941721991542    0.0000000000000003
    -0.0000000000000001   -0.0000000000000001   15.6343897138078205
   Sr   Tl   F 
     4     4    20
Direct
  0.7508608972125472  0.4995639040565507  0.6774637150305907
  0.2508608972125472  0.0004360959434493  0.3225362849694093
  0.2491391027874528  0.9995639040565507  0.8225362849694093
  0.7491391027874528  0.5004360959434493  0.1774637150305907
  0.2514116843856655  0.0000806900221946  0.5749349535957293
  0.7514116843856655  0.4999193099778054  0.4250650464042707
  0.7485883156143345  0.5000806900221946  0.9250650464042707
  0.2485883156143345  0.9999193099778054  0.0749349535957293
  0.0008655631700591  0.3619085276724974  0.5390832568422894
  0.5008655631700591  0.1380914723275026  0.4609167431577106
  0.9991344368299409  0.8619085276724974  0.9609167431577106
  0.4991344368299409  0.6380914723275026  0.0390832568422894
  0.7403130105321765  0.7545185598326469  0.3113665532163736
  0.2403130105321765  0.7454814401673531  0.6886334467836193
  0.2596869894678235  0.2545185598326540  0.1886334467836193
  0.7596869894678235  0.2454814401673531  0.8113665532163736
  0.2609276310215591  0.2541912164956770  0.6888784580692402
  0.7609276310215662  0.2458087835043230  0.3111215419307598
  0.7390723689784338  0.7541912164956770  0.8111215419307598
  0.2390723689784338  0.7458087835043230  0.1888784580692402
  0.7508940912540680  0.0006354271238607  0.6320070480573889
  0.2508940912540680  0.4993645728761393  0.3679929519426111
  0.2491059087459320  0.5006354271238607  0.8679929519426111
  0.7491059087459320  0.9993645728761393  0.1320070480573889
  0.5030145742407512  0.6382659952399123  0.5390961735193400
  0.0030145742407512  0.8617340047600877  0.4609038264806600
  0.4969854257592488  0.1382659952399123  0.9609038264806600
  0.9969854257592488  0.3617340047600877  0.0390961735193400

  0.00000000E+00  0.00000000E+00  0.00000000E+00
  0.00000000E+00  0.00000000E+00  0.00000000E+00
  0.00000000E+00  0.00000000E+00  0.00000000E+00
  0.00000000E+00  0.00000000E+00  0.00000000E+00
  0.00000000E+00  0.00000000E+00  0.00000000E+00
  0.00000000E+00  0.00000000E+00  0.00000000E+00
  0.00000000E+00  0.00000000E+00  0.00000000E+00
  0.00000000E+00  0.00000000E+00  0.00000000E+00
  0.00000000E+00  0.00000000E+00  0.00000000E+00
  0.00000000E+00  0.00000000E+00  0.00000000E+00
  0.00000000E+00  0.00000000E+00  0.00000000E+00
  0.00000000E+00  0.00000000E+00  0.00000000E+00
  0.00000000E+00  0.00000000E+00  0.00000000E+00
  0.00000000E+00  0.00000000E+00  0.00000000E+00
  0.00000000E+00  0.00000000E+00  0.00000000E+00
  0.00000000E+00  0.00000000E+00  0.00000000E+00
  0.00000000E+00  0.00000000E+00  0.00000000E+00
  0.00000000E+00  0.00000000E+00  0.00000000E+00
  0.00000000E+00  0.00000000E+00  0.00000000E+00
  0.00000000E+00  0.00000000E+00  0.00000000E+00
  0.00000000E+00  0.00000000E+00  0.00000000E+00
  0.00000000E+00  0.00000000E+00  0.00000000E+00
  0.00000000E+00  0.00000000E+00  0.00000000E+00
  0.00000000E+00  0.00000000E+00  0.00000000E+00
  0.00000000E+00  0.00000000E+00  0.00000000E+00
  0.00000000E+00  0.00000000E+00  0.00000000E+00
  0.00000000E+00  0.00000000E+00  0.00000000E+00
  0.00000000E+00  0.00000000E+00  0.00000000E+00
