B4 Br8                                  
   1.00000000000000     
     6.1108422364659987   -0.1242619041109372   -0.3976869195811014
    -0.3325206210312500   12.3860491635608820    0.1630646140237029
    -2.0434696067082747    0.1099201729205195    7.1878479871947807
   B    Br
     4     8
Direct
  0.9499632065759869  0.4551606337350691  0.9204439309582710
  0.5377082995149749  0.9482771587087484  0.5727116386184576
  0.4459276707043145  0.0506138850384872  0.4178868160021239
  0.0661160503517451  0.5463609759350305  0.0890662940980249
  0.6411676052581043  0.1773273405403231  0.4320650872425347
  0.0270511481840998  0.4625583622337359  0.6921058228604622
  0.4835057178327773  0.9460132039593745  0.8109372737971299
  0.9136544623536125  0.6781718716832970  0.0828977859923441
  0.7408902716111996  0.3438478182724154  0.9566105174815789
  0.1464412146366953  0.0402495257772841  0.2257946513991769
  0.3508637248975504  0.5178831783522213  0.2884120784027289
  0.6967106280789181  0.8337360457639846  0.5109681031471638
 
  0.00000000E+00  0.00000000E+00  0.00000000E+00
  0.00000000E+00  0.00000000E+00  0.00000000E+00
  0.00000000E+00  0.00000000E+00  0.00000000E+00
  0.00000000E+00  0.00000000E+00  0.00000000E+00
  0.00000000E+00  0.00000000E+00  0.00000000E+00
  0.00000000E+00  0.00000000E+00  0.00000000E+00
  0.00000000E+00  0.00000000E+00  0.00000000E+00
  0.00000000E+00  0.00000000E+00  0.00000000E+00
  0.00000000E+00  0.00000000E+00  0.00000000E+00
  0.00000000E+00  0.00000000E+00  0.00000000E+00
  0.00000000E+00  0.00000000E+00  0.00000000E+00
  0.00000000E+00  0.00000000E+00  0.00000000E+00
