Sr10 Al4 I32                            
   1.00000000000000     
     5.4446996422012166   -8.7177221067217907    0.0000000000000000
     5.4446996422012166    8.7177221067217907    0.0000000000000000
     0.0000000000000000    0.0000000000000000   19.8885213118809148
   Sr   Al   I 
    10     4    32
Direct
  0.0000000000000000  0.0000000000000000  0.7196290821392992
  0.0000000000000000  0.0000000000000000  0.2803709178607008
  0.5000000000000000  0.5000000000000000  0.7803709178607008
  0.5000000000000000  0.5000000000000000  0.2196290821392992
  0.5000000000000000  0.5000000000000000  0.5000000000000000
  0.0000000000000000  0.0000000000000000  0.0000000000000000
  0.0000000000000000  0.5000000000000000  0.6381051429628570
  0.5000000000000000  0.0000000000000000  0.3618948570371430
  0.5000000000000000  0.0000000000000000  0.8618948570371430
  0.0000000000000000  0.5000000000000000  0.1381051429628570
  0.5000000000000000  0.0000000000000000  0.6166157563870982
  0.0000000000000000  0.5000000000000000  0.3833842436129018
  0.0000000000000000  0.5000000000000000  0.8833842436129018
  0.5000000000000000  0.0000000000000000  0.1166157563870982
  0.5379456790540260  0.1949022817622961  0.7149525718233249
  0.4620543209459740  0.8050977182377039  0.7149525718233249
  0.1949022817622961  0.5379456790540260  0.2850474281766751
  0.8050977182377039  0.4620543209459740  0.2850474281766751
  0.9620543209459740  0.3050977182377039  0.7850474281766751
  0.0379456790540260  0.6949022817622961  0.7850474281766751
  0.3050977182377039  0.9620543209459740  0.2149525718233249
  0.6949022817622961  0.0379456790540260  0.2149525718233249
  0.1779180645199077  0.8737432427415399  0.6120124771703530
  0.8220819354800923  0.1262567572584601  0.6120124771703530
  0.8737432427415399  0.1779180645199077  0.3879875228296470
  0.1262567572584601  0.8220819354800923  0.3879875228296470
  0.3220819354800923  0.6262567572584601  0.8879875228296470
  0.6779180645199077  0.3737432427415399  0.8879875228296470
  0.6676501002226800  0.9808185417633766  0.0146617192667478
  0.3323498997773200  0.0191814582366234  0.0146617192667478
  0.9808185417633766  0.6676501002226800  0.9853382807332522
  0.0191814582366234  0.3323498997773200  0.9853382807332522
  0.8323498997773200  0.5191814582366234  0.4853382807332522
  0.1676501002226800  0.4808185417633766  0.4853382807332522
  0.5191814582366234  0.8323498997773200  0.5146617192667478
  0.4808185417633766  0.1676501002226800  0.5146617192667478
  0.8678588691923395  0.7692578659049403  0.1498638588801597
  0.1321411308076605  0.2307421340950597  0.1498638588801597
  0.7692578659049403  0.8678588691923395  0.8501361411198403
  0.2307421340950597  0.1321411308076605  0.8501361411198403
  0.6321411308076605  0.7307421340950597  0.3501361411198403
  0.3678588691923395  0.2692578659049403  0.3501361411198403
  0.7307421340950597  0.6321411308076605  0.6498638588801597
  0.2692578659049403  0.3678588691923395  0.6498638588801597
  0.3737432427415399  0.6779180645199077  0.1120124771703601
  0.6262567572584601  0.3220819354800923  0.1120124771703601
 
  0.00000000E+00  0.00000000E+00  0.00000000E+00
  0.00000000E+00  0.00000000E+00  0.00000000E+00
  0.00000000E+00  0.00000000E+00  0.00000000E+00
  0.00000000E+00  0.00000000E+00  0.00000000E+00
  0.00000000E+00  0.00000000E+00  0.00000000E+00
  0.00000000E+00  0.00000000E+00  0.00000000E+00
  0.00000000E+00  0.00000000E+00  0.00000000E+00
  0.00000000E+00  0.00000000E+00  0.00000000E+00
  0.00000000E+00  0.00000000E+00  0.00000000E+00
  0.00000000E+00  0.00000000E+00  0.00000000E+00
  0.00000000E+00  0.00000000E+00  0.00000000E+00
  0.00000000E+00  0.00000000E+00  0.00000000E+00
  0.00000000E+00  0.00000000E+00  0.00000000E+00
  0.00000000E+00  0.00000000E+00  0.00000000E+00
  0.00000000E+00  0.00000000E+00  0.00000000E+00
  0.00000000E+00  0.00000000E+00  0.00000000E+00
  0.00000000E+00  0.00000000E+00  0.00000000E+00
  0.00000000E+00  0.00000000E+00  0.00000000E+00
  0.00000000E+00  0.00000000E+00  0.00000000E+00
  0.00000000E+00  0.00000000E+00  0.00000000E+00
  0.00000000E+00  0.00000000E+00  0.00000000E+00
  0.00000000E+00  0.00000000E+00  0.00000000E+00
  0.00000000E+00  0.00000000E+00  0.00000000E+00
  0.00000000E+00  0.00000000E+00  0.00000000E+00
  0.00000000E+00  0.00000000E+00  0.00000000E+00
  0.00000000E+00  0.00000000E+00  0.00000000E+00
  0.00000000E+00  0.00000000E+00  0.00000000E+00
  0.00000000E+00  0.00000000E+00  0.00000000E+00
  0.00000000E+00  0.00000000E+00  0.00000000E+00
  0.00000000E+00  0.00000000E+00  0.00000000E+00
  0.00000000E+00  0.00000000E+00  0.00000000E+00
  0.00000000E+00  0.00000000E+00  0.00000000E+00
  0.00000000E+00  0.00000000E+00  0.00000000E+00
  0.00000000E+00  0.00000000E+00  0.00000000E+00
  0.00000000E+00  0.00000000E+00  0.00000000E+00
  0.00000000E+00  0.00000000E+00  0.00000000E+00
  0.00000000E+00  0.00000000E+00  0.00000000E+00
  0.00000000E+00  0.00000000E+00  0.00000000E+00
  0.00000000E+00  0.00000000E+00  0.00000000E+00
  0.00000000E+00  0.00000000E+00  0.00000000E+00
  0.00000000E+00  0.00000000E+00  0.00000000E+00
  0.00000000E+00  0.00000000E+00  0.00000000E+00
  0.00000000E+00  0.00000000E+00  0.00000000E+00
  0.00000000E+00  0.00000000E+00  0.00000000E+00
  0.00000000E+00  0.00000000E+00  0.00000000E+00
  0.00000000E+00  0.00000000E+00  0.00000000E+00
