Be16 Tl13                               
   1.0000000000000000     
     7.5375564978789455   -4.4387149132919239    2.9731217689531526
    -0.0856760959451351    8.6839369420303196    2.9152112581503618
    -7.2730086877360991   -4.1407796519857270    2.6780707097112209
   Tl   Be
    13    16
Direct
  0.4068450248991553  0.6672898783847998  0.9643196396959155
  0.9658478745821100  0.9687652648519247  0.0555990719889152
  0.7903102631550851  0.4687708791373382  0.0694222258718113
  0.5942089310693461  0.4342914178902788  0.3470082489803232
  0.2740146870656730  0.8415149873157901  0.2818627277655139
  0.7192947803507082  0.1347813044692217  0.1752483997592194
  0.4947361031740698  0.3185659641344856  0.6312199299253294
  0.1389229608874345  0.3713777282327726  0.4983637976496098
  0.7369181221917174  0.8474131982459738  0.4011503327223167
  0.0555827707355832  0.6937092842294135  0.5294958209692879
  0.5504256056416352  0.9248676474889024  0.7094928053333120
  0.9602601237231170  0.5968472477400937  0.8022524719867761
  0.1882302494082353  0.1810413648619331  0.7997041176984112
  0.2658715080309761  0.1078019420889405  0.0664766313280154
  0.1896684766815184  0.3051982717387105  0.1627066439921805
  0.8906722677622696  0.2362839372199375  0.0171598296294277
  0.0807132245619115  0.3821194778355022  0.9514582846667565
  0.7496370747476675  0.7247410655053343  0.0623257908416193
  0.4115521752712681  0.9829384646558097  0.1271226630523330
  0.1474078296862942  0.5157652880093124  0.2526371754590784
  0.0167042872655401  0.8878135740981605  0.3456824299474022
  0.6386888045375230  0.1254205436196472  0.4352929887828907
  0.3739731759636200  0.5725657026380730  0.2164181043769062
  0.9454520274800160  0.2395612913677851  0.6227474812764129
  0.2946700234589272  0.0202154317643704  0.6127501296971829
  0.4022943917867821  0.5628885049065957  0.4744382401483875
  0.7817714345733791  0.2144314947088191  0.7368786944257977
  0.3460216450290474  0.0003965155691787  0.8732186253498853
  0.5889741562793986  0.6727823272908964  0.7775496966789746

  0.00000000E+00  0.00000000E+00  0.00000000E+00
  0.00000000E+00  0.00000000E+00  0.00000000E+00
  0.00000000E+00  0.00000000E+00  0.00000000E+00
  0.00000000E+00  0.00000000E+00  0.00000000E+00
  0.00000000E+00  0.00000000E+00  0.00000000E+00
  0.00000000E+00  0.00000000E+00  0.00000000E+00
  0.00000000E+00  0.00000000E+00  0.00000000E+00
  0.00000000E+00  0.00000000E+00  0.00000000E+00
  0.00000000E+00  0.00000000E+00  0.00000000E+00
  0.00000000E+00  0.00000000E+00  0.00000000E+00
  0.00000000E+00  0.00000000E+00  0.00000000E+00
  0.00000000E+00  0.00000000E+00  0.00000000E+00
  0.00000000E+00  0.00000000E+00  0.00000000E+00
  0.00000000E+00  0.00000000E+00  0.00000000E+00
  0.00000000E+00  0.00000000E+00  0.00000000E+00
  0.00000000E+00  0.00000000E+00  0.00000000E+00
  0.00000000E+00  0.00000000E+00  0.00000000E+00
  0.00000000E+00  0.00000000E+00  0.00000000E+00
  0.00000000E+00  0.00000000E+00  0.00000000E+00
  0.00000000E+00  0.00000000E+00  0.00000000E+00
  0.00000000E+00  0.00000000E+00  0.00000000E+00
  0.00000000E+00  0.00000000E+00  0.00000000E+00
  0.00000000E+00  0.00000000E+00  0.00000000E+00
  0.00000000E+00  0.00000000E+00  0.00000000E+00
  0.00000000E+00  0.00000000E+00  0.00000000E+00
  0.00000000E+00  0.00000000E+00  0.00000000E+00
  0.00000000E+00  0.00000000E+00  0.00000000E+00
  0.00000000E+00  0.00000000E+00  0.00000000E+00
  0.00000000E+00  0.00000000E+00  0.00000000E+00
