Be2 In2 F10                             
   1.0000000000000000     
     3.6375852384350145   -0.0000000000000000    0.0000000000000002
    -0.0000000000000005    7.2963060876530497    0.0000000000000005
     0.0000000000000000    0.0000000000000000    8.5498442427123837
   Be   In   F 
     2     2    10
Direct
  0.0000000000000000  0.0000000000000000  0.5000000000000000
  0.5000000000000000  0.5000000000000000  0.0000000000000000
  0.5000000000000000  0.0000000000000000  0.0000000000000000
  0.0000000000000000  0.5000000000000000  0.5000000000000000
  0.5000000000000000  0.8431737700363584  0.5000000000000000
  0.5000000000000000  0.1568262299636416  0.5000000000000000
  0.5000000000000000  0.0000000000000000  0.2330590348247696
  0.5000000000000000  0.0000000000000000  0.7669409651752375
  0.0000000000000000  0.0000000000000000  0.0000000000000000
  0.0000000000000000  0.3431737700363584  0.0000000000000000
  0.0000000000000000  0.6568262299636416  0.0000000000000000
  0.0000000000000000  0.5000000000000000  0.7330590348247625
  0.0000000000000000  0.5000000000000000  0.2669409651752375
  0.5000000000000000  0.5000000000000000  0.5000000000000000

  0.00000000E+00  0.00000000E+00  0.00000000E+00
  0.00000000E+00  0.00000000E+00  0.00000000E+00
  0.00000000E+00  0.00000000E+00  0.00000000E+00
  0.00000000E+00  0.00000000E+00  0.00000000E+00
  0.00000000E+00  0.00000000E+00  0.00000000E+00
  0.00000000E+00  0.00000000E+00  0.00000000E+00
  0.00000000E+00  0.00000000E+00  0.00000000E+00
  0.00000000E+00  0.00000000E+00  0.00000000E+00
  0.00000000E+00  0.00000000E+00  0.00000000E+00
  0.00000000E+00  0.00000000E+00  0.00000000E+00
  0.00000000E+00  0.00000000E+00  0.00000000E+00
  0.00000000E+00  0.00000000E+00  0.00000000E+00
  0.00000000E+00  0.00000000E+00  0.00000000E+00
  0.00000000E+00  0.00000000E+00  0.00000000E+00
