Ca4 Al10 Cl2                            
   1.00000000000000     
     8.2998529387819389    1.8580122184589447    4.5105645385759798
     2.0858733404140679    8.5337890978104287    3.3420831929989636
     7.7068480774914443    7.0801337951693215   11.2788073757475740
   Cl   Ca   Al
     2     4    10
Direct
  0.5365262369444324  0.9890021340830373  0.5610756604542928
  0.9216371652339248  0.5412368828802414  0.9742265500656657
  0.0527109771113530  0.9272961758122520  0.2903385403345808
  0.4307784227229305  0.0388862659909393  0.4172062728919599
  0.9590177803218012  0.5449398790117428  0.1325416134175441
  0.5418834812598163  0.7167309653968843  0.0099235292899493
  0.9445866520441584  0.1079410950835467  0.9619989170590699
  0.5659197398115410  0.3633913444992061  0.9709527958369151
  0.6401523226556094  0.9591875702786083  0.0486064728281548
  0.0385090833558266  0.2414656062634748  0.4006025813682115
  0.9149840127674764  0.7001831641307632  0.2824567644053317
  0.1594060543583069  0.4665651693815889  0.5358018817388697
  0.8255492097251249  0.3083042199540458  0.6430633162853852
  0.4302159007428870  0.6019016061084059  0.4906994857086957
  0.0956403255844620  0.8193180708555445  0.5176612358741224
  0.4423826353603459  0.1735498502697084  0.7628443824412727
 
  0.00000000E+00  0.00000000E+00  0.00000000E+00
  0.00000000E+00  0.00000000E+00  0.00000000E+00
  0.00000000E+00  0.00000000E+00  0.00000000E+00
  0.00000000E+00  0.00000000E+00  0.00000000E+00
  0.00000000E+00  0.00000000E+00  0.00000000E+00
  0.00000000E+00  0.00000000E+00  0.00000000E+00
  0.00000000E+00  0.00000000E+00  0.00000000E+00
  0.00000000E+00  0.00000000E+00  0.00000000E+00
  0.00000000E+00  0.00000000E+00  0.00000000E+00
  0.00000000E+00  0.00000000E+00  0.00000000E+00
  0.00000000E+00  0.00000000E+00  0.00000000E+00
  0.00000000E+00  0.00000000E+00  0.00000000E+00
  0.00000000E+00  0.00000000E+00  0.00000000E+00
  0.00000000E+00  0.00000000E+00  0.00000000E+00
  0.00000000E+00  0.00000000E+00  0.00000000E+00
  0.00000000E+00  0.00000000E+00  0.00000000E+00
