Mg4 In8 Br32                            
   1.0000000000000000     
    -6.4157256307403872    6.4157256307403872   10.7147035370906902
     6.4157256307403872   -6.4157256307403872   10.7147035370906902
     6.4157256307403872    6.4157256307403872  -10.7147035370906902
   Mg   In   Br
     4     8    32
Direct
  0.0000000000000000  0.0000000000000000  0.0000000000000000
  0.7500000000000000  0.2500000000000000  0.5000000000000000
  0.2500000000000000  0.7500000000000000  0.5000000000000000
  0.5000000000000000  0.5000000000000000  0.0000000000000000
  0.5795237052718960  0.8750000000000000  0.2045237052718960
  0.1250000000000000  0.8295237052718960  0.2045237052718960
  0.1250000000000000  0.3295237052718960  0.7045237052718960
  0.6704762947281040  0.3750000000000000  0.7954762947281040
  0.6250000000000000  0.9204762947281040  0.7954762947281040
  0.0795237052718960  0.8750000000000000  0.7045237052718960
  0.1704762947281040  0.3750000000000000  0.2954762947281040
  0.6250000000000000  0.4204762947281040  0.2954762947281040
  0.6081154904342014  0.2087436291089801  0.2436887695766288
  0.1144267208575656  0.8581154904342014  0.8993718613252284
  0.7849451404676628  0.8855732791424344  0.7436887695766288
  0.2922563082977234  0.2398774742576535  0.2256057573629136
  0.7922563082977234  0.5666505509348028  0.0523798340400674
  0.8166505509348028  0.5422563082977234  0.5523798340400674
  0.1418845095657986  0.0412563708910199  0.2563112304233712
  0.9587436291089801  0.2150548595323372  0.1006281386747716
  0.4650548595323372  0.7087436291089801  0.6006281386747716
  0.2601225257423465  0.2077436917022766  0.7743942426370864
  0.0142707168947283  0.0666505509348028  0.7743942426370864
  0.9577436917022766  0.6833494490651972  0.4476201659599326
  0.9333494490651972  0.7077436917022766  0.9476201659599326
  0.1355732791424344  0.5349451404676628  0.2436887695766288
  0.2849451404676628  0.5412563708910199  0.8993718613252284
  0.6144267208575656  0.7150548595323372  0.2563112304233712
  0.7357292831052717  0.1833494490651972  0.7256057573629136
  0.2912563708910199  0.8918845095657986  0.7563112304233712
  0.4587436291089801  0.3581154904342014  0.7436887695766288
  0.9650548595323372  0.3644267208575656  0.7563112304233712
  0.3166505509348028  0.7642707168947283  0.2743942426370864
  0.4333494490651972  0.4857292831052717  0.2256057573629136
  0.6355732791424344  0.3918845095657986  0.6006281386747716
  0.6418845095657986  0.3855732791424344  0.1006281386747716
  0.2357292831052717  0.5101225257423465  0.5523798340400674
  0.4577436917022766  0.0101225257423465  0.2743942426370864
  0.1081154904342014  0.8644267208575656  0.3993718613252284
  0.4898774742576535  0.0422563082977234  0.7256057573629136
  0.5142707168947283  0.7398774742576535  0.9476201659599326
  0.9898774742576535  0.2642707168947283  0.4476201659599326
  0.7912563708910199  0.0349451404676628  0.3993718613252284
  0.7601225257423465  0.9857292831052717  0.0523798340400674

  0.00000000E+00  0.00000000E+00  0.00000000E+00
  0.00000000E+00  0.00000000E+00  0.00000000E+00
  0.00000000E+00  0.00000000E+00  0.00000000E+00
  0.00000000E+00  0.00000000E+00  0.00000000E+00
  0.00000000E+00  0.00000000E+00  0.00000000E+00
  0.00000000E+00  0.00000000E+00  0.00000000E+00
  0.00000000E+00  0.00000000E+00  0.00000000E+00
  0.00000000E+00  0.00000000E+00  0.00000000E+00
  0.00000000E+00  0.00000000E+00  0.00000000E+00
  0.00000000E+00  0.00000000E+00  0.00000000E+00
  0.00000000E+00  0.00000000E+00  0.00000000E+00
  0.00000000E+00  0.00000000E+00  0.00000000E+00
  0.00000000E+00  0.00000000E+00  0.00000000E+00
  0.00000000E+00  0.00000000E+00  0.00000000E+00
  0.00000000E+00  0.00000000E+00  0.00000000E+00
  0.00000000E+00  0.00000000E+00  0.00000000E+00
  0.00000000E+00  0.00000000E+00  0.00000000E+00
  0.00000000E+00  0.00000000E+00  0.00000000E+00
  0.00000000E+00  0.00000000E+00  0.00000000E+00
  0.00000000E+00  0.00000000E+00  0.00000000E+00
  0.00000000E+00  0.00000000E+00  0.00000000E+00
  0.00000000E+00  0.00000000E+00  0.00000000E+00
  0.00000000E+00  0.00000000E+00  0.00000000E+00
  0.00000000E+00  0.00000000E+00  0.00000000E+00
  0.00000000E+00  0.00000000E+00  0.00000000E+00
  0.00000000E+00  0.00000000E+00  0.00000000E+00
  0.00000000E+00  0.00000000E+00  0.00000000E+00
  0.00000000E+00  0.00000000E+00  0.00000000E+00
  0.00000000E+00  0.00000000E+00  0.00000000E+00
  0.00000000E+00  0.00000000E+00  0.00000000E+00
  0.00000000E+00  0.00000000E+00  0.00000000E+00
  0.00000000E+00  0.00000000E+00  0.00000000E+00
  0.00000000E+00  0.00000000E+00  0.00000000E+00
  0.00000000E+00  0.00000000E+00  0.00000000E+00
  0.00000000E+00  0.00000000E+00  0.00000000E+00
  0.00000000E+00  0.00000000E+00  0.00000000E+00
  0.00000000E+00  0.00000000E+00  0.00000000E+00
  0.00000000E+00  0.00000000E+00  0.00000000E+00
  0.00000000E+00  0.00000000E+00  0.00000000E+00
  0.00000000E+00  0.00000000E+00  0.00000000E+00
  0.00000000E+00  0.00000000E+00  0.00000000E+00
  0.00000000E+00  0.00000000E+00  0.00000000E+00
  0.00000000E+00  0.00000000E+00  0.00000000E+00
  0.00000000E+00  0.00000000E+00  0.00000000E+00
