Mg2 B2 I10                              
   1.00000000000000     
     7.2442398030445023   -0.6825016912536921    2.2846021662374594
     0.9216058253236218    7.2177173454070704    2.2846032817771791
    -2.3441940097363956   -1.8760800143569554   14.5184229143161261
   Mg   B    I 
     2     2    10
Direct
  0.3775920918373643  0.6224079092557560  0.2499999986684784
  0.6224079081626357  0.3775920907442440  0.7500000013315216
  0.0000000000000000  0.0000000000000000  0.5000000000000000
  0.0000000000000000  0.0000000000000000  0.0000000000000000
  0.6340215135339093  0.6433067629726352  0.6101881562205733
  0.3566932398151010  0.3659774832620712  0.8898118435321791
  0.3659774864660932  0.3566932370273648  0.3898128437794313
  0.6433067601848990  0.6340215167379313  0.1101881564678280
  0.8838692705425686  0.1161307294023217  0.7500000004595222
  0.1161307294574314  0.8838692705976783  0.2499999995404778
  0.8360071255750441  0.2062741045987693  0.0422889904093893
  0.7937258933568998  0.1639928741785681  0.4577110117524796
  0.1639928744249559  0.7937258954012307  0.9577110095906107
  0.2062741066431002  0.8360071258214390  0.5422889882475133
 
  0.00000000E+00  0.00000000E+00  0.00000000E+00
  0.00000000E+00  0.00000000E+00  0.00000000E+00
  0.00000000E+00  0.00000000E+00  0.00000000E+00
  0.00000000E+00  0.00000000E+00  0.00000000E+00
  0.00000000E+00  0.00000000E+00  0.00000000E+00
  0.00000000E+00  0.00000000E+00  0.00000000E+00
  0.00000000E+00  0.00000000E+00  0.00000000E+00
  0.00000000E+00  0.00000000E+00  0.00000000E+00
  0.00000000E+00  0.00000000E+00  0.00000000E+00
  0.00000000E+00  0.00000000E+00  0.00000000E+00
  0.00000000E+00  0.00000000E+00  0.00000000E+00
  0.00000000E+00  0.00000000E+00  0.00000000E+00
  0.00000000E+00  0.00000000E+00  0.00000000E+00
  0.00000000E+00  0.00000000E+00  0.00000000E+00
