Be4 Tl10 Cl2                            
   1.0000000000000000     
     6.8413673180910211    0.0197155175427341   -0.1131242996591306
     0.0197089921485313    6.8401393156521326   -0.1089958654823210
     3.2882431370298129    3.2929291131458700    8.9766016508895543
   Cl   Be   Tl
     2     4    10
Direct
  0.7453972138964673  0.7550276786673393  0.5000320887390970
  0.2549392950753671  0.2453970723353081  0.4999058662982065
  0.3822202689702792  0.1181409006884451  0.9998856248984254
  0.8849821235353588  0.3849871555685311  0.9926136314163543
  0.1150024535179313  0.6150397961464549  0.0072256235959856
  0.6175616142772071  0.8816608566220268  0.0002097580039333
  0.9998490695966495  0.0001246451551324  0.9999922707943227
  0.4999676253031780  0.4997934660060679  0.0000099683121704
  0.5570965339270231  0.0571740718784000  0.2515657484908118
  0.0568228011139666  0.2060612373526425  0.2495135886809976
  0.7071469350998143  0.5571759680538193  0.2488279416313262
  0.2043544226921910  0.7038893460070454  0.2580639167877123
  0.7961931645522284  0.2964278249172878  0.7410935073796807
  0.2928872624217078  0.4428246048999966  0.7513384607507518
  0.9427600417119493  0.7933574768170146  0.7512342505282419
  0.4427191743086851  0.9428178988844778  0.7484877536919896

  0.00000000E+00  0.00000000E+00  0.00000000E+00
  0.00000000E+00  0.00000000E+00  0.00000000E+00
  0.00000000E+00  0.00000000E+00  0.00000000E+00
  0.00000000E+00  0.00000000E+00  0.00000000E+00
  0.00000000E+00  0.00000000E+00  0.00000000E+00
  0.00000000E+00  0.00000000E+00  0.00000000E+00
  0.00000000E+00  0.00000000E+00  0.00000000E+00
  0.00000000E+00  0.00000000E+00  0.00000000E+00
  0.00000000E+00  0.00000000E+00  0.00000000E+00
  0.00000000E+00  0.00000000E+00  0.00000000E+00
  0.00000000E+00  0.00000000E+00  0.00000000E+00
  0.00000000E+00  0.00000000E+00  0.00000000E+00
  0.00000000E+00  0.00000000E+00  0.00000000E+00
  0.00000000E+00  0.00000000E+00  0.00000000E+00
  0.00000000E+00  0.00000000E+00  0.00000000E+00
  0.00000000E+00  0.00000000E+00  0.00000000E+00
