Sr1 Cl6                                 
   1.00000000000000     
     5.7616229188219865  -11.4083980118771873    0.0000000000000000
     5.7616229188219865   11.4083980118771873    0.0000000000000000
     0.0000000000000000    0.0000000000000000   12.2363640963072235
   Sr   Cl
     1     6
Direct
  0.0000000000000000  0.0000000000000000  0.0000000000000000
  0.0000000000000000  0.0000000000000000  0.2161572109679284
  0.0000000000000000  0.0000000000000000  0.7838427890320716
  0.2251438236996393  0.9487809872598874  0.0000000000000000
  0.7748561763003607  0.0512190127401126  0.0000000000000000
  0.9487809872598874  0.2251438236996393  0.0000000000000000
  0.0512190127401126  0.7748561763003607  0.0000000000000000
 
  0.00000000E+00  0.00000000E+00  0.00000000E+00
  0.00000000E+00  0.00000000E+00  0.00000000E+00
  0.00000000E+00  0.00000000E+00  0.00000000E+00
  0.00000000E+00  0.00000000E+00  0.00000000E+00
  0.00000000E+00  0.00000000E+00  0.00000000E+00
  0.00000000E+00  0.00000000E+00  0.00000000E+00
  0.00000000E+00  0.00000000E+00  0.00000000E+00
