Tl10 Cl18                               
   1.0000000000000000     
     0.0962990402499288   -8.3652781396148015    7.3602128585194126
     6.2812021394813886   -3.2346503562614806   -6.2098601691415887
     6.2315475101765587    3.1441583456080742    6.1770067170977159
   Cl   Tl
    18    10
Direct
  0.2137025695519341  0.1100915961349997  0.0874278089196920
  0.8579395305317234  0.2579716265054302  0.1250729932717149
  0.3670798191933500  0.7691493175725839  0.0462911814966915
  0.4467409902982524  0.4350207453593882  0.2100631098367813
  0.1338964593091276  0.5544111839996759  0.2881694708781097
  0.9417703551907834  0.8699171341483023  0.3100027882187462
  0.2493492082995274  0.9116436065152982  0.3990405677276669
  0.7592022471269786  0.5270152080110435  0.4509604971964549
  0.5607833853695752  0.8091238320691332  0.3423186020617308
  0.4348970986645284  0.2409022194141528  0.6018162285760482
  0.2918648361114506  0.6230971453471668  0.6190859855622932
  0.7363074307442474  0.1213565654037083  0.5233785590004061
  0.0484297471865602  0.1247506069715882  0.7124687815246844
  0.8673633148010538  0.4147910515788098  0.7614950341765976
  0.5665456654511161  0.5442327688490494  0.8323641972220983
  0.6055692866408293  0.1690435211961656  0.9017340343084541
  0.0527902677309910  0.6865332052385469  0.9513160139507946
  0.7798401179869643  0.8757435388963728  0.8648434411181043
  0.7533782489375298  0.6022226713545180  0.1212254276430187
  0.1510966231436086  0.8471517331838854  0.1454283012594075
  0.4948394011807764  0.1184794055717049  0.2632871767750231
  0.3520309719576744  0.6498122217434599  0.3434782665591243
  0.0134693462869890  0.2148041163381791  0.3731286746085658
  0.0016938074926500  0.7504456383916462  0.6196639995548665
  0.6542349094592126  0.3531318058471058  0.6441935603519582
  0.5389557460372600  0.8535562372899577  0.7125406022823881
  0.8420721645552192  0.1523644481068089  0.8694937458380494
  0.2842564507600684  0.4133368489613360  0.8798109500804969

  0.00000000E+00  0.00000000E+00  0.00000000E+00
  0.00000000E+00  0.00000000E+00  0.00000000E+00
  0.00000000E+00  0.00000000E+00  0.00000000E+00
  0.00000000E+00  0.00000000E+00  0.00000000E+00
  0.00000000E+00  0.00000000E+00  0.00000000E+00
  0.00000000E+00  0.00000000E+00  0.00000000E+00
  0.00000000E+00  0.00000000E+00  0.00000000E+00
  0.00000000E+00  0.00000000E+00  0.00000000E+00
  0.00000000E+00  0.00000000E+00  0.00000000E+00
  0.00000000E+00  0.00000000E+00  0.00000000E+00
  0.00000000E+00  0.00000000E+00  0.00000000E+00
  0.00000000E+00  0.00000000E+00  0.00000000E+00
  0.00000000E+00  0.00000000E+00  0.00000000E+00
  0.00000000E+00  0.00000000E+00  0.00000000E+00
  0.00000000E+00  0.00000000E+00  0.00000000E+00
  0.00000000E+00  0.00000000E+00  0.00000000E+00
  0.00000000E+00  0.00000000E+00  0.00000000E+00
  0.00000000E+00  0.00000000E+00  0.00000000E+00
  0.00000000E+00  0.00000000E+00  0.00000000E+00
  0.00000000E+00  0.00000000E+00  0.00000000E+00
  0.00000000E+00  0.00000000E+00  0.00000000E+00
  0.00000000E+00  0.00000000E+00  0.00000000E+00
  0.00000000E+00  0.00000000E+00  0.00000000E+00
  0.00000000E+00  0.00000000E+00  0.00000000E+00
  0.00000000E+00  0.00000000E+00  0.00000000E+00
  0.00000000E+00  0.00000000E+00  0.00000000E+00
  0.00000000E+00  0.00000000E+00  0.00000000E+00
  0.00000000E+00  0.00000000E+00  0.00000000E+00
