Ca41 B67                                
   1.00000000000000     
    11.8604962797655293    0.0000000000000000    0.0000000000000000
     0.0000000000000000   11.8604962797655293    0.0000000000000000
     0.0000000000000000    0.0000000000000000   11.8604962797655293
   B    Ca
    67    41
Direct
  0.3671512667715433  0.1792244313673521  0.0000000000000000
  0.6328487332284567  0.1792244313673521  0.0000000000000000
  0.5000000000000000  0.2148052414442958  0.0000000000000000
  0.1792244313673521  0.3671512667715433  0.0000000000000000
  0.8207755686326479  0.3671512667715433  0.0000000000000000
  0.2148052414442958  0.5000000000000000  0.0000000000000000
  0.7851947585557042  0.5000000000000000  0.0000000000000000
  0.1792244313673521  0.6328487332284567  0.0000000000000000
  0.8207755686326479  0.6328487332284567  0.0000000000000000
  0.5000000000000000  0.7851947585557042  0.0000000000000000
  0.3671512667715433  0.8207755686326479  0.0000000000000000
  0.6328487332284567  0.8207755686326479  0.0000000000000000
  0.5000000000000000  0.1509247028181306  0.1509247028181306
  0.1509247028181306  0.5000000000000000  0.1509247028181306
  0.8490752971818694  0.5000000000000000  0.1509247028181306
  0.5000000000000000  0.8490752971818694  0.1509247028181306
  0.5000000000000000  0.5000000000000000  0.2830027435060671
  0.3671512667715433  0.0000000000000000  0.1792244313673521
  0.6328487332284567  0.0000000000000000  0.1792244313673521
  0.0000000000000000  0.3671512667715433  0.1792244313673521
  0.0000000000000000  0.6328487332284567  0.1792244313673521
  0.5000000000000000  0.0000000000000000  0.2148052414442958
  0.0000000000000000  0.5000000000000000  0.2148052414442958
  0.5000000000000000  0.3889893098730539  0.3889893098730539
  0.3889893098730539  0.5000000000000000  0.3889893098730539
  0.6110106901269461  0.5000000000000000  0.3889893098730539
  0.5000000000000000  0.6110106901269461  0.3889893098730539
  0.1792244313673521  0.0000000000000000  0.3671512667715433
  0.8207755686326479  0.0000000000000000  0.3671512667715433
  0.0000000000000000  0.1792244313673521  0.3671512667715433
  0.0000000000000000  0.8207755686326479  0.3671512667715433
  0.2148052414442958  0.0000000000000000  0.5000000000000000
  0.7851947585557042  0.0000000000000000  0.5000000000000000
  0.1509247028181306  0.1509247028181306  0.5000000000000000
  0.8490752971818694  0.1509247028181306  0.5000000000000000
  0.5000000000000000  0.2830027435060671  0.5000000000000000
  0.0000000000000000  0.2148052414442958  0.5000000000000000
  0.3889893098730539  0.3889893098730539  0.5000000000000000
  0.6110106901269461  0.3889893098730539  0.5000000000000000
  0.2830027435060671  0.5000000000000000  0.5000000000000000
  0.5000000000000000  0.5000000000000000  0.5000000000000000
  0.7169972564939329  0.5000000000000000  0.5000000000000000
  0.3889893098730539  0.6110106901269461  0.5000000000000000
  0.6110106901269461  0.6110106901269461  0.5000000000000000
  0.0000000000000000  0.7851947585557042  0.5000000000000000
  0.5000000000000000  0.7169972564939329  0.5000000000000000
  0.1509247028181306  0.8490752971818694  0.5000000000000000
  0.8490752971818694  0.8490752971818694  0.5000000000000000
  0.1792244313673521  0.0000000000000000  0.6328487332284567
  0.8207755686326479  0.0000000000000000  0.6328487332284567
  0.0000000000000000  0.1792244313673521  0.6328487332284567
  0.0000000000000000  0.8207755686326479  0.6328487332284567
  0.5000000000000000  0.3889893098730539  0.6110106901269461
  0.3889893098730539  0.5000000000000000  0.6110106901269461
  0.6110106901269461  0.5000000000000000  0.6110106901269461
  0.5000000000000000  0.6110106901269461  0.6110106901269461
  0.5000000000000000  0.0000000000000000  0.7851947585557042
  0.0000000000000000  0.5000000000000000  0.7851947585557042
  0.3671512667715433  0.0000000000000000  0.8207755686326479
  0.6328487332284567  0.0000000000000000  0.8207755686326479
  0.0000000000000000  0.3671512667715433  0.8207755686326479
  0.0000000000000000  0.6328487332284567  0.8207755686326479
  0.5000000000000000  0.5000000000000000  0.7169972564939329
  0.5000000000000000  0.1509247028181306  0.8490752971818694
  0.1509247028181306  0.5000000000000000  0.8490752971818694
  0.8490752971818694  0.5000000000000000  0.8490752971818694
  0.5000000000000000  0.8490752971818694  0.8490752971818694
  0.2347854559228466  0.0000000000000000  0.0000000000000000
  0.5000000000000000  0.0000000000000000  0.0000000000000000
  0.7652145440771534  0.0000000000000000  0.0000000000000000
  0.0000000000000000  0.2347854559228466  0.0000000000000000
  0.0000000000000000  0.5000000000000000  0.0000000000000000
  0.0000000000000000  0.7652145440771534  0.0000000000000000
  0.3671994237609582  0.3671994237609582  0.1460379053008296
  0.6328005762390418  0.3671994237609582  0.1460379053008296
  0.3671994237609582  0.6328005762390418  0.1460379053008296
  0.6328005762390418  0.6328005762390418  0.1460379053008296
  0.1780460112648825  0.1780460112648825  0.1780460112648825
  0.8219539887351175  0.1780460112648825  0.1780460112648825
  0.1780460112648825  0.8219539887351175  0.1780460112648825
  0.8219539887351175  0.8219539887351175  0.1780460112648825
  0.0000000000000000  0.0000000000000000  0.2347854559228466
  0.3671994237609582  0.1460379053008296  0.3671994237609582
  0.6328005762390418  0.1460379053008296  0.3671994237609582
  0.1460379053008296  0.3671994237609582  0.3671994237609582
  0.8539620946991704  0.3671994237609582  0.3671994237609582
  0.1460379053008296  0.6328005762390418  0.3671994237609582
  0.8539620946991704  0.6328005762390418  0.3671994237609582
  0.3671994237609582  0.8539620946991704  0.3671994237609582
  0.6328005762390418  0.8539620946991704  0.3671994237609582
  0.0000000000000000  0.0000000000000000  0.5000000000000000
  0.3671994237609582  0.1460379053008296  0.6328005762390418
  0.6328005762390418  0.1460379053008296  0.6328005762390418
  0.1460379053008296  0.3671994237609582  0.6328005762390418
  0.8539620946991704  0.3671994237609582  0.6328005762390418
  0.1460379053008296  0.6328005762390418  0.6328005762390418
  0.8539620946991704  0.6328005762390418  0.6328005762390418
  0.3671994237609582  0.8539620946991704  0.6328005762390418
  0.6328005762390418  0.8539620946991704  0.6328005762390418
  0.0000000000000000  0.0000000000000000  0.7652145440771534
  0.1780460112648825  0.1780460112648825  0.8219539887351175
  0.8219539887351175  0.1780460112648825  0.8219539887351175
  0.1780460112648825  0.8219539887351175  0.8219539887351175
  0.8219539887351175  0.8219539887351175  0.8219539887351175
  0.3671994237609582  0.3671994237609582  0.8539620946991704
  0.6328005762390418  0.3671994237609582  0.8539620946991704
  0.3671994237609582  0.6328005762390418  0.8539620946991704
  0.6328005762390418  0.6328005762390418  0.8539620946991704
 
  0.00000000E+00  0.00000000E+00  0.00000000E+00
  0.00000000E+00  0.00000000E+00  0.00000000E+00
  0.00000000E+00  0.00000000E+00  0.00000000E+00
  0.00000000E+00  0.00000000E+00  0.00000000E+00
  0.00000000E+00  0.00000000E+00  0.00000000E+00
  0.00000000E+00  0.00000000E+00  0.00000000E+00
  0.00000000E+00  0.00000000E+00  0.00000000E+00
  0.00000000E+00  0.00000000E+00  0.00000000E+00
  0.00000000E+00  0.00000000E+00  0.00000000E+00
  0.00000000E+00  0.00000000E+00  0.00000000E+00
  0.00000000E+00  0.00000000E+00  0.00000000E+00
  0.00000000E+00  0.00000000E+00  0.00000000E+00
  0.00000000E+00  0.00000000E+00  0.00000000E+00
  0.00000000E+00  0.00000000E+00  0.00000000E+00
  0.00000000E+00  0.00000000E+00  0.00000000E+00
  0.00000000E+00  0.00000000E+00  0.00000000E+00
  0.00000000E+00  0.00000000E+00  0.00000000E+00
  0.00000000E+00  0.00000000E+00  0.00000000E+00
  0.00000000E+00  0.00000000E+00  0.00000000E+00
  0.00000000E+00  0.00000000E+00  0.00000000E+00
  0.00000000E+00  0.00000000E+00  0.00000000E+00
  0.00000000E+00  0.00000000E+00  0.00000000E+00
  0.00000000E+00  0.00000000E+00  0.00000000E+00
  0.00000000E+00  0.00000000E+00  0.00000000E+00
  0.00000000E+00  0.00000000E+00  0.00000000E+00
  0.00000000E+00  0.00000000E+00  0.00000000E+00
  0.00000000E+00  0.00000000E+00  0.00000000E+00
  0.00000000E+00  0.00000000E+00  0.00000000E+00
  0.00000000E+00  0.00000000E+00  0.00000000E+00
  0.00000000E+00  0.00000000E+00  0.00000000E+00
  0.00000000E+00  0.00000000E+00  0.00000000E+00
  0.00000000E+00  0.00000000E+00  0.00000000E+00
  0.00000000E+00  0.00000000E+00  0.00000000E+00
  0.00000000E+00  0.00000000E+00  0.00000000E+00
  0.00000000E+00  0.00000000E+00  0.00000000E+00
  0.00000000E+00  0.00000000E+00  0.00000000E+00
  0.00000000E+00  0.00000000E+00  0.00000000E+00
  0.00000000E+00  0.00000000E+00  0.00000000E+00
  0.00000000E+00  0.00000000E+00  0.00000000E+00
  0.00000000E+00  0.00000000E+00  0.00000000E+00
  0.00000000E+00  0.00000000E+00  0.00000000E+00
  0.00000000E+00  0.00000000E+00  0.00000000E+00
  0.00000000E+00  0.00000000E+00  0.00000000E+00
  0.00000000E+00  0.00000000E+00  0.00000000E+00
  0.00000000E+00  0.00000000E+00  0.00000000E+00
  0.00000000E+00  0.00000000E+00  0.00000000E+00
  0.00000000E+00  0.00000000E+00  0.00000000E+00
  0.00000000E+00  0.00000000E+00  0.00000000E+00
  0.00000000E+00  0.00000000E+00  0.00000000E+00
  0.00000000E+00  0.00000000E+00  0.00000000E+00
  0.00000000E+00  0.00000000E+00  0.00000000E+00
  0.00000000E+00  0.00000000E+00  0.00000000E+00
  0.00000000E+00  0.00000000E+00  0.00000000E+00
  0.00000000E+00  0.00000000E+00  0.00000000E+00
  0.00000000E+00  0.00000000E+00  0.00000000E+00
  0.00000000E+00  0.00000000E+00  0.00000000E+00
  0.00000000E+00  0.00000000E+00  0.00000000E+00
  0.00000000E+00  0.00000000E+00  0.00000000E+00
  0.00000000E+00  0.00000000E+00  0.00000000E+00
  0.00000000E+00  0.00000000E+00  0.00000000E+00
  0.00000000E+00  0.00000000E+00  0.00000000E+00
  0.00000000E+00  0.00000000E+00  0.00000000E+00
  0.00000000E+00  0.00000000E+00  0.00000000E+00
  0.00000000E+00  0.00000000E+00  0.00000000E+00
  0.00000000E+00  0.00000000E+00  0.00000000E+00
  0.00000000E+00  0.00000000E+00  0.00000000E+00
  0.00000000E+00  0.00000000E+00  0.00000000E+00
  0.00000000E+00  0.00000000E+00  0.00000000E+00
  0.00000000E+00  0.00000000E+00  0.00000000E+00
  0.00000000E+00  0.00000000E+00  0.00000000E+00
  0.00000000E+00  0.00000000E+00  0.00000000E+00
  0.00000000E+00  0.00000000E+00  0.00000000E+00
  0.00000000E+00  0.00000000E+00  0.00000000E+00
  0.00000000E+00  0.00000000E+00  0.00000000E+00
  0.00000000E+00  0.00000000E+00  0.00000000E+00
  0.00000000E+00  0.00000000E+00  0.00000000E+00
  0.00000000E+00  0.00000000E+00  0.00000000E+00
  0.00000000E+00  0.00000000E+00  0.00000000E+00
  0.00000000E+00  0.00000000E+00  0.00000000E+00
  0.00000000E+00  0.00000000E+00  0.00000000E+00
  0.00000000E+00  0.00000000E+00  0.00000000E+00
  0.00000000E+00  0.00000000E+00  0.00000000E+00
  0.00000000E+00  0.00000000E+00  0.00000000E+00
  0.00000000E+00  0.00000000E+00  0.00000000E+00
  0.00000000E+00  0.00000000E+00  0.00000000E+00
  0.00000000E+00  0.00000000E+00  0.00000000E+00
  0.00000000E+00  0.00000000E+00  0.00000000E+00
  0.00000000E+00  0.00000000E+00  0.00000000E+00
  0.00000000E+00  0.00000000E+00  0.00000000E+00
  0.00000000E+00  0.00000000E+00  0.00000000E+00
  0.00000000E+00  0.00000000E+00  0.00000000E+00
  0.00000000E+00  0.00000000E+00  0.00000000E+00
  0.00000000E+00  0.00000000E+00  0.00000000E+00
  0.00000000E+00  0.00000000E+00  0.00000000E+00
  0.00000000E+00  0.00000000E+00  0.00000000E+00
  0.00000000E+00  0.00000000E+00  0.00000000E+00
  0.00000000E+00  0.00000000E+00  0.00000000E+00
  0.00000000E+00  0.00000000E+00  0.00000000E+00
  0.00000000E+00  0.00000000E+00  0.00000000E+00
  0.00000000E+00  0.00000000E+00  0.00000000E+00
  0.00000000E+00  0.00000000E+00  0.00000000E+00
  0.00000000E+00  0.00000000E+00  0.00000000E+00
  0.00000000E+00  0.00000000E+00  0.00000000E+00
  0.00000000E+00  0.00000000E+00  0.00000000E+00
  0.00000000E+00  0.00000000E+00  0.00000000E+00
  0.00000000E+00  0.00000000E+00  0.00000000E+00
  0.00000000E+00  0.00000000E+00  0.00000000E+00
  0.00000000E+00  0.00000000E+00  0.00000000E+00
