Ba2                                     
   1.00000000000000     
     2.5167114825834678   -3.5657278200746378    0.0000000000000000
     2.5167114825834678    3.5657278200746378    0.0000000000000000
     0.0000000000000000    0.0000000000000000    7.1307072620426233
   Ba
     2
Direct
  0.2503864604133028  0.2503864604133028  0.2500000000000000
  0.7496135395866972  0.7496135395866972  0.7500000000000000
 
  0.00000000E+00  0.00000000E+00  0.00000000E+00
  0.00000000E+00  0.00000000E+00  0.00000000E+00
