Mg1 In2 F10                             
   1.0000000000000000     
     2.4209673398638514    4.1105965971797023    0.9962165961824835
    -2.4209673398638514    4.1105965971797023    0.9962165961824835
     0.0000000000000000    4.1772896170816436    9.1488124956052328
   Mg   In   F 
     1     2    10
Direct
  0.6218632628893488  0.3781367371106725  0.0000000000000000
  0.0658883742510241  0.0403951795254542  0.6641555154322418
  0.9596048204745458  0.9341116257489759  0.3358444845677582
  0.2159573513412738  0.4791442168172892  0.4841483689287642
  0.5208557831827179  0.7840426486587191  0.5158516310712500
  0.9726130759822880  0.5982956341602943  0.8532606592588081
  0.4017043658397412  0.0273869240177049  0.1467393407411990
  0.1801409530556697  0.8198590469443374  0.0000000000000000
  0.8572820096260045  0.1427179903739955  0.5000000000000000
  0.6768004882908798  0.3134606620769418  0.8139851205846185
  0.6865393379230653  0.3231995117091131  0.1860148794153744
  0.3776652698202199  0.9929160926767082  0.7812964640340496
  0.0070839073232776  0.6223347301797872  0.2187035359659362

  0.00000000E+00  0.00000000E+00  0.00000000E+00
  0.00000000E+00  0.00000000E+00  0.00000000E+00
  0.00000000E+00  0.00000000E+00  0.00000000E+00
  0.00000000E+00  0.00000000E+00  0.00000000E+00
  0.00000000E+00  0.00000000E+00  0.00000000E+00
  0.00000000E+00  0.00000000E+00  0.00000000E+00
  0.00000000E+00  0.00000000E+00  0.00000000E+00
  0.00000000E+00  0.00000000E+00  0.00000000E+00
  0.00000000E+00  0.00000000E+00  0.00000000E+00
  0.00000000E+00  0.00000000E+00  0.00000000E+00
  0.00000000E+00  0.00000000E+00  0.00000000E+00
  0.00000000E+00  0.00000000E+00  0.00000000E+00
  0.00000000E+00  0.00000000E+00  0.00000000E+00
