Sr1 B3 Cl6                              
   1.00000000000000     
     7.3047519817847251   -0.3299378086470104   -0.5907425147144744
    -0.3299378086470103    7.3047519817847251   -0.5907425147144745
     2.9350261492087331    2.9350261492087331    5.2578071551786660
   Cl   Sr   B 
     6     1     3
Direct
  0.7488844046889156  0.2511155953110844  0.0000000000000000
  0.4071508035223914  0.4071508035223914  0.8494559547550793
  0.2511155953110844  0.7488844046889156  0.0000000000000000
  0.5928491964776086  0.5928491964776086  0.1505440452449207
  0.8237231066285560  0.8237231066285560  0.5270442155674928
  0.1762768933714440  0.1762768933714440  0.4729557844325072
  0.0000000000000000  0.0000000000000000  0.0000000000000000
  0.5000000000000000  0.5000000000000000  0.0000000000000000
  0.1342497799447671  0.8657502200552329  0.5000000000000000
  0.8657502200552329  0.1342497799447671  0.5000000000000000
 
  0.00000000E+00  0.00000000E+00  0.00000000E+00
  0.00000000E+00  0.00000000E+00  0.00000000E+00
  0.00000000E+00  0.00000000E+00  0.00000000E+00
  0.00000000E+00  0.00000000E+00  0.00000000E+00
  0.00000000E+00  0.00000000E+00  0.00000000E+00
  0.00000000E+00  0.00000000E+00  0.00000000E+00
  0.00000000E+00  0.00000000E+00  0.00000000E+00
  0.00000000E+00  0.00000000E+00  0.00000000E+00
  0.00000000E+00  0.00000000E+00  0.00000000E+00
  0.00000000E+00  0.00000000E+00  0.00000000E+00
