Mg4 In4 Br20                            
   1.0000000000000000     
     7.9814980361383752   -0.0000000000000001    0.0000000000000007
    -0.0000000000000006    7.4333695650918914    0.0000000000000005
     0.0000000000000006    0.0000000000000002   20.7382077085382797
   Mg   In   Br
     4     4    20
Direct
  0.1776027147304262  0.6576956824248583  0.5594362210936339
  0.6776027147304262  0.8423043175751417  0.4405637789063661
  0.8223972852695738  0.1576956824248583  0.9405637789063661
  0.3223972852695738  0.3423043175751417  0.0594362210936268
  0.3029131540796328  0.1941376454091497  0.6159494753629744
  0.8029131540796328  0.3058623545908503  0.3840505246370256
  0.6970868459203672  0.6941376454091497  0.8840505246370256
  0.1970868459203743  0.8058623545908503  0.1159494753629744
  0.9108155961000577  0.6415865685369440  0.4883748930308442
  0.4108155961000577  0.8584134314630560  0.5116251069691558
  0.0891844038999423  0.1415865685369440  0.0116251069691558
  0.5891844038999423  0.3584134314630560  0.9883748930308442
  0.5754117312922276  0.5506119773497247  0.3702184346608277
  0.0754117312922276  0.9493880226502753  0.6297815653391723
  0.4245882687077724  0.0506119773497247  0.1297815653391652
  0.9245882687077724  0.4493880226502682  0.8702184346608277
  0.1573580368261602  0.4792585510166418  0.6680375363681250
  0.6573580368261673  0.0207414489833582  0.3319624636318750
  0.8426419631738327  0.9792585510166418  0.8319624636318750
  0.3426419631738398  0.5207414489833582  0.1680375363681250
  0.5695014735529611  0.1332497383551114  0.6729353599183483
  0.0695014735529611  0.3667502616448886  0.3270646400816517
  0.4304985264470389  0.6332497383551043  0.8270646400816517
  0.9304985264470389  0.8667502616448957  0.1729353599183483
  0.3008551045109229  0.3546507447022975  0.5055267080270056
  0.8008551045109229  0.1453492552977025  0.4944732919730015
  0.6991448954890771  0.8546507447022975  0.9944732919729944
  0.1991448954890771  0.6453492552977025  0.0055267080270056

  0.00000000E+00  0.00000000E+00  0.00000000E+00
  0.00000000E+00  0.00000000E+00  0.00000000E+00
  0.00000000E+00  0.00000000E+00  0.00000000E+00
  0.00000000E+00  0.00000000E+00  0.00000000E+00
  0.00000000E+00  0.00000000E+00  0.00000000E+00
  0.00000000E+00  0.00000000E+00  0.00000000E+00
  0.00000000E+00  0.00000000E+00  0.00000000E+00
  0.00000000E+00  0.00000000E+00  0.00000000E+00
  0.00000000E+00  0.00000000E+00  0.00000000E+00
  0.00000000E+00  0.00000000E+00  0.00000000E+00
  0.00000000E+00  0.00000000E+00  0.00000000E+00
  0.00000000E+00  0.00000000E+00  0.00000000E+00
  0.00000000E+00  0.00000000E+00  0.00000000E+00
  0.00000000E+00  0.00000000E+00  0.00000000E+00
  0.00000000E+00  0.00000000E+00  0.00000000E+00
  0.00000000E+00  0.00000000E+00  0.00000000E+00
  0.00000000E+00  0.00000000E+00  0.00000000E+00
  0.00000000E+00  0.00000000E+00  0.00000000E+00
  0.00000000E+00  0.00000000E+00  0.00000000E+00
  0.00000000E+00  0.00000000E+00  0.00000000E+00
  0.00000000E+00  0.00000000E+00  0.00000000E+00
  0.00000000E+00  0.00000000E+00  0.00000000E+00
  0.00000000E+00  0.00000000E+00  0.00000000E+00
  0.00000000E+00  0.00000000E+00  0.00000000E+00
  0.00000000E+00  0.00000000E+00  0.00000000E+00
  0.00000000E+00  0.00000000E+00  0.00000000E+00
  0.00000000E+00  0.00000000E+00  0.00000000E+00
  0.00000000E+00  0.00000000E+00  0.00000000E+00
