Ba4 B10 Cl2                             
   1.00000000000000     
     9.6927756097357758   -1.0693124637495923   -1.4279938085827182
    -1.2235537793895024    8.6628731832714134    0.4100606737731649
     3.5138101621019513    3.9432194615932841    3.9325430526657810
   Cl   Ba   B 
     2     4    10
Direct
  0.8477095909467351  0.6723390066225221  0.6014747861756362
  0.0618864618580304  0.1129528957146633  0.6316049520904343
  0.4464918736105616  0.2227140456492194  0.0328738527016128
  0.9096236938845834  0.2946268052617356  0.9709810404900594
  0.1490103831382967  0.7570087857136727  0.0500835922028742
  0.5899387076566498  0.6974323029772620  0.0753538309823369
  0.9394415625642907  0.2096375022621473  0.5339798382867755
  0.5201766029875614  0.8879513483436412  0.6233944927084138
  0.4171493350303166  0.6354722410571654  0.7894415407864770
  0.8000772408490775  0.2484030478263861  0.5302489144737166
  0.5135540433279857  0.2454980875136670  0.4877480169994399
  0.2858475865870531  0.7081622959018432  0.4462508155467688
  0.6935719687999580  0.3487388857311089  0.4340751725350245
  0.3010383206021388  0.5476035381134565  0.7089821140907588
  0.4190142443245222  0.8146729868065279  0.5021518829614706
  0.6053683838322499  0.0966862245049782  0.5813551569682289
 
  0.00000000E+00  0.00000000E+00  0.00000000E+00
  0.00000000E+00  0.00000000E+00  0.00000000E+00
  0.00000000E+00  0.00000000E+00  0.00000000E+00
  0.00000000E+00  0.00000000E+00  0.00000000E+00
  0.00000000E+00  0.00000000E+00  0.00000000E+00
  0.00000000E+00  0.00000000E+00  0.00000000E+00
  0.00000000E+00  0.00000000E+00  0.00000000E+00
  0.00000000E+00  0.00000000E+00  0.00000000E+00
  0.00000000E+00  0.00000000E+00  0.00000000E+00
  0.00000000E+00  0.00000000E+00  0.00000000E+00
  0.00000000E+00  0.00000000E+00  0.00000000E+00
  0.00000000E+00  0.00000000E+00  0.00000000E+00
  0.00000000E+00  0.00000000E+00  0.00000000E+00
  0.00000000E+00  0.00000000E+00  0.00000000E+00
  0.00000000E+00  0.00000000E+00  0.00000000E+00
  0.00000000E+00  0.00000000E+00  0.00000000E+00
