Mg2 Ga2 Cl10                            
   1.00000000000000     
     5.9789648990281830   -3.4563177663352298   -0.5499272312240537
     5.9801251916805569    3.4558238340614600   -0.5492591270707372
    -5.1841409595017325    0.0004839467871199   10.0398117012078405
   Ga   Mg   Cl
     2     2    10
Direct
  0.9341977621880915  0.0498275538705997  0.0402240940482983
  0.0495382331230942  0.9342535295066767  0.5403285296780496
  0.5303522798338349  0.6333635425501782  0.2807853528438997
  0.6334699586252341  0.5303504372014700  0.7807998933091866
  0.1590976247793066  0.6950181473709023  0.1063400393115330
  0.2335421868503715  0.1161385809723043  0.0785023644614284
  0.7459410552619516  0.2097080232966562  0.2011993010897513
  0.8548339839579668  0.7400539313132839  0.3276865916877441
  0.4419578473202890  0.6566591972188931  0.4651372838084455
  0.6948906245415216  0.1590215821586440  0.6064806700122460
  0.1163142343057118  0.2334337121995205  0.5789267816609538
  0.2096387403098205  0.7453907961809847  0.7010360268539841
  0.7397048610975929  0.8550527883456311  0.8276823198419265
  0.6567206078051981  0.4419281778142121  0.9651707513925771
 
  0.00000000E+00  0.00000000E+00  0.00000000E+00
  0.00000000E+00  0.00000000E+00  0.00000000E+00
  0.00000000E+00  0.00000000E+00  0.00000000E+00
  0.00000000E+00  0.00000000E+00  0.00000000E+00
  0.00000000E+00  0.00000000E+00  0.00000000E+00
  0.00000000E+00  0.00000000E+00  0.00000000E+00
  0.00000000E+00  0.00000000E+00  0.00000000E+00
  0.00000000E+00  0.00000000E+00  0.00000000E+00
  0.00000000E+00  0.00000000E+00  0.00000000E+00
  0.00000000E+00  0.00000000E+00  0.00000000E+00
  0.00000000E+00  0.00000000E+00  0.00000000E+00
  0.00000000E+00  0.00000000E+00  0.00000000E+00
  0.00000000E+00  0.00000000E+00  0.00000000E+00
  0.00000000E+00  0.00000000E+00  0.00000000E+00
