Mg4 Ga4 Cl2                             
   1.00000000000000     
     4.1597918140382752    0.0737194025752704    0.0000000000000000
    -2.0163356379993371    3.9423049962824117    0.0000000000000000
     0.0000000000000000    0.0000000000000000   15.5997717977239301
   Ga   Cl   Mg
     4     2     4
Direct
  0.3355882119502880  0.6790777159427961  0.0064305773206286
  0.3355882119502880  0.6790777159427961  0.4935694226793714
  0.6644117880497191  0.3209222840572039  0.5064305773206286
  0.6644117880497191  0.3209222840572039  0.9935694226793714
  0.9190328812717254  0.0966079803704147  0.2500000000000000
  0.0809671187282746  0.9033920196295853  0.7500000000000000
  0.0129574646212518  0.0178375686489787  0.1025448440677508
  0.0129574646212518  0.0178375686489787  0.3974551559322492
  0.9870425353787482  0.9821624313510213  0.6025448440677508
  0.9870425353787482  0.9821624313510213  0.8974551559322492
 
  0.00000000E+00  0.00000000E+00  0.00000000E+00
  0.00000000E+00  0.00000000E+00  0.00000000E+00
  0.00000000E+00  0.00000000E+00  0.00000000E+00
  0.00000000E+00  0.00000000E+00  0.00000000E+00
  0.00000000E+00  0.00000000E+00  0.00000000E+00
  0.00000000E+00  0.00000000E+00  0.00000000E+00
  0.00000000E+00  0.00000000E+00  0.00000000E+00
  0.00000000E+00  0.00000000E+00  0.00000000E+00
  0.00000000E+00  0.00000000E+00  0.00000000E+00
  0.00000000E+00  0.00000000E+00  0.00000000E+00
