B12                                     
   1.00000000000000     
     4.3489371423457861    2.2484960022726628    6.5123571139334544
    -2.3101821621655674    2.6254704906309159    2.9982571044979927
    -3.3375860498915211   -4.2783203285917244   -1.3904574682365156
   B 
    12
Direct
  0.1874462695738757  0.7943636919173898  0.0000000000453326
  0.9812988603539452  0.4874474241693179  0.7448428478246285
  0.2364560125836945  0.4874474241263513  0.2551571522138261
  0.8125537304261243  0.2056363080826102  0.9999999999546674
  0.0187011396460548  0.5125525758306750  0.2551571521753715
  0.7635439874162984  0.5125525758736416  0.7448428477861739
  0.0822025873975178  0.1980834919108005  0.0000000000125482
  0.4558909384417333  0.6171322358463982  0.3727471610211452
  0.0831437774634765  0.6171322358543279  0.6272528390725256
  0.9177974126024822  0.8019165080891995  0.9999999999874518
  0.5441090615582667  0.3828677641536018  0.6272528389788548
  0.9168562225365235  0.3828677641456650  0.3727471609274744
 
  0.00000000E+00  0.00000000E+00  0.00000000E+00
  0.00000000E+00  0.00000000E+00  0.00000000E+00
  0.00000000E+00  0.00000000E+00  0.00000000E+00
  0.00000000E+00  0.00000000E+00  0.00000000E+00
  0.00000000E+00  0.00000000E+00  0.00000000E+00
  0.00000000E+00  0.00000000E+00  0.00000000E+00
  0.00000000E+00  0.00000000E+00  0.00000000E+00
  0.00000000E+00  0.00000000E+00  0.00000000E+00
  0.00000000E+00  0.00000000E+00  0.00000000E+00
  0.00000000E+00  0.00000000E+00  0.00000000E+00
  0.00000000E+00  0.00000000E+00  0.00000000E+00
  0.00000000E+00  0.00000000E+00  0.00000000E+00
