Be2 Tl10                                
   1.0000000000000000     
     1.7783838922860244   -7.7582119223722890    0.0000000000000000
     1.7783838922860216    7.7582119223722890    0.0000000000000000
     0.0000000000000000    0.0000000000000000   13.8647927018007664
   Be   Tl
     2    10
Direct
  0.0000000000000000  0.0000000000000000  0.0000000000000000
  0.0000000000000000  0.0000000000000000  0.5000000000000000
  0.6555985266533710  0.4218451783587014  0.0000000000000000
  0.3444014733466361  0.5781548216412986  0.0000000000000000
  0.5000000000000000  0.0000000000000000  0.1505018775425881
  0.5000000000000000  0.5000000000000000  0.2500000000000000
  0.0000000000000000  0.5000000000000000  0.3494981224574119
  0.5781548216412986  0.3444014733466361  0.5000000000000000
  0.4218451783587014  0.6555985266533710  0.5000000000000000
  0.0000000000000000  0.5000000000000000  0.6505018775425881
  0.5000000000000000  0.5000000000000000  0.7500000000000000
  0.5000000000000000  0.0000000000000000  0.8494981224574119

  0.00000000E+00  0.00000000E+00  0.00000000E+00
  0.00000000E+00  0.00000000E+00  0.00000000E+00
  0.00000000E+00  0.00000000E+00  0.00000000E+00
  0.00000000E+00  0.00000000E+00  0.00000000E+00
  0.00000000E+00  0.00000000E+00  0.00000000E+00
  0.00000000E+00  0.00000000E+00  0.00000000E+00
  0.00000000E+00  0.00000000E+00  0.00000000E+00
  0.00000000E+00  0.00000000E+00  0.00000000E+00
  0.00000000E+00  0.00000000E+00  0.00000000E+00
  0.00000000E+00  0.00000000E+00  0.00000000E+00
  0.00000000E+00  0.00000000E+00  0.00000000E+00
  0.00000000E+00  0.00000000E+00  0.00000000E+00
