Sr2B                                    
   1.00000000000000     
     4.3599416680991006    2.5174315598372701    7.1197538218364187
    -4.3599416680991006    2.5174315598372701    7.1197538218364187
     0.0000000000000000   -5.0347672983167691    7.1197199387549173
   B    Sr
     2     4
Direct
  0.2500003047287862  0.2500003047287862  0.2499980385112934
  0.4999996952712138  0.4999996952712138  0.5000019614887066
  0.8750000000000000  0.3750000000000000  0.3750000000000000
  0.3750000000000000  0.8750000000000000  0.3750000000000000
  0.3750000000000000  0.3750000000000000  0.3750000000000000
  0.3750000000000000  0.3750000000000000  0.8750000000000000
 
  0.00000000E+00  0.00000000E+00  0.00000000E+00
  0.00000000E+00  0.00000000E+00  0.00000000E+00
  0.00000000E+00  0.00000000E+00  0.00000000E+00
  0.00000000E+00  0.00000000E+00  0.00000000E+00
  0.00000000E+00  0.00000000E+00  0.00000000E+00
  0.00000000E+00  0.00000000E+00  0.00000000E+00
