Ca3 Tl11                                
   1.0000000000000000     
    -2.5184914431210066    6.1702711755274686    6.8320591980702554
     2.5309768641832786   -6.4769365926241136    7.1028428779926331
     2.4730131482118112    6.4565443823877429   -7.0958788872270695
   Tl   Ca
    11     3
Direct
  0.6630403420250843  0.5009739023363977  0.1585883677124187
  0.4435139157258163  0.1591936965565921  0.2929833561628357
  0.1199160884679671  0.8466872143402711  0.2853739264477468
  0.7452445369542460  0.3714937957077709  0.3674987227986080
  0.0124049241084805  0.6237044477800353  0.3751195584872633
  0.5000613683144550  0.0000498372510123  0.4999714936218851
  0.9875714753315137  0.3761532404766896  0.6248534766915341
  0.2548987346707179  0.6285937178653143  0.6325324028935739
  0.8801418780026751  0.1532242790949496  0.7146194028349271
  0.5566202577453510  0.8409059336940956  0.7070304619861503
  0.3369529711848855  0.4990191809837370  0.8413312151613681
  0.0001344542489647  0.9999769948730943  0.0001200091462010
  0.2902599267154713  0.2900229378405967  0.0014867378008603
  0.7097391265043740  0.7100008211994506  0.9984908682546418

  0.00000000E+00  0.00000000E+00  0.00000000E+00
  0.00000000E+00  0.00000000E+00  0.00000000E+00
  0.00000000E+00  0.00000000E+00  0.00000000E+00
  0.00000000E+00  0.00000000E+00  0.00000000E+00
  0.00000000E+00  0.00000000E+00  0.00000000E+00
  0.00000000E+00  0.00000000E+00  0.00000000E+00
  0.00000000E+00  0.00000000E+00  0.00000000E+00
  0.00000000E+00  0.00000000E+00  0.00000000E+00
  0.00000000E+00  0.00000000E+00  0.00000000E+00
  0.00000000E+00  0.00000000E+00  0.00000000E+00
  0.00000000E+00  0.00000000E+00  0.00000000E+00
  0.00000000E+00  0.00000000E+00  0.00000000E+00
  0.00000000E+00  0.00000000E+00  0.00000000E+00
  0.00000000E+00  0.00000000E+00  0.00000000E+00
