Sr1 Tl2 F6                              
   1.0000000000000000     
     2.7293478062835743    0.3824052987669110    8.2359535521557667
    -2.7293478062835743    0.3824052987669110    8.2359535521557667
     0.0000000000000000   -3.0888710735137939    8.8636743676865972
   Sr   F    Tl
     1     6     2
Direct
  0.0000000000000000  0.0000000000000000  0.0000000000000000
  0.7143542000171621  0.7143542000171621  0.6393453763425327
  0.8592626308332925  0.3361616446931208  0.0675222228042571
  0.3361616446931208  0.8592626308332925  0.0675222228042571
  0.2856457999828379  0.2856457999828379  0.3606546236574744
  0.6638383553068863  0.1407373691667004  0.9324777771957429
  0.1407373691667004  0.6638383553068863  0.9324777771957429
  0.1217134780472051  0.1217134780472051  0.4211096178480318
  0.8782865219527949  0.8782865219527949  0.5788903821519682

  0.00000000E+00  0.00000000E+00  0.00000000E+00
  0.00000000E+00  0.00000000E+00  0.00000000E+00
  0.00000000E+00  0.00000000E+00  0.00000000E+00
  0.00000000E+00  0.00000000E+00  0.00000000E+00
  0.00000000E+00  0.00000000E+00  0.00000000E+00
  0.00000000E+00  0.00000000E+00  0.00000000E+00
  0.00000000E+00  0.00000000E+00  0.00000000E+00
  0.00000000E+00  0.00000000E+00  0.00000000E+00
  0.00000000E+00  0.00000000E+00  0.00000000E+00
