Ba2Cl                                   
   1.00000000000000     
     7.8377863611221583    0.0000000000000000    0.0000000000000000
     0.0000000000000000    7.8377863611221583    0.0000000000000000
     0.0000000000000000    0.0000000000000000    4.5722432884159847
   Ba   Cl
     4     2
Direct
  0.2821764648840173  0.2821764648840173  0.0000000000000000
  0.7178235351159827  0.7178235351159827  0.0000000000000000
  0.7821764648840173  0.2178235351159827  0.5000000000000000
  0.2178235351159827  0.7821764648840173  0.5000000000000000
  0.0000000000000000  0.0000000000000000  0.0000000000000000
  0.5000000000000000  0.5000000000000000  0.5000000000000000
 
  0.00000000E+00  0.00000000E+00  0.00000000E+00
  0.00000000E+00  0.00000000E+00  0.00000000E+00
  0.00000000E+00  0.00000000E+00  0.00000000E+00
  0.00000000E+00  0.00000000E+00  0.00000000E+00
  0.00000000E+00  0.00000000E+00  0.00000000E+00
  0.00000000E+00  0.00000000E+00  0.00000000E+00
