Mg5 Al41                                
   1.00000000000000     
    -6.2290317228053862    6.3462107466594206    4.8551636276798051
     6.1749799216848560   -6.2754532516608510    4.6903325654016905
     6.8530553802710097    6.9120760553785816   -4.7646397566280196
   Al   Mg
    41     5
Direct
  0.5000133661970523  0.0000143834390300  0.0000021798917800
  0.0000196472812632  0.5000128492457918  0.0000050556143307
  0.5000315801815134  0.5000274639899587  0.0000236594336016
  0.2220131590322367  0.4179670647721352  0.0549581002055248
  0.6375406220344217  0.8365280362307033  0.0575367314583914
  0.8785784674283690  0.2097273378561653  0.0873473930815294
  0.3484866572240222  0.7667072239876660  0.1146784518400068
  0.3724208737258365  0.0848368031457909  0.1719871262631472
  0.0834382344535953  0.7987020986373423  0.1716967536107319
  0.4806356654127342  0.4134562612790873  0.2207656388312529
  0.8068763059731054  0.7389117889534020  0.2199361398228348
  0.6677482071369454  0.0987182274151763  0.2751854130169633
  0.1748723536080021  0.6043413587825199  0.2711215352016012
  0.9275532285203809  0.0749498167083473  0.2836201181706102
  0.2097366739570248  0.3547504648795794  0.2825084686215718
  0.2414054377193011  0.1249074970735862  0.3675832881089605
  0.4076001550264294  0.9636509678458935  0.3765447955641648
  0.0016006087949521  0.3998287147456168  0.3971455261290799
  0.6344947704862918  0.3223024434564010  0.4542505043527143
  0.1249917840638659  0.8126745433388223  0.4505163485496624
  0.7903282292570211  0.6498953605774673  0.4435887057715320
  0.0000193526654684  0.0000245091160096  0.5000125299794504
  0.5000134690060563  0.5000103307742805  0.5000066312045774
  0.2097052091173097  0.3501490327819070  0.5564234471745237
  0.8750363607209621  0.1873627424282702  0.5494849825049997
  0.3655480253513943  0.6777388606086134  0.5457578485007062
  0.9984319103701083  0.6002173261254597  0.6028646524284866
  0.5924427252494837  0.0363901780226712  0.6234671107677983
  0.7586079596550803  0.8751121139061979  0.6324148703873362
  0.7902879669754697  0.6452778322563049  0.7175048524771483
  0.0724724975567312  0.9250957634038741  0.7164055265185496
  0.8251700878889565  0.3956976949492343  0.7288921727675799
  0.3322818380757937  0.9013163083658711  0.7248194769235994
  0.1931989840634145  0.2611557241313562  0.7800916116561041
  0.5193941553684880  0.5865646372736535  0.7792599270378275
  0.9166092426824974  0.2013249490691038  0.8283115115578283
  0.6276142366577702  0.9151941102055616  0.8280232960173919
  0.6515508984279421  0.2333253949234333  0.8853315326166395
  0.1214511796040867  0.7903073133826695  0.9126645900578794
  0.3625016924437716  0.1635140017599426  0.9424791495816081
  0.7780274173428197  0.5820634954355199  0.9450596247866372
  0.0000194083064926  0.0000172892730461  0.0000206066598167
  0.7691533168576328  0.4157544573300243  0.1891969346515197
  0.5701183503790048  0.7735728635094219  0.3437296422723719
  0.4298829564560407  0.2264194662108565  0.6562628332924376
  0.2308747312628441  0.5842828983962391  0.8108127046371933
 
  0.00000000E+00  0.00000000E+00  0.00000000E+00
  0.00000000E+00  0.00000000E+00  0.00000000E+00
  0.00000000E+00  0.00000000E+00  0.00000000E+00
  0.00000000E+00  0.00000000E+00  0.00000000E+00
  0.00000000E+00  0.00000000E+00  0.00000000E+00
  0.00000000E+00  0.00000000E+00  0.00000000E+00
  0.00000000E+00  0.00000000E+00  0.00000000E+00
  0.00000000E+00  0.00000000E+00  0.00000000E+00
  0.00000000E+00  0.00000000E+00  0.00000000E+00
  0.00000000E+00  0.00000000E+00  0.00000000E+00
  0.00000000E+00  0.00000000E+00  0.00000000E+00
  0.00000000E+00  0.00000000E+00  0.00000000E+00
  0.00000000E+00  0.00000000E+00  0.00000000E+00
  0.00000000E+00  0.00000000E+00  0.00000000E+00
  0.00000000E+00  0.00000000E+00  0.00000000E+00
  0.00000000E+00  0.00000000E+00  0.00000000E+00
  0.00000000E+00  0.00000000E+00  0.00000000E+00
  0.00000000E+00  0.00000000E+00  0.00000000E+00
  0.00000000E+00  0.00000000E+00  0.00000000E+00
  0.00000000E+00  0.00000000E+00  0.00000000E+00
  0.00000000E+00  0.00000000E+00  0.00000000E+00
  0.00000000E+00  0.00000000E+00  0.00000000E+00
  0.00000000E+00  0.00000000E+00  0.00000000E+00
  0.00000000E+00  0.00000000E+00  0.00000000E+00
  0.00000000E+00  0.00000000E+00  0.00000000E+00
  0.00000000E+00  0.00000000E+00  0.00000000E+00
  0.00000000E+00  0.00000000E+00  0.00000000E+00
  0.00000000E+00  0.00000000E+00  0.00000000E+00
  0.00000000E+00  0.00000000E+00  0.00000000E+00
  0.00000000E+00  0.00000000E+00  0.00000000E+00
  0.00000000E+00  0.00000000E+00  0.00000000E+00
  0.00000000E+00  0.00000000E+00  0.00000000E+00
  0.00000000E+00  0.00000000E+00  0.00000000E+00
  0.00000000E+00  0.00000000E+00  0.00000000E+00
  0.00000000E+00  0.00000000E+00  0.00000000E+00
  0.00000000E+00  0.00000000E+00  0.00000000E+00
  0.00000000E+00  0.00000000E+00  0.00000000E+00
  0.00000000E+00  0.00000000E+00  0.00000000E+00
  0.00000000E+00  0.00000000E+00  0.00000000E+00
  0.00000000E+00  0.00000000E+00  0.00000000E+00
  0.00000000E+00  0.00000000E+00  0.00000000E+00
  0.00000000E+00  0.00000000E+00  0.00000000E+00
  0.00000000E+00  0.00000000E+00  0.00000000E+00
  0.00000000E+00  0.00000000E+00  0.00000000E+00
  0.00000000E+00  0.00000000E+00  0.00000000E+00
  0.00000000E+00  0.00000000E+00  0.00000000E+00
