Mg4 Ga2 Br10                            
   1.00000000000000     
     7.1495204830114076    0.0484953024430854   -0.3981365857785659
     0.0859705947055292   11.1737131508024454    0.4287140221310585
     3.2449871913361537    6.1331118063950507    7.4740531487865463
   Br   Mg   Ga
    10     4     2
Direct
  0.0491669159950661  0.0288476568356870  0.0553752499608748
  0.5055747915812745  0.5530626247689199  0.9269345646808631
  0.4226325326310132  0.0637099553867060  0.2791938841217387
  0.9793918555926240  0.2956955955238456  0.1560454849073096
  0.7322381986056143  0.5419661344488986  0.2925184929429960
  0.2615281774469409  0.6375826830394047  0.2267689267556037
  0.6853996251313816  0.2969255002236721  0.7996626806252323
  0.2737136510863110  0.4789433837969668  0.6792272854521215
  0.0181817137053883  0.8106262643266504  0.7740605769667539
  0.5531514041680481  0.9644228487209858  0.7577836167856091
  0.2932387035032136  0.2405325072639357  0.0066239738904272
  0.7858765631753712  0.1774637715165994  0.0767302925354230
  0.2650667929437915  0.7299570668921191  0.9251274209037703
  0.6578523653801298  0.7127705091588794  0.0001948485726899
  0.3352117263196703  0.3359008193197965  0.5162684184418467
  0.6814749827341871  0.6312926787769086  0.5274842824567187
 
  0.00000000E+00  0.00000000E+00  0.00000000E+00
  0.00000000E+00  0.00000000E+00  0.00000000E+00
  0.00000000E+00  0.00000000E+00  0.00000000E+00
  0.00000000E+00  0.00000000E+00  0.00000000E+00
  0.00000000E+00  0.00000000E+00  0.00000000E+00
  0.00000000E+00  0.00000000E+00  0.00000000E+00
  0.00000000E+00  0.00000000E+00  0.00000000E+00
  0.00000000E+00  0.00000000E+00  0.00000000E+00
  0.00000000E+00  0.00000000E+00  0.00000000E+00
  0.00000000E+00  0.00000000E+00  0.00000000E+00
  0.00000000E+00  0.00000000E+00  0.00000000E+00
  0.00000000E+00  0.00000000E+00  0.00000000E+00
  0.00000000E+00  0.00000000E+00  0.00000000E+00
  0.00000000E+00  0.00000000E+00  0.00000000E+00
  0.00000000E+00  0.00000000E+00  0.00000000E+00
  0.00000000E+00  0.00000000E+00  0.00000000E+00
