Ba8 Tl4 Cl28                            
   1.0000000000000000     
     7.2280793196403890    0.0000136111347220    0.1153004189639450
    -0.0001748038774701   16.4372668918585916   -0.0001669761364968
     0.0977262327001236    0.0001901111478632   10.2726209026595203
   Ba   Cl   Tl
     8    28     4
Direct
  0.2764362327487220  0.7302844038103302  0.0557940820563729
  0.2504634001613155  0.0612270851192420  0.1734418401518454
  0.7495563871667557  0.5612321578061525  0.3265633985573828
  0.7235712453914545  0.2302834743757600  0.4442081617623970
  0.2764532672965814  0.7696999690220565  0.5558027890740362
  0.2504663168774286  0.4387464816854489  0.6734449812622429
  0.7495727450759944  0.9387542504526607  0.8265756321625588
  0.7235908050649016  0.2696874332200494  0.9442184220617236
  0.6671029252062155  0.6260595605241974  0.0087675106916123
  0.0415104568302809  0.8983098831332725  0.0558110214969787
  0.5537047208417505  0.8993455043991077  0.1224430605793501
  0.8265729040409653  0.4195317167275476  0.1172966479158504
  0.5275082423668636  0.2036882134136562  0.1882225755739100
  0.0461182706348637  0.2402691813086690  0.2152413804593820
  0.1744199744459749  0.5509523794910720  0.2280723737616057
  0.8256284686022894  0.0509562292393468  0.2719626139720717
  0.9538539965480268  0.7402685106455564  0.2847231221727355
  0.4724725593436077  0.7036964596632345  0.3117624184424272
  0.1734480253303872  0.9195006168909288  0.3827005935459837
  0.4463606856860594  0.3993492770641396  0.3775974311168113
  0.9585190322737063  0.3983051367759245  0.4441964598128934
  0.3329427111526186  0.1260308958252025  0.4912197129811204
  0.6670929291103462  0.8739464131771868  0.5087904858457790
  0.0415073959366410  0.6016694253513393  0.5558099158682595
  0.5536744230463384  0.6006366744570641  0.6224122368790930
  0.8265720975527842  0.0804791735188815  0.6173216407855975
  0.5275665739097093  0.2962910518747393  0.6882313939838056
  0.0461736488392432  0.2597112515585636  0.7152916115772783
  0.1743991932182709  0.9490204025235585  0.7280370151850946
  0.8256045432970041  0.4490259138599058  0.7719452434610616
  0.9539089329026922  0.7597117088232750  0.7847630885172734
  0.4725239423048180  0.7963024863685391  0.8117754093836282
  0.1734584101849563  0.5804496646006712  0.8827109063260465
  0.4463274673706223  0.1006365667011409  0.8775696969288589
  0.9585199212251538  0.1016683632660289  0.9441971313947235
  0.3329277082663609  0.3739159831098107  0.9912462536856879
  0.1622247609878897  0.3934153907794027  0.2128914291522364
  0.8378155325778707  0.8934162130698269  0.2871375236228388
  0.1622137798454872  0.1065618521409277  0.7128792923947813
  0.8378153663370540  0.6065626442255834  0.7871234953966493

  0.00000000E+00  0.00000000E+00  0.00000000E+00
  0.00000000E+00  0.00000000E+00  0.00000000E+00
  0.00000000E+00  0.00000000E+00  0.00000000E+00
  0.00000000E+00  0.00000000E+00  0.00000000E+00
  0.00000000E+00  0.00000000E+00  0.00000000E+00
  0.00000000E+00  0.00000000E+00  0.00000000E+00
  0.00000000E+00  0.00000000E+00  0.00000000E+00
  0.00000000E+00  0.00000000E+00  0.00000000E+00
  0.00000000E+00  0.00000000E+00  0.00000000E+00
  0.00000000E+00  0.00000000E+00  0.00000000E+00
  0.00000000E+00  0.00000000E+00  0.00000000E+00
  0.00000000E+00  0.00000000E+00  0.00000000E+00
  0.00000000E+00  0.00000000E+00  0.00000000E+00
  0.00000000E+00  0.00000000E+00  0.00000000E+00
  0.00000000E+00  0.00000000E+00  0.00000000E+00
  0.00000000E+00  0.00000000E+00  0.00000000E+00
  0.00000000E+00  0.00000000E+00  0.00000000E+00
  0.00000000E+00  0.00000000E+00  0.00000000E+00
  0.00000000E+00  0.00000000E+00  0.00000000E+00
  0.00000000E+00  0.00000000E+00  0.00000000E+00
  0.00000000E+00  0.00000000E+00  0.00000000E+00
  0.00000000E+00  0.00000000E+00  0.00000000E+00
  0.00000000E+00  0.00000000E+00  0.00000000E+00
  0.00000000E+00  0.00000000E+00  0.00000000E+00
  0.00000000E+00  0.00000000E+00  0.00000000E+00
  0.00000000E+00  0.00000000E+00  0.00000000E+00
  0.00000000E+00  0.00000000E+00  0.00000000E+00
  0.00000000E+00  0.00000000E+00  0.00000000E+00
  0.00000000E+00  0.00000000E+00  0.00000000E+00
  0.00000000E+00  0.00000000E+00  0.00000000E+00
  0.00000000E+00  0.00000000E+00  0.00000000E+00
  0.00000000E+00  0.00000000E+00  0.00000000E+00
  0.00000000E+00  0.00000000E+00  0.00000000E+00
  0.00000000E+00  0.00000000E+00  0.00000000E+00
  0.00000000E+00  0.00000000E+00  0.00000000E+00
  0.00000000E+00  0.00000000E+00  0.00000000E+00
  0.00000000E+00  0.00000000E+00  0.00000000E+00
  0.00000000E+00  0.00000000E+00  0.00000000E+00
  0.00000000E+00  0.00000000E+00  0.00000000E+00
  0.00000000E+00  0.00000000E+00  0.00000000E+00
