I1                                      
   1.00000000000000     
     3.2378849196049933    0.0000000000000000    0.0000000000000000
     0.0000000000000000    3.2378849196049933    0.0000000000000000
    -1.6189424598024966   -1.6189424598024966    4.3532089264014244
   I 
     1
Direct
  0.0000000000000000  0.0000000000000000  0.0000000000000000
 
  0.00000000E+00  0.00000000E+00  0.00000000E+00
