Sr2TlI5                                 
   1.0000000000000000     
     6.5217727435253323   -6.5206351740043482   -0.0024799255401832
     6.5217727435253323    6.5206351740043491   -0.0024799255401832
    -6.5245408169643460    0.0000000000000000    7.7303957493767141
   I    Sr   Tl
    10     4     2
Direct
  0.5001338491636815  0.0002607860330599  0.0001398367759862
  0.0002607860330599  0.5001338491636815  0.0001398367759862
  0.9868914496880095  0.9868914496880095  0.2734049170792545
  0.7873018400184577  0.4868490812109556  0.2735049092721624
  0.4868490812109556  0.7873018400184577  0.2735049092721624
  0.2877797595767930  0.2877797595767930  0.2741404400737792
  0.7124766217229990  0.7124766217229990  0.7259559984972839
  0.5134751617395281  0.2130108023974344  0.7265987000915146
  0.2130108023974344  0.5134751617395281  0.7265987000915146
  0.0134331499679732  0.0134331499679732  0.7267415891183830
  0.8441249616296460  0.1561313614777831  0.0000160972506578
  0.3441147105551465  0.3441147105551465  0.0001294025287848
  0.6561823322659279  0.6561823322659279  0.9999023003760286
  0.1561313614777831  0.8441249616296460  0.0000160972506578
  0.7487194589692621  0.2490146735833392  0.4996031327729256
  0.2490146735833392  0.7487194589692621  0.4996031327729256

  0.00000000E+00  0.00000000E+00  0.00000000E+00
  0.00000000E+00  0.00000000E+00  0.00000000E+00
  0.00000000E+00  0.00000000E+00  0.00000000E+00
  0.00000000E+00  0.00000000E+00  0.00000000E+00
  0.00000000E+00  0.00000000E+00  0.00000000E+00
  0.00000000E+00  0.00000000E+00  0.00000000E+00
  0.00000000E+00  0.00000000E+00  0.00000000E+00
  0.00000000E+00  0.00000000E+00  0.00000000E+00
  0.00000000E+00  0.00000000E+00  0.00000000E+00
  0.00000000E+00  0.00000000E+00  0.00000000E+00
  0.00000000E+00  0.00000000E+00  0.00000000E+00
  0.00000000E+00  0.00000000E+00  0.00000000E+00
  0.00000000E+00  0.00000000E+00  0.00000000E+00
  0.00000000E+00  0.00000000E+00  0.00000000E+00
  0.00000000E+00  0.00000000E+00  0.00000000E+00
  0.00000000E+00  0.00000000E+00  0.00000000E+00
