Ca4 Br2                                 
   1.00000000000000     
     7.2095342367801232    0.0000000000000000    0.0000000000000000
     0.0000000000000000    7.2095342367801232    0.0000000000000000
     0.0000000000000000    0.0000000000000000    4.1776379422117476
   Ca   Br
     4     2
Direct
  0.2845940474362578  0.2845940474362578  0.0000000000000000
  0.7154059525637422  0.7154059525637422  0.0000000000000000
  0.7845940474362578  0.2154059525637422  0.5000000000000000
  0.2154059525637422  0.7845940474362578  0.5000000000000000
  0.0000000000000000  0.0000000000000000  0.0000000000000000
  0.5000000000000000  0.5000000000000000  0.5000000000000000
 
  0.00000000E+00  0.00000000E+00  0.00000000E+00
  0.00000000E+00  0.00000000E+00  0.00000000E+00
  0.00000000E+00  0.00000000E+00  0.00000000E+00
  0.00000000E+00  0.00000000E+00  0.00000000E+00
  0.00000000E+00  0.00000000E+00  0.00000000E+00
  0.00000000E+00  0.00000000E+00  0.00000000E+00
