Be3Ga                                   
   1.00000000000000     
     5.5016414689877298   -0.5345609644603461    0.0000000000000000
    -3.2094489470969605    4.5003455369901806    0.0000000000000000
     0.0000000000000000    0.0000000000000000    3.7413848620486911
   Be   Ga
     6     2
Direct
  0.1582284356169765  0.3353659059523153  0.2500000000000000
  0.6646321126620833  0.8417480685545584  0.2500000000000000
  0.0990823526375948  0.9009256535343440  0.2500000000000000
  0.8417715643830235  0.6646340940476847  0.7500000000000000
  0.3353678873379167  0.1582519314454416  0.7500000000000000
  0.9009176473624052  0.0990743464656560  0.7500000000000000
  0.3217396927166050  0.6782618740101611  0.7500000000000000
  0.6782603072833950  0.3217381259898389  0.2500000000000000
 
  0.00000000E+00  0.00000000E+00  0.00000000E+00
  0.00000000E+00  0.00000000E+00  0.00000000E+00
  0.00000000E+00  0.00000000E+00  0.00000000E+00
  0.00000000E+00  0.00000000E+00  0.00000000E+00
  0.00000000E+00  0.00000000E+00  0.00000000E+00
  0.00000000E+00  0.00000000E+00  0.00000000E+00
  0.00000000E+00  0.00000000E+00  0.00000000E+00
  0.00000000E+00  0.00000000E+00  0.00000000E+00
