Mg2 Ga2 I10                             
   1.00000000000000     
     6.8396463464339030   -1.0751870857436343    3.0275783579774802
     0.4498023909513696    6.9090132440065313    3.0275786166997345
    -0.0011353182800308   -0.0009058300217381   12.2857837349900301
   Mg   Ga   I 
     2     2    10
Direct
  0.2851387055164452  0.7148612935366216  0.2499999998753566
  0.7148612944835548  0.2851387064633784  0.7500000001246434
  0.0000000000000000  0.0000000000000000  0.5000000000000000
  0.0000000000000000  0.0000000000000000  0.0000000000000000
  0.6981528721345001  0.6963371179946733  0.6490817380760987
  0.3036628817906575  0.3018461279657103  0.8509182619219615
  0.3018461278655025  0.3036628820053267  0.3509192619239059
  0.6963371182093425  0.6981528720342922  0.1490817380780456
  0.9899359972874606  0.0100640033688819  0.7500000000213305
  0.0100640027125394  0.9899359966311181  0.2499999999786695
  0.7500670994221750  0.2781901647473504  0.9828053215743964
  0.7218098361040362  0.2499329002595090  0.5171946787071988
  0.2499329005778250  0.7218098352526496  0.0171946784256036
  0.2781901638959638  0.7500670997404910  0.4828053212928012
 
  0.00000000E+00  0.00000000E+00  0.00000000E+00
  0.00000000E+00  0.00000000E+00  0.00000000E+00
  0.00000000E+00  0.00000000E+00  0.00000000E+00
  0.00000000E+00  0.00000000E+00  0.00000000E+00
  0.00000000E+00  0.00000000E+00  0.00000000E+00
  0.00000000E+00  0.00000000E+00  0.00000000E+00
  0.00000000E+00  0.00000000E+00  0.00000000E+00
  0.00000000E+00  0.00000000E+00  0.00000000E+00
  0.00000000E+00  0.00000000E+00  0.00000000E+00
  0.00000000E+00  0.00000000E+00  0.00000000E+00
  0.00000000E+00  0.00000000E+00  0.00000000E+00
  0.00000000E+00  0.00000000E+00  0.00000000E+00
  0.00000000E+00  0.00000000E+00  0.00000000E+00
  0.00000000E+00  0.00000000E+00  0.00000000E+00
