Sr1 In2 Cl6                             
   1.00000000000000     
     3.6189292063071097    2.0898636156654851    5.9078540435407518
    -3.6189292063071097    2.0898636156654851    5.9078540435407518
     0.0000000000000000   -4.1694012446878288    5.9042026310884408
   Sr   Cl   In
     1     6     2
Direct
  0.0000000000000000  0.0000000000000000  0.0000000000000000
  0.7287224516170241  0.7287224516170241  0.2713135130305986
  0.7287337019671654  0.2713839537019211  0.2712020708380436
  0.2713839537019211  0.7287337019671654  0.2712020708380436
  0.2712775483829759  0.2712775483829759  0.7286864869694014
  0.7286160462980789  0.2712662980328346  0.7287979291619564
  0.2712662980328346  0.7286160462980789  0.7287979291619564
  0.2501550945997764  0.2501550945997764  0.2495876179465810
  0.7498449054002236  0.7498449054002236  0.7504123820534261
 
  0.00000000E+00  0.00000000E+00  0.00000000E+00
  0.00000000E+00  0.00000000E+00  0.00000000E+00
  0.00000000E+00  0.00000000E+00  0.00000000E+00
  0.00000000E+00  0.00000000E+00  0.00000000E+00
  0.00000000E+00  0.00000000E+00  0.00000000E+00
  0.00000000E+00  0.00000000E+00  0.00000000E+00
  0.00000000E+00  0.00000000E+00  0.00000000E+00
  0.00000000E+00  0.00000000E+00  0.00000000E+00
  0.00000000E+00  0.00000000E+00  0.00000000E+00
