Ba4 B4 Br20                             
   1.0000000000000000     
     9.8591336717560090   -0.0000000000000003    0.0000000000000005
    -0.0000000000000009    8.4174099592132698    0.0000000000000004
     0.0000000000000008    0.0000000000000003   14.1820264519956467
   Ba   B    Br
     4     4    20
Direct
  0.6755364529518744  0.5254765573467850  0.3234896387139656
  0.1755364529518744  0.9745234426532150  0.6765103612860344
  0.3244635470481185  0.0254765573467921  0.1765103612860344
  0.8244635470481185  0.4745234426532079  0.8234896387139656
  0.0131014523190132  0.7891908256087561  0.3832787247842333
  0.5131014523190132  0.7108091743912439  0.6167212752157596
  0.9868985476809868  0.2891908256087490  0.1167212752157596
  0.4868985476809868  0.2108091743912510  0.8832787247842333
  0.9587251826703280  0.5893842658061530  0.4553143031278069
  0.4587251826703209  0.9106157341938470  0.5446856968721931
  0.0412748173296720  0.0893842658061530  0.0446856968721931
  0.5412748173296720  0.4106157341938470  0.9553143031278069
  0.8837787738455489  0.8280342096006663  0.2743584584684413
  0.3837787738455347  0.6719657903993337  0.7256415415315587
  0.1162212261544582  0.3280342096006663  0.2256415415315587
  0.6162212261544511  0.1719657903993337  0.7743584584684413
  0.9959589062589274  0.4820274256783676  0.0295037067444426
  0.4959589062589274  0.0179725743216324  0.9704962932555574
  0.0040410937410726  0.9820274256783676  0.4704962932555574
  0.5040410937410726  0.5179725743216324  0.5295037067444426
  0.5136692085653394  0.7233722195445864  0.1761630736558644
  0.0136692085653394  0.7766277804554136  0.8238369263441356
  0.4863307914346606  0.2233722195445864  0.3238369263441356
  0.9863307914346606  0.2766277804554136  0.6761630736558644
  0.2953475422458496  0.2418561228785379  0.8334186927187375
  0.7953475422458496  0.2581438771214621  0.1665813072812625
  0.7046524577541504  0.7418561228785379  0.6665813072812625
  0.2046524577541504  0.7581438771214621  0.3334186927187375

  0.00000000E+00  0.00000000E+00  0.00000000E+00
  0.00000000E+00  0.00000000E+00  0.00000000E+00
  0.00000000E+00  0.00000000E+00  0.00000000E+00
  0.00000000E+00  0.00000000E+00  0.00000000E+00
  0.00000000E+00  0.00000000E+00  0.00000000E+00
  0.00000000E+00  0.00000000E+00  0.00000000E+00
  0.00000000E+00  0.00000000E+00  0.00000000E+00
  0.00000000E+00  0.00000000E+00  0.00000000E+00
  0.00000000E+00  0.00000000E+00  0.00000000E+00
  0.00000000E+00  0.00000000E+00  0.00000000E+00
  0.00000000E+00  0.00000000E+00  0.00000000E+00
  0.00000000E+00  0.00000000E+00  0.00000000E+00
  0.00000000E+00  0.00000000E+00  0.00000000E+00
  0.00000000E+00  0.00000000E+00  0.00000000E+00
  0.00000000E+00  0.00000000E+00  0.00000000E+00
  0.00000000E+00  0.00000000E+00  0.00000000E+00
  0.00000000E+00  0.00000000E+00  0.00000000E+00
  0.00000000E+00  0.00000000E+00  0.00000000E+00
  0.00000000E+00  0.00000000E+00  0.00000000E+00
  0.00000000E+00  0.00000000E+00  0.00000000E+00
  0.00000000E+00  0.00000000E+00  0.00000000E+00
  0.00000000E+00  0.00000000E+00  0.00000000E+00
  0.00000000E+00  0.00000000E+00  0.00000000E+00
  0.00000000E+00  0.00000000E+00  0.00000000E+00
  0.00000000E+00  0.00000000E+00  0.00000000E+00
  0.00000000E+00  0.00000000E+00  0.00000000E+00
  0.00000000E+00  0.00000000E+00  0.00000000E+00
  0.00000000E+00  0.00000000E+00  0.00000000E+00
