Sr4 Tl10                                
   1.0000000000000000     
     5.3067030344104706    5.3067030344104706   -4.2800196382562588
     5.3067030344104706   -5.3067030344104706    4.2800196382562588
    -5.3067030344104706   -5.3067030344104706   -4.2800196382562588
   Tl   Sr
    10     4
Direct
  0.8128637620947927  0.3015546648129543  0.1144184269077542
  0.4886909027181474  0.3015546648129543  0.1871362379052073
  0.8855815730922458  0.6984453351870457  0.1871362379052073
  0.2936919068966333  0.0000000000000000  0.2936919068966333
  0.1871362379052073  0.3015546648129543  0.4886909027181474
  0.8128637620947927  0.6984453351870457  0.5113090972818526
  0.7063080931033667  0.0000000000000000  0.7063080931033667
  0.1144184269077542  0.3015546648129543  0.8128637620947927
  0.5113090972818526  0.6984453351870457  0.8128637620947927
  0.1871362379052073  0.6984453351870457  0.8855815730922458
  0.7106219879165465  0.0000000000000000  0.2893780120834535
  0.2893780120834535  0.5787560241669212  0.2893780120834535
  0.2893780120834535  0.0000000000000000  0.7106219879165465
  0.7106219879165465  0.4212439758330788  0.7106219879165465

  0.00000000E+00  0.00000000E+00  0.00000000E+00
  0.00000000E+00  0.00000000E+00  0.00000000E+00
  0.00000000E+00  0.00000000E+00  0.00000000E+00
  0.00000000E+00  0.00000000E+00  0.00000000E+00
  0.00000000E+00  0.00000000E+00  0.00000000E+00
  0.00000000E+00  0.00000000E+00  0.00000000E+00
  0.00000000E+00  0.00000000E+00  0.00000000E+00
  0.00000000E+00  0.00000000E+00  0.00000000E+00
  0.00000000E+00  0.00000000E+00  0.00000000E+00
  0.00000000E+00  0.00000000E+00  0.00000000E+00
  0.00000000E+00  0.00000000E+00  0.00000000E+00
  0.00000000E+00  0.00000000E+00  0.00000000E+00
  0.00000000E+00  0.00000000E+00  0.00000000E+00
  0.00000000E+00  0.00000000E+00  0.00000000E+00
