TlI                                     
   1.0000000000000000     
    -0.0000000000000000    3.5646726488341169    3.5646726488341169
     3.5646726488341169   -0.0000000000000000    3.5646726488341169
     3.5646726488341169    3.5646726488341169   -0.0000000000000000
   I    Tl
     1     1
Direct
  0.0000000000000000  0.0000000000000000  0.0000000000000000
  0.5000000000000000  0.5000000000000000  0.5000000000000000

  0.00000000E+00  0.00000000E+00  0.00000000E+00
  0.00000000E+00  0.00000000E+00  0.00000000E+00
