Be15 Tl1                                
   1.0000000000000000     
     2.3547871668799196   -4.0786110486959384    0.0000000000000000
     2.3547871668799196    4.0786110486959384   -0.0000000000000000
    -0.0000000000000000   -0.0000000000000000    7.8357961997204546
   Be   Tl
    15     1
Direct
  0.0000000000000000  0.0000000000000000  0.0000000000000000
  0.9920608911085438  0.4960304455209652  0.5000000000000000
  0.9951312016943561  0.4975656008878531  0.0000000000000000
  0.5039695544124214  0.4960304455875786  0.5000000000000000
  0.5024343991935041  0.4975656008064959  0.0000000000000000
  0.5039695544790348  0.0079391088914562  0.5000000000000000
  0.5024343991121469  0.0048687983056439  0.0000000000000000
  0.1742999124812954  0.3486008248577903  0.2244170207557303
  0.1742999124812954  0.3486008248577903  0.7755829792442697
  0.1742999123764903  0.8257000876235097  0.2244170207557303
  0.1742999123764903  0.8257000876235097  0.7755829792442697
  0.6513991751422097  0.8257000875187046  0.2244170207557303
  0.6513991751422097  0.8257000875187046  0.7755829792442697
  0.6666669999999968  0.3333330000000032  0.2364293556247645
  0.6666669999999968  0.3333330000000032  0.7635706443752355
  0.0000000000000000  0.0000000000000000  0.5000000000000000

  0.00000000E+00  0.00000000E+00  0.00000000E+00
  0.00000000E+00  0.00000000E+00  0.00000000E+00
  0.00000000E+00  0.00000000E+00  0.00000000E+00
  0.00000000E+00  0.00000000E+00  0.00000000E+00
  0.00000000E+00  0.00000000E+00  0.00000000E+00
  0.00000000E+00  0.00000000E+00  0.00000000E+00
  0.00000000E+00  0.00000000E+00  0.00000000E+00
  0.00000000E+00  0.00000000E+00  0.00000000E+00
  0.00000000E+00  0.00000000E+00  0.00000000E+00
  0.00000000E+00  0.00000000E+00  0.00000000E+00
  0.00000000E+00  0.00000000E+00  0.00000000E+00
  0.00000000E+00  0.00000000E+00  0.00000000E+00
  0.00000000E+00  0.00000000E+00  0.00000000E+00
  0.00000000E+00  0.00000000E+00  0.00000000E+00
  0.00000000E+00  0.00000000E+00  0.00000000E+00
  0.00000000E+00  0.00000000E+00  0.00000000E+00
