Ba3 In11                                
   1.0000000000000000     
    -2.5322228615008195    5.7940248199707476    7.5852927590927255
     2.4994929562302208   -5.7429263083865889    7.5366820151452760
     2.5274956135957036    5.7403259135755809   -7.5488427091882411
   In   Ba
    11     3
Direct
  0.7099591003068184  0.5019581431683946  0.2104312753722155
  0.4237946521820675  0.1478754460041785  0.2758424721318846
  0.1281241278211596  0.8533241796080517  0.2756609208005258
  0.7091236936107563  0.3383010010567915  0.3708850876243659
  0.0349834090380270  0.6630827732140645  0.3720309073000863
  0.5000708593734728  0.0000051353650221  0.5000432725611432
  0.9650866041721429  0.3369405386984781  0.6279635612708461
  0.2909235815975038  0.6616760020273631  0.6290916119505354
  0.8719657907051399  0.1467047479465506  0.7243433982510510
  0.5762574937080558  0.8520915268232017  0.7241498335526870
  0.2901187429842480  0.4980426471112764  0.7895770801992441
  0.0000227068238274  0.9999965200813037  0.9999799969095662
  0.3166414243407303  0.3156705381354072  0.0004171261290153
  0.6834278133360172  0.6843308007599305  0.9995834559468406

  0.00000000E+00  0.00000000E+00  0.00000000E+00
  0.00000000E+00  0.00000000E+00  0.00000000E+00
  0.00000000E+00  0.00000000E+00  0.00000000E+00
  0.00000000E+00  0.00000000E+00  0.00000000E+00
  0.00000000E+00  0.00000000E+00  0.00000000E+00
  0.00000000E+00  0.00000000E+00  0.00000000E+00
  0.00000000E+00  0.00000000E+00  0.00000000E+00
  0.00000000E+00  0.00000000E+00  0.00000000E+00
  0.00000000E+00  0.00000000E+00  0.00000000E+00
  0.00000000E+00  0.00000000E+00  0.00000000E+00
  0.00000000E+00  0.00000000E+00  0.00000000E+00
  0.00000000E+00  0.00000000E+00  0.00000000E+00
  0.00000000E+00  0.00000000E+00  0.00000000E+00
  0.00000000E+00  0.00000000E+00  0.00000000E+00
