Mg28 Al11                               
   1.00000000000000     
     4.7079353558936443    0.0000000565256280   -0.4070523175359009
    -0.0748109207374318    7.0531186063880069   -0.8652550081161116
    -0.1791844179484978   -0.4712212955389066   25.3569097696288459
   Mg   Al
    28    11
Direct
  0.8189890340222945  0.6780105310136477  0.6379780678994749
  0.2383111859157978  0.9731431986415728  0.4766233718553252
  0.2240548017809871  0.4271889247505740  0.4481096036615426
  0.8635904860342762  0.0322514194294854  0.7271809720911264
  0.1364095139468731  0.3050704473231463  0.2728190279062801
  0.5960552235054450  0.2542977214533693  0.1921114468347440
  0.3596286485370257  0.3529608590183102  0.7192572972711204
  0.2907037400042825  0.3408909395382480  0.5814074797146986
  0.7616888140882523  0.4965198268231958  0.5233766281362051
  0.9572053678368917  0.6121238792545967  0.9144107355990130
  0.7759451981845658  0.9790793210281947  0.5518903963490303
  0.5842164291743401  0.7614203012049430  0.1684328585182158
  0.7092962600424073  0.7594834599256899  0.4185925202672109
  0.6808738227578033  0.3643150463931804  0.3617466455042901
  0.9380344517871251  0.0019986087055557  0.8760689034129996
  0.3191261772522225  0.0025684008827938  0.6382533545013018
  0.1211173945888717  0.8657977005564845  0.2422357889866760
  0.0619655482251886  0.1259297053320552  0.1239310965878602
  0.4999999999997513  0.6449498794323816  0.9999999999952891
  0.0000000000339497  0.9868178721980669  0.9999999999821725
  0.0427946321878778  0.6977131437052435  0.0855892643990970
  0.4615220529261848  0.2880218526701341  0.9230441056799776
  0.5384779470048002  0.3649777471323716  0.0769548943510969
  0.1810109659043135  0.0400324632436480  0.3620219321374307
  0.6403713515417166  0.6337035615781588  0.2807427026911071
  0.8788826053818610  0.6235619116904516  0.7577642110173173
  0.4039447765336206  0.0621872747151855  0.8078885531464763
  0.4157835707927262  0.5929874425863702  0.8315671415034487
  0.0895976124268785  0.5035345072641775  0.1791952248517461
  0.9999999999947349  0.3866538422942227  0.9999999999962057
  0.2753892648333363  0.7105334789386148  0.5507785297132060
  0.3589917121465973  0.7637402190080493  0.7179834242845615
  0.6410082878467094  0.0457567947244044  0.2820165757083970
  0.9104023875803335  0.3243392824001603  0.8208047751462146
  0.7246107351545490  0.1597549492093719  0.4492214702882649
  0.1775072560281785  0.6280434908676824  0.3550145120340673
  0.5391234079106866  0.9629774160309807  0.0782458158229744
  0.4608765920990407  0.8847316002027341  0.9217541841821841
  0.8224927439875103  0.2730289788325564  0.6449854879716383
 
  0.00000000E+00  0.00000000E+00  0.00000000E+00
  0.00000000E+00  0.00000000E+00  0.00000000E+00
  0.00000000E+00  0.00000000E+00  0.00000000E+00
  0.00000000E+00  0.00000000E+00  0.00000000E+00
  0.00000000E+00  0.00000000E+00  0.00000000E+00
  0.00000000E+00  0.00000000E+00  0.00000000E+00
  0.00000000E+00  0.00000000E+00  0.00000000E+00
  0.00000000E+00  0.00000000E+00  0.00000000E+00
  0.00000000E+00  0.00000000E+00  0.00000000E+00
  0.00000000E+00  0.00000000E+00  0.00000000E+00
  0.00000000E+00  0.00000000E+00  0.00000000E+00
  0.00000000E+00  0.00000000E+00  0.00000000E+00
  0.00000000E+00  0.00000000E+00  0.00000000E+00
  0.00000000E+00  0.00000000E+00  0.00000000E+00
  0.00000000E+00  0.00000000E+00  0.00000000E+00
  0.00000000E+00  0.00000000E+00  0.00000000E+00
  0.00000000E+00  0.00000000E+00  0.00000000E+00
  0.00000000E+00  0.00000000E+00  0.00000000E+00
  0.00000000E+00  0.00000000E+00  0.00000000E+00
  0.00000000E+00  0.00000000E+00  0.00000000E+00
  0.00000000E+00  0.00000000E+00  0.00000000E+00
  0.00000000E+00  0.00000000E+00  0.00000000E+00
  0.00000000E+00  0.00000000E+00  0.00000000E+00
  0.00000000E+00  0.00000000E+00  0.00000000E+00
  0.00000000E+00  0.00000000E+00  0.00000000E+00
  0.00000000E+00  0.00000000E+00  0.00000000E+00
  0.00000000E+00  0.00000000E+00  0.00000000E+00
  0.00000000E+00  0.00000000E+00  0.00000000E+00
  0.00000000E+00  0.00000000E+00  0.00000000E+00
  0.00000000E+00  0.00000000E+00  0.00000000E+00
  0.00000000E+00  0.00000000E+00  0.00000000E+00
  0.00000000E+00  0.00000000E+00  0.00000000E+00
  0.00000000E+00  0.00000000E+00  0.00000000E+00
  0.00000000E+00  0.00000000E+00  0.00000000E+00
  0.00000000E+00  0.00000000E+00  0.00000000E+00
  0.00000000E+00  0.00000000E+00  0.00000000E+00
  0.00000000E+00  0.00000000E+00  0.00000000E+00
  0.00000000E+00  0.00000000E+00  0.00000000E+00
  0.00000000E+00  0.00000000E+00  0.00000000E+00
