Sr4 In4 Cl20                            
   1.0000000000000000     
     7.5793696188006914   -0.0000000000000003    0.0000000000000004
    -0.0000000000000007    8.9446266546807429    0.0000000000000004
     0.0000000000000004    0.0000000000000004   13.9011499271721934
   Sr   In   Cl
     4     4    20
Direct
  0.7132692831648484  0.7427971561732392  0.6650692589106768
  0.2132692831648484  0.7572028438267608  0.3349307410893232
  0.2867307168351516  0.2427971561732392  0.8349307410893232
  0.7867307168351516  0.2572028438267608  0.1650692589106768
  0.2713642097119973  0.0250453581257162  0.5826046026988294
  0.7713642097119973  0.4749546418742838  0.4173953973011706
  0.7286357902880027  0.5250453581257162  0.9173953973011706
  0.2286357902880027  0.9749546418742838  0.0826046026988294
  0.8878334224755733  0.7379485417047249  0.4625999254668614
  0.3878334224755733  0.7620514582952751  0.5374000745331386
  0.1121665775244267  0.2379485417047249  0.0374000745331386
  0.6121665775244267  0.2620514582952751  0.9625999254668614
  0.5338372598137013  0.5664270331432704  0.3135704544099767
  0.0338372598137013  0.9335729668567296  0.6864295455900162
  0.4661627401862987  0.0664270331432704  0.1864295455900091
  0.9661627401862987  0.4335729668567296  0.8135704544099767
  0.2197181639106986  0.2896162106561064  0.6279375487569538
  0.7197181639106986  0.2103837893438936  0.3720624512430390
  0.7802818360893014  0.7896162106561064  0.8720624512430462
  0.2802818360893014  0.7103837893438936  0.1279375487569610
  0.5305522853532878  0.0366040728839607  0.6955840736159260
  0.0305522853532949  0.4633959271160322  0.3044159263840740
  0.4694477146467122  0.5366040728839536  0.8044159263840740
  0.9694477146467122  0.9633959271160464  0.1955840736159260
  0.7149783902188389  0.4357130163164626  0.5870777050567781
  0.2149783902188389  0.0642869836835374  0.4129222949432219
  0.2850216097811611  0.9357130163164626  0.9129222949432219
  0.7850216097811611  0.5642869836835374  0.0870777050567781

  0.00000000E+00  0.00000000E+00  0.00000000E+00
  0.00000000E+00  0.00000000E+00  0.00000000E+00
  0.00000000E+00  0.00000000E+00  0.00000000E+00
  0.00000000E+00  0.00000000E+00  0.00000000E+00
  0.00000000E+00  0.00000000E+00  0.00000000E+00
  0.00000000E+00  0.00000000E+00  0.00000000E+00
  0.00000000E+00  0.00000000E+00  0.00000000E+00
  0.00000000E+00  0.00000000E+00  0.00000000E+00
  0.00000000E+00  0.00000000E+00  0.00000000E+00
  0.00000000E+00  0.00000000E+00  0.00000000E+00
  0.00000000E+00  0.00000000E+00  0.00000000E+00
  0.00000000E+00  0.00000000E+00  0.00000000E+00
  0.00000000E+00  0.00000000E+00  0.00000000E+00
  0.00000000E+00  0.00000000E+00  0.00000000E+00
  0.00000000E+00  0.00000000E+00  0.00000000E+00
  0.00000000E+00  0.00000000E+00  0.00000000E+00
  0.00000000E+00  0.00000000E+00  0.00000000E+00
  0.00000000E+00  0.00000000E+00  0.00000000E+00
  0.00000000E+00  0.00000000E+00  0.00000000E+00
  0.00000000E+00  0.00000000E+00  0.00000000E+00
  0.00000000E+00  0.00000000E+00  0.00000000E+00
  0.00000000E+00  0.00000000E+00  0.00000000E+00
  0.00000000E+00  0.00000000E+00  0.00000000E+00
  0.00000000E+00  0.00000000E+00  0.00000000E+00
  0.00000000E+00  0.00000000E+00  0.00000000E+00
  0.00000000E+00  0.00000000E+00  0.00000000E+00
  0.00000000E+00  0.00000000E+00  0.00000000E+00
  0.00000000E+00  0.00000000E+00  0.00000000E+00
