Mg2 Al2 F10                             
   1.0000000000000000     
     3.2724055415168181    0.0000000000000000    0.0000000000000002
    -0.0000000000000005    7.3781815024057922    0.0000000000000005
    -0.0000000000000000   -0.0000000000000000    7.8537820351906555
   Mg   Al   F 
     2     2    10
Direct
  0.0000000000000000  0.0000000000000000  0.5000000000000000
  0.5000000000000000  0.5000000000000000  0.0000000000000000
  0.5000000000000000  0.0000000000000000  0.0000000000000000
  0.0000000000000000  0.5000000000000000  0.5000000000000000
  0.5000000000000000  0.8298225861980484  0.5000000000000000
  0.5000000000000000  0.1701774138019516  0.5000000000000000
  0.5000000000000000  0.0000000000000000  0.2169502800636067
  0.5000000000000000  0.0000000000000000  0.7830497199363933
  0.0000000000000000  0.0000000000000000  0.0000000000000000
  0.0000000000000000  0.3298225861980484  0.0000000000000000
  0.0000000000000000  0.6701774138019516  0.0000000000000000
  0.0000000000000000  0.5000000000000000  0.7169502800636067
  0.0000000000000000  0.5000000000000000  0.2830497199363933
  0.5000000000000000  0.5000000000000000  0.5000000000000000

  0.00000000E+00  0.00000000E+00  0.00000000E+00
  0.00000000E+00  0.00000000E+00  0.00000000E+00
  0.00000000E+00  0.00000000E+00  0.00000000E+00
  0.00000000E+00  0.00000000E+00  0.00000000E+00
  0.00000000E+00  0.00000000E+00  0.00000000E+00
  0.00000000E+00  0.00000000E+00  0.00000000E+00
  0.00000000E+00  0.00000000E+00  0.00000000E+00
  0.00000000E+00  0.00000000E+00  0.00000000E+00
  0.00000000E+00  0.00000000E+00  0.00000000E+00
  0.00000000E+00  0.00000000E+00  0.00000000E+00
  0.00000000E+00  0.00000000E+00  0.00000000E+00
  0.00000000E+00  0.00000000E+00  0.00000000E+00
  0.00000000E+00  0.00000000E+00  0.00000000E+00
  0.00000000E+00  0.00000000E+00  0.00000000E+00
