AlF                                     
   1.00000000000000     
     4.8369840567026978    0.0000000000000000    0.0000000000000000
     0.0000000000000000    3.7308725737741817    0.0000000000000000
     0.0000000000000000    0.0000000000000000    2.7737442871181108
   Al   F 
     2     2
Direct
  0.2500000000000000  0.0000000000000000  0.2500815446370908
  0.7500000000000000  0.0000000000000000  0.7499184553629092
  0.2500000000000000  0.5000000000000000  0.2504013278201427
  0.7500000000000000  0.5000000000000000  0.7495986721798573
 
  0.00000000E+00  0.00000000E+00  0.00000000E+00
  0.00000000E+00  0.00000000E+00  0.00000000E+00
  0.00000000E+00  0.00000000E+00  0.00000000E+00
  0.00000000E+00  0.00000000E+00  0.00000000E+00
