Be17 Tl12                               
   1.0000000000000000     
    -5.0968606029378822   -5.0968606029378831    5.1257675953788073
    -5.0968606029378831    5.1257675953788082   -5.0968606029378831
     5.1257675953788109   -5.0968606029378831   -5.0968606029378831
   Tl   Be
    12    17
Direct
  0.5529150410610697  0.3205091067866306  0.0258227189522984
  0.3205091067866306  0.5529150410610697  0.0258227189522984
  0.8442893135319594  0.8442893135319594  0.2588425562909364
  0.5529150410610697  0.0258227189522984  0.3205091067866306
  0.0258227189522984  0.5529150410610697  0.3205091067866306
  0.3205091067866306  0.0258227189522984  0.5529150410610697
  0.0258227189522984  0.3205091067866306  0.5529150410610697
  0.7322348125492368  0.4753696951100963  0.4753696951100963
  0.4753696951100963  0.7322348125492368  0.4753696951100963
  0.8442893135319594  0.2588425562909364  0.8442893135319594
  0.2588425562909364  0.8442893135319594  0.8442893135319594
  0.4753696951100963  0.4753696951100963  0.7322348125492368
  0.9414493838684521  0.9414493838684521  0.9414493838684521
  0.6597865480132370  0.8144066523064595  0.8144066523064595
  0.8950934192353941  0.6046510777649345  0.0408502548062728
  0.8144066523064595  0.6597865480132370  0.8144066523064595
  0.6046510777649345  0.8950934192353941  0.0408502548062728
  0.3788090064418910  0.3788090064418910  0.2138552929427746
  0.8886719317100713  0.1223128709782912  0.1223128709782912
  0.1223128709782912  0.8886719317100713  0.1223128709782912
  0.1551011606746613  0.1551011606746613  0.1551011606746613
  0.8950934192353941  0.0408502548062728  0.6046510777649345
  0.0408502548062728  0.8950934192353941  0.6046510777649345
  0.3788090064418910  0.2138552929427746  0.3788090064418910
  0.2138552929427746  0.3788090064418910  0.3788090064418910
  0.8144066523064595  0.8144066523064595  0.6597865480132370
  0.6046510777649345  0.0408502548062728  0.8950934192353941
  0.0408502548062728  0.6046510777649345  0.8950934192353941
  0.1223128709782912  0.1223128709782912  0.8886719317100713

  0.00000000E+00  0.00000000E+00  0.00000000E+00
  0.00000000E+00  0.00000000E+00  0.00000000E+00
  0.00000000E+00  0.00000000E+00  0.00000000E+00
  0.00000000E+00  0.00000000E+00  0.00000000E+00
  0.00000000E+00  0.00000000E+00  0.00000000E+00
  0.00000000E+00  0.00000000E+00  0.00000000E+00
  0.00000000E+00  0.00000000E+00  0.00000000E+00
  0.00000000E+00  0.00000000E+00  0.00000000E+00
  0.00000000E+00  0.00000000E+00  0.00000000E+00
  0.00000000E+00  0.00000000E+00  0.00000000E+00
  0.00000000E+00  0.00000000E+00  0.00000000E+00
  0.00000000E+00  0.00000000E+00  0.00000000E+00
  0.00000000E+00  0.00000000E+00  0.00000000E+00
  0.00000000E+00  0.00000000E+00  0.00000000E+00
  0.00000000E+00  0.00000000E+00  0.00000000E+00
  0.00000000E+00  0.00000000E+00  0.00000000E+00
  0.00000000E+00  0.00000000E+00  0.00000000E+00
  0.00000000E+00  0.00000000E+00  0.00000000E+00
  0.00000000E+00  0.00000000E+00  0.00000000E+00
  0.00000000E+00  0.00000000E+00  0.00000000E+00
  0.00000000E+00  0.00000000E+00  0.00000000E+00
  0.00000000E+00  0.00000000E+00  0.00000000E+00
  0.00000000E+00  0.00000000E+00  0.00000000E+00
  0.00000000E+00  0.00000000E+00  0.00000000E+00
  0.00000000E+00  0.00000000E+00  0.00000000E+00
  0.00000000E+00  0.00000000E+00  0.00000000E+00
  0.00000000E+00  0.00000000E+00  0.00000000E+00
  0.00000000E+00  0.00000000E+00  0.00000000E+00
  0.00000000E+00  0.00000000E+00  0.00000000E+00
