Ba5 B9                                  
   1.00000000000000     
     5.9562944834853111   -0.3080707057765238    0.6494568272825528
    -3.1792110906227746    5.6181708187690562   -0.5467740267911815
    -1.8453219868273145    1.5928045285072610    8.7542778113108586
   B    Ba
     9     5
Direct
  0.9661131883636429  0.9242314653899584  0.9780990331887551
  0.0444342648394382  0.9824981938995307  0.1670159145382826
  0.2204561635911801  0.8740306873372887  0.2625337357287023
  0.0521338835224725  0.7539328891674018  0.1067860768962916
  0.2134065845200226  0.0973951394099544  0.3243353489720917
  0.7721835835368225  0.0385047298620762  0.6897273638207153
  0.9983741877715389  0.1414498489705807  0.8260284757505190
  0.9633747112489033  0.3397226380146350  0.6847373926962845
  0.7398620966198450  0.8386650858906179  0.8344470773288393
  0.6409691516519800  0.2614662476604508  0.9534080090113193
  0.8249937047457081  0.2672442267587485  0.3648226627516209
  0.4867951287330143  0.5486062597115264  0.5575865242642593
  0.1936602834402024  0.8765596580997439  0.6618572543333627
  0.3832430674152292  0.5556929298274937  0.0881151307189612
 
  0.00000000E+00  0.00000000E+00  0.00000000E+00
  0.00000000E+00  0.00000000E+00  0.00000000E+00
  0.00000000E+00  0.00000000E+00  0.00000000E+00
  0.00000000E+00  0.00000000E+00  0.00000000E+00
  0.00000000E+00  0.00000000E+00  0.00000000E+00
  0.00000000E+00  0.00000000E+00  0.00000000E+00
  0.00000000E+00  0.00000000E+00  0.00000000E+00
  0.00000000E+00  0.00000000E+00  0.00000000E+00
  0.00000000E+00  0.00000000E+00  0.00000000E+00
  0.00000000E+00  0.00000000E+00  0.00000000E+00
  0.00000000E+00  0.00000000E+00  0.00000000E+00
  0.00000000E+00  0.00000000E+00  0.00000000E+00
  0.00000000E+00  0.00000000E+00  0.00000000E+00
  0.00000000E+00  0.00000000E+00  0.00000000E+00
