Ca6 F4                                  
   1.00000000000000     
    -6.7240581291200296   -0.1026829224448897    1.9819379624730309
     3.3010870784435729   -5.6586700500125717   -1.7853979493372569
    -5.4524493939667851    2.7899692728101839    8.8061455277894929
   F    Ca
     4     6
Direct
  0.1642402288386506  0.5295826132728578  0.0433391265362033
  0.0810933595280545  0.7534352012986787  0.3948661025580265
  0.9188468447518048  0.2465057300082663  0.6051077944878216
  0.8357004530486876  0.4703566272048008  0.9566345644490113
  0.4818233967232430  0.6801697617689300  0.2719129228309711
  0.8573131104184810  0.3477098895256105  0.2472856742164637
  0.1790449758741204  0.9813225353343356  0.2500195608576732
  0.8208947323197577  0.0186170501890714  0.7499546262185746
  0.1426260000412967  0.6522311714168012  0.7526889714676770
  0.5181168984558937  0.3197694199806307  0.7280606563775791
 
  0.00000000E+00  0.00000000E+00  0.00000000E+00
  0.00000000E+00  0.00000000E+00  0.00000000E+00
  0.00000000E+00  0.00000000E+00  0.00000000E+00
  0.00000000E+00  0.00000000E+00  0.00000000E+00
  0.00000000E+00  0.00000000E+00  0.00000000E+00
  0.00000000E+00  0.00000000E+00  0.00000000E+00
  0.00000000E+00  0.00000000E+00  0.00000000E+00
  0.00000000E+00  0.00000000E+00  0.00000000E+00
  0.00000000E+00  0.00000000E+00  0.00000000E+00
  0.00000000E+00  0.00000000E+00  0.00000000E+00
