Ba10 Al4 I32                            
   1.00000000000000     
     5.5009740961811096   -9.1260590547633420    0.0000000000000000
     5.5009740961811096    9.1260590547633420    0.0000000000000000
     0.0000000000000000    0.0000000000000000   20.3143984809910059
   Ba   Al   I 
    10     4    32
Direct
  0.0000000000000000  0.0000000000000000  0.7170550531047439
  0.0000000000000000  0.0000000000000000  0.2829449468952561
  0.5000000000000000  0.5000000000000000  0.7829449468952561
  0.5000000000000000  0.5000000000000000  0.2170550531047439
  0.5000000000000000  0.5000000000000000  0.5000000000000000
  0.0000000000000000  0.0000000000000000  0.0000000000000000
  0.0000000000000000  0.5000000000000000  0.6385684412858481
  0.5000000000000000  0.0000000000000000  0.3614315587141519
  0.5000000000000000  0.0000000000000000  0.8614315587141519
  0.0000000000000000  0.5000000000000000  0.1385684412858481
  0.5000000000000000  0.0000000000000000  0.6157819043830699
  0.0000000000000000  0.5000000000000000  0.3842180956169301
  0.0000000000000000  0.5000000000000000  0.8842180956169301
  0.5000000000000000  0.0000000000000000  0.1157819043830699
  0.5362471355642597  0.1938057379659170  0.7112381187665449
  0.4637528644357403  0.8061942620340830  0.7112381187665449
  0.1938057379659170  0.5362471355642597  0.2887618812334622
  0.8061942620340830  0.4637528644357403  0.2887618812334622
  0.9637528644357403  0.3061942620340830  0.7887618812334551
  0.0362471355642597  0.6938057379659170  0.7887618812334551
  0.3061942620340830  0.9637528644357403  0.2112381187665449
  0.6938057379659170  0.0362471355642597  0.2112381187665449
  0.1899851475357863  0.8765648094789213  0.6127101527527756
  0.8100148524642137  0.1234351905210715  0.6127101527527756
  0.8765648094789213  0.1899851475357863  0.3872898472472244
  0.1234351905210715  0.8100148524642137  0.3872898472472244
  0.3100148524642137  0.6234351905210787  0.8872898472472244
  0.6899851475357863  0.3765648094789285  0.8872898472472244
  0.6660336995722460  0.9870431252505725  0.0163616992281703
  0.3339663004277540  0.0129568747494275  0.0163616992281703
  0.9870431252505725  0.6660336995722460  0.9836383007718297
  0.0129568747494275  0.3339663004277540  0.9836383007718297
  0.8339663004277540  0.5129568747494275  0.4836383007718297
  0.1660336995722460  0.4870431252505725  0.4836383007718297
  0.5129568747494275  0.8339663004277540  0.5163616992281703
  0.4870431252505725  0.1660336995722460  0.5163616992281703
  0.8579599755644907  0.7623763289494718  0.1476377598307366
  0.1420400244355093  0.2376236710505282  0.1476377598307366
  0.7623763289494718  0.8579599755644907  0.8523622401692634
  0.2376236710505282  0.1420400244355093  0.8523622401692634
  0.6420400244355093  0.7376236710505282  0.3523622401692634
  0.3579599755644907  0.2623763289494718  0.3523622401692634
  0.7376236710505282  0.6420400244355093  0.6476377598307366
  0.2623763289494718  0.3579599755644907  0.6476377598307366
  0.3765648094789285  0.6899851475357863  0.1127101527527756
  0.6234351905210787  0.3100148524642137  0.1127101527527756
 
  0.00000000E+00  0.00000000E+00  0.00000000E+00
  0.00000000E+00  0.00000000E+00  0.00000000E+00
  0.00000000E+00  0.00000000E+00  0.00000000E+00
  0.00000000E+00  0.00000000E+00  0.00000000E+00
  0.00000000E+00  0.00000000E+00  0.00000000E+00
  0.00000000E+00  0.00000000E+00  0.00000000E+00
  0.00000000E+00  0.00000000E+00  0.00000000E+00
  0.00000000E+00  0.00000000E+00  0.00000000E+00
  0.00000000E+00  0.00000000E+00  0.00000000E+00
  0.00000000E+00  0.00000000E+00  0.00000000E+00
  0.00000000E+00  0.00000000E+00  0.00000000E+00
  0.00000000E+00  0.00000000E+00  0.00000000E+00
  0.00000000E+00  0.00000000E+00  0.00000000E+00
  0.00000000E+00  0.00000000E+00  0.00000000E+00
  0.00000000E+00  0.00000000E+00  0.00000000E+00
  0.00000000E+00  0.00000000E+00  0.00000000E+00
  0.00000000E+00  0.00000000E+00  0.00000000E+00
  0.00000000E+00  0.00000000E+00  0.00000000E+00
  0.00000000E+00  0.00000000E+00  0.00000000E+00
  0.00000000E+00  0.00000000E+00  0.00000000E+00
  0.00000000E+00  0.00000000E+00  0.00000000E+00
  0.00000000E+00  0.00000000E+00  0.00000000E+00
  0.00000000E+00  0.00000000E+00  0.00000000E+00
  0.00000000E+00  0.00000000E+00  0.00000000E+00
  0.00000000E+00  0.00000000E+00  0.00000000E+00
  0.00000000E+00  0.00000000E+00  0.00000000E+00
  0.00000000E+00  0.00000000E+00  0.00000000E+00
  0.00000000E+00  0.00000000E+00  0.00000000E+00
  0.00000000E+00  0.00000000E+00  0.00000000E+00
  0.00000000E+00  0.00000000E+00  0.00000000E+00
  0.00000000E+00  0.00000000E+00  0.00000000E+00
  0.00000000E+00  0.00000000E+00  0.00000000E+00
  0.00000000E+00  0.00000000E+00  0.00000000E+00
  0.00000000E+00  0.00000000E+00  0.00000000E+00
  0.00000000E+00  0.00000000E+00  0.00000000E+00
  0.00000000E+00  0.00000000E+00  0.00000000E+00
  0.00000000E+00  0.00000000E+00  0.00000000E+00
  0.00000000E+00  0.00000000E+00  0.00000000E+00
  0.00000000E+00  0.00000000E+00  0.00000000E+00
  0.00000000E+00  0.00000000E+00  0.00000000E+00
  0.00000000E+00  0.00000000E+00  0.00000000E+00
  0.00000000E+00  0.00000000E+00  0.00000000E+00
  0.00000000E+00  0.00000000E+00  0.00000000E+00
  0.00000000E+00  0.00000000E+00  0.00000000E+00
  0.00000000E+00  0.00000000E+00  0.00000000E+00
  0.00000000E+00  0.00000000E+00  0.00000000E+00
