Ba4 B4 Cl20                             
   1.0000000000000000     
     9.1639166704518313   -0.0000000000000003    0.0000000000000006
    -0.0000000000000008    7.6666959731165738    0.0000000000000003
     0.0000000000000009    0.0000000000000002   14.0250749773090000
   Ba   B    Cl
     4     4    20
Direct
  0.6933400337342661  0.5150078821429034  0.3140478475371893
  0.1933400337342661  0.9849921178570895  0.6859521524628107
  0.3066599662657268  0.0150078821429034  0.1859521524628107
  0.8066599662657268  0.4849921178570966  0.8140478475371893
  0.0438124907362791  0.7815872636764922  0.3918891261802813
  0.5438124907362791  0.7184127363235078  0.6081108738197116
  0.9561875092637209  0.2815872636764922  0.1081108738197116
  0.4561875092637209  0.2184127363235078  0.8918891261802813
  0.9728094119183908  0.5829266621227092  0.4526767575937498
  0.4728094119183837  0.9170733378772908  0.5473232424062502
  0.0271905880816092  0.0829266621227092  0.0473232424062502
  0.5271905880816092  0.4170733378772908  0.9526767575937498
  0.9271995451025248  0.8369404950812438  0.2862307349682567
  0.4271995451025248  0.6630595049187562  0.7137692650317433
  0.0728004548974752  0.3369404950812438  0.2137692650317433
  0.5728004548974752  0.1630595049187562  0.7862307349682567
  0.9604205456707007  0.4720837925544998  0.0250087124421654
  0.4604205456707007  0.0279162074455002  0.9749912875578346
  0.0395794543293064  0.9720837925544998  0.4749912875578346
  0.5395794543293064  0.5279162074455073  0.5250087124421654
  0.5357709954749978  0.7403975740517978  0.1798963416144517
  0.0357709954749978  0.7596024259482022  0.8201036583855483
  0.4642290045250022  0.2403975740517978  0.3201036583855483
  0.9642290045250022  0.2596024259482022  0.6798963416144517
  0.2666167791397456  0.2609225177471188  0.8503078053861586
  0.7666167791397385  0.2390774822528812  0.1496921946138414
  0.7333832208602615  0.7609225177471188  0.6496921946138414
  0.2333832208602615  0.7390774822528812  0.3503078053861586

  0.00000000E+00  0.00000000E+00  0.00000000E+00
  0.00000000E+00  0.00000000E+00  0.00000000E+00
  0.00000000E+00  0.00000000E+00  0.00000000E+00
  0.00000000E+00  0.00000000E+00  0.00000000E+00
  0.00000000E+00  0.00000000E+00  0.00000000E+00
  0.00000000E+00  0.00000000E+00  0.00000000E+00
  0.00000000E+00  0.00000000E+00  0.00000000E+00
  0.00000000E+00  0.00000000E+00  0.00000000E+00
  0.00000000E+00  0.00000000E+00  0.00000000E+00
  0.00000000E+00  0.00000000E+00  0.00000000E+00
  0.00000000E+00  0.00000000E+00  0.00000000E+00
  0.00000000E+00  0.00000000E+00  0.00000000E+00
  0.00000000E+00  0.00000000E+00  0.00000000E+00
  0.00000000E+00  0.00000000E+00  0.00000000E+00
  0.00000000E+00  0.00000000E+00  0.00000000E+00
  0.00000000E+00  0.00000000E+00  0.00000000E+00
  0.00000000E+00  0.00000000E+00  0.00000000E+00
  0.00000000E+00  0.00000000E+00  0.00000000E+00
  0.00000000E+00  0.00000000E+00  0.00000000E+00
  0.00000000E+00  0.00000000E+00  0.00000000E+00
  0.00000000E+00  0.00000000E+00  0.00000000E+00
  0.00000000E+00  0.00000000E+00  0.00000000E+00
  0.00000000E+00  0.00000000E+00  0.00000000E+00
  0.00000000E+00  0.00000000E+00  0.00000000E+00
  0.00000000E+00  0.00000000E+00  0.00000000E+00
  0.00000000E+00  0.00000000E+00  0.00000000E+00
  0.00000000E+00  0.00000000E+00  0.00000000E+00
  0.00000000E+00  0.00000000E+00  0.00000000E+00
