Mg15 Al1                                
   1.00000000000000     
     3.1300052847613724   -5.4213282492751631    0.0000000000000000
     3.1300052847613724    5.4213282492751631    0.0000000000000000
     0.0000000000000000    0.0000000000000000   10.4862217783354090
   Mg   Al
    15     1
Direct
  0.0000000000000000  0.0000000000000000  0.0000000000000000
  0.9976564236384249  0.4988282118192089  0.5000000000000000
  0.0015331352160430  0.5007665676080180  0.0000000000000000
  0.5011717881807982  0.4988282118192018  0.5000000000000000
  0.4992334323919678  0.5007665676080322  0.0000000000000000
  0.5011717881807911  0.0023435763615751  0.5000000000000000
  0.4992334323919820  0.9984668647839570  0.0000000000000000
  0.1657615608523955  0.3315241217047671  0.2543419276935310
  0.1657615608523955  0.3315241217047671  0.7456580723064690
  0.1657615608523670  0.8342384391476330  0.2543419276935310
  0.1657615608523670  0.8342384391476330  0.7456580723064690
  0.6684758782952329  0.8342384391476045  0.2543419276935310
  0.6684758782952329  0.8342384391476045  0.7456580723064690
  0.6666669999999968  0.3333330000000032  0.2484532257999490
  0.6666669999999968  0.3333330000000032  0.7515467742000510
  0.0000000000000000  0.0000000000000000  0.5000000000000000
 
  0.00000000E+00  0.00000000E+00  0.00000000E+00
  0.00000000E+00  0.00000000E+00  0.00000000E+00
  0.00000000E+00  0.00000000E+00  0.00000000E+00
  0.00000000E+00  0.00000000E+00  0.00000000E+00
  0.00000000E+00  0.00000000E+00  0.00000000E+00
  0.00000000E+00  0.00000000E+00  0.00000000E+00
  0.00000000E+00  0.00000000E+00  0.00000000E+00
  0.00000000E+00  0.00000000E+00  0.00000000E+00
  0.00000000E+00  0.00000000E+00  0.00000000E+00
  0.00000000E+00  0.00000000E+00  0.00000000E+00
  0.00000000E+00  0.00000000E+00  0.00000000E+00
  0.00000000E+00  0.00000000E+00  0.00000000E+00
  0.00000000E+00  0.00000000E+00  0.00000000E+00
  0.00000000E+00  0.00000000E+00  0.00000000E+00
  0.00000000E+00  0.00000000E+00  0.00000000E+00
  0.00000000E+00  0.00000000E+00  0.00000000E+00
