Ba1 Tl2 I10                             
   1.0000000000000000     
     4.4801721953677589    6.7745677548820904    0.2073007501838158
    -4.4801721953677589    6.7745677548820904    0.2073007501838158
     0.0000000000000000    5.0224493725799570   11.5515232030736854
   Ba   Tl   I 
     1     2    10
Direct
  0.5875100602436873  0.4124899397563127  0.0000000000000000
  0.0178565251717089  0.9299746456068121  0.7521597092985175
  0.0700253543931879  0.9821434748282911  0.2478402907014825
  0.1904025373691951  0.2844922123237978  0.6427777130935795
  0.7155077876762022  0.8095974626308049  0.3572222869064205
  0.6377248861210063  0.8647035137913974  0.8807717224943161
  0.1352964862085955  0.3622751138789937  0.1192282775056839
  0.9814808825023391  0.0185191174976609  0.0000000000000000
  0.0457765696310446  0.9542234303689554  0.5000000000000000
  0.7979671562554955  0.4467194781208406  0.6879884525901048
  0.5532805218791523  0.2020328437445045  0.3120115474098952
  0.3807812991156965  0.5696110665673331  0.7654773696994965
  0.4303889334326669  0.6192187008843035  0.2345226303005035

  0.00000000E+00  0.00000000E+00  0.00000000E+00
  0.00000000E+00  0.00000000E+00  0.00000000E+00
  0.00000000E+00  0.00000000E+00  0.00000000E+00
  0.00000000E+00  0.00000000E+00  0.00000000E+00
  0.00000000E+00  0.00000000E+00  0.00000000E+00
  0.00000000E+00  0.00000000E+00  0.00000000E+00
  0.00000000E+00  0.00000000E+00  0.00000000E+00
  0.00000000E+00  0.00000000E+00  0.00000000E+00
  0.00000000E+00  0.00000000E+00  0.00000000E+00
  0.00000000E+00  0.00000000E+00  0.00000000E+00
  0.00000000E+00  0.00000000E+00  0.00000000E+00
  0.00000000E+00  0.00000000E+00  0.00000000E+00
  0.00000000E+00  0.00000000E+00  0.00000000E+00
