Be4 Tl4 Br20                            
   1.0000000000000000     
     4.3260238964498763    0.0000000000000000    0.0000000000000005
    -0.0000000000000003    9.9820365768802581    0.0000000000000009
    -0.0000000000000012    0.0000000000000006   29.8556244101143768
   Be   Tl   Br
     4     4    20
Direct
  0.3466033163447548  0.7195678802651599  0.6936923741551837
  0.8466033163447548  0.7804321197348401  0.3063076258448163
  0.6533966836552452  0.2195678802651599  0.8063076258448163
  0.1533966836552452  0.2804321197348401  0.1936923741551908
  0.3083276997560702  0.1453449673746121  0.5670932533127129
  0.8083276997560702  0.3546550326253879  0.4329067466872871
  0.6916723002439298  0.6453449673746050  0.9329067466872871
  0.1916723002439298  0.8546550326253950  0.0670932533127129
  0.3077989161859946  0.8985279558631944  0.5472724578702781
  0.8077989161859946  0.6014720441368056  0.4527275421297219
  0.6922010838140054  0.3985279558631944  0.9527275421297219
  0.1922010838140054  0.1014720441368056  0.0472724578702781
  0.6317396258777634  0.6607245948035541  0.2645217632437706
  0.1317396258777634  0.8392754051964459  0.7354782367562152
  0.3682603741222366  0.1607245948035541  0.2354782367562152
  0.8682603741222366  0.3392754051964388  0.7645217632437706
  0.5726011227222045  0.6011382688099545  0.6528822243310017
  0.0726011227222045  0.8988617311900455  0.3471177756689983
  0.4273988772777955  0.1011382688099545  0.8471177756689983
  0.9273988772777955  0.3988617311900455  0.1528822243310017
  0.8069748479277337  0.1640925011462571  0.6265004941828280
  0.3069748479277266  0.3359074988537429  0.3734995058171720
  0.1930251520722663  0.6640925011462571  0.8734995058171720
  0.6930251520722663  0.8359074988537429  0.1265004941828280
  0.3036724249281164  0.3825429783803855  0.5344548556438440
  0.8036724249281164  0.1174570216196145  0.4655451443561560
  0.6963275750718836  0.8825429783803855  0.9655451443561560
  0.1963275750718836  0.6174570216196145  0.0344548556438440

  0.00000000E+00  0.00000000E+00  0.00000000E+00
  0.00000000E+00  0.00000000E+00  0.00000000E+00
  0.00000000E+00  0.00000000E+00  0.00000000E+00
  0.00000000E+00  0.00000000E+00  0.00000000E+00
  0.00000000E+00  0.00000000E+00  0.00000000E+00
  0.00000000E+00  0.00000000E+00  0.00000000E+00
  0.00000000E+00  0.00000000E+00  0.00000000E+00
  0.00000000E+00  0.00000000E+00  0.00000000E+00
  0.00000000E+00  0.00000000E+00  0.00000000E+00
  0.00000000E+00  0.00000000E+00  0.00000000E+00
  0.00000000E+00  0.00000000E+00  0.00000000E+00
  0.00000000E+00  0.00000000E+00  0.00000000E+00
  0.00000000E+00  0.00000000E+00  0.00000000E+00
  0.00000000E+00  0.00000000E+00  0.00000000E+00
  0.00000000E+00  0.00000000E+00  0.00000000E+00
  0.00000000E+00  0.00000000E+00  0.00000000E+00
  0.00000000E+00  0.00000000E+00  0.00000000E+00
  0.00000000E+00  0.00000000E+00  0.00000000E+00
  0.00000000E+00  0.00000000E+00  0.00000000E+00
  0.00000000E+00  0.00000000E+00  0.00000000E+00
  0.00000000E+00  0.00000000E+00  0.00000000E+00
  0.00000000E+00  0.00000000E+00  0.00000000E+00
  0.00000000E+00  0.00000000E+00  0.00000000E+00
  0.00000000E+00  0.00000000E+00  0.00000000E+00
  0.00000000E+00  0.00000000E+00  0.00000000E+00
  0.00000000E+00  0.00000000E+00  0.00000000E+00
  0.00000000E+00  0.00000000E+00  0.00000000E+00
  0.00000000E+00  0.00000000E+00  0.00000000E+00
