Sr13 B14                                
   1.00000000000000     
     5.7024729884380738    5.7024729884380738    5.3392901919187574
     5.7024729884380729   -5.3392901919187565   -5.7024729884380738
    -5.3392901919187565    5.7024729884380729   -5.7024729884380738
   B    Sr
    14    13
Direct
  0.4193614281675551  0.9968116561610998  0.9968116561610998
  0.5806385718324449  0.0031883438389002  0.0031883438389002
  0.4473213478499574  0.4473213478499574  0.9067003498101158
  0.9968116561610998  0.4193614281675551  0.9968116561610998
  0.0031883438389002  0.5806385718324449  0.0031883438389002
  0.5526786521500426  0.5526786521500426  0.0932996501898842
  0.4473213478499574  0.9067003498101158  0.4473213478499574
  0.9067003498101158  0.4473213478499574  0.4473213478499574
  0.9968116561610998  0.9968116561610998  0.4193614281675551
  0.4286736370282185  0.4286736370282185  0.4286736370282185
  0.0031883438389002  0.0031883438389002  0.5806385718324449
  0.5713263629717886  0.5713263629717886  0.5713263629717886
  0.5526786521500426  0.0932996501898842  0.5526786521500426
  0.0932996501898842  0.5526786521500426  0.5526786521500426
  0.0000000000000000  0.0000000000000000  0.0000000000000000
  0.7084504415606858  0.2915495584393142  0.0000000000000000
  0.2915495584393142  0.7084504415606858  0.0000000000000000
  0.7307444515501160  0.7307444515501160  0.4618245403109356
  0.7084504415606858  0.0000000000000000  0.2915495584393142
  0.0000000000000000  0.7084504415606858  0.2915495584393142
  0.5381754596890644  0.2692555484498840  0.2692555484498840
  0.2692555484498840  0.5381754596890644  0.2692555484498840
  0.2915495584393142  0.0000000000000000  0.7084504415606858
  0.7307444515501160  0.4618245403109356  0.7307444515501160
  0.0000000000000000  0.2915495584393071  0.7084504415606858
  0.4618245403109356  0.7307444515501160  0.7307444515501160
  0.2692555484498840  0.2692555484498840  0.5381754596890644
 
  0.00000000E+00  0.00000000E+00  0.00000000E+00
  0.00000000E+00  0.00000000E+00  0.00000000E+00
  0.00000000E+00  0.00000000E+00  0.00000000E+00
  0.00000000E+00  0.00000000E+00  0.00000000E+00
  0.00000000E+00  0.00000000E+00  0.00000000E+00
  0.00000000E+00  0.00000000E+00  0.00000000E+00
  0.00000000E+00  0.00000000E+00  0.00000000E+00
  0.00000000E+00  0.00000000E+00  0.00000000E+00
  0.00000000E+00  0.00000000E+00  0.00000000E+00
  0.00000000E+00  0.00000000E+00  0.00000000E+00
  0.00000000E+00  0.00000000E+00  0.00000000E+00
  0.00000000E+00  0.00000000E+00  0.00000000E+00
  0.00000000E+00  0.00000000E+00  0.00000000E+00
  0.00000000E+00  0.00000000E+00  0.00000000E+00
  0.00000000E+00  0.00000000E+00  0.00000000E+00
  0.00000000E+00  0.00000000E+00  0.00000000E+00
  0.00000000E+00  0.00000000E+00  0.00000000E+00
  0.00000000E+00  0.00000000E+00  0.00000000E+00
  0.00000000E+00  0.00000000E+00  0.00000000E+00
  0.00000000E+00  0.00000000E+00  0.00000000E+00
  0.00000000E+00  0.00000000E+00  0.00000000E+00
  0.00000000E+00  0.00000000E+00  0.00000000E+00
  0.00000000E+00  0.00000000E+00  0.00000000E+00
  0.00000000E+00  0.00000000E+00  0.00000000E+00
  0.00000000E+00  0.00000000E+00  0.00000000E+00
  0.00000000E+00  0.00000000E+00  0.00000000E+00
  0.00000000E+00  0.00000000E+00  0.00000000E+00
