Mg4 In4 F2                              
   1.00000000000000     
     3.2947709214131455    0.0501299471753504    0.0713231152034510
    -1.6055287734662604    2.8970942391598955   -0.0841394529894019
     0.5504300589356056   -0.2050822014398296   23.0667084450331679
   In   F    Mg
     4     2     4
Direct
  0.4855515769484171  0.5080739225587294  0.0656616651829225
  0.4139416891318461  0.5838185574738404  0.4382442203934929
  0.5829604527129817  0.4190086825224810  0.5618273264702651
  0.5177911356737823  0.4888464433818029  0.9343911075680111
  0.0959782508096296  0.9085551461064725  0.2510726574869722
  0.9035886338683881  0.0918860217457294  0.7489335592317090
  0.1282619213917329  0.8700597640204890  0.1687037320182654
  0.0997579969056375  0.9015015805278708  0.3334315642224865
  0.8970936425758183  0.1013922095787763  0.6666433880479659
  0.8750746999817807  0.1268576720838155  0.8313707793779415
 
  0.00000000E+00  0.00000000E+00  0.00000000E+00
  0.00000000E+00  0.00000000E+00  0.00000000E+00
  0.00000000E+00  0.00000000E+00  0.00000000E+00
  0.00000000E+00  0.00000000E+00  0.00000000E+00
  0.00000000E+00  0.00000000E+00  0.00000000E+00
  0.00000000E+00  0.00000000E+00  0.00000000E+00
  0.00000000E+00  0.00000000E+00  0.00000000E+00
  0.00000000E+00  0.00000000E+00  0.00000000E+00
  0.00000000E+00  0.00000000E+00  0.00000000E+00
  0.00000000E+00  0.00000000E+00  0.00000000E+00
