Mg1 Al2 Cl6                             
   1.00000000000000     
     3.2943184465932860    1.9014025067406828    5.3789397179701837
    -3.2943184465932860    1.9014025067406828    5.3789397179701837
     0.0000000000000000   -3.8027221825887292    5.3789104393323228
   Mg   Cl   Al
     1     6     2
Direct
  0.0000000000000000  0.0000000000000000  0.0000000000000000
  0.7442464579365478  0.7442464579365478  0.2557842980730456
  0.7442844545739291  0.2557411566476020  0.2557203427085000
  0.2557411566476020  0.7442844545739291  0.2557203427085000
  0.2557535420634522  0.2557535420634522  0.7442157019269544
  0.7442588433523980  0.2557155454260709  0.7442796572915000
  0.2557155454260709  0.7442588433523980  0.7442796572915000
  0.2499914306208524  0.2499914306208524  0.2499878515701113
  0.7500085693791476  0.7500085693791476  0.7500121484298887
 
  0.00000000E+00  0.00000000E+00  0.00000000E+00
  0.00000000E+00  0.00000000E+00  0.00000000E+00
  0.00000000E+00  0.00000000E+00  0.00000000E+00
  0.00000000E+00  0.00000000E+00  0.00000000E+00
  0.00000000E+00  0.00000000E+00  0.00000000E+00
  0.00000000E+00  0.00000000E+00  0.00000000E+00
  0.00000000E+00  0.00000000E+00  0.00000000E+00
  0.00000000E+00  0.00000000E+00  0.00000000E+00
  0.00000000E+00  0.00000000E+00  0.00000000E+00
