Ca1 In2 Br8                             
   1.0000000000000000     
     6.7208099767431282   -4.0816689994932807   -0.2245887237198444
     6.7208099767431282    4.0816689994932807   -0.2245887237198444
    -0.3100141901769940    0.0000000000000000    7.9581710589256405
   In   Ca   Br
     2     1     8
Direct
  0.3307477786301689  0.3307477786301689  0.3188931611813928
  0.6692522213698311  0.6692522213698311  0.6811068388186072
  0.0000000000000000  0.0000000000000000  0.0000000000000000
  0.6285112985742956  0.1117421427181924  0.1511742851998434
  0.1117421427181924  0.6285112985742956  0.1511742851998434
  0.1362244370603065  0.1362244370603065  0.3028392420436319
  0.6208273810325551  0.6208273810325551  0.3737567675830604
  0.3791726189674449  0.3791726189674449  0.6262432324169396
  0.8637755629396935  0.8637755629396935  0.6971607579563681
  0.8882578572818076  0.3714887014257044  0.8488257148001566
  0.3714887014257044  0.8882578572818076  0.8488257148001566

  0.00000000E+00  0.00000000E+00  0.00000000E+00
  0.00000000E+00  0.00000000E+00  0.00000000E+00
  0.00000000E+00  0.00000000E+00  0.00000000E+00
  0.00000000E+00  0.00000000E+00  0.00000000E+00
  0.00000000E+00  0.00000000E+00  0.00000000E+00
  0.00000000E+00  0.00000000E+00  0.00000000E+00
  0.00000000E+00  0.00000000E+00  0.00000000E+00
  0.00000000E+00  0.00000000E+00  0.00000000E+00
  0.00000000E+00  0.00000000E+00  0.00000000E+00
  0.00000000E+00  0.00000000E+00  0.00000000E+00
  0.00000000E+00  0.00000000E+00  0.00000000E+00
