MgTl                                    
   1.0000000000000000     
     3.6576018025341561    0.0000000000000000   -0.0000000000000000
     0.0000000000000000    3.6576018025341561   -0.0000000000000000
     0.0000000000000000   -0.0000000000000000    3.6576018025341561
   Mg   Tl
     1     1
Direct
  0.0000000000000000  0.0000000000000000  0.0000000000000000
  0.5000000000000000  0.5000000000000000  0.5000000000000000

  0.00000000E+00  0.00000000E+00  0.00000000E+00
  0.00000000E+00  0.00000000E+00  0.00000000E+00
