Be1 In2 Br6                             
   1.00000000000000     
     3.7142224567487667    2.6146081830827561    5.9098191696063997
    -3.7142224567487623    2.6146081830827490    5.9098191696063989
    -0.0000000000000021   -3.8934072432133728    5.1381526017768069
   Be   Br   In
     1     6     2
Direct
  0.0000000000000000  0.0000000000000000  0.0000000000000000
  0.7931234986202398  0.7931234986202398  0.3663946259578950
  0.8342786596969987  0.3022420355346895  0.1690523081033959
  0.3022420355346895  0.8342786596969987  0.1690523081033959
  0.2068765013797602  0.2068765013797602  0.6336053740421050
  0.6977579644653105  0.1657213403030013  0.8309476918966041
  0.1657213403030013  0.6977579644653105  0.8309476918965970
  0.2492301025041996  0.2492301025041996  0.1674552080529139
  0.7507698974957933  0.7507698974957933  0.8325447919470861
 
  0.00000000E+00  0.00000000E+00  0.00000000E+00
  0.00000000E+00  0.00000000E+00  0.00000000E+00
  0.00000000E+00  0.00000000E+00  0.00000000E+00
  0.00000000E+00  0.00000000E+00  0.00000000E+00
  0.00000000E+00  0.00000000E+00  0.00000000E+00
  0.00000000E+00  0.00000000E+00  0.00000000E+00
  0.00000000E+00  0.00000000E+00  0.00000000E+00
  0.00000000E+00  0.00000000E+00  0.00000000E+00
  0.00000000E+00  0.00000000E+00  0.00000000E+00
