B2I                                     
   1.00000000000000     
     5.4932065233828080    0.0000000000000000    0.0000000000000000
     0.0000000000000000    5.4932065233828080    0.0000000000000000
     0.0000000000000000    0.0000000000000000    3.7673095035060116
   B    I 
     4     2
Direct
  0.3026472216424452  0.3026472216424452  0.0000000000000000
  0.6973527783575548  0.6973527783575548  0.0000000000000000
  0.8026472216424452  0.1973527783575548  0.5000000000000000
  0.1973527783575548  0.8026472216424452  0.5000000000000000
  0.0000000000000000  0.0000000000000000  0.0000000000000000
  0.5000000000000000  0.5000000000000000  0.5000000000000000
 
  0.00000000E+00  0.00000000E+00  0.00000000E+00
  0.00000000E+00  0.00000000E+00  0.00000000E+00
  0.00000000E+00  0.00000000E+00  0.00000000E+00
  0.00000000E+00  0.00000000E+00  0.00000000E+00
  0.00000000E+00  0.00000000E+00  0.00000000E+00
  0.00000000E+00  0.00000000E+00  0.00000000E+00
