Tl3F                                    
   1.0000000000000000     
     6.6102940810142776    0.0055705394317360    0.0000000000000000
    -3.3003221883533942    5.7275293891166212    0.0000000000000000
     0.0000000000000000    0.0000000000000000    5.3500406556123652
   F    Tl
     2     6
Direct
  0.3330392202143386  0.6669616553179623  0.7500000000000000
  0.6669607797856614  0.3330383446820377  0.2500000000000000
  0.1736477169588397  0.3466120855318877  0.2500000000000000
  0.6533883672920950  0.8263526787251578  0.2500000000000000
  0.1733119700604249  0.8266882627754555  0.2500000000000000
  0.8263522830411603  0.6533879144681052  0.7500000000000000
  0.3466116327079050  0.1736473212748422  0.7500000000000000
  0.8266880299395751  0.1733117372245445  0.7500000000000000

  0.00000000E+00  0.00000000E+00  0.00000000E+00
  0.00000000E+00  0.00000000E+00  0.00000000E+00
  0.00000000E+00  0.00000000E+00  0.00000000E+00
  0.00000000E+00  0.00000000E+00  0.00000000E+00
  0.00000000E+00  0.00000000E+00  0.00000000E+00
  0.00000000E+00  0.00000000E+00  0.00000000E+00
  0.00000000E+00  0.00000000E+00  0.00000000E+00
  0.00000000E+00  0.00000000E+00  0.00000000E+00
