Be6 Br4                                 
   1.00000000000000     
    -4.0464306588007624    0.0240823028558077    0.1406226702566315
     1.9999580300545152   -3.5181049767009682   -0.1014589147310406
    -1.4986389275990397    1.0755571481809243   14.8814989698567768
   Br   Be
     4     6
Direct
  0.2013922031648718  0.2862762606808644  0.8769424313307965
  0.2827151559996324  0.2016001736932296  0.6292563939880509
  0.7172229757429847  0.7983381357365360  0.3707172508421621
  0.7985519653461637  0.7136608252136014  0.1230277687437891
  0.3940838805840556  0.7560321917150290  0.2468801332936437
  0.7578399572953316  0.3923042160087746  0.2468194969664097
  0.1217858753054699  0.1197581690016278  0.2467850063817352
  0.8781558105115366  0.8801883986902794  0.7531898452230550
  0.2420995314209975  0.6076310365532791  0.7531560070148657
  0.6058526446289463  0.2439105927067757  0.7530956662154935
 
  0.00000000E+00  0.00000000E+00  0.00000000E+00
  0.00000000E+00  0.00000000E+00  0.00000000E+00
  0.00000000E+00  0.00000000E+00  0.00000000E+00
  0.00000000E+00  0.00000000E+00  0.00000000E+00
  0.00000000E+00  0.00000000E+00  0.00000000E+00
  0.00000000E+00  0.00000000E+00  0.00000000E+00
  0.00000000E+00  0.00000000E+00  0.00000000E+00
  0.00000000E+00  0.00000000E+00  0.00000000E+00
  0.00000000E+00  0.00000000E+00  0.00000000E+00
  0.00000000E+00  0.00000000E+00  0.00000000E+00
