Mg5B                                    
   1.00000000000000     
     2.6935093821095646    6.4641384630406682    0.0000000000000000
    -2.6935093821095646    6.4641384630406682    0.0000000000000000
     0.0000000000000000    0.0000000000000000    3.4558518319639808
   B    Mg
     1     5
Direct
  0.0979269472228097  0.9020730527771903  0.0000000000000000
  0.1780108942120648  0.4578986589195750  0.0000000000000000
  0.5421013410804250  0.8219891057879352  0.0000000000000000
  0.7836946647883067  0.9939454207192213  0.5000000000000000
  0.0060545792807787  0.2163053352116933  0.5000000000000000
  0.3922115734156080  0.6077884265843849  0.5000000000000000
 
  0.00000000E+00  0.00000000E+00  0.00000000E+00
  0.00000000E+00  0.00000000E+00  0.00000000E+00
  0.00000000E+00  0.00000000E+00  0.00000000E+00
  0.00000000E+00  0.00000000E+00  0.00000000E+00
  0.00000000E+00  0.00000000E+00  0.00000000E+00
  0.00000000E+00  0.00000000E+00  0.00000000E+00
