Ba1 Al2 Cl10                            
   1.00000000000000     
     4.5057329800988946    6.4486162252772505    0.7743909614115483
    -4.5057329800988946    6.4486162252772514    0.7743909614115481
     0.0000000000000000    5.7423804687063100    7.2840113677859968
   Ba   Al   Cl
     1     2    10
Direct
  0.5642860488659025  0.4357139511340975  0.0000000000000000
  0.9991239701403387  0.0016198784015984  0.7399649448086123
  0.9983801215984016  0.0008760298596613  0.2600350551913877
  0.2478916678315244  0.2526571700013562  0.4979158980235923
  0.7473428299986438  0.7521083321684756  0.5020841019764077
  0.7498233515354684  0.7527815981604462  0.9936767728807894
  0.2472184018395538  0.2501766484645316  0.0063232271192106
  0.9125660114142278  0.0874339885857722  0.0000000000000000
  0.0908610617996430  0.9091389382003641  0.5000000000000000
  0.7560999689019141  0.2477122409149075  0.6861172582125903
  0.7522877590850925  0.2439000310980859  0.3138827417874097
  0.2427364542963986  0.7646186473071097  0.8105167690492365
  0.2353813526928903  0.7572635457036014  0.1894832309507635
 
  0.00000000E+00  0.00000000E+00  0.00000000E+00
  0.00000000E+00  0.00000000E+00  0.00000000E+00
  0.00000000E+00  0.00000000E+00  0.00000000E+00
  0.00000000E+00  0.00000000E+00  0.00000000E+00
  0.00000000E+00  0.00000000E+00  0.00000000E+00
  0.00000000E+00  0.00000000E+00  0.00000000E+00
  0.00000000E+00  0.00000000E+00  0.00000000E+00
  0.00000000E+00  0.00000000E+00  0.00000000E+00
  0.00000000E+00  0.00000000E+00  0.00000000E+00
  0.00000000E+00  0.00000000E+00  0.00000000E+00
  0.00000000E+00  0.00000000E+00  0.00000000E+00
  0.00000000E+00  0.00000000E+00  0.00000000E+00
  0.00000000E+00  0.00000000E+00  0.00000000E+00
