Mg4 Tl8 Br32                            
   1.0000000000000000     
    -6.5515393797242840    6.5515393797242840   11.1012343335978709
     6.5515393797242840   -6.5515393797242840   11.1012343335978709
     6.5515393797242840    6.5515393797242840  -11.1012343335978709
   Mg   Tl   Br
     4     8    32
Direct
  0.0000000000000000  0.0000000000000000  0.0000000000000000
  0.7500000000000000  0.2500000000000000  0.5000000000000000
  0.2500000000000000  0.7500000000000000  0.5000000000000000
  0.5000000000000000  0.5000000000000000  0.0000000000000000
  0.5570799360598642  0.8750000000000000  0.1820799360598642
  0.1250000000000000  0.8070799360598642  0.1820799360598642
  0.1250000000000000  0.3070799360598642  0.6820799360598642
  0.6929200639401358  0.3750000000000000  0.8179200639401358
  0.6250000000000000  0.9429200639401358  0.8179200639401358
  0.0570799360598642  0.8750000000000000  0.6820799360598642
  0.1929200639401358  0.3750000000000000  0.3179200639401358
  0.6250000000000000  0.4429200639401358  0.3179200639401358
  0.6188713761215467  0.2248170195631261  0.2616316624497657
  0.1072397136717811  0.8688713761215467  0.8940543565584349
  0.7868146428866396  0.8927602863282189  0.7616316624497657
  0.3094163051202372  0.2431720431023336  0.2343652845263620
  0.8094163051202372  0.5750510205938681  0.0662452620179010
  0.8250510205938681  0.5594163051202372  0.5662452620179010
  0.1311286238784533  0.0251829804368739  0.2383683375502343
  0.9748170195631261  0.2131853571133604  0.1059456434415651
  0.4631853571133604  0.7248170195631261  0.6059456434415651
  0.2568279568976664  0.1905836948797628  0.7656347154736380
  0.0088057585759671  0.0750510205938681  0.7656347154736380
  0.9405836948797628  0.6749489794061319  0.4337547379820990
  0.9249489794061319  0.6905836948797628  0.9337547379820990
  0.1427602863282189  0.5368146428866396  0.2616316624497657
  0.2868146428866396  0.5251829804368739  0.8940543565584349
  0.6072397136717811  0.7131853571133604  0.2383683375502343
  0.7411942414240329  0.1749489794061319  0.7343652845263620
  0.2751829804368739  0.8811286238784533  0.7383683375502343
  0.4748170195631261  0.3688713761215467  0.7616316624497657
  0.9631853571133604  0.3572397136717811  0.7383683375502343
  0.3250510205938681  0.7588057585759671  0.2656347154736380
  0.4249489794061319  0.4911942414240329  0.2343652845263620
  0.6427602863282189  0.3811286238784533  0.6059456434415651
  0.6311286238784533  0.3927602863282189  0.1059456434415651
  0.2411942414240329  0.5068279568976664  0.5662452620179010
  0.4405836948797628  0.0068279568976664  0.2656347154736380
  0.1188713761215467  0.8572397136717811  0.3940543565584349
  0.4931720431023336  0.0594163051202372  0.7343652845263620
  0.5088057585759671  0.7431720431023336  0.9337547379820990
  0.9931720431023336  0.2588057585759671  0.4337547379820990
  0.7751829804368739  0.0368146428866396  0.3940543565584349
  0.7568279568976664  0.9911942414240329  0.0662452620179010

  0.00000000E+00  0.00000000E+00  0.00000000E+00
  0.00000000E+00  0.00000000E+00  0.00000000E+00
  0.00000000E+00  0.00000000E+00  0.00000000E+00
  0.00000000E+00  0.00000000E+00  0.00000000E+00
  0.00000000E+00  0.00000000E+00  0.00000000E+00
  0.00000000E+00  0.00000000E+00  0.00000000E+00
  0.00000000E+00  0.00000000E+00  0.00000000E+00
  0.00000000E+00  0.00000000E+00  0.00000000E+00
  0.00000000E+00  0.00000000E+00  0.00000000E+00
  0.00000000E+00  0.00000000E+00  0.00000000E+00
  0.00000000E+00  0.00000000E+00  0.00000000E+00
  0.00000000E+00  0.00000000E+00  0.00000000E+00
  0.00000000E+00  0.00000000E+00  0.00000000E+00
  0.00000000E+00  0.00000000E+00  0.00000000E+00
  0.00000000E+00  0.00000000E+00  0.00000000E+00
  0.00000000E+00  0.00000000E+00  0.00000000E+00
  0.00000000E+00  0.00000000E+00  0.00000000E+00
  0.00000000E+00  0.00000000E+00  0.00000000E+00
  0.00000000E+00  0.00000000E+00  0.00000000E+00
  0.00000000E+00  0.00000000E+00  0.00000000E+00
  0.00000000E+00  0.00000000E+00  0.00000000E+00
  0.00000000E+00  0.00000000E+00  0.00000000E+00
  0.00000000E+00  0.00000000E+00  0.00000000E+00
  0.00000000E+00  0.00000000E+00  0.00000000E+00
  0.00000000E+00  0.00000000E+00  0.00000000E+00
  0.00000000E+00  0.00000000E+00  0.00000000E+00
  0.00000000E+00  0.00000000E+00  0.00000000E+00
  0.00000000E+00  0.00000000E+00  0.00000000E+00
  0.00000000E+00  0.00000000E+00  0.00000000E+00
  0.00000000E+00  0.00000000E+00  0.00000000E+00
  0.00000000E+00  0.00000000E+00  0.00000000E+00
  0.00000000E+00  0.00000000E+00  0.00000000E+00
  0.00000000E+00  0.00000000E+00  0.00000000E+00
  0.00000000E+00  0.00000000E+00  0.00000000E+00
  0.00000000E+00  0.00000000E+00  0.00000000E+00
  0.00000000E+00  0.00000000E+00  0.00000000E+00
  0.00000000E+00  0.00000000E+00  0.00000000E+00
  0.00000000E+00  0.00000000E+00  0.00000000E+00
  0.00000000E+00  0.00000000E+00  0.00000000E+00
  0.00000000E+00  0.00000000E+00  0.00000000E+00
  0.00000000E+00  0.00000000E+00  0.00000000E+00
  0.00000000E+00  0.00000000E+00  0.00000000E+00
  0.00000000E+00  0.00000000E+00  0.00000000E+00
  0.00000000E+00  0.00000000E+00  0.00000000E+00
