Sr2 In2 I10                             
   1.00000000000000     
    -6.4722416472410309   -4.5417395934871152   -0.0471379512803604
     6.5010044341791513   -4.5810643724236924   -0.1032962219227343
    -4.6760389230772450    0.1789224065664472   10.7426663199608257
   In   Sr   I 
     2     2    10
Direct
  0.9977549636442617  0.9980254683834531  0.9975875103416598
  0.0021680151854468  0.0022439340333378  0.4976544826786053
  0.4671664008939018  0.4715917140390928  0.2435699748243678
  0.5338669656767436  0.5282663087516184  0.7588255320341375
  0.7716980930368607  0.6153500630197044  0.0044380056625002
  0.6685316511697437  0.1210180703277146  0.1337758681265981
  0.1046966369494555  0.0980122974516249  0.2486536550004530
  0.1088838845582742  0.6594556047060181  0.3705160199343993
  0.6175290729274039  0.7814876102469057  0.4898824253583811
  0.3858721185241052  0.2243412230015309  0.5087901003286319
  0.8915750103011106  0.3409358285625927  0.6319752182990470
  0.8935130731990029  0.9037398274496340  0.7520526254744411
  0.3285925812307227  0.8750329540747970  0.8666426057664154
  0.2280505327029445  0.3803990959519865  0.9953339761703575
 
  0.00000000E+00  0.00000000E+00  0.00000000E+00
  0.00000000E+00  0.00000000E+00  0.00000000E+00
  0.00000000E+00  0.00000000E+00  0.00000000E+00
  0.00000000E+00  0.00000000E+00  0.00000000E+00
  0.00000000E+00  0.00000000E+00  0.00000000E+00
  0.00000000E+00  0.00000000E+00  0.00000000E+00
  0.00000000E+00  0.00000000E+00  0.00000000E+00
  0.00000000E+00  0.00000000E+00  0.00000000E+00
  0.00000000E+00  0.00000000E+00  0.00000000E+00
  0.00000000E+00  0.00000000E+00  0.00000000E+00
  0.00000000E+00  0.00000000E+00  0.00000000E+00
  0.00000000E+00  0.00000000E+00  0.00000000E+00
  0.00000000E+00  0.00000000E+00  0.00000000E+00
  0.00000000E+00  0.00000000E+00  0.00000000E+00
