Be2 Tl2 Br10                            
   1.0000000000000000     
     5.8751655255984190   -0.0000000000000004    0.0000000000000003
    -0.0000000000000014   12.8486278594267649    0.0000000000000005
    -0.0000000000000001    0.0000000000000004    8.2868863375329944
   Be   Tl   Br
     2     2    10
Direct
  0.0000000000000000  0.0000000000000000  0.5000000000000000
  0.5000000000000000  0.5000000000000000  0.0000000000000000
  0.5000000000000000  0.0000000000000000  0.0000000000000000
  0.0000000000000000  0.5000000000000000  0.5000000000000000
  0.5000000000000000  0.7000209894719873  0.5000000000000000
  0.5000000000000000  0.2999790105280127  0.5000000000000000
  0.5000000000000000  0.0000000000000000  0.6653918209473986
  0.5000000000000000  0.0000000000000000  0.3346081790526014
  0.0000000000000000  0.0000000000000000  0.0000000000000000
  0.0000000000000000  0.2000209894719873  0.0000000000000000
  0.0000000000000000  0.7999790105280127  0.0000000000000000
  0.0000000000000000  0.5000000000000000  0.1653918209473986
  0.0000000000000000  0.5000000000000000  0.8346081790526014
  0.5000000000000000  0.5000000000000000  0.5000000000000000

  0.00000000E+00  0.00000000E+00  0.00000000E+00
  0.00000000E+00  0.00000000E+00  0.00000000E+00
  0.00000000E+00  0.00000000E+00  0.00000000E+00
  0.00000000E+00  0.00000000E+00  0.00000000E+00
  0.00000000E+00  0.00000000E+00  0.00000000E+00
  0.00000000E+00  0.00000000E+00  0.00000000E+00
  0.00000000E+00  0.00000000E+00  0.00000000E+00
  0.00000000E+00  0.00000000E+00  0.00000000E+00
  0.00000000E+00  0.00000000E+00  0.00000000E+00
  0.00000000E+00  0.00000000E+00  0.00000000E+00
  0.00000000E+00  0.00000000E+00  0.00000000E+00
  0.00000000E+00  0.00000000E+00  0.00000000E+00
  0.00000000E+00  0.00000000E+00  0.00000000E+00
  0.00000000E+00  0.00000000E+00  0.00000000E+00
