Mg3 In11                                
   1.00000000000000     
    -2.2943847695681563    8.2337215555072394    5.5487950461334217
     2.2811356485672745   -6.8561968107686688    4.9335125842845278
     2.3066931577232537    6.8537793864188208   -4.9315969889706466
   In   Mg
    11     3
Direct
  0.7065225482807804  0.5625298072504137  0.1418245069326787
  0.4360240854834672  0.1494104722776513  0.2861985515393357
  0.0724959878349765  0.8580618038511219  0.2123804770464730
  0.7913582295169803  0.4293107489264116  0.3632584164867367
  0.1477846502700402  0.7166734236572339  0.4306702265243061
  0.5000362991146403  0.9999923957570829  0.5000095013605090
  0.8522868948756752  0.2833367318873954  0.5693245593780105
  0.2087043312424868  0.5706899696287095  0.6367332044237699
  0.9275812512835842  0.1419511457538789  0.7876215598910576
  0.5640443058866396  0.8505748874272783  0.7138022449373622
  0.2935606302799911  0.4374763847603447  0.8581769753525990
  0.0000320131850913  0.0000002906990844  0.9999925220089665
  0.3546830291651020  0.2837985646820727  0.0695996383002040
  0.6453857435805475  0.7161933734413068  0.9304076158180052
 
  0.00000000E+00  0.00000000E+00  0.00000000E+00
  0.00000000E+00  0.00000000E+00  0.00000000E+00
  0.00000000E+00  0.00000000E+00  0.00000000E+00
  0.00000000E+00  0.00000000E+00  0.00000000E+00
  0.00000000E+00  0.00000000E+00  0.00000000E+00
  0.00000000E+00  0.00000000E+00  0.00000000E+00
  0.00000000E+00  0.00000000E+00  0.00000000E+00
  0.00000000E+00  0.00000000E+00  0.00000000E+00
  0.00000000E+00  0.00000000E+00  0.00000000E+00
  0.00000000E+00  0.00000000E+00  0.00000000E+00
  0.00000000E+00  0.00000000E+00  0.00000000E+00
  0.00000000E+00  0.00000000E+00  0.00000000E+00
  0.00000000E+00  0.00000000E+00  0.00000000E+00
  0.00000000E+00  0.00000000E+00  0.00000000E+00
