Ba1 In2 I8                              
   1.0000000000000000     
     4.5450951056335667   10.8804054739611669    2.2815948456955062
    -4.5450951056335667   10.8804054739611669    2.2815948456955062
     0.0000000000000000    4.6982516045620981    7.0690662742400514
   Ba   In   I 
     1     2     8
Direct
  0.0000000000000000  0.0000000000000000  0.0000000000000000
  0.3261496659272964  0.3261496659272964  0.6850396038360032
  0.6738503340727036  0.6738503340727036  0.3149603961639968
  0.6121433610975657  0.1120293381158888  0.4389703647146206
  0.8538410159669496  0.8538410159669496  0.9580287102824414
  0.1120293381158888  0.6121433610975657  0.4389703647146206
  0.3866958857600196  0.3866958857600196  0.8694002620837011
  0.8879706618841112  0.3878566389024343  0.5610296352853794
  0.3878566389024343  0.8879706618841112  0.5610296352853794
  0.1461589840330504  0.1461589840330504  0.0419712897175586
  0.6133041142399804  0.6133041142399804  0.1305997379162989

  0.00000000E+00  0.00000000E+00  0.00000000E+00
  0.00000000E+00  0.00000000E+00  0.00000000E+00
  0.00000000E+00  0.00000000E+00  0.00000000E+00
  0.00000000E+00  0.00000000E+00  0.00000000E+00
  0.00000000E+00  0.00000000E+00  0.00000000E+00
  0.00000000E+00  0.00000000E+00  0.00000000E+00
  0.00000000E+00  0.00000000E+00  0.00000000E+00
  0.00000000E+00  0.00000000E+00  0.00000000E+00
  0.00000000E+00  0.00000000E+00  0.00000000E+00
  0.00000000E+00  0.00000000E+00  0.00000000E+00
  0.00000000E+00  0.00000000E+00  0.00000000E+00
