Ba2 In2 F10                             
   1.0000000000000000     
     3.9268056616456009    0.0000000000000000    0.0000000000000002
    -0.0000000000000006    8.4106497324663465    0.0000000000000005
     0.0000000000000001    0.0000000000000000    8.1499561509377223
   Ba   In   F 
     2     2    10
Direct
  0.0000000000000000  0.0000000000000000  0.5000000000000000
  0.5000000000000000  0.5000000000000000  0.0000000000000000
  0.5000000000000000  0.0000000000000000  0.0000000000000000
  0.0000000000000000  0.5000000000000000  0.5000000000000000
  0.5000000000000000  0.7914782216897791  0.5000000000000000
  0.5000000000000000  0.2085217783102209  0.5000000000000000
  0.5000000000000000  0.0000000000000000  0.2440551317715389
  0.5000000000000000  0.0000000000000000  0.7559448682284611
  0.0000000000000000  0.0000000000000000  0.0000000000000000
  0.0000000000000000  0.2914782216897791  0.0000000000000000
  0.0000000000000000  0.7085217783102209  0.0000000000000000
  0.0000000000000000  0.5000000000000000  0.7440551317715389
  0.0000000000000000  0.5000000000000000  0.2559448682284611
  0.5000000000000000  0.5000000000000000  0.5000000000000000

  0.00000000E+00  0.00000000E+00  0.00000000E+00
  0.00000000E+00  0.00000000E+00  0.00000000E+00
  0.00000000E+00  0.00000000E+00  0.00000000E+00
  0.00000000E+00  0.00000000E+00  0.00000000E+00
  0.00000000E+00  0.00000000E+00  0.00000000E+00
  0.00000000E+00  0.00000000E+00  0.00000000E+00
  0.00000000E+00  0.00000000E+00  0.00000000E+00
  0.00000000E+00  0.00000000E+00  0.00000000E+00
  0.00000000E+00  0.00000000E+00  0.00000000E+00
  0.00000000E+00  0.00000000E+00  0.00000000E+00
  0.00000000E+00  0.00000000E+00  0.00000000E+00
  0.00000000E+00  0.00000000E+00  0.00000000E+00
  0.00000000E+00  0.00000000E+00  0.00000000E+00
  0.00000000E+00  0.00000000E+00  0.00000000E+00
