Al20 Br4                                
   1.00000000000000     
     7.8400036001029800    1.9506247281681368    0.2649840107379616
    -7.8400036001029800    1.9506247281681375    0.2649840107379612
    -0.0000000000000002    5.4995591715121046   17.5217210448210814
   Al   Br
    20     4
Direct
  0.9158065490230456  0.3454533957638830  0.8094845932591355
  0.6545466042361170  0.0841934509769544  0.6905154067408645
  0.0841934509769473  0.6545466042361170  0.1905154067408645
  0.3454533957638830  0.9158065490230456  0.3094845932591355
  0.2736736165696456  0.9501661486975550  0.8185790115259195
  0.0498338513024521  0.7263263834303473  0.6814209884740805
  0.7263263834303544  0.0498338513024521  0.1814209884740805
  0.9501661486975479  0.2736736165696456  0.3185790115259195
  0.2554563137781471  0.1494968041497202  0.5242920454507356
  0.8505031958502869  0.7445436862218529  0.9757079545492644
  0.7445436862218529  0.8505031958502869  0.4757079545492786
  0.1494968041497202  0.2554563137781471  0.0242920454507285
  0.8259962151274109  0.4689249452692295  0.5516728689241148
  0.5310750547307705  0.1740037848725891  0.9483271310758852
  0.1740037848725891  0.5310750547307705  0.4483271310758852
  0.4689249452692295  0.8259962151274109  0.0516728689241148
  0.1962161215379226  0.5862771287911670  0.9292079763812424
  0.4137228712088330  0.8037838784620774  0.5707920236187576
  0.8037838784620774  0.4137228712088330  0.0707920236187576
  0.5862771287911670  0.1962161215379226  0.4292079763812424
  0.9160730372674450  0.9223227557855651  0.6652672783233413
  0.0776772442144349  0.0839269627325550  0.8347327216766587
  0.0839269627325550  0.0776772442144349  0.3347327216766516
  0.9223227557855651  0.9160730372674450  0.1652672783233413
 
  0.00000000E+00  0.00000000E+00  0.00000000E+00
  0.00000000E+00  0.00000000E+00  0.00000000E+00
  0.00000000E+00  0.00000000E+00  0.00000000E+00
  0.00000000E+00  0.00000000E+00  0.00000000E+00
  0.00000000E+00  0.00000000E+00  0.00000000E+00
  0.00000000E+00  0.00000000E+00  0.00000000E+00
  0.00000000E+00  0.00000000E+00  0.00000000E+00
  0.00000000E+00  0.00000000E+00  0.00000000E+00
  0.00000000E+00  0.00000000E+00  0.00000000E+00
  0.00000000E+00  0.00000000E+00  0.00000000E+00
  0.00000000E+00  0.00000000E+00  0.00000000E+00
  0.00000000E+00  0.00000000E+00  0.00000000E+00
  0.00000000E+00  0.00000000E+00  0.00000000E+00
  0.00000000E+00  0.00000000E+00  0.00000000E+00
  0.00000000E+00  0.00000000E+00  0.00000000E+00
  0.00000000E+00  0.00000000E+00  0.00000000E+00
  0.00000000E+00  0.00000000E+00  0.00000000E+00
  0.00000000E+00  0.00000000E+00  0.00000000E+00
  0.00000000E+00  0.00000000E+00  0.00000000E+00
  0.00000000E+00  0.00000000E+00  0.00000000E+00
  0.00000000E+00  0.00000000E+00  0.00000000E+00
  0.00000000E+00  0.00000000E+00  0.00000000E+00
  0.00000000E+00  0.00000000E+00  0.00000000E+00
  0.00000000E+00  0.00000000E+00  0.00000000E+00
