Sr13 Al16                               
   1.00000000000000     
    -6.0933350194100306   -6.0933350194100306    6.0933350194100306
    -6.0933350194100306    6.0933350194100306   -6.0933350194100306
     6.0933350194100306   -6.0933350194100306   -6.0933350194100306
   Al   Sr
    16    13
Direct
  0.7206705419211019  0.0000000000000000  0.0000000000000000
  0.3225819568706498  0.1607072664393314  0.0000000000000000
  0.1607072664393314  0.3225819568706498  0.0000000000000000
  0.0000000000000000  0.7206705419211019  0.0000000000000000
  0.8392927335606686  0.8392927335606686  0.1618746904313255
  0.3225819568706498  0.0000000000000000  0.1607072664393314
  0.0000000000000000  0.3225819568706498  0.1607072664393314
  0.2793294580788981  0.2793294580788981  0.2793294580788981
  0.1607072664393314  0.0000000000000000  0.3225819568706498
  0.0000000000000000  0.1607072664393314  0.3225819568706498
  0.8381253095686745  0.6774180431293502  0.6774180431293502
  0.6774180431293502  0.8381253095686745  0.6774180431293502
  0.0000000000000000  0.0000000000000000  0.7206705419211019
  0.8392927335606686  0.1618746904313255  0.8392927335606686
  0.1618746904313255  0.8392927335606686  0.8392927335606686
  0.6774180431293502  0.6774180431293502  0.8381253095686745
  0.0000000000000000  0.0000000000000000  0.0000000000000000
  0.7448937403592950  0.4511378757922984  0.0000000000000000
  0.4511378757922984  0.7448937403592950  0.0000000000000000
  0.5488621242077016  0.5488621242077016  0.2937558645669966
  0.7062441354330034  0.2551062596407050  0.2551062596407050
  0.2551062596407050  0.7062441354330034  0.2551062596407050
  0.7448937403592950  0.0000000000000000  0.4511378757922984
  0.0000000000000000  0.7448937403592950  0.4511378757922984
  0.5488621242077016  0.2937558645669966  0.5488621242077016
  0.2937558645669966  0.5488621242077016  0.5488621242077016
  0.4511378757922984  0.0000000000000000  0.7448937403592950
  0.0000000000000000  0.4511378757922984  0.7448937403592950
  0.2551062596407050  0.2551062596407050  0.7062441354330034
 
  0.00000000E+00  0.00000000E+00  0.00000000E+00
  0.00000000E+00  0.00000000E+00  0.00000000E+00
  0.00000000E+00  0.00000000E+00  0.00000000E+00
  0.00000000E+00  0.00000000E+00  0.00000000E+00
  0.00000000E+00  0.00000000E+00  0.00000000E+00
  0.00000000E+00  0.00000000E+00  0.00000000E+00
  0.00000000E+00  0.00000000E+00  0.00000000E+00
  0.00000000E+00  0.00000000E+00  0.00000000E+00
  0.00000000E+00  0.00000000E+00  0.00000000E+00
  0.00000000E+00  0.00000000E+00  0.00000000E+00
  0.00000000E+00  0.00000000E+00  0.00000000E+00
  0.00000000E+00  0.00000000E+00  0.00000000E+00
  0.00000000E+00  0.00000000E+00  0.00000000E+00
  0.00000000E+00  0.00000000E+00  0.00000000E+00
  0.00000000E+00  0.00000000E+00  0.00000000E+00
  0.00000000E+00  0.00000000E+00  0.00000000E+00
  0.00000000E+00  0.00000000E+00  0.00000000E+00
  0.00000000E+00  0.00000000E+00  0.00000000E+00
  0.00000000E+00  0.00000000E+00  0.00000000E+00
  0.00000000E+00  0.00000000E+00  0.00000000E+00
  0.00000000E+00  0.00000000E+00  0.00000000E+00
  0.00000000E+00  0.00000000E+00  0.00000000E+00
  0.00000000E+00  0.00000000E+00  0.00000000E+00
  0.00000000E+00  0.00000000E+00  0.00000000E+00
  0.00000000E+00  0.00000000E+00  0.00000000E+00
  0.00000000E+00  0.00000000E+00  0.00000000E+00
  0.00000000E+00  0.00000000E+00  0.00000000E+00
  0.00000000E+00  0.00000000E+00  0.00000000E+00
  0.00000000E+00  0.00000000E+00  0.00000000E+00
