BaAl2Cl8                                
   1.00000000000000     
    12.8858515758199701    0.0000000000000000    0.0589728130926558
     0.0000000000000000    7.2315284836975042    0.0000000000000000
    -1.5566419783798044    0.0000000000000000    8.1684871686361973
   Al   Ba   Cl
     4     2    16
Direct
  0.5608060243640125  0.2727949014709807  0.3065024884256786
  0.0608179635330828  0.7271338500788502  0.3065999694425372
  0.9391939756359875  0.2727949014709807  0.6934975115743214
  0.4391820364669172  0.7271338500788502  0.6934000305574628
  0.7500000000000000  0.8504805066408849  0.5000000000000000
  0.2500000000000000  0.1494824483550161  0.5000000000000000
  0.6283275536797461  0.0592945610234352  0.1757610814394610
  0.1283288516690320  0.9406317033411256  0.1758528847129099
  0.8907708028805956  0.7209021591815699  0.2368090091962003
  0.3907625688529919  0.2790486833830954  0.2367326105324281
  0.6213960311072810  0.5417526041648557  0.2581513584489485
  0.1214164106024356  0.4581984144539959  0.2581873018420708
  0.8945364428484908  0.2026501597002763  0.4365880784662792
  0.3945338073523104  0.7973114857038652  0.4364997722481263
  0.6054635571515092  0.2026501597002763  0.5634119215337208
  0.1054661926476896  0.7973114857038652  0.5635002277518737
  0.8786039688927190  0.5417526041648557  0.7418486415510515
  0.3785835893975644  0.4581984144539959  0.7418126981579292
  0.6092291971194044  0.7209021591815699  0.7631909908037997
  0.1092374311470081  0.2790486833830954  0.7632673894675719
  0.8716724463202539  0.0592945610234352  0.8242389185605390
  0.3716711483309680  0.9406317033411256  0.8241471152870830
 
  0.00000000E+00  0.00000000E+00  0.00000000E+00
  0.00000000E+00  0.00000000E+00  0.00000000E+00
  0.00000000E+00  0.00000000E+00  0.00000000E+00
  0.00000000E+00  0.00000000E+00  0.00000000E+00
  0.00000000E+00  0.00000000E+00  0.00000000E+00
  0.00000000E+00  0.00000000E+00  0.00000000E+00
  0.00000000E+00  0.00000000E+00  0.00000000E+00
  0.00000000E+00  0.00000000E+00  0.00000000E+00
  0.00000000E+00  0.00000000E+00  0.00000000E+00
  0.00000000E+00  0.00000000E+00  0.00000000E+00
  0.00000000E+00  0.00000000E+00  0.00000000E+00
  0.00000000E+00  0.00000000E+00  0.00000000E+00
  0.00000000E+00  0.00000000E+00  0.00000000E+00
  0.00000000E+00  0.00000000E+00  0.00000000E+00
  0.00000000E+00  0.00000000E+00  0.00000000E+00
  0.00000000E+00  0.00000000E+00  0.00000000E+00
  0.00000000E+00  0.00000000E+00  0.00000000E+00
  0.00000000E+00  0.00000000E+00  0.00000000E+00
  0.00000000E+00  0.00000000E+00  0.00000000E+00
  0.00000000E+00  0.00000000E+00  0.00000000E+00
  0.00000000E+00  0.00000000E+00  0.00000000E+00
  0.00000000E+00  0.00000000E+00  0.00000000E+00
