Ca16 In16 F80                           
   1.0000000000000000     
    14.2369233544085656   -0.0000021102524391    0.0000000000000009
     0.0000021102524384   14.2369233544085656    0.0000000000000009
     0.0000000000000000    0.0000000000000000    8.0077975496209213
   Ca   In   F 
    16    16    80
Direct
  0.5420592454232533  0.7227220688313949  0.4748838295863536
  0.2227220688313949  0.9579407545767467  0.9748838295863465
  0.7772779311685980  0.0420592454232462  0.9748838295863465
  0.4579407545767467  0.2772779311685980  0.4748838295863536
  0.2628960293029436  0.0931730917008977  0.5012571467856333
  0.5931730917008977  0.2371039706970635  0.0012571467856120
  0.4068269082991023  0.7628960293029436  0.0012571467856120
  0.7371039706970564  0.9068269082991023  0.5012571467856333
  0.0420592454232462  0.2227220688313949  0.9748838295863465
  0.7227220688313949  0.4579407545767467  0.4748838295863536
  0.2772779311685980  0.5420592454232533  0.4748838295863536
  0.9579407545767467  0.7772779311685980  0.9748838295863465
  0.7628960293029436  0.5931730917008977  0.0012571467856120
  0.0931730917008977  0.7371039706970564  0.5012571467856333
  0.9068269082991023  0.2628960293029436  0.5012571467856333
  0.2371039706970635  0.4068269082991023  0.0012571467856120
  0.0000000000000000  0.0000000000000000  0.6126320423046749
  0.0000000000000000  0.0000000000000000  0.1153478524071829
  0.5000000000000000  0.0000000000000000  0.0006798964511532
  0.5000000000000000  0.0000000000000000  0.5006798964511532
  0.3117340833813174  0.1843577117914350  0.0517990905038701
  0.6843577117914350  0.1882659166186826  0.5517990905038701
  0.3156422882085650  0.8117340833813103  0.5517990905038701
  0.6882659166186897  0.8156422882085650  0.0517990905038701
  0.5000000000000000  0.5000000000000000  0.1126320423046678
  0.5000000000000000  0.5000000000000000  0.6153478524071758
  0.0000000000000000  0.5000000000000000  0.5006798964511532
  0.0000000000000000  0.5000000000000000  0.0006798964511532
  0.8117340833813103  0.6843577117914350  0.5517990905038701
  0.1843577117914350  0.6882659166186897  0.0517990905038701
  0.8156422882085650  0.3117340833813174  0.0517990905038701
  0.1882659166186826  0.3156422882085650  0.5517990905038701
  0.0000000000000000  0.0000000000000000  0.8621229634812693
  0.0000000000000000  0.0000000000000000  0.3611624608571802
  0.1457857825654756  0.0190949887078347  0.6274124492804773
  0.5190949887078347  0.3542142174345315  0.1274124492804773
  0.4809050112921724  0.6457857825654685  0.1274124492804773
  0.8542142174345315  0.9809050112921653  0.6274124492804773
  0.1167795290085323  0.0834516436246489  0.0677212894797705
  0.5834516436246560  0.3832204709914748  0.5677212894797705
  0.4165483563753440  0.6167795290085252  0.5677212894797705
  0.8832204709914748  0.9165483563753440  0.0677212894797705
  0.5000000000000000  0.0000000000000000  0.7510150241719131
  0.5000000000000000  0.0000000000000000  0.2510150241719202
  0.4557160183401692  0.1434228138020117  0.0147026953319980
  0.6434228138020046  0.0442839816598237  0.5147026953320051
  0.3565771861979954  0.9557160183401692  0.5147026953320051
  0.5442839816598308  0.8565771861979954  0.0147026953319980
  0.4271482013048526  0.1229739606814917  0.4962319652450660
  0.6229739606814917  0.0728517986951402  0.9962319652450660
  0.3770260393185154  0.9271482013048526  0.9962319652450660
  0.5728517986951331  0.8770260393185083  0.4962319652450660
  0.3461908619549376  0.3046323871783798  0.9162243965421908
  0.8046323871783727  0.1538091380450624  0.4162243965421908
  0.1953676128216202  0.8461908619549376  0.4162243965421908
  0.6538091380450624  0.6953676128216273  0.9162243965421908
  0.3605941150142300  0.2523438998890271  0.2647470439690665
  0.7523438998890484  0.1394058849857700  0.7647470439690593
  0.2476561001109658  0.8605941150142300  0.7647470439690593
  0.6394058849857700  0.7476561001109516  0.2647470439690665
  0.2854251904916936  0.0904187158972718  0.8542212668931626
  0.5904187158972789  0.2145748095082993  0.3542212668931555
  0.4095812841027211  0.7854251904917007  0.3542212668931555
  0.7145748095082993  0.9095812841027211  0.8542212668931626
  0.2864029878546788  0.0648506672182876  0.2072079658966999
  0.5648506672182805  0.2135970121453283  0.7072079658966928
  0.4351493327817195  0.7864029878546717  0.7072079658966928
  0.7135970121453283  0.9351493327817195  0.2072079658966999
  0.6882124519907862  0.7588893394231135  0.5927708204116158
  0.2588893394231135  0.8117875480092138  0.0927708204116016
  0.7411106605768865  0.1882124519907791  0.0927708204116016
  0.3117875480092138  0.2411106605768865  0.5927708204116158
  0.5000000000000000  0.5000000000000000  0.3621229634812622
  0.5000000000000000  0.5000000000000000  0.8611624608571731
  0.6457857825654685  0.5190949887078347  0.1274124492804773
  0.0190949887078347  0.8542142174345315  0.6274124492804773
  0.9809050112921653  0.1457857825654756  0.6274124492804773
  0.3542142174345315  0.4809050112921724  0.1274124492804773
  0.6167795290085252  0.5834516436246560  0.5677212894797705
  0.0834516436246489  0.8832204709914748  0.0677212894797705
  0.9165483563753440  0.1167795290085323  0.0677212894797705
  0.3832204709914748  0.4165483563753440  0.5677212894797705
  0.0000000000000000  0.5000000000000000  0.2510150241719202
  0.0000000000000000  0.5000000000000000  0.7510150241719131
  0.9557160183401692  0.6434228138020046  0.5147026953320051
  0.1434228138020117  0.5442839816598308  0.0147026953319980
  0.8565771861979954  0.4557160183401692  0.0147026953319980
  0.0442839816598237  0.3565771861979954  0.5147026953320051
  0.9271482013048526  0.6229739606814917  0.9962319652450660
  0.1229739606814917  0.5728517986951331  0.4962319652450660
  0.8770260393185083  0.4271482013048526  0.4962319652450660
  0.0728517986951402  0.3770260393185154  0.9962319652450660
  0.8461908619549376  0.8046323871783727  0.4162243965421908
  0.3046323871783798  0.6538091380450624  0.9162243965421908
  0.6953676128216273  0.3461908619549376  0.9162243965421908
  0.1538091380450624  0.1953676128216202  0.4162243965421908
  0.8605941150142300  0.7523438998890484  0.7647470439690593
  0.2523438998890271  0.6394058849857700  0.2647470439690665
  0.7476561001109516  0.3605941150142300  0.2647470439690665
  0.1394058849857700  0.2476561001109658  0.7647470439690593
  0.7854251904917007  0.5904187158972789  0.3542212668931555
  0.0904187158972718  0.7145748095082993  0.8542212668931626
  0.9095812841027211  0.2854251904916936  0.8542212668931626
  0.2145748095082993  0.4095812841027211  0.3542212668931555
  0.7864029878546717  0.5648506672182805  0.7072079658966928
  0.0648506672182876  0.7135970121453283  0.2072079658966999
  0.9351493327817195  0.2864029878546788  0.2072079658966999
  0.2135970121453283  0.4351493327817195  0.7072079658966928
  0.1882124519907791  0.2588893394231135  0.0927708204116016
  0.7588893394231135  0.3117875480092138  0.5927708204116158
  0.2411106605768865  0.6882124519907862  0.5927708204116158
  0.8117875480092138  0.7411106605768865  0.0927708204116016

  0.00000000E+00  0.00000000E+00  0.00000000E+00
  0.00000000E+00  0.00000000E+00  0.00000000E+00
  0.00000000E+00  0.00000000E+00  0.00000000E+00
  0.00000000E+00  0.00000000E+00  0.00000000E+00
  0.00000000E+00  0.00000000E+00  0.00000000E+00
  0.00000000E+00  0.00000000E+00  0.00000000E+00
  0.00000000E+00  0.00000000E+00  0.00000000E+00
  0.00000000E+00  0.00000000E+00  0.00000000E+00
  0.00000000E+00  0.00000000E+00  0.00000000E+00
  0.00000000E+00  0.00000000E+00  0.00000000E+00
  0.00000000E+00  0.00000000E+00  0.00000000E+00
  0.00000000E+00  0.00000000E+00  0.00000000E+00
  0.00000000E+00  0.00000000E+00  0.00000000E+00
  0.00000000E+00  0.00000000E+00  0.00000000E+00
  0.00000000E+00  0.00000000E+00  0.00000000E+00
  0.00000000E+00  0.00000000E+00  0.00000000E+00
  0.00000000E+00  0.00000000E+00  0.00000000E+00
  0.00000000E+00  0.00000000E+00  0.00000000E+00
  0.00000000E+00  0.00000000E+00  0.00000000E+00
  0.00000000E+00  0.00000000E+00  0.00000000E+00
  0.00000000E+00  0.00000000E+00  0.00000000E+00
  0.00000000E+00  0.00000000E+00  0.00000000E+00
  0.00000000E+00  0.00000000E+00  0.00000000E+00
  0.00000000E+00  0.00000000E+00  0.00000000E+00
  0.00000000E+00  0.00000000E+00  0.00000000E+00
  0.00000000E+00  0.00000000E+00  0.00000000E+00
  0.00000000E+00  0.00000000E+00  0.00000000E+00
  0.00000000E+00  0.00000000E+00  0.00000000E+00
  0.00000000E+00  0.00000000E+00  0.00000000E+00
  0.00000000E+00  0.00000000E+00  0.00000000E+00
  0.00000000E+00  0.00000000E+00  0.00000000E+00
  0.00000000E+00  0.00000000E+00  0.00000000E+00
  0.00000000E+00  0.00000000E+00  0.00000000E+00
  0.00000000E+00  0.00000000E+00  0.00000000E+00
  0.00000000E+00  0.00000000E+00  0.00000000E+00
  0.00000000E+00  0.00000000E+00  0.00000000E+00
  0.00000000E+00  0.00000000E+00  0.00000000E+00
  0.00000000E+00  0.00000000E+00  0.00000000E+00
  0.00000000E+00  0.00000000E+00  0.00000000E+00
  0.00000000E+00  0.00000000E+00  0.00000000E+00
  0.00000000E+00  0.00000000E+00  0.00000000E+00
  0.00000000E+00  0.00000000E+00  0.00000000E+00
  0.00000000E+00  0.00000000E+00  0.00000000E+00
  0.00000000E+00  0.00000000E+00  0.00000000E+00
  0.00000000E+00  0.00000000E+00  0.00000000E+00
  0.00000000E+00  0.00000000E+00  0.00000000E+00
  0.00000000E+00  0.00000000E+00  0.00000000E+00
  0.00000000E+00  0.00000000E+00  0.00000000E+00
  0.00000000E+00  0.00000000E+00  0.00000000E+00
  0.00000000E+00  0.00000000E+00  0.00000000E+00
  0.00000000E+00  0.00000000E+00  0.00000000E+00
  0.00000000E+00  0.00000000E+00  0.00000000E+00
  0.00000000E+00  0.00000000E+00  0.00000000E+00
  0.00000000E+00  0.00000000E+00  0.00000000E+00
  0.00000000E+00  0.00000000E+00  0.00000000E+00
  0.00000000E+00  0.00000000E+00  0.00000000E+00
  0.00000000E+00  0.00000000E+00  0.00000000E+00
  0.00000000E+00  0.00000000E+00  0.00000000E+00
  0.00000000E+00  0.00000000E+00  0.00000000E+00
  0.00000000E+00  0.00000000E+00  0.00000000E+00
  0.00000000E+00  0.00000000E+00  0.00000000E+00
  0.00000000E+00  0.00000000E+00  0.00000000E+00
  0.00000000E+00  0.00000000E+00  0.00000000E+00
  0.00000000E+00  0.00000000E+00  0.00000000E+00
  0.00000000E+00  0.00000000E+00  0.00000000E+00
  0.00000000E+00  0.00000000E+00  0.00000000E+00
  0.00000000E+00  0.00000000E+00  0.00000000E+00
  0.00000000E+00  0.00000000E+00  0.00000000E+00
  0.00000000E+00  0.00000000E+00  0.00000000E+00
  0.00000000E+00  0.00000000E+00  0.00000000E+00
  0.00000000E+00  0.00000000E+00  0.00000000E+00
  0.00000000E+00  0.00000000E+00  0.00000000E+00
  0.00000000E+00  0.00000000E+00  0.00000000E+00
  0.00000000E+00  0.00000000E+00  0.00000000E+00
  0.00000000E+00  0.00000000E+00  0.00000000E+00
  0.00000000E+00  0.00000000E+00  0.00000000E+00
  0.00000000E+00  0.00000000E+00  0.00000000E+00
  0.00000000E+00  0.00000000E+00  0.00000000E+00
  0.00000000E+00  0.00000000E+00  0.00000000E+00
  0.00000000E+00  0.00000000E+00  0.00000000E+00
  0.00000000E+00  0.00000000E+00  0.00000000E+00
  0.00000000E+00  0.00000000E+00  0.00000000E+00
  0.00000000E+00  0.00000000E+00  0.00000000E+00
  0.00000000E+00  0.00000000E+00  0.00000000E+00
  0.00000000E+00  0.00000000E+00  0.00000000E+00
  0.00000000E+00  0.00000000E+00  0.00000000E+00
  0.00000000E+00  0.00000000E+00  0.00000000E+00
  0.00000000E+00  0.00000000E+00  0.00000000E+00
  0.00000000E+00  0.00000000E+00  0.00000000E+00
  0.00000000E+00  0.00000000E+00  0.00000000E+00
  0.00000000E+00  0.00000000E+00  0.00000000E+00
  0.00000000E+00  0.00000000E+00  0.00000000E+00
  0.00000000E+00  0.00000000E+00  0.00000000E+00
  0.00000000E+00  0.00000000E+00  0.00000000E+00
  0.00000000E+00  0.00000000E+00  0.00000000E+00
  0.00000000E+00  0.00000000E+00  0.00000000E+00
  0.00000000E+00  0.00000000E+00  0.00000000E+00
  0.00000000E+00  0.00000000E+00  0.00000000E+00
  0.00000000E+00  0.00000000E+00  0.00000000E+00
  0.00000000E+00  0.00000000E+00  0.00000000E+00
  0.00000000E+00  0.00000000E+00  0.00000000E+00
  0.00000000E+00  0.00000000E+00  0.00000000E+00
  0.00000000E+00  0.00000000E+00  0.00000000E+00
  0.00000000E+00  0.00000000E+00  0.00000000E+00
  0.00000000E+00  0.00000000E+00  0.00000000E+00
  0.00000000E+00  0.00000000E+00  0.00000000E+00
  0.00000000E+00  0.00000000E+00  0.00000000E+00
  0.00000000E+00  0.00000000E+00  0.00000000E+00
  0.00000000E+00  0.00000000E+00  0.00000000E+00
  0.00000000E+00  0.00000000E+00  0.00000000E+00
  0.00000000E+00  0.00000000E+00  0.00000000E+00
  0.00000000E+00  0.00000000E+00  0.00000000E+00
