Mg4 Tl4 Cl20                            
   1.0000000000000000     
     7.1311591860740977   -0.0000000000000001    0.0000000000000005
    -0.0000000000000004    7.7366015517608506    0.0000000000000005
     0.0000000000000004    0.0000000000000002   18.3298704980841656
   Mg   Tl   Cl
     4     4    20
Direct
  0.1089250999715574  0.7306896757230419  0.5667446138118351
  0.6089250999715574  0.7693103242769581  0.4332553861881649
  0.8910749000284426  0.2306896757230419  0.9332553861881649
  0.3910749000284426  0.2693103242769581  0.0667446138118351
  0.2557681002336238  0.2124087210816015  0.6044722758109415
  0.7557681002336238  0.2875912789183985  0.3955277241890585
  0.7442318997663762  0.7124087210816015  0.8955277241890585
  0.2442318997663762  0.7875912789183985  0.1044722758109415
  0.9344769836863662  0.7186933983602657  0.4564506904998780
  0.4344769836863662  0.7813066016397343  0.5435493095001220
  0.0655230163136338  0.2186933983602657  0.0435493095001220
  0.5655230163136338  0.2813066016397343  0.9564506904998780
  0.5131980442928707  0.5301042545421453  0.3616539531669787
  0.0131980442928707  0.9698957454578547  0.6383460468330142
  0.4868019557071293  0.0301042545421453  0.1383460468330142
  0.9868019557071364  0.4698957454578547  0.8616539531669787
  0.0759455457284375  0.4925920309016263  0.6466085583575563
  0.5759455457284375  0.0074079690983737  0.3533914416424437
  0.9240544542715625  0.9925920309016263  0.8533914416424437
  0.4240544542715625  0.5074079690983737  0.1466085583575634
  0.4849699117422333  0.1834045225449046  0.6975434006961052
  0.9849699117422404  0.3165954774550954  0.3024565993038948
  0.5150300882577596  0.6834045225449046  0.8024565993038948
  0.0150300882577667  0.8165954774550954  0.1975434006961052
  0.7108303962613007  0.2692640140182050  0.5251022756428014
  0.2108303962613007  0.2307359859817879  0.4748977243571986
  0.2891696037386993  0.7692640140182121  0.9748977243571986
  0.7891696037386993  0.7307359859817879  0.0251022756428014

  0.00000000E+00  0.00000000E+00  0.00000000E+00
  0.00000000E+00  0.00000000E+00  0.00000000E+00
  0.00000000E+00  0.00000000E+00  0.00000000E+00
  0.00000000E+00  0.00000000E+00  0.00000000E+00
  0.00000000E+00  0.00000000E+00  0.00000000E+00
  0.00000000E+00  0.00000000E+00  0.00000000E+00
  0.00000000E+00  0.00000000E+00  0.00000000E+00
  0.00000000E+00  0.00000000E+00  0.00000000E+00
  0.00000000E+00  0.00000000E+00  0.00000000E+00
  0.00000000E+00  0.00000000E+00  0.00000000E+00
  0.00000000E+00  0.00000000E+00  0.00000000E+00
  0.00000000E+00  0.00000000E+00  0.00000000E+00
  0.00000000E+00  0.00000000E+00  0.00000000E+00
  0.00000000E+00  0.00000000E+00  0.00000000E+00
  0.00000000E+00  0.00000000E+00  0.00000000E+00
  0.00000000E+00  0.00000000E+00  0.00000000E+00
  0.00000000E+00  0.00000000E+00  0.00000000E+00
  0.00000000E+00  0.00000000E+00  0.00000000E+00
  0.00000000E+00  0.00000000E+00  0.00000000E+00
  0.00000000E+00  0.00000000E+00  0.00000000E+00
  0.00000000E+00  0.00000000E+00  0.00000000E+00
  0.00000000E+00  0.00000000E+00  0.00000000E+00
  0.00000000E+00  0.00000000E+00  0.00000000E+00
  0.00000000E+00  0.00000000E+00  0.00000000E+00
  0.00000000E+00  0.00000000E+00  0.00000000E+00
  0.00000000E+00  0.00000000E+00  0.00000000E+00
  0.00000000E+00  0.00000000E+00  0.00000000E+00
  0.00000000E+00  0.00000000E+00  0.00000000E+00
