In6 Br24                                
   1.00000000000000     
     0.0000000000000000    9.5431857071029427    9.5431857071029427
     9.5431857071029427    0.0000000000000000    9.5431857071029427
     9.5431857071029427    9.5431857071029427    0.0000000000000000
   In   Br
     6    24
Direct
  0.7500000000000000  0.2500000000000000  0.2500000000000000
  0.2500000000000000  0.2500000000000000  0.7500000000000000
  0.2500000000000000  0.7500000000000000  0.2500000000000000
  0.7500000000000000  0.2500000000000000  0.7500000000000000
  0.2500000000000000  0.7500000000000000  0.7500000000000000
  0.7500000000000000  0.7500000000000000  0.2500000000000000
  0.7845865199113433  0.5645037376492752  0.2154134800886567
  0.4354962623507248  0.5645037376492752  0.7845865199113433
  0.2154134800886567  0.7845865199113433  0.5645037376492752
  0.5645037376492752  0.7845865199113433  0.4354962623507248
  0.5645037376492752  0.2154134800886567  0.7845865199113433
  0.2154134800886567  0.5645037376492752  0.4354962623507248
  0.7845865199113433  0.4354962623507248  0.5645037376492752
  0.4354962623507248  0.7845865199113433  0.2154134800886567
  0.4354962623507248  0.2154134800886567  0.5645037376492752
  0.7845865199113433  0.2154134800886567  0.4354962623507248
  0.5645037376492752  0.4354962623507248  0.2154134800886567
  0.2154134800886567  0.4354962623507248  0.7845865199113433
  0.7154134800886567  0.0645037376492752  0.2845865199113433
  0.0645037376492752  0.2845865199113433  0.7154134800886567
  0.2845865199113433  0.0645037376492752  0.9354962623507248
  0.9354962623507248  0.2845865199113433  0.0645037376492752
  0.2845865199113433  0.7154134800886567  0.0645037376492752
  0.9354962623507248  0.0645037376492752  0.7154134800886567
  0.0645037376492752  0.9354962623507248  0.2845865199113433
  0.7154134800886567  0.2845865199113433  0.9354962623507248
  0.0645037376492752  0.7154134800886567  0.9354962623507248
  0.9354962623507248  0.7154134800886567  0.2845865199113433
  0.7154134800886567  0.9354962623507248  0.0645037376492752
  0.2845865199113433  0.9354962623507248  0.7154134800886567
 
  0.00000000E+00  0.00000000E+00  0.00000000E+00
  0.00000000E+00  0.00000000E+00  0.00000000E+00
  0.00000000E+00  0.00000000E+00  0.00000000E+00
  0.00000000E+00  0.00000000E+00  0.00000000E+00
  0.00000000E+00  0.00000000E+00  0.00000000E+00
  0.00000000E+00  0.00000000E+00  0.00000000E+00
  0.00000000E+00  0.00000000E+00  0.00000000E+00
  0.00000000E+00  0.00000000E+00  0.00000000E+00
  0.00000000E+00  0.00000000E+00  0.00000000E+00
  0.00000000E+00  0.00000000E+00  0.00000000E+00
  0.00000000E+00  0.00000000E+00  0.00000000E+00
  0.00000000E+00  0.00000000E+00  0.00000000E+00
  0.00000000E+00  0.00000000E+00  0.00000000E+00
  0.00000000E+00  0.00000000E+00  0.00000000E+00
  0.00000000E+00  0.00000000E+00  0.00000000E+00
  0.00000000E+00  0.00000000E+00  0.00000000E+00
  0.00000000E+00  0.00000000E+00  0.00000000E+00
  0.00000000E+00  0.00000000E+00  0.00000000E+00
  0.00000000E+00  0.00000000E+00  0.00000000E+00
  0.00000000E+00  0.00000000E+00  0.00000000E+00
  0.00000000E+00  0.00000000E+00  0.00000000E+00
  0.00000000E+00  0.00000000E+00  0.00000000E+00
  0.00000000E+00  0.00000000E+00  0.00000000E+00
  0.00000000E+00  0.00000000E+00  0.00000000E+00
  0.00000000E+00  0.00000000E+00  0.00000000E+00
  0.00000000E+00  0.00000000E+00  0.00000000E+00
  0.00000000E+00  0.00000000E+00  0.00000000E+00
  0.00000000E+00  0.00000000E+00  0.00000000E+00
  0.00000000E+00  0.00000000E+00  0.00000000E+00
  0.00000000E+00  0.00000000E+00  0.00000000E+00
