Ca6 B33                                 
   1.00000000000000     
     7.3884542336493002    0.0000000000000000    0.0000000000000000
     0.0000000000000000    7.3884542336493011    0.0000000000000000
     0.0000000000000000    0.0000000000000000    7.3884542336493002
   Ca   B 
     6    33
Direct
  0.1846048538731964  0.5000000000000000  0.0000000000000000
  0.8153951461268036  0.5000000000000000  0.0000000000000000
  0.5000000000000000  0.0000000000000000  0.1846048538731964
  0.0000000000000000  0.1846048538731964  0.5000000000000000
  0.0000000000000000  0.8153951461268036  0.5000000000000000
  0.5000000000000000  0.0000000000000000  0.8153951461268036
  0.0000000000000000  0.0000000000000000  0.0000000000000000
  0.2060182594657860  0.1249207721807082  0.0000000000000000
  0.7939817405342140  0.1249207721807082  0.0000000000000000
  0.5000000000000000  0.3832642824525152  0.0000000000000000
  0.5000000000000000  0.6167357175474848  0.0000000000000000
  0.2060182594657860  0.8750792278192918  0.0000000000000000
  0.7939817405342140  0.8750792278192918  0.0000000000000000
  0.0000000000000000  0.2060182594657860  0.1249207721807082
  0.0000000000000000  0.7939817405342140  0.1249207721807082
  0.5000000000000000  0.5000000000000000  0.2075525830342499
  0.1249207721807082  0.0000000000000000  0.2060182594657860
  0.8750792278192918  0.0000000000000000  0.2060182594657860
  0.3713776696659110  0.3713776696659110  0.3713776696659110
  0.6286223303340890  0.3713776696659110  0.3713776696659110
  0.3713776696659110  0.6286223303340890  0.3713776696659110
  0.6286223303340890  0.6286223303340890  0.3713776696659110
  0.0000000000000000  0.5000000000000000  0.3832642824525152
  0.3832642824525152  0.0000000000000000  0.5000000000000000
  0.6167357175474848  0.0000000000000000  0.5000000000000000
  0.5000000000000000  0.2075525830342499  0.5000000000000000
  0.2075525830342499  0.5000000000000000  0.5000000000000000
  0.7924474169657501  0.5000000000000000  0.5000000000000000
  0.5000000000000000  0.7924474169657501  0.5000000000000000
  0.0000000000000000  0.5000000000000000  0.6167357175474848
  0.3713776696659110  0.3713776696659110  0.6286223303340890
  0.6286223303340890  0.3713776696659110  0.6286223303340890
  0.3713776696659110  0.6286223303340890  0.6286223303340890
  0.6286223303340890  0.6286223303340890  0.6286223303340890
  0.1249207721807082  0.0000000000000000  0.7939817405342140
  0.8750792278192918  0.0000000000000000  0.7939817405342140
  0.5000000000000000  0.5000000000000000  0.7924474169657501
  0.0000000000000000  0.2060182594657860  0.8750792278192918
  0.0000000000000000  0.7939817405342140  0.8750792278192918
 
  0.00000000E+00  0.00000000E+00  0.00000000E+00
  0.00000000E+00  0.00000000E+00  0.00000000E+00
  0.00000000E+00  0.00000000E+00  0.00000000E+00
  0.00000000E+00  0.00000000E+00  0.00000000E+00
  0.00000000E+00  0.00000000E+00  0.00000000E+00
  0.00000000E+00  0.00000000E+00  0.00000000E+00
  0.00000000E+00  0.00000000E+00  0.00000000E+00
  0.00000000E+00  0.00000000E+00  0.00000000E+00
  0.00000000E+00  0.00000000E+00  0.00000000E+00
  0.00000000E+00  0.00000000E+00  0.00000000E+00
  0.00000000E+00  0.00000000E+00  0.00000000E+00
  0.00000000E+00  0.00000000E+00  0.00000000E+00
  0.00000000E+00  0.00000000E+00  0.00000000E+00
  0.00000000E+00  0.00000000E+00  0.00000000E+00
  0.00000000E+00  0.00000000E+00  0.00000000E+00
  0.00000000E+00  0.00000000E+00  0.00000000E+00
  0.00000000E+00  0.00000000E+00  0.00000000E+00
  0.00000000E+00  0.00000000E+00  0.00000000E+00
  0.00000000E+00  0.00000000E+00  0.00000000E+00
  0.00000000E+00  0.00000000E+00  0.00000000E+00
  0.00000000E+00  0.00000000E+00  0.00000000E+00
  0.00000000E+00  0.00000000E+00  0.00000000E+00
  0.00000000E+00  0.00000000E+00  0.00000000E+00
  0.00000000E+00  0.00000000E+00  0.00000000E+00
  0.00000000E+00  0.00000000E+00  0.00000000E+00
  0.00000000E+00  0.00000000E+00  0.00000000E+00
  0.00000000E+00  0.00000000E+00  0.00000000E+00
  0.00000000E+00  0.00000000E+00  0.00000000E+00
  0.00000000E+00  0.00000000E+00  0.00000000E+00
  0.00000000E+00  0.00000000E+00  0.00000000E+00
  0.00000000E+00  0.00000000E+00  0.00000000E+00
  0.00000000E+00  0.00000000E+00  0.00000000E+00
  0.00000000E+00  0.00000000E+00  0.00000000E+00
  0.00000000E+00  0.00000000E+00  0.00000000E+00
  0.00000000E+00  0.00000000E+00  0.00000000E+00
  0.00000000E+00  0.00000000E+00  0.00000000E+00
  0.00000000E+00  0.00000000E+00  0.00000000E+00
  0.00000000E+00  0.00000000E+00  0.00000000E+00
  0.00000000E+00  0.00000000E+00  0.00000000E+00
