Mg                                      
   1.00000000000000     
     0.0000000000000000   -3.1988198900638061    0.0000000000000000
   -16.4408889509616287    0.0000000000000000    0.0000000000000000
     0.0000000000000000    0.0000000000000000   -5.1709876403402459
   Mg
    12
Direct
  0.0000000000000000  0.0001372499197885  0.0000000000000000
  0.5000000000000000  0.1668215597022993  0.0000000000000000
  0.0000000000000000  0.3334288342217562  0.0000000000000000
  0.5000000000000000  0.5001492319957848  0.0000000000000000
  0.0000000000000000  0.6668629905907579  0.0000000000000000
  0.5000000000000000  0.8334401112763032  0.0000000000000000
  0.5000000000000000  0.0554311285927298  0.5000000000000000
  0.0000000000000000  0.2220627822341257  0.5000000000000000
  0.5000000000000000  0.3888204999766742  0.5000000000000000
  0.0000000000000000  0.5555554639809941  0.5000000000000000
  0.5000000000000000  0.7221185289708956  0.5000000000000000
  0.0000000000000000  0.8887716185378807  0.5000000000000000
 
  0.00000000E+00  0.00000000E+00  0.00000000E+00
  0.00000000E+00  0.00000000E+00  0.00000000E+00
  0.00000000E+00  0.00000000E+00  0.00000000E+00
  0.00000000E+00  0.00000000E+00  0.00000000E+00
  0.00000000E+00  0.00000000E+00  0.00000000E+00
  0.00000000E+00  0.00000000E+00  0.00000000E+00
  0.00000000E+00  0.00000000E+00  0.00000000E+00
  0.00000000E+00  0.00000000E+00  0.00000000E+00
  0.00000000E+00  0.00000000E+00  0.00000000E+00
  0.00000000E+00  0.00000000E+00  0.00000000E+00
  0.00000000E+00  0.00000000E+00  0.00000000E+00
  0.00000000E+00  0.00000000E+00  0.00000000E+00
