Ca4 B4 I20                              
   1.0000000000000000     
    24.4202282473098684    0.0000000000000000    0.0000000000000000
     0.0000000000000000    8.6167868438651247    0.8047567411060232
     0.0000000000000000    3.2792520128859657    8.6542148256588014
   Ca   B    I 
     4     4    20
Direct
  0.9530062655878524  0.4658949757561217  0.3246326390048608
  0.4530062655878524  0.5341050242438783  0.1753673609951392
  0.0469937344121476  0.5341050242438783  0.6753673609951392
  0.5469937344121476  0.4658949757561217  0.8246326390048608
  0.8657534785109959  0.0973270432522213  0.3334513518098348
  0.3657534785110030  0.9026729567477858  0.1665486481901652
  0.1342465214889970  0.9026729567477858  0.6665486481901723
  0.6342465214890041  0.0973270432522213  0.8334513518098348
  0.5629448766008096  0.1705181255291777  0.6837877446616574
  0.0629448766008167  0.8294818744708223  0.8162122553383426
  0.4370551233991833  0.8294818744708223  0.3162122553383426
  0.9370551233991904  0.1705181255291777  0.1837877446616574
  0.7980806722766260  0.9753157436560542  0.2866025310585059
  0.2980806722766260  0.0246842563439458  0.2133974689414941
  0.2019193277233811  0.0246842563439458  0.7133974689414870
  0.7019193277233740  0.9753157436560542  0.7866025310585130
  0.3649929296973866  0.8436426162994834  0.9632624268605099
  0.8649929296974079  0.1563573837005166  0.5367375731394901
  0.6350070703025921  0.1563573837005166  0.0367375731394901
  0.1350070703026063  0.8436426162994834  0.4632624268605099
  0.5776032860574603  0.7411963078448665  0.5142247192665010
  0.0776032860574603  0.2588036921551335  0.9857752807334990
  0.4223967139425397  0.2588036921551335  0.4857752807334990
  0.9223967139425397  0.7411963078448665  0.0142247192665010
  0.4271756490311276  0.4127505417535460  0.9171601825831672
  0.9271756490311276  0.5872494582464540  0.5828398174168328
  0.5728243509688724  0.5872494582464540  0.0828398174168328
  0.0728243509688724  0.4127505417535460  0.4171601825831672

  0.00000000E+00  0.00000000E+00  0.00000000E+00
  0.00000000E+00  0.00000000E+00  0.00000000E+00
  0.00000000E+00  0.00000000E+00  0.00000000E+00
  0.00000000E+00  0.00000000E+00  0.00000000E+00
  0.00000000E+00  0.00000000E+00  0.00000000E+00
  0.00000000E+00  0.00000000E+00  0.00000000E+00
  0.00000000E+00  0.00000000E+00  0.00000000E+00
  0.00000000E+00  0.00000000E+00  0.00000000E+00
  0.00000000E+00  0.00000000E+00  0.00000000E+00
  0.00000000E+00  0.00000000E+00  0.00000000E+00
  0.00000000E+00  0.00000000E+00  0.00000000E+00
  0.00000000E+00  0.00000000E+00  0.00000000E+00
  0.00000000E+00  0.00000000E+00  0.00000000E+00
  0.00000000E+00  0.00000000E+00  0.00000000E+00
  0.00000000E+00  0.00000000E+00  0.00000000E+00
  0.00000000E+00  0.00000000E+00  0.00000000E+00
  0.00000000E+00  0.00000000E+00  0.00000000E+00
  0.00000000E+00  0.00000000E+00  0.00000000E+00
  0.00000000E+00  0.00000000E+00  0.00000000E+00
  0.00000000E+00  0.00000000E+00  0.00000000E+00
  0.00000000E+00  0.00000000E+00  0.00000000E+00
  0.00000000E+00  0.00000000E+00  0.00000000E+00
  0.00000000E+00  0.00000000E+00  0.00000000E+00
  0.00000000E+00  0.00000000E+00  0.00000000E+00
  0.00000000E+00  0.00000000E+00  0.00000000E+00
  0.00000000E+00  0.00000000E+00  0.00000000E+00
  0.00000000E+00  0.00000000E+00  0.00000000E+00
  0.00000000E+00  0.00000000E+00  0.00000000E+00
