Ca1 Tl2 F8                              
   1.0000000000000000     
     4.6132217014043242   -3.3886296982061861    1.3764098934035109
     4.6132217014043242    3.3886296982061861    1.3764098934035109
    -0.2833851241329296    0.0000000000000000    4.9142650828065193
   Tl   Ca   F 
     2     1     8
Direct
  0.3233182973313689  0.3233182973313689  0.4365506486995088
  0.6766817026686311  0.6766817026686311  0.5634493513004912
  0.0000000000000000  0.0000000000000000  0.0000000000000000
  0.5575400218700182  0.5575400218700182  0.2309409360162533
  0.6241435437038447  0.0348610069168771  0.2376962404844534
  0.0348610069168771  0.6241435437038447  0.2376962404844534
  0.1266802371618994  0.1266802371618994  0.3135656056130571
  0.8733197628381006  0.8733197628381006  0.6864343943869429
  0.9651389930831300  0.3758564562961553  0.7623037595155466
  0.3758564562961553  0.9651389930831300  0.7623037595155466
  0.4424599781299747  0.4424599781299747  0.7690590639837467

  0.00000000E+00  0.00000000E+00  0.00000000E+00
  0.00000000E+00  0.00000000E+00  0.00000000E+00
  0.00000000E+00  0.00000000E+00  0.00000000E+00
  0.00000000E+00  0.00000000E+00  0.00000000E+00
  0.00000000E+00  0.00000000E+00  0.00000000E+00
  0.00000000E+00  0.00000000E+00  0.00000000E+00
  0.00000000E+00  0.00000000E+00  0.00000000E+00
  0.00000000E+00  0.00000000E+00  0.00000000E+00
  0.00000000E+00  0.00000000E+00  0.00000000E+00
  0.00000000E+00  0.00000000E+00  0.00000000E+00
  0.00000000E+00  0.00000000E+00  0.00000000E+00
