Sr1 Tl3 Cl6                             
   1.0000000000000000     
     7.8708019052087925   -0.1695236275114781   -0.0104847299793399
    -0.1695236275114781    7.8708019052087925   -0.0104847299793401
     3.8560598981559475    3.8560598981559484    5.4372757498251305
   Cl   Sr   Tl
     6     1     3
Direct
  0.7492261681116474  0.2507738318883526  0.0000000000000000
  0.3352650895025704  0.3352650895025704  0.8321576092766705
  0.2507738318883526  0.7492261681116474  0.0000000000000000
  0.6647349104974296  0.6647349104974296  0.1678423907233295
  0.8313622937479437  0.8313622937479437  0.5031248027705004
  0.1686377062520563  0.1686377062520563  0.4968751972294996
  0.0000000000000000  0.0000000000000000  0.0000000000000000
  0.5000000000000000  0.5000000000000000  0.0000000000000000
  0.2507592993550745  0.7492407006449255  0.5000000000000000
  0.7492407006449255  0.2507592993550745  0.5000000000000000

  0.00000000E+00  0.00000000E+00  0.00000000E+00
  0.00000000E+00  0.00000000E+00  0.00000000E+00
  0.00000000E+00  0.00000000E+00  0.00000000E+00
  0.00000000E+00  0.00000000E+00  0.00000000E+00
  0.00000000E+00  0.00000000E+00  0.00000000E+00
  0.00000000E+00  0.00000000E+00  0.00000000E+00
  0.00000000E+00  0.00000000E+00  0.00000000E+00
  0.00000000E+00  0.00000000E+00  0.00000000E+00
  0.00000000E+00  0.00000000E+00  0.00000000E+00
  0.00000000E+00  0.00000000E+00  0.00000000E+00
