Ba1 In2 F6                              
   1.0000000000000000     
     2.4707240180830556    1.8321177566508398    6.1910854230868777
    -2.4707240180830556    1.8321177566508398    6.1910854230868777
     0.0000000000000000   -3.5478862829486362    6.1643780875863836
   Ba   F    In
     1     6     2
Direct
  0.0000000000000000  0.0000000000000000  0.0000000000000000
  0.7545141690331079  0.7545141690331079  0.1301600958679785
  0.7331157370809720  0.2209798698649266  0.3488428254713725
  0.2209798698649266  0.7331157370809720  0.3488428254713725
  0.2454858309668921  0.2454858309668921  0.8698399041320215
  0.7790201301350734  0.2668842629190280  0.6511571745286275
  0.2668842629190280  0.7790201301350734  0.6511571745286275
  0.1579346365639580  0.1579346365639580  0.2741484676047605
  0.8420653634360420  0.8420653634360420  0.7258515323952395

  0.00000000E+00  0.00000000E+00  0.00000000E+00
  0.00000000E+00  0.00000000E+00  0.00000000E+00
  0.00000000E+00  0.00000000E+00  0.00000000E+00
  0.00000000E+00  0.00000000E+00  0.00000000E+00
  0.00000000E+00  0.00000000E+00  0.00000000E+00
  0.00000000E+00  0.00000000E+00  0.00000000E+00
  0.00000000E+00  0.00000000E+00  0.00000000E+00
  0.00000000E+00  0.00000000E+00  0.00000000E+00
  0.00000000E+00  0.00000000E+00  0.00000000E+00
