Ca1 B2 Br8                              
   1.00000000000000     
     5.9123128236018347   -3.5676051212264928    1.1736009802578571
     5.9123128236018347    3.5676051212264932    1.1736009802578571
    -1.0289412594175242    0.0000000000000000    9.6182253498593457
   B    Ca   Br
     2     1     8
Direct
  0.2920442343084915  0.2920442343084915  0.2531074537221869
  0.7079557656915085  0.7079557656915085  0.7468925462778131
  0.0000000000000000  0.0000000000000000  0.0000000000000000
  0.6563750984197370  0.6563750984197370  0.5620759618926527
  0.5808511669494436  0.1051205624757046  0.1421532958524239
  0.1051205624757046  0.5808511669494436  0.1421532958524239
  0.1202848398605454  0.1202848398605454  0.2613670091065572
  0.8797151601394546  0.8797151601394546  0.7386329908934428
  0.8948794375242954  0.4191488330505564  0.8578467041475761
  0.4191488330505564  0.8948794375242954  0.8578467041475761
  0.3436249015802701  0.3436249015802701  0.4379240381073473
 
  0.00000000E+00  0.00000000E+00  0.00000000E+00
  0.00000000E+00  0.00000000E+00  0.00000000E+00
  0.00000000E+00  0.00000000E+00  0.00000000E+00
  0.00000000E+00  0.00000000E+00  0.00000000E+00
  0.00000000E+00  0.00000000E+00  0.00000000E+00
  0.00000000E+00  0.00000000E+00  0.00000000E+00
  0.00000000E+00  0.00000000E+00  0.00000000E+00
  0.00000000E+00  0.00000000E+00  0.00000000E+00
  0.00000000E+00  0.00000000E+00  0.00000000E+00
  0.00000000E+00  0.00000000E+00  0.00000000E+00
  0.00000000E+00  0.00000000E+00  0.00000000E+00
