Ba4 B4 I20                              
   1.0000000000000000     
    15.5344603443594096    0.0000000000000000    0.0000000000000000
     0.0000000000000000    9.4552331791927369    1.4494459255380903
     0.0000000000000000    6.2151504568038405   12.3028502098069517
   Ba   B    I 
     4     4    20
Direct
  0.0072191690874703  0.2886492033992099  0.4513206338718589
  0.5072191690874703  0.7113507966007973  0.0486793661281411
  0.9927808309125297  0.7113507966007973  0.5486793661281339
  0.4927808309125297  0.2886492033992099  0.9513206338718661
  0.6800507708190935  0.1721112093022725  0.4396767536480155
  0.1800507708190864  0.8278887906977275  0.0603232463519845
  0.3199492291809136  0.8278887906977275  0.5603232463519916
  0.8199492291809065  0.1721112093022725  0.9396767536480084
  0.6037397254022423  0.3972985148383472  0.3742555436902890
  0.1037397254022352  0.6027014851616528  0.1257444563097110
  0.3962602745977648  0.6027014851616528  0.6257444563097110
  0.8962602745977577  0.3972985148383472  0.8742555436902890
  0.7836579444906349  0.1796380618706976  0.3346364676097764
  0.2836579444906349  0.8203619381293095  0.1653635323902236
  0.2163420555093651  0.8203619381293095  0.6653635323902236
  0.7163420555093651  0.1796380618706976  0.8346364676097764
  0.4623015685443690  0.1052353675671185  0.8031922147504034
  0.9623015685443690  0.8947646324328815  0.6968077852495966
  0.5376984314556310  0.8947646324328815  0.1968077852495966
  0.0376984314556310  0.1052353675671185  0.3031922147504034
  0.6571749205541053  0.9469522966873285  0.6124265613524287
  0.1571749205541195  0.0530477033126715  0.8875734386475713
  0.3428250794458734  0.0530477033126715  0.3875734386475713
  0.8428250794458947  0.9469522966873285  0.1124265613524287
  0.3561182147298965  0.4584324957860986  0.0470182318277921
  0.8561182147298965  0.5415675042139014  0.4529817681722079
  0.6438817852701035  0.5415675042139014  0.9529817681722079
  0.1438817852701035  0.4584324957860986  0.5470182318277921

  0.00000000E+00  0.00000000E+00  0.00000000E+00
  0.00000000E+00  0.00000000E+00  0.00000000E+00
  0.00000000E+00  0.00000000E+00  0.00000000E+00
  0.00000000E+00  0.00000000E+00  0.00000000E+00
  0.00000000E+00  0.00000000E+00  0.00000000E+00
  0.00000000E+00  0.00000000E+00  0.00000000E+00
  0.00000000E+00  0.00000000E+00  0.00000000E+00
  0.00000000E+00  0.00000000E+00  0.00000000E+00
  0.00000000E+00  0.00000000E+00  0.00000000E+00
  0.00000000E+00  0.00000000E+00  0.00000000E+00
  0.00000000E+00  0.00000000E+00  0.00000000E+00
  0.00000000E+00  0.00000000E+00  0.00000000E+00
  0.00000000E+00  0.00000000E+00  0.00000000E+00
  0.00000000E+00  0.00000000E+00  0.00000000E+00
  0.00000000E+00  0.00000000E+00  0.00000000E+00
  0.00000000E+00  0.00000000E+00  0.00000000E+00
  0.00000000E+00  0.00000000E+00  0.00000000E+00
  0.00000000E+00  0.00000000E+00  0.00000000E+00
  0.00000000E+00  0.00000000E+00  0.00000000E+00
  0.00000000E+00  0.00000000E+00  0.00000000E+00
  0.00000000E+00  0.00000000E+00  0.00000000E+00
  0.00000000E+00  0.00000000E+00  0.00000000E+00
  0.00000000E+00  0.00000000E+00  0.00000000E+00
  0.00000000E+00  0.00000000E+00  0.00000000E+00
  0.00000000E+00  0.00000000E+00  0.00000000E+00
  0.00000000E+00  0.00000000E+00  0.00000000E+00
  0.00000000E+00  0.00000000E+00  0.00000000E+00
  0.00000000E+00  0.00000000E+00  0.00000000E+00
