Ca4 Ga4 Br20                            
   1.0000000000000000     
     0.0000000000000000    7.9732712193885975    0.3075379343207535
    12.6284604880828315    0.0000000000000000    0.0000000000000000
     0.0000000000000000   -0.7183488847700144  -11.6212960053917165
   Ca   Ga   Br
     4     4    20
Direct
  0.3009468110495632  0.4111389232354625  0.4774688206035407
  0.6990531889504368  0.9111389232354625  0.5225311793964664
  0.2655430919115034  0.0076934353176625  0.1444908600996726
  0.7344569080884966  0.5076934353176625  0.8555091399003274
  0.5145733486066106  0.5624889430409254  0.1515909509104318
  0.4854266513933752  0.0624889430409254  0.8484090490895682
  0.0490663827943081  0.7705607757785558  0.3820503941674787
  0.9509336172056919  0.2705607757785629  0.6179496058325284
  0.4397197510502622  0.9808346041570317  0.3691596482003234
  0.2669946494064632  0.6568714685822528  0.4600699515093467
  0.7330053505935368  0.1568714685822599  0.5399300484906533
  0.8541539100582440  0.7202150008199482  0.7956460781930517
  0.8209556198801664  0.4952131281981309  0.0941109622567566
  0.6026825303369350  0.9829963568927340  0.0700234397614423
  0.9238028887115632  0.3043038388475239  0.8151561600748565
  0.7700923606012324  0.7084912743515517  0.4004977444355760
  0.1790443801198336  0.9952131281981380  0.9058890377432434
  0.0574939465276003  0.9246104900925118  0.5020382776352648
  0.3973174696630650  0.4829963568927340  0.9299765602385577
  0.5602802489497449  0.4808346041570388  0.6308403517996908
  0.5593503576404757  0.8656596978288036  0.7245922107476659
  0.8949520796019925  0.1065210428568690  0.1488813085863754
  0.9425060534723997  0.4246104900925118  0.4979617223647352
  0.0761971112884368  0.8043038388475239  0.1848438399251435
  0.1458460899417489  0.2202150008199482  0.2043539218069412
  0.1050479203980075  0.6065210428568548  0.8511186914136246
  0.2299076393987676  0.2084912743515446  0.5995022555644240
  0.4406496423595243  0.3656596978287965  0.2754077892523341

  0.00000000E+00  0.00000000E+00  0.00000000E+00
  0.00000000E+00  0.00000000E+00  0.00000000E+00
  0.00000000E+00  0.00000000E+00  0.00000000E+00
  0.00000000E+00  0.00000000E+00  0.00000000E+00
  0.00000000E+00  0.00000000E+00  0.00000000E+00
  0.00000000E+00  0.00000000E+00  0.00000000E+00
  0.00000000E+00  0.00000000E+00  0.00000000E+00
  0.00000000E+00  0.00000000E+00  0.00000000E+00
  0.00000000E+00  0.00000000E+00  0.00000000E+00
  0.00000000E+00  0.00000000E+00  0.00000000E+00
  0.00000000E+00  0.00000000E+00  0.00000000E+00
  0.00000000E+00  0.00000000E+00  0.00000000E+00
  0.00000000E+00  0.00000000E+00  0.00000000E+00
  0.00000000E+00  0.00000000E+00  0.00000000E+00
  0.00000000E+00  0.00000000E+00  0.00000000E+00
  0.00000000E+00  0.00000000E+00  0.00000000E+00
  0.00000000E+00  0.00000000E+00  0.00000000E+00
  0.00000000E+00  0.00000000E+00  0.00000000E+00
  0.00000000E+00  0.00000000E+00  0.00000000E+00
  0.00000000E+00  0.00000000E+00  0.00000000E+00
  0.00000000E+00  0.00000000E+00  0.00000000E+00
  0.00000000E+00  0.00000000E+00  0.00000000E+00
  0.00000000E+00  0.00000000E+00  0.00000000E+00
  0.00000000E+00  0.00000000E+00  0.00000000E+00
  0.00000000E+00  0.00000000E+00  0.00000000E+00
  0.00000000E+00  0.00000000E+00  0.00000000E+00
  0.00000000E+00  0.00000000E+00  0.00000000E+00
  0.00000000E+00  0.00000000E+00  0.00000000E+00
