Be3 Ga11                                
   1.00000000000000     
     3.5197577424260813   -0.0000000510796873    0.0000000000000000
    -1.7598791752909118   -5.7945711611047575    6.1854004515650454
    -1.7598791752909118   -5.7945711611047575   -6.1854004515650454
   Ga   Be
    11     3
Direct
  0.3847089888322444  0.7744907346006613  0.9949272432976102
  0.3502855280460508  0.5320296130932789  0.1685414434392811
  0.6152910111677556  0.0050727567023898  0.2255092653993387
  0.8143439762123421  0.3143439763782538  0.3143439763782538
  0.3502855280460508  0.1685414434392811  0.5320296130932789
  0.5000000000000000  0.5000000000000000  0.5000000000000000
  0.6497144719539492  0.8314585565607189  0.4679703869067211
  0.1856560237876508  0.6856560236217462  0.6856560236217462
  0.3847089888322444  0.9949272432976102  0.7744907346006613
  0.6497144719539492  0.4679703869067211  0.8314585565607189
  0.6152910111677556  0.2255092653993387  0.0050727567023898
  0.0000000000000000  0.0000000000000000  0.0000000000000000
  0.0000000000000000  0.6197518101368971  0.3802481898631029
  0.0000000000000000  0.3802481898631029  0.6197518101368971
 
  0.00000000E+00  0.00000000E+00  0.00000000E+00
  0.00000000E+00  0.00000000E+00  0.00000000E+00
  0.00000000E+00  0.00000000E+00  0.00000000E+00
  0.00000000E+00  0.00000000E+00  0.00000000E+00
  0.00000000E+00  0.00000000E+00  0.00000000E+00
  0.00000000E+00  0.00000000E+00  0.00000000E+00
  0.00000000E+00  0.00000000E+00  0.00000000E+00
  0.00000000E+00  0.00000000E+00  0.00000000E+00
  0.00000000E+00  0.00000000E+00  0.00000000E+00
  0.00000000E+00  0.00000000E+00  0.00000000E+00
  0.00000000E+00  0.00000000E+00  0.00000000E+00
  0.00000000E+00  0.00000000E+00  0.00000000E+00
  0.00000000E+00  0.00000000E+00  0.00000000E+00
  0.00000000E+00  0.00000000E+00  0.00000000E+00
