Be20 B4                                 
   1.00000000000000     
     4.0073026895064467    0.0000000000000000    0.0000000000000000
     0.0000000000000000    5.0949991406241697   -0.0003195958447857
     0.0000000000000000    0.0007180215989372    9.8036984854909512
   Be   B 
    20     4
Direct
  0.5000000000000000  0.4503472598897105  0.9958480780441334
  0.2502415078461908  0.7327002579713664  0.1550516980531782
  0.7497584921538092  0.7327002579713664  0.1550516980531782
  0.0000000000000000  0.3520364308364918  0.1182965200305404
  0.5000000000000000  0.0972192065189077  0.2013408928889930
  0.2538004536889531  0.4395468633538613  0.3064270618343841
  0.7461995463110469  0.4395468633538613  0.3064270618343841
  0.0000000000000000  0.7840211711348175  0.4009078416712484
  0.5000000000000000  0.0888249260909433  0.4414788340751841
  0.0000000000000000  0.3183111127020268  0.4774432765241770
  0.5000000000000000  0.5496397109631914  0.4958655781681642
  0.2502396950304941  0.2673348611317365  0.6550377124158686
  0.7497603049695059  0.2673348611317365  0.6550377124158686
  0.0000000000000000  0.6479904459728800  0.6182847912605780
  0.5000000000000000  0.9028408260158187  0.7013253466231717
  0.2538012727398993  0.5605041665494497  0.8064011679224947
  0.7461987272601007  0.5605041665494497  0.8064011679224947
  0.0000000000000000  0.2160371073395737  0.9008882529149176
  0.5000000000000000  0.9112181646468400  0.9414551840944867
  0.0000000000000000  0.6817584981188460  0.9774259146977613
  0.0000000000000000  0.0074915590492850  0.0701220091317012
  0.5000000000000000  0.7702883859740552  0.3226329086919506
  0.0000000000000000  0.9925491197708283  0.5701344748363084
  0.5000000000000000  0.2297637769629546  0.8226148158948519
 
  0.00000000E+00  0.00000000E+00  0.00000000E+00
  0.00000000E+00  0.00000000E+00  0.00000000E+00
  0.00000000E+00  0.00000000E+00  0.00000000E+00
  0.00000000E+00  0.00000000E+00  0.00000000E+00
  0.00000000E+00  0.00000000E+00  0.00000000E+00
  0.00000000E+00  0.00000000E+00  0.00000000E+00
  0.00000000E+00  0.00000000E+00  0.00000000E+00
  0.00000000E+00  0.00000000E+00  0.00000000E+00
  0.00000000E+00  0.00000000E+00  0.00000000E+00
  0.00000000E+00  0.00000000E+00  0.00000000E+00
  0.00000000E+00  0.00000000E+00  0.00000000E+00
  0.00000000E+00  0.00000000E+00  0.00000000E+00
  0.00000000E+00  0.00000000E+00  0.00000000E+00
  0.00000000E+00  0.00000000E+00  0.00000000E+00
  0.00000000E+00  0.00000000E+00  0.00000000E+00
  0.00000000E+00  0.00000000E+00  0.00000000E+00
  0.00000000E+00  0.00000000E+00  0.00000000E+00
  0.00000000E+00  0.00000000E+00  0.00000000E+00
  0.00000000E+00  0.00000000E+00  0.00000000E+00
  0.00000000E+00  0.00000000E+00  0.00000000E+00
  0.00000000E+00  0.00000000E+00  0.00000000E+00
  0.00000000E+00  0.00000000E+00  0.00000000E+00
  0.00000000E+00  0.00000000E+00  0.00000000E+00
  0.00000000E+00  0.00000000E+00  0.00000000E+00
