Sr3F2                                   
   1.00000000000000     
    -7.1950089691964108   -0.0238123438923517    0.0039315942185080
     3.5767115311631970   -6.2462792320204112   -0.0037983451935442
    -3.5883673517079955    2.0728070395951663    6.9319223192700496
   F    Sr
     4     6
Direct
  0.2987092446952317  0.3829142804827228  0.1269016617554044
  0.8830105087975895  0.7991857681257102  0.3727932070954338
  0.1169460452125222  0.2007569531078701  0.6270280702365341
  0.7012142643872181  0.6170308098152120  0.8731179350843021
  0.2424349577380980  0.0985461967283001  0.2623066610483633
  0.9425746766746741  0.4429648313383652  0.2500588897581224
  0.5981179203938751  0.7424451496393587  0.2377252722721863
  0.4017737325932842  0.2575526069290817  0.7622531307979159
  0.0573435946572474  0.5569561736087181  0.7498633883852435
  0.7575750548502640  0.9013472302246726  0.7375517835665022
 
  0.00000000E+00  0.00000000E+00  0.00000000E+00
  0.00000000E+00  0.00000000E+00  0.00000000E+00
  0.00000000E+00  0.00000000E+00  0.00000000E+00
  0.00000000E+00  0.00000000E+00  0.00000000E+00
  0.00000000E+00  0.00000000E+00  0.00000000E+00
  0.00000000E+00  0.00000000E+00  0.00000000E+00
  0.00000000E+00  0.00000000E+00  0.00000000E+00
  0.00000000E+00  0.00000000E+00  0.00000000E+00
  0.00000000E+00  0.00000000E+00  0.00000000E+00
  0.00000000E+00  0.00000000E+00  0.00000000E+00
