Ba4 In4 Cl20                            
   1.0000000000000000     
    16.7260503800177283   -0.0015278840862076   -0.0013953707428505
    -0.0006530664695947    7.3295628514292783    0.0001629966167294
    -0.0005477431023486    0.0001313990007130    6.8234338594227708
   Ba   Cl   In
     4    20     4
Direct
  0.0857340026992688  0.0864926969470616  0.9999442618885723
  0.9143015927096911  0.5865538084548945  0.4999472666113292
  0.4142887364855596  0.9134399445599186  0.4999683858937090
  0.5857455144577273  0.4134225379666603  0.9999852153270794
  0.4053788605980557  0.6264160302490609  0.0856670972735643
  0.4264857383801370  0.1574559104423088  0.1340547843776676
  0.0502076857502090  0.6632359609183638  0.1751519909787405
  0.7662789216494232  0.3891580020322678  0.2350506173685574
  0.7809251006344979  0.8795701504574751  0.3311463817452776
  0.2190861879785899  0.3795394609398954  0.1688304480593388
  0.2337702608449845  0.8891283250085138  0.2649265960990661
  0.9498335620547209  0.1632027505195310  0.3247432321117074
  0.5735302166739231  0.6574556664197075  0.3659297139862190
  0.5946315939363913  0.1264152648794479  0.4143132778458707
  0.0946448961791972  0.3735319783318616  0.5856442156486352
  0.0735591112096827  0.8425125975887227  0.6340176185378823
  0.4498392329231606  0.3367709671530079  0.6751998515436597
  0.7337291880518180  0.6108078221106581  0.7350328807281059
  0.7190682491269627  0.1204183875468061  0.8311555358321314
  0.2809543605598321  0.6203883160681087  0.6688259270452761
  0.2662896460114226  0.1108119814121906  0.7649219849453388
  0.5501849209637086  0.8367312154037023  0.8247891762884620
  0.9264889902356970  0.3425420434645758  0.8659044639173175
  0.9053786515979567  0.8735438377245544  0.9143142430656823
  0.8382681985584810  0.1346209473216291  0.0738691695558202
  0.1617789854828757  0.6345824916738323  0.4260831235552303
  0.6617497516785917  0.8653260362482058  0.5738574605856073
  0.3382678425674399  0.3653248681570318  0.9261250791841533

  0.00000000E+00  0.00000000E+00  0.00000000E+00
  0.00000000E+00  0.00000000E+00  0.00000000E+00
  0.00000000E+00  0.00000000E+00  0.00000000E+00
  0.00000000E+00  0.00000000E+00  0.00000000E+00
  0.00000000E+00  0.00000000E+00  0.00000000E+00
  0.00000000E+00  0.00000000E+00  0.00000000E+00
  0.00000000E+00  0.00000000E+00  0.00000000E+00
  0.00000000E+00  0.00000000E+00  0.00000000E+00
  0.00000000E+00  0.00000000E+00  0.00000000E+00
  0.00000000E+00  0.00000000E+00  0.00000000E+00
  0.00000000E+00  0.00000000E+00  0.00000000E+00
  0.00000000E+00  0.00000000E+00  0.00000000E+00
  0.00000000E+00  0.00000000E+00  0.00000000E+00
  0.00000000E+00  0.00000000E+00  0.00000000E+00
  0.00000000E+00  0.00000000E+00  0.00000000E+00
  0.00000000E+00  0.00000000E+00  0.00000000E+00
  0.00000000E+00  0.00000000E+00  0.00000000E+00
  0.00000000E+00  0.00000000E+00  0.00000000E+00
  0.00000000E+00  0.00000000E+00  0.00000000E+00
  0.00000000E+00  0.00000000E+00  0.00000000E+00
  0.00000000E+00  0.00000000E+00  0.00000000E+00
  0.00000000E+00  0.00000000E+00  0.00000000E+00
  0.00000000E+00  0.00000000E+00  0.00000000E+00
  0.00000000E+00  0.00000000E+00  0.00000000E+00
  0.00000000E+00  0.00000000E+00  0.00000000E+00
  0.00000000E+00  0.00000000E+00  0.00000000E+00
  0.00000000E+00  0.00000000E+00  0.00000000E+00
  0.00000000E+00  0.00000000E+00  0.00000000E+00
