Be1 Al2 I4                              
   1.00000000000000     
    -2.7112566720711215    2.7112566720711211    7.8640970810170900
     2.7112566720711211   -2.7112566720711215    7.8640970810170900
     2.7112566720711215    2.7112566720711215   -7.8640970810170900
   Be   I    Al
     1     4     2
Direct
  0.0000000000000000  0.0000000000000000  0.0000000000000000
  0.1679266162496873  0.1679266162496873  0.0000000000000000
  0.8320733837503127  0.8320733837503127  0.0000000000000000
  0.5000000000000000  0.0000000000000000  0.5000000000000000
  0.0000000000000000  0.5000000000000000  0.5000000000000000
  0.3701721915926441  0.3701721915926441  0.0000000000000000
  0.6298278084073559  0.6298278084073559  0.0000000000000000
 
  0.00000000E+00  0.00000000E+00  0.00000000E+00
  0.00000000E+00  0.00000000E+00  0.00000000E+00
  0.00000000E+00  0.00000000E+00  0.00000000E+00
  0.00000000E+00  0.00000000E+00  0.00000000E+00
  0.00000000E+00  0.00000000E+00  0.00000000E+00
  0.00000000E+00  0.00000000E+00  0.00000000E+00
  0.00000000E+00  0.00000000E+00  0.00000000E+00
