Sr2 Ga2 I6                              
   1.00000000000000     
     2.3337434895189677   -7.5910613521429475    0.0000000000000000
     2.3337434895189677    7.5910613521429475    0.0000000000000000
     0.0000000000000000    0.0000000000000000   11.9335322626429132
   Sr   Ga   I 
     2     2     6
Direct
  0.0000000000000000  0.0000000000000000  0.0000000000000000
  0.0000000000000000  0.0000000000000000  0.5000000000000000
  0.2498444405071041  0.7501555594928959  0.2500000000000000
  0.7501555594928959  0.2498444405071041  0.7500000000000000
  0.6416225376886615  0.3583774623113385  0.0699899115139928
  0.3583774623113385  0.6416225376886615  0.9300100884860072
  0.3583774623113385  0.6416225376886615  0.5699899115139928
  0.6416225376886615  0.3583774623113385  0.4300100884860072
  0.9010820073964467  0.0989179926035533  0.2500000000000000
  0.0989179926035533  0.9010820073964467  0.7500000000000000
 
  0.00000000E+00  0.00000000E+00  0.00000000E+00
  0.00000000E+00  0.00000000E+00  0.00000000E+00
  0.00000000E+00  0.00000000E+00  0.00000000E+00
  0.00000000E+00  0.00000000E+00  0.00000000E+00
  0.00000000E+00  0.00000000E+00  0.00000000E+00
  0.00000000E+00  0.00000000E+00  0.00000000E+00
  0.00000000E+00  0.00000000E+00  0.00000000E+00
  0.00000000E+00  0.00000000E+00  0.00000000E+00
  0.00000000E+00  0.00000000E+00  0.00000000E+00
  0.00000000E+00  0.00000000E+00  0.00000000E+00
