Ba4 B4 Cl2                              
   1.00000000000000     
     4.4785163087274444   -0.6616823606862243   -0.0002908370638342
    -2.8162384224496373    3.5439858345963073    0.0003916870035569
    -0.0008648127515453    0.0011138371493708   17.0499549584698222
   Ba   B    Cl
     4     4     2
Direct
  0.0047092589608724  0.9952884337699501  0.1148856143255372
  0.0047164467338234  0.9953658672322021  0.3851462211893164
  0.9952983710088290  0.0047107588445598  0.6148750126414555
  0.9952884427563191  0.0046473972397933  0.8851556569470347
  0.2671001374762980  0.7327912230229785  0.9989304616258607
  0.2671236755386772  0.7329054776239872  0.5011102292818492
  0.7328682159216058  0.2671471937562728  0.4989149637983061
  0.7328615167693755  0.2671087717787799  0.0011090001451493
  0.7033216954509669  0.2963751768325622  0.2500236949976582
  0.2967122393832469  0.7036596998989140  0.7500091450478266
 
  0.00000000E+00  0.00000000E+00  0.00000000E+00
  0.00000000E+00  0.00000000E+00  0.00000000E+00
  0.00000000E+00  0.00000000E+00  0.00000000E+00
  0.00000000E+00  0.00000000E+00  0.00000000E+00
  0.00000000E+00  0.00000000E+00  0.00000000E+00
  0.00000000E+00  0.00000000E+00  0.00000000E+00
  0.00000000E+00  0.00000000E+00  0.00000000E+00
  0.00000000E+00  0.00000000E+00  0.00000000E+00
  0.00000000E+00  0.00000000E+00  0.00000000E+00
  0.00000000E+00  0.00000000E+00  0.00000000E+00
