Be10 In6                                
   1.00000000000000     
    -6.4537284688364114   -0.2368039103226105   -0.9660197828594820
    -0.2839677166546649   -6.4706113253106095   -1.0374187117690274
     4.2425687194746420    4.1918040456851822    7.2183146814926298
   In   Be
     6    10
Direct
  0.5739405153918753  0.0700386323573596  0.8489331961626903
  0.2285538097992372  0.2947473875078686  0.9683299649610291
  0.8150414462663846  0.7474546757424321  0.9902252216323575
  0.3676520903018954  0.8648765841377113  0.0485258823899315
  0.1894442041791962  0.2960383568190466  0.5271349542764341
  0.7818831780880870  0.6665294183312014  0.5156650702398480
  0.1118003005401107  0.1710366982894271  0.1552444288206374
  0.6657249389615814  0.6035341296276471  0.1562882118094748
  0.5189322409089314  0.2716858679520655  0.4558983077116636
  0.9856975763802254  0.4861788938708358  0.1332696611382360
  0.3945792516410123  0.8941726223043176  0.4315206504834990
  0.7604805117366453  0.0087705797628246  0.4582077537561560
  0.0755248316849091  0.8374115978607009  0.4442036029192735
  0.7497005997211303  0.2639063311590206  0.7308384830302685
  0.9532252111762745  0.4423347569747520  0.6890745708876125
  0.3274192932224551  0.5808834673028187  0.4466400397809167
 
  0.00000000E+00  0.00000000E+00  0.00000000E+00
  0.00000000E+00  0.00000000E+00  0.00000000E+00
  0.00000000E+00  0.00000000E+00  0.00000000E+00
  0.00000000E+00  0.00000000E+00  0.00000000E+00
  0.00000000E+00  0.00000000E+00  0.00000000E+00
  0.00000000E+00  0.00000000E+00  0.00000000E+00
  0.00000000E+00  0.00000000E+00  0.00000000E+00
  0.00000000E+00  0.00000000E+00  0.00000000E+00
  0.00000000E+00  0.00000000E+00  0.00000000E+00
  0.00000000E+00  0.00000000E+00  0.00000000E+00
  0.00000000E+00  0.00000000E+00  0.00000000E+00
  0.00000000E+00  0.00000000E+00  0.00000000E+00
  0.00000000E+00  0.00000000E+00  0.00000000E+00
  0.00000000E+00  0.00000000E+00  0.00000000E+00
  0.00000000E+00  0.00000000E+00  0.00000000E+00
  0.00000000E+00  0.00000000E+00  0.00000000E+00
