Sr4                                     
   1.00000000000000     
     6.6084178230192947   -0.0000000247937658    2.6587872611257524
     3.3042078877356085    5.7486361630495688    1.3293920833233808
     1.1585024901686318   -0.0000000309178328    6.6625475284134357
   Sr
     4
Direct
  0.3301862741764765  0.8396274516329498  0.5000000000098268
  0.6698137258235235  0.1603725483670502  0.4999999999901732
  0.1698145497675938  0.4999999999901803  0.1603728904757631
  0.8301854502324062  0.5000000000098197  0.8396271095242369
 
  0.00000000E+00  0.00000000E+00  0.00000000E+00
  0.00000000E+00  0.00000000E+00  0.00000000E+00
  0.00000000E+00  0.00000000E+00  0.00000000E+00
  0.00000000E+00  0.00000000E+00  0.00000000E+00
