Be2 B1                                  
   1.00000000000000     
     0.0000000000000000    2.2849224966614692    2.2849224966614692
     2.2849224966614692    0.0000000000000000    2.2849224966614692
     2.2849224966614692    2.2849224966614692    0.0000000000000000
   Be   B 
     2     1
Direct
  0.7500000000000000  0.7500000000000000  0.7500000000000000
  0.2500000000000000  0.2500000000000000  0.2500000000000000
  0.0000000000000000  0.0000000000000000  0.0000000000000000
 
  0.00000000E+00  0.00000000E+00  0.00000000E+00
  0.00000000E+00  0.00000000E+00  0.00000000E+00
  0.00000000E+00  0.00000000E+00  0.00000000E+00
