Sr17 Al12                               
   1.00000000000000     
    -6.1740286559763646   -6.1740286559763637    6.1886598799463854
    -6.1740286559763646    6.1886598799463854   -6.1740286559763637
     6.1886598799463854   -6.1740286559763637   -6.1740286559763637
   Al   Sr
    12    17
Direct
  0.3626504808182531  0.1628535375076865  0.0000951549950940
  0.1628535375076865  0.3626504808182531  0.0000951549950940
  0.8367980581709062  0.8367980581709062  0.1990495038425877
  0.3626504808182531  0.0000951549950940  0.1628535375076865
  0.0000951549950940  0.3626504808182531  0.1628535375076865
  0.1628535375076865  0.0000951549950940  0.3626504808182531
  0.0000951549950940  0.1628535375076865  0.3626504808182531
  0.8000236726117507  0.6372149495069337  0.6372149495069337
  0.6372149495069337  0.8000236726117507  0.6372149495069337
  0.8367980581709062  0.1990495038425877  0.8367980581709062
  0.1990495038425877  0.8367980581709062  0.8367980581709062
  0.6372149495069337  0.6372149495069337  0.8000236726117507
  0.9999668394645838  0.9999668394645838  0.9999668394645838
  0.6841474582583942  0.9999223739430363  0.9999223739430363
  0.7001612463911613  0.4191576258858305  0.0003910015725239
  0.9999223739430363  0.6841474582583942  0.9999223739430363
  0.4191576258858305  0.7001612463911613  0.0003910015725239
  0.5804599885405324  0.5804599885405324  0.2799205301890169
  0.7196136976021563  0.3005112300098460  0.3005112300098460
  0.3005112300098460  0.7196136976021563  0.3005112300098460
  0.3168470033479167  0.3168470033479167  0.3168470033479167
  0.7001612463911613  0.0003910015725239  0.4191576258858305
  0.0003910015725239  0.7001612463911613  0.4191576258858305
  0.5804599885405324  0.2799205301890169  0.5804599885405324
  0.2799205301890169  0.5804599885405324  0.5804599885405324
  0.9999223739430363  0.9999223739430363  0.6841474582583942
  0.4191576258858305  0.0003910015725239  0.7001612463911613
  0.0003910015725239  0.4191576258858305  0.7001612463911613
  0.3005112300098460  0.3005112300098460  0.7196136976021563
 
  0.00000000E+00  0.00000000E+00  0.00000000E+00
  0.00000000E+00  0.00000000E+00  0.00000000E+00
  0.00000000E+00  0.00000000E+00  0.00000000E+00
  0.00000000E+00  0.00000000E+00  0.00000000E+00
  0.00000000E+00  0.00000000E+00  0.00000000E+00
  0.00000000E+00  0.00000000E+00  0.00000000E+00
  0.00000000E+00  0.00000000E+00  0.00000000E+00
  0.00000000E+00  0.00000000E+00  0.00000000E+00
  0.00000000E+00  0.00000000E+00  0.00000000E+00
  0.00000000E+00  0.00000000E+00  0.00000000E+00
  0.00000000E+00  0.00000000E+00  0.00000000E+00
  0.00000000E+00  0.00000000E+00  0.00000000E+00
  0.00000000E+00  0.00000000E+00  0.00000000E+00
  0.00000000E+00  0.00000000E+00  0.00000000E+00
  0.00000000E+00  0.00000000E+00  0.00000000E+00
  0.00000000E+00  0.00000000E+00  0.00000000E+00
  0.00000000E+00  0.00000000E+00  0.00000000E+00
  0.00000000E+00  0.00000000E+00  0.00000000E+00
  0.00000000E+00  0.00000000E+00  0.00000000E+00
  0.00000000E+00  0.00000000E+00  0.00000000E+00
  0.00000000E+00  0.00000000E+00  0.00000000E+00
  0.00000000E+00  0.00000000E+00  0.00000000E+00
  0.00000000E+00  0.00000000E+00  0.00000000E+00
  0.00000000E+00  0.00000000E+00  0.00000000E+00
  0.00000000E+00  0.00000000E+00  0.00000000E+00
  0.00000000E+00  0.00000000E+00  0.00000000E+00
  0.00000000E+00  0.00000000E+00  0.00000000E+00
  0.00000000E+00  0.00000000E+00  0.00000000E+00
  0.00000000E+00  0.00000000E+00  0.00000000E+00
