Ca4 Al4 Cl20                            
   1.0000000000000000     
    12.2937287942296063    0.0000000000000000    0.0000000000000000
     0.0000000000000000    6.5728354282093573    0.0427521618203082
     0.0000000000000000    3.1183739297182425    8.7229656781215930
   Ca   Al   Cl
     4     4    20
Direct
  0.9753640704561946  0.4595777663860048  0.2631693646070019
  0.4753640704561946  0.5404222336139952  0.2368306353929981
  0.0246359295438054  0.5404222336139952  0.7368306353929981
  0.5246359295438054  0.4595777663860048  0.7631693646070019
  0.7545921632884429  0.1093483689396493  0.5998796866064566
  0.2545921632884429  0.8906516310603507  0.9001203133935434
  0.2454078367115571  0.8906516310603507  0.4001203133935434
  0.7454078367115571  0.1093483689396493  0.0998796866064566
  0.6123006515125695  0.3546366603293407  0.5013830135469846
  0.1123006515125695  0.6453633396706593  0.9986169864530154
  0.3876993484874305  0.6453633396706593  0.4986169864530154
  0.8876993484874305  0.3546366603293407  0.0013830135469846
  0.8096584165467817  0.1336990418030908  0.3453447906641429
  0.3096584165467817  0.8663009581969092  0.1546552093358571
  0.1903415834532183  0.8663009581969092  0.6546552093358571
  0.6903415834532183  0.1336990418030908  0.8453447906641429
  0.3998835395640583  0.0935730877340291  0.7914278929782625
  0.8998835395640583  0.9064269122659709  0.7085721070217375
  0.6001164604359417  0.9064269122659709  0.2085721070217375
  0.1001164604359417  0.0935730877340291  0.2914278929782625
  0.6438037802359418  0.8256208746614817  0.6266487883299661
  0.1438037802359418  0.1743791253385183  0.8733512116700339
  0.3561962197640582  0.1743791253385183  0.3733512116700339
  0.8561962197640582  0.8256208746614817  0.1266487883299661
  0.3691421415137839  0.5761431841009141  0.9467352895447547
  0.8691421415137839  0.4238568158990859  0.5532647104552453
  0.6308578584862161  0.4238568158990859  0.0532647104552382
  0.1308578584862161  0.5761431841009141  0.4467352895447618

  0.00000000E+00  0.00000000E+00  0.00000000E+00
  0.00000000E+00  0.00000000E+00  0.00000000E+00
  0.00000000E+00  0.00000000E+00  0.00000000E+00
  0.00000000E+00  0.00000000E+00  0.00000000E+00
  0.00000000E+00  0.00000000E+00  0.00000000E+00
  0.00000000E+00  0.00000000E+00  0.00000000E+00
  0.00000000E+00  0.00000000E+00  0.00000000E+00
  0.00000000E+00  0.00000000E+00  0.00000000E+00
  0.00000000E+00  0.00000000E+00  0.00000000E+00
  0.00000000E+00  0.00000000E+00  0.00000000E+00
  0.00000000E+00  0.00000000E+00  0.00000000E+00
  0.00000000E+00  0.00000000E+00  0.00000000E+00
  0.00000000E+00  0.00000000E+00  0.00000000E+00
  0.00000000E+00  0.00000000E+00  0.00000000E+00
  0.00000000E+00  0.00000000E+00  0.00000000E+00
  0.00000000E+00  0.00000000E+00  0.00000000E+00
  0.00000000E+00  0.00000000E+00  0.00000000E+00
  0.00000000E+00  0.00000000E+00  0.00000000E+00
  0.00000000E+00  0.00000000E+00  0.00000000E+00
  0.00000000E+00  0.00000000E+00  0.00000000E+00
  0.00000000E+00  0.00000000E+00  0.00000000E+00
  0.00000000E+00  0.00000000E+00  0.00000000E+00
  0.00000000E+00  0.00000000E+00  0.00000000E+00
  0.00000000E+00  0.00000000E+00  0.00000000E+00
  0.00000000E+00  0.00000000E+00  0.00000000E+00
  0.00000000E+00  0.00000000E+00  0.00000000E+00
  0.00000000E+00  0.00000000E+00  0.00000000E+00
  0.00000000E+00  0.00000000E+00  0.00000000E+00
