Mg1 Ga3 Br6                             
   1.00000000000000     
     7.5222646469754171   -0.1413394985544055   -0.0258980688851537
    -0.1413394985544056    7.5222646469754189   -0.0258980688851538
     3.6726001100262620    3.6726001100262624    5.2259186317694608
   Br   Mg   Ga
     6     1     3
Direct
  0.7519198358410293  0.2480801641589707  0.0000000000000000
  0.3179359877098378  0.3179359877098378  0.8575580369282818
  0.2480801641589707  0.7519198358410293  0.0000000000000000
  0.6820640122901622  0.6820640122901622  0.1424419630717182
  0.8255623873073432  0.8255623873073432  0.4943407590218385
  0.1744376126926568  0.1744376126926568  0.5056592409781615
  0.0000000000000000  0.0000000000000000  0.0000000000000000
  0.5000000000000000  0.5000000000000000  0.0000000000000000
  0.2437316980225077  0.7562683019774852  0.5000000000000000
  0.7562683019774852  0.2437316980225077  0.5000000000000000
 
  0.00000000E+00  0.00000000E+00  0.00000000E+00
  0.00000000E+00  0.00000000E+00  0.00000000E+00
  0.00000000E+00  0.00000000E+00  0.00000000E+00
  0.00000000E+00  0.00000000E+00  0.00000000E+00
  0.00000000E+00  0.00000000E+00  0.00000000E+00
  0.00000000E+00  0.00000000E+00  0.00000000E+00
  0.00000000E+00  0.00000000E+00  0.00000000E+00
  0.00000000E+00  0.00000000E+00  0.00000000E+00
  0.00000000E+00  0.00000000E+00  0.00000000E+00
  0.00000000E+00  0.00000000E+00  0.00000000E+00
