Sr13 Al14                               
   1.00000000000000     
     6.1186158455775361    6.1186158455775352    3.9446642713754527
     6.1186158455775317   -3.9446642713754563   -6.1186158455775326
    -3.9446642713754549    6.1186158455775335   -6.1186158455775317
   Al   Sr
    14    13
Direct
  0.3908566605830686  0.0601951210411116  0.0601951210411116
  0.6091433394169314  0.9398048789588884  0.9398048789588884
  0.3042689583641476  0.3042689583641476  0.9612058487052195
  0.0601951210411116  0.3908566605830686  0.0601951210411116
  0.9398048789588884  0.6091433394169314  0.9398048789588884
  0.6957310416358524  0.6957310416358524  0.0387941512947805
  0.3042689583641476  0.9612058487052195  0.3042689583641476
  0.9612058487052195  0.3042689583641476  0.3042689583641476
  0.0601951210411116  0.0601951210411116  0.3908566605830686
  0.2273778995577800  0.2273778995577800  0.2273778995577800
  0.9398048789588884  0.9398048789588884  0.6091433394169314
  0.7726221004422271  0.7726221004422271  0.7726221004422271
  0.6957310416358524  0.0387941512947805  0.6957310416358524
  0.0387941512947805  0.6957310416358524  0.6957310416358524
  0.0000000000000000  0.0000000000000000  0.0000000000000000
  0.7044237159830189  0.2955762840169811  0.0000000000000000
  0.2955762840169811  0.7044237159830189  0.0000000000000000
  0.6903520593479939  0.6903520593479939  0.4347369829232264
  0.7044237159830189  0.0000000000000000  0.2955762840169811
  0.0000000000000000  0.7044237159830189  0.2955762840169811
  0.5652630170767736  0.3096479406520061  0.3096479406520061
  0.3096479406520061  0.5652630170767736  0.3096479406520061
  0.2955762840169811  0.0000000000000000  0.7044237159830189
  0.6903520593479939  0.4347369829232264  0.6903520593479939
  0.0000000000000000  0.2955762840169811  0.7044237159830189
  0.4347369829232264  0.6903520593479939  0.6903520593479939
  0.3096479406520061  0.3096479406520061  0.5652630170767736
 
  0.00000000E+00  0.00000000E+00  0.00000000E+00
  0.00000000E+00  0.00000000E+00  0.00000000E+00
  0.00000000E+00  0.00000000E+00  0.00000000E+00
  0.00000000E+00  0.00000000E+00  0.00000000E+00
  0.00000000E+00  0.00000000E+00  0.00000000E+00
  0.00000000E+00  0.00000000E+00  0.00000000E+00
  0.00000000E+00  0.00000000E+00  0.00000000E+00
  0.00000000E+00  0.00000000E+00  0.00000000E+00
  0.00000000E+00  0.00000000E+00  0.00000000E+00
  0.00000000E+00  0.00000000E+00  0.00000000E+00
  0.00000000E+00  0.00000000E+00  0.00000000E+00
  0.00000000E+00  0.00000000E+00  0.00000000E+00
  0.00000000E+00  0.00000000E+00  0.00000000E+00
  0.00000000E+00  0.00000000E+00  0.00000000E+00
  0.00000000E+00  0.00000000E+00  0.00000000E+00
  0.00000000E+00  0.00000000E+00  0.00000000E+00
  0.00000000E+00  0.00000000E+00  0.00000000E+00
  0.00000000E+00  0.00000000E+00  0.00000000E+00
  0.00000000E+00  0.00000000E+00  0.00000000E+00
  0.00000000E+00  0.00000000E+00  0.00000000E+00
  0.00000000E+00  0.00000000E+00  0.00000000E+00
  0.00000000E+00  0.00000000E+00  0.00000000E+00
  0.00000000E+00  0.00000000E+00  0.00000000E+00
  0.00000000E+00  0.00000000E+00  0.00000000E+00
  0.00000000E+00  0.00000000E+00  0.00000000E+00
  0.00000000E+00  0.00000000E+00  0.00000000E+00
  0.00000000E+00  0.00000000E+00  0.00000000E+00
