Sr16 B6                                 
   1.00000000000000     
    10.2168842265253996   -1.0584418419509325   -0.6910088814367118
     4.0992003999646753    8.0880577380224707    1.3087306226217712
     1.0600693733738866    4.2886059351262951   10.9550717720985826
   Sr   B 
    16     6
Direct
  0.5850809754596042  0.2397042500911795  0.1312182490009945
  0.1679504065061508  0.5335222708007663  0.0762774560971451
  0.2473106955853908  0.1842151517337101  0.9409523771969006
  0.7660664592748034  0.6173037874089360  0.4841048285399836
  0.9012501661824217  0.2979780173153443  0.2992745295355732
  0.4660106675510107  0.6305074002588356  0.2237712037603004
  0.3571040940460364  0.9290131015095113  0.4149593668583051
  0.0690694657023982  0.8640480942486022  0.2258594330189609
  0.9811678082061377  0.0828818019273641  0.7943320453606191
  0.6203882849891542  0.1429386627477811  0.5581539687018875
  0.5222722712790357  0.3993500696324119  0.7509247312463145
  0.1120026802282794  0.6946879977135580  0.6472447096559435
  0.1928206666655683  0.3587280811659639  0.5326559841600229
  0.7312102919819239  0.8286315992415183  0.0280960886080024
  0.8364437865695677  0.5126815636281066  0.8720048220885488
  0.4088815551914848  0.7689740553392070  0.8628442462203907
  0.2077843676033737  0.8474086779989634  0.0273182463272263
  0.6836849240573528  0.5243357456148345  0.0751275141610748
  0.3193740532312148  0.6163531770601267  0.4681242790651439
  0.0048687448366280  0.4201189132989214  0.6979857026699037
  0.4828369644757871  0.5365054398275220  0.4846773001227547
  0.3367206703766925  0.4704711414368177  0.9039929176039934
 
  0.00000000E+00  0.00000000E+00  0.00000000E+00
  0.00000000E+00  0.00000000E+00  0.00000000E+00
  0.00000000E+00  0.00000000E+00  0.00000000E+00
  0.00000000E+00  0.00000000E+00  0.00000000E+00
  0.00000000E+00  0.00000000E+00  0.00000000E+00
  0.00000000E+00  0.00000000E+00  0.00000000E+00
  0.00000000E+00  0.00000000E+00  0.00000000E+00
  0.00000000E+00  0.00000000E+00  0.00000000E+00
  0.00000000E+00  0.00000000E+00  0.00000000E+00
  0.00000000E+00  0.00000000E+00  0.00000000E+00
  0.00000000E+00  0.00000000E+00  0.00000000E+00
  0.00000000E+00  0.00000000E+00  0.00000000E+00
  0.00000000E+00  0.00000000E+00  0.00000000E+00
  0.00000000E+00  0.00000000E+00  0.00000000E+00
  0.00000000E+00  0.00000000E+00  0.00000000E+00
  0.00000000E+00  0.00000000E+00  0.00000000E+00
  0.00000000E+00  0.00000000E+00  0.00000000E+00
  0.00000000E+00  0.00000000E+00  0.00000000E+00
  0.00000000E+00  0.00000000E+00  0.00000000E+00
  0.00000000E+00  0.00000000E+00  0.00000000E+00
  0.00000000E+00  0.00000000E+00  0.00000000E+00
  0.00000000E+00  0.00000000E+00  0.00000000E+00
