Sr1 Ga3 I6                              
   1.00000000000000     
     8.6572519642280987    0.0006016452060517    0.0065295658319352
     0.0006016452060517    8.6572519642280987    0.0065295658319352
     4.3335452714047946    4.3335452714047937    6.1278689188755671
   I    Sr   Ga
     6     1     3
Direct
  0.7392218329446933  0.2607781670553067  0.0000000000000000
  0.2607187552856587  0.2607187552856587  0.0001196032524504
  0.2607781670553067  0.7392218329446933  0.0000000000000000
  0.7392812447143413  0.7392812447143413  0.9998803967475496
  0.7396506664904479  0.7396506664904479  0.5215000994451344
  0.2603493335095521  0.2603493335095521  0.4784999005548585
  0.0000000000000000  0.0000000000000000  0.0000000000000000
  0.5000000000000000  0.5000000000000000  0.0000000000000000
  0.2499190598162215  0.7500809401837785  0.5000000000000000
  0.7500809401837785  0.2499190598162215  0.5000000000000000
 
  0.00000000E+00  0.00000000E+00  0.00000000E+00
  0.00000000E+00  0.00000000E+00  0.00000000E+00
  0.00000000E+00  0.00000000E+00  0.00000000E+00
  0.00000000E+00  0.00000000E+00  0.00000000E+00
  0.00000000E+00  0.00000000E+00  0.00000000E+00
  0.00000000E+00  0.00000000E+00  0.00000000E+00
  0.00000000E+00  0.00000000E+00  0.00000000E+00
  0.00000000E+00  0.00000000E+00  0.00000000E+00
  0.00000000E+00  0.00000000E+00  0.00000000E+00
  0.00000000E+00  0.00000000E+00  0.00000000E+00
