Mg2 Al2 I10                             
   1.0000000000000000     
     5.0748542462586688   -0.0000000000000002    0.0000000000000003
    -0.0000000000000010   12.9974568914134494    0.0000000000000013
     0.0000000000000001    0.0000000000000007   12.6563333894057575
   Mg   Al   I 
     2     2    10
Direct
  0.0000000000000000  0.0000000000000000  0.5000000000000000
  0.5000000000000000  0.5000000000000000  0.0000000000000000
  0.5000000000000000  0.0000000000000000  0.0000000000000000
  0.0000000000000000  0.5000000000000000  0.5000000000000000
  0.5000000000000000  0.8565126524671669  0.5000000000000000
  0.5000000000000000  0.1434873475328331  0.5000000000000000
  0.5000000000000000  0.0000000000000000  0.2039557505404161
  0.5000000000000000  0.0000000000000000  0.7960442494595839
  0.0000000000000000  0.0000000000000000  0.0000000000000000
  0.0000000000000000  0.3565126524671669  0.0000000000000000
  0.0000000000000000  0.6434873475328331  0.0000000000000000
  0.0000000000000000  0.5000000000000000  0.7039557505404161
  0.0000000000000000  0.5000000000000000  0.2960442494595839
  0.5000000000000000  0.5000000000000000  0.5000000000000000

  0.00000000E+00  0.00000000E+00  0.00000000E+00
  0.00000000E+00  0.00000000E+00  0.00000000E+00
  0.00000000E+00  0.00000000E+00  0.00000000E+00
  0.00000000E+00  0.00000000E+00  0.00000000E+00
  0.00000000E+00  0.00000000E+00  0.00000000E+00
  0.00000000E+00  0.00000000E+00  0.00000000E+00
  0.00000000E+00  0.00000000E+00  0.00000000E+00
  0.00000000E+00  0.00000000E+00  0.00000000E+00
  0.00000000E+00  0.00000000E+00  0.00000000E+00
  0.00000000E+00  0.00000000E+00  0.00000000E+00
  0.00000000E+00  0.00000000E+00  0.00000000E+00
  0.00000000E+00  0.00000000E+00  0.00000000E+00
  0.00000000E+00  0.00000000E+00  0.00000000E+00
  0.00000000E+00  0.00000000E+00  0.00000000E+00
