Mg16 B12 Br1                            
   1.00000000000000     
     6.0044956959367672   -3.4648128419767956    2.4481775294397252
     0.3695515214614473    8.0000034344890469    3.0549044857113583
    -6.7462202358001280   -4.3203063842213858    3.0550818249729090
   B    Br   Mg
    12     1    16
Direct
  0.8193837185441666  0.6584100378119473  0.0001746365605086
  0.6327207964171748  0.7280621469368143  0.0001198642202951
  0.3959586546472309  0.4783404543099579  0.3572485012948121
  0.0390076317190591  0.6429599611446974  0.1214181823571252
  0.9043998224381795  0.2720183905493911  0.2720738976197552
  0.3958998076262574  0.3570745871478280  0.4783316254363399
  0.1606343597886877  0.3412930012464699  0.3413551334180198
  0.8194356120829340  0.0001187204304500  0.6582009513625948
  0.9177022610742824  0.8789302000486074  0.5213837206429233
  0.6330146430684849  0.0000631967013618  0.7281516337761289
  0.9176913631460835  0.5215005716564534  0.8790312360416408
  0.0390116076683285  0.1213718137452062  0.6427888270381104
  0.2297356334058520  0.9998864535412793  0.9998067852403167
  0.7406181885543646  0.3184037738288765  0.0001285354557012
  0.3038859589570322  0.7198894336852533  0.0000280984731234
  0.8160364244233165  0.0001084150273840  0.0002438215564524
  0.1402336885472835  0.3501900484279759  0.9994046762657618
  0.6285059869829084  0.6105216857684894  0.2189489026223725
  0.7405212336393703  0.0000684538031948  0.3184158105437689
  0.0180814558343911  0.6085449508470262  0.3895904980340958
  0.1403541488169324  0.9997230148864773  0.3503870633020938
  0.4097017344660898  0.7809427848571815  0.3916250504029435
  0.5838715035802480  0.2801022057080829  0.2801205458144906
  0.3040084552788755  0.0000037782625029  0.7198798811565297
  0.0180203614874870  0.3896409144592354  0.6085127235504970
  0.7900993366732934  0.6496331369545558  0.6492961172608176
  0.6286818142420287  0.2190280437749976  0.6106722974433225
  0.4223605444422560  0.6816517825302668  0.6817168058601126
  0.4096232524473820  0.3915190419080119  0.7809461772493549
 
  0.00000000E+00  0.00000000E+00  0.00000000E+00
  0.00000000E+00  0.00000000E+00  0.00000000E+00
  0.00000000E+00  0.00000000E+00  0.00000000E+00
  0.00000000E+00  0.00000000E+00  0.00000000E+00
  0.00000000E+00  0.00000000E+00  0.00000000E+00
  0.00000000E+00  0.00000000E+00  0.00000000E+00
  0.00000000E+00  0.00000000E+00  0.00000000E+00
  0.00000000E+00  0.00000000E+00  0.00000000E+00
  0.00000000E+00  0.00000000E+00  0.00000000E+00
  0.00000000E+00  0.00000000E+00  0.00000000E+00
  0.00000000E+00  0.00000000E+00  0.00000000E+00
  0.00000000E+00  0.00000000E+00  0.00000000E+00
  0.00000000E+00  0.00000000E+00  0.00000000E+00
  0.00000000E+00  0.00000000E+00  0.00000000E+00
  0.00000000E+00  0.00000000E+00  0.00000000E+00
  0.00000000E+00  0.00000000E+00  0.00000000E+00
  0.00000000E+00  0.00000000E+00  0.00000000E+00
  0.00000000E+00  0.00000000E+00  0.00000000E+00
  0.00000000E+00  0.00000000E+00  0.00000000E+00
  0.00000000E+00  0.00000000E+00  0.00000000E+00
  0.00000000E+00  0.00000000E+00  0.00000000E+00
  0.00000000E+00  0.00000000E+00  0.00000000E+00
  0.00000000E+00  0.00000000E+00  0.00000000E+00
  0.00000000E+00  0.00000000E+00  0.00000000E+00
  0.00000000E+00  0.00000000E+00  0.00000000E+00
  0.00000000E+00  0.00000000E+00  0.00000000E+00
  0.00000000E+00  0.00000000E+00  0.00000000E+00
  0.00000000E+00  0.00000000E+00  0.00000000E+00
  0.00000000E+00  0.00000000E+00  0.00000000E+00
