Ca2 Tl2 Cl10                            
   1.0000000000000000     
     5.6630097007093916   -4.0435198731368729   -0.0898912671989968
     5.6630097007093916    4.0435198731368729   -0.0898912671989968
    -4.1867109958994000    0.0000000000000000    9.2913632722484412
   Ca   Cl   Tl
     2    10     2
Direct
  0.5265239477452184  0.4733024195526454  0.2503254733984406
  0.4733024195526454  0.5265239477452184  0.7503254733984406
  0.2488868553995687  0.6276741851145005  0.0224721894465674
  0.3254859806056700  0.1463898065037839  0.1429468189056706
  0.8774509154583825  0.1228850019921452  0.2504617204365402
  0.8526738925551740  0.6754562284288141  0.3550030824639094
  0.3723308869732733  0.7509382405105001  0.4776878996583562
  0.6276741851145005  0.2488868553995687  0.5224721894465674
  0.1463898065037839  0.3254859806056700  0.6429468189056706
  0.1228850019921452  0.8774509154583825  0.7504617204365402
  0.6754562284288141  0.8526738925551740  0.8550030824639094
  0.7509382405105001  0.3723308869732733  0.9776878996583562
  0.9995476009159177  0.0000540382443930  0.0011028156905155
  0.0000540382443930  0.9995476009159177  0.5011028156905155

  0.00000000E+00  0.00000000E+00  0.00000000E+00
  0.00000000E+00  0.00000000E+00  0.00000000E+00
  0.00000000E+00  0.00000000E+00  0.00000000E+00
  0.00000000E+00  0.00000000E+00  0.00000000E+00
  0.00000000E+00  0.00000000E+00  0.00000000E+00
  0.00000000E+00  0.00000000E+00  0.00000000E+00
  0.00000000E+00  0.00000000E+00  0.00000000E+00
  0.00000000E+00  0.00000000E+00  0.00000000E+00
  0.00000000E+00  0.00000000E+00  0.00000000E+00
  0.00000000E+00  0.00000000E+00  0.00000000E+00
  0.00000000E+00  0.00000000E+00  0.00000000E+00
  0.00000000E+00  0.00000000E+00  0.00000000E+00
  0.00000000E+00  0.00000000E+00  0.00000000E+00
  0.00000000E+00  0.00000000E+00  0.00000000E+00
