Ca2 Al4 I16                             
   1.00000000000000     
     8.0388234709760464    4.5814980464325226    0.8288055972813634
    -8.0388234709760464    4.5814980464325226    0.8288055972813632
     0.0000000000000003    2.8515099914661901   17.3809876773954670
   Ca   Al   I 
     2     4    16
Direct
  0.3245174588049906  0.6754825411950094  0.7500000000000000
  0.6754825411950094  0.3245174588049906  0.2500000000000000
  0.8293026338935832  0.1706973661064168  0.7500000000000000
  0.1706973661064168  0.8293026338935832  0.2500000000000000
  0.5000000000000000  0.0000000000000000  0.5000000000000000
  0.0000000000000000  0.5000000000000000  0.0000000000000000
  0.0103480483969207  0.6665438286934915  0.8587207715433252
  0.9896519516030793  0.3334561713065085  0.1412792284566748
  0.3334561713065085  0.9896519516030793  0.6412792284566748
  0.6665438286934915  0.0103480483969207  0.3587207715433252
  0.3881493473821607  0.8763790179275190  0.1259090858010694
  0.6118506526178393  0.1236209820724810  0.8740909141989306
  0.1236209820724810  0.6118506526178393  0.3740909141989306
  0.8763790179275190  0.3881493473821607  0.6259090858010694
  0.7342548512858045  0.8700190284712406  0.7243232449515915
  0.2657451487142026  0.1299809715287594  0.2756767550484085
  0.1299809715287594  0.2657451487141955  0.7756767550484085
  0.8700190284712406  0.7342548512858045  0.2243232449515915
  0.4494913086077901  0.6944185817251309  0.5635363878799069
  0.5505086913922099  0.3055814182748691  0.4364636121200931
  0.3055814182748691  0.5505086913922099  0.9364636121200931
  0.6944185817251309  0.4494913086077901  0.0635363878799069
 
  0.00000000E+00  0.00000000E+00  0.00000000E+00
  0.00000000E+00  0.00000000E+00  0.00000000E+00
  0.00000000E+00  0.00000000E+00  0.00000000E+00
  0.00000000E+00  0.00000000E+00  0.00000000E+00
  0.00000000E+00  0.00000000E+00  0.00000000E+00
  0.00000000E+00  0.00000000E+00  0.00000000E+00
  0.00000000E+00  0.00000000E+00  0.00000000E+00
  0.00000000E+00  0.00000000E+00  0.00000000E+00
  0.00000000E+00  0.00000000E+00  0.00000000E+00
  0.00000000E+00  0.00000000E+00  0.00000000E+00
  0.00000000E+00  0.00000000E+00  0.00000000E+00
  0.00000000E+00  0.00000000E+00  0.00000000E+00
  0.00000000E+00  0.00000000E+00  0.00000000E+00
  0.00000000E+00  0.00000000E+00  0.00000000E+00
  0.00000000E+00  0.00000000E+00  0.00000000E+00
  0.00000000E+00  0.00000000E+00  0.00000000E+00
  0.00000000E+00  0.00000000E+00  0.00000000E+00
  0.00000000E+00  0.00000000E+00  0.00000000E+00
  0.00000000E+00  0.00000000E+00  0.00000000E+00
  0.00000000E+00  0.00000000E+00  0.00000000E+00
  0.00000000E+00  0.00000000E+00  0.00000000E+00
  0.00000000E+00  0.00000000E+00  0.00000000E+00
