In3F2                                   
   1.00000000000000     
    -6.5319540730002670    0.5195532053327803    0.1057099913810795
     3.7244268672086882   -5.4120130914323843   -0.2798710085970118
    -3.5214014446832982    2.2679898325729431    6.3356182591760435
   F    In
     4     6
Direct
  0.4971799312216945  0.9216977473948589  0.1350273695398272
  0.2515673289261358  0.7515761659995874  0.5033081433113438
  0.7484351877796698  0.2484260020621392  0.4967713741385325
  0.5028213309377350  0.0783023244494316  0.8650518912831870
  0.3498481525859276  0.2434359424272401  0.2668801524327904
  0.7437518871863062  0.8319951894855322  0.2157947343172424
  0.0137968457971809  0.5319196791945018  0.2472550860627720
  0.9862028675544892  0.4680810127784270  0.7528255859079920
  0.2562458226202864  0.1680039371548148  0.7842866310083494
  0.6501506453906103  0.7565619990534529  0.7331990319979624
 
  0.00000000E+00  0.00000000E+00  0.00000000E+00
  0.00000000E+00  0.00000000E+00  0.00000000E+00
  0.00000000E+00  0.00000000E+00  0.00000000E+00
  0.00000000E+00  0.00000000E+00  0.00000000E+00
  0.00000000E+00  0.00000000E+00  0.00000000E+00
  0.00000000E+00  0.00000000E+00  0.00000000E+00
  0.00000000E+00  0.00000000E+00  0.00000000E+00
  0.00000000E+00  0.00000000E+00  0.00000000E+00
  0.00000000E+00  0.00000000E+00  0.00000000E+00
  0.00000000E+00  0.00000000E+00  0.00000000E+00
