Ca2 Al7                                 
   1.00000000000000     
     5.9092579707783068   -0.0001865430438626   -0.0001605968771658
    -2.9552274426816747    5.1172747153081302    0.0001302339589476
    -0.0001255687576364    0.0000386105535842    6.1394395607312351
   Al   Ca
     7     2
Direct
  0.1762681453894288  0.3525681138657362  0.1619625311128843
  0.1762948927004544  0.8236992375046270  0.1619911474315074
  0.6474333547805813  0.8237296679176609  0.1619557928817486
  0.0000000000000000  0.0000000000000000  0.5000000000000000
  0.3525666452194187  0.1762703320823391  0.8380442071182514
  0.8237051072995456  0.1763007624953730  0.8380088525684926
  0.8237318546105712  0.6474318861342638  0.8380374688871157
  0.6666599036576955  0.3333394434641619  0.3725360257066441
  0.3333400963423045  0.6666605565358381  0.6274639742933559
 
  0.00000000E+00  0.00000000E+00  0.00000000E+00
  0.00000000E+00  0.00000000E+00  0.00000000E+00
  0.00000000E+00  0.00000000E+00  0.00000000E+00
  0.00000000E+00  0.00000000E+00  0.00000000E+00
  0.00000000E+00  0.00000000E+00  0.00000000E+00
  0.00000000E+00  0.00000000E+00  0.00000000E+00
  0.00000000E+00  0.00000000E+00  0.00000000E+00
  0.00000000E+00  0.00000000E+00  0.00000000E+00
  0.00000000E+00  0.00000000E+00  0.00000000E+00
