Mg4 Al2 I10                             
   1.00000000000000     
     7.0417218959337928   -5.9822280387448057   -0.5155628844212204
     7.0417218959337928    5.9822280387448057   -0.5155628844212204
    -7.7443692045251078    0.0000000000000000    9.5366037531530043
   I    Mg   Al
    10     4     2
Direct
  0.5348310868353892  0.1564728803962936  0.0873746879689179
  0.1564728803962936  0.5348310868353892  0.0873746879689179
  0.8481077870721734  0.8481077870721734  0.2042139020946294
  0.0063804004088368  0.4904813413624680  0.3752231032177207
  0.4904813413624680  0.0063804004088368  0.3752231032177207
  0.0349275718615516  0.0349275718615516  0.0035922752736681
  0.6235291749555358  0.6235291749555358  0.6858670665490791
  0.6356588496623843  0.2774932080447101  0.8314050011987035
  0.2774932080447101  0.6356588496623843  0.8314050011987035
  0.0368038446263768  0.0368038446263768  0.6390409987941865
  0.8007228496042202  0.2620008416224096  0.0827649405708470
  0.1950402078531184  0.1950402078531184  0.9378637590331067
  0.6193990355830934  0.6193990355830934  0.9000205732761657
  0.2620008416224096  0.8007228496042202  0.0827649405708470
  0.7787785806583543  0.1992723394530884  0.4379329795333859
  0.1992723394530884  0.7787785806583543  0.4379329795333859
 
  0.00000000E+00  0.00000000E+00  0.00000000E+00
  0.00000000E+00  0.00000000E+00  0.00000000E+00
  0.00000000E+00  0.00000000E+00  0.00000000E+00
  0.00000000E+00  0.00000000E+00  0.00000000E+00
  0.00000000E+00  0.00000000E+00  0.00000000E+00
  0.00000000E+00  0.00000000E+00  0.00000000E+00
  0.00000000E+00  0.00000000E+00  0.00000000E+00
  0.00000000E+00  0.00000000E+00  0.00000000E+00
  0.00000000E+00  0.00000000E+00  0.00000000E+00
  0.00000000E+00  0.00000000E+00  0.00000000E+00
  0.00000000E+00  0.00000000E+00  0.00000000E+00
  0.00000000E+00  0.00000000E+00  0.00000000E+00
  0.00000000E+00  0.00000000E+00  0.00000000E+00
  0.00000000E+00  0.00000000E+00  0.00000000E+00
  0.00000000E+00  0.00000000E+00  0.00000000E+00
  0.00000000E+00  0.00000000E+00  0.00000000E+00
