Ba6 B2                                  
   1.00000000000000     
    10.3501548391141220    0.0055849789778525    0.0000000000000000
    -5.1708179108022696    8.9663856171053204    0.0000000000000000
     0.0000000000000000    0.0000000000000000    4.2129987284757737
   B    Ba
     2     6
Direct
  0.3332327680837466  0.6667740824487751  0.7500000000000000
  0.6667672319162534  0.3332259175512249  0.2500000000000000
  0.2142601770186019  0.4288031103896799  0.2500000000000000
  0.5712172949096797  0.7857476239424770  0.2500000000000000
  0.2141591238745448  0.7858418193967296  0.2500000000000000
  0.7857398229813981  0.5711968896103201  0.7500000000000000
  0.4287827050903203  0.2142523760575230  0.7500000000000000
  0.7858408761254552  0.2141581806032704  0.7500000000000000
 
  0.00000000E+00  0.00000000E+00  0.00000000E+00
  0.00000000E+00  0.00000000E+00  0.00000000E+00
  0.00000000E+00  0.00000000E+00  0.00000000E+00
  0.00000000E+00  0.00000000E+00  0.00000000E+00
  0.00000000E+00  0.00000000E+00  0.00000000E+00
  0.00000000E+00  0.00000000E+00  0.00000000E+00
  0.00000000E+00  0.00000000E+00  0.00000000E+00
  0.00000000E+00  0.00000000E+00  0.00000000E+00
