In1                                     
   1.00000000000000     
    -1.6794578527220598    1.6794578527220596    2.4462048602872120
     1.6794578527220596   -1.6794578527220596    2.4462048602872120
     1.6794578527220598    1.6794578527220596   -2.4462048602872120
   In
     1
Direct
  0.0000000000000000  0.0000000000000000  0.0000000000000000
 
  0.00000000E+00  0.00000000E+00  0.00000000E+00
