Be4 In4 F20                             
   1.0000000000000000     
     9.3209307098423206    0.0000000000000000    0.0000000000000000
     0.0000000000000000    5.0177685245245049    0.1276195501668581
     0.0000000000000000    2.4875829297387577    7.3291561961077036
   Be   In   F 
     4     4    20
Direct
  0.0339962845425461  0.5822176682718236  0.2120727177963602
  0.5339962845425461  0.4177823317281764  0.2879272822036398
  0.9660037154574539  0.4177823317281764  0.7879272822036398
  0.4660037154574539  0.5822176682718236  0.7120727177963602
  0.7568309707598786  0.9921690219763732  0.6425031573936764
  0.2568309707598786  0.0078309780236268  0.8574968426063236
  0.2431690292401214  0.0078309780236268  0.3574968426063236
  0.7431690292401214  0.9921690219763732  0.1425031573936764
  0.5949800595973826  0.2317143759505385  0.4791332389396459
  0.0949800595973826  0.7682856240494615  0.0208667610603541
  0.4050199404026174  0.7682856240494615  0.5208667610603541
  0.9050199404026174  0.2317143759505385  0.9791332389396459
  0.8303627718266071  0.9793256973024071  0.3918674084588361
  0.3303627718266071  0.0206743026976000  0.1081325915411639
  0.1696372281733929  0.0206743026976000  0.6081325915411639
  0.6696372281733929  0.9793256973024071  0.8918674084588361
  0.4281831153735567  0.2705076166325426  0.7412523844092789
  0.9281831153735567  0.7294923833674574  0.7587476155907211
  0.5718168846264433  0.7294923833674574  0.2587476155907211
  0.0718168846264433  0.2705076166325426  0.2412523844092789
  0.6318804996638008  0.6178984591714283  0.7016939936975106
  0.1318804996638008  0.3821015408285717  0.7983060063024894
  0.3681195003362063  0.3821015408285717  0.2983060063024894
  0.8681195003361992  0.6178984591714283  0.2016939936975106
  0.3939502308245366  0.6714697210644971  0.8666374329434774
  0.8939502308245366  0.3285302789355029  0.6333625670565226
  0.6060497691754634  0.3285302789355029  0.1333625670565226
  0.1060497691754634  0.6714697210644971  0.3666374329434774

  0.00000000E+00  0.00000000E+00  0.00000000E+00
  0.00000000E+00  0.00000000E+00  0.00000000E+00
  0.00000000E+00  0.00000000E+00  0.00000000E+00
  0.00000000E+00  0.00000000E+00  0.00000000E+00
  0.00000000E+00  0.00000000E+00  0.00000000E+00
  0.00000000E+00  0.00000000E+00  0.00000000E+00
  0.00000000E+00  0.00000000E+00  0.00000000E+00
  0.00000000E+00  0.00000000E+00  0.00000000E+00
  0.00000000E+00  0.00000000E+00  0.00000000E+00
  0.00000000E+00  0.00000000E+00  0.00000000E+00
  0.00000000E+00  0.00000000E+00  0.00000000E+00
  0.00000000E+00  0.00000000E+00  0.00000000E+00
  0.00000000E+00  0.00000000E+00  0.00000000E+00
  0.00000000E+00  0.00000000E+00  0.00000000E+00
  0.00000000E+00  0.00000000E+00  0.00000000E+00
  0.00000000E+00  0.00000000E+00  0.00000000E+00
  0.00000000E+00  0.00000000E+00  0.00000000E+00
  0.00000000E+00  0.00000000E+00  0.00000000E+00
  0.00000000E+00  0.00000000E+00  0.00000000E+00
  0.00000000E+00  0.00000000E+00  0.00000000E+00
  0.00000000E+00  0.00000000E+00  0.00000000E+00
  0.00000000E+00  0.00000000E+00  0.00000000E+00
  0.00000000E+00  0.00000000E+00  0.00000000E+00
  0.00000000E+00  0.00000000E+00  0.00000000E+00
  0.00000000E+00  0.00000000E+00  0.00000000E+00
  0.00000000E+00  0.00000000E+00  0.00000000E+00
  0.00000000E+00  0.00000000E+00  0.00000000E+00
  0.00000000E+00  0.00000000E+00  0.00000000E+00
