Sr2 Tl2 I10                             
   1.00000000000000     
    -6.5222510399711187   -5.2435669629702453    0.7028856140652443
     6.4441617294651516   -5.1507141073278078   -0.8373387516760056
    -5.6834198819012176    0.0842576122733547   11.4437428101574703
   Tl   Sr   I 
     2     2    10
Direct
  0.0038405999920030  0.9809543069419746  0.0549104554151256
  0.0074988808073613  0.0060628912635750  0.5637090776977161
  0.4681951704426552  0.5240199470129028  0.2117627885816447
  0.4974367133769491  0.5258945757239246  0.7088166442544264
  0.8756847883506396  0.6272390166954196  0.0658104070963503
  0.6730501589527265  0.1260654600473430  0.1406808249026099
  0.1731113277040706  0.1826262818056605  0.2362001214102278
  0.0918581518531738  0.7304261647842978  0.3203490857354510
  0.5178943491875998  0.6097101043871760  0.4752739360626350
  0.3620809811032473  0.1139258064293855  0.5637163797079268
  0.8897090897511006  0.3454507042812835  0.6249327340408541
  0.7955530610664496  0.8769645517196594  0.7576443263614507
  0.2533181938576448  0.8713071116372362  0.8061233398186474
  0.3906675335543852  0.4792530772701724  0.9697678789149222
 
  0.00000000E+00  0.00000000E+00  0.00000000E+00
  0.00000000E+00  0.00000000E+00  0.00000000E+00
  0.00000000E+00  0.00000000E+00  0.00000000E+00
  0.00000000E+00  0.00000000E+00  0.00000000E+00
  0.00000000E+00  0.00000000E+00  0.00000000E+00
  0.00000000E+00  0.00000000E+00  0.00000000E+00
  0.00000000E+00  0.00000000E+00  0.00000000E+00
  0.00000000E+00  0.00000000E+00  0.00000000E+00
  0.00000000E+00  0.00000000E+00  0.00000000E+00
  0.00000000E+00  0.00000000E+00  0.00000000E+00
  0.00000000E+00  0.00000000E+00  0.00000000E+00
  0.00000000E+00  0.00000000E+00  0.00000000E+00
  0.00000000E+00  0.00000000E+00  0.00000000E+00
  0.00000000E+00  0.00000000E+00  0.00000000E+00
