Mg40 In4                                
   1.00000000000000     
     0.0000000000000000    8.1600395035216948    8.1600395035216948
     8.1600395035216948    0.0000000000000000    8.1600395035216948
     8.1600395035216948    8.1600395035216948    0.0000000000000000
   Mg   In
    40     4
Direct
  0.6124555625153221  0.6124555625153221  0.8875444374846779
  0.3624555625153221  0.6375444374846779  0.6375444374846779
  0.6375444374846779  0.3624555625153221  0.3624555625153221
  0.3624555625153221  0.3624555625153221  0.6375444374846779
  0.3624555625153221  0.6375444374846779  0.3624555625153221
  0.6375444374846779  0.3624555625153221  0.6375444374846779
  0.8875444374846779  0.6124555625153221  0.8875444374846779
  0.8875444374846779  0.6124555625153221  0.6124555625153221
  0.6124555625153221  0.8875444374846779  0.8875444374846779
  0.6124555625153221  0.8875444374846779  0.6124555625153221
  0.6375444374846779  0.6375444374846779  0.3624555625153221
  0.8875444374846779  0.8875444374846779  0.6124555625153221
  0.8042311462892400  0.0671961769911462  0.3243405304303693
  0.4457688537107600  0.4457688537107600  0.1828038230088538
  0.1828038230088538  0.9256594695696307  0.4457688537107600
  0.4457688537107600  0.9256594695696307  0.4457688537107600
  0.9256594695696307  0.4457688537107600  0.1828038230088538
  0.9256594695696307  0.4457688537107600  0.4457688537107600
  0.1828038230088538  0.4457688537107600  0.4457688537107600
  0.3243405304303693  0.0671961769911462  0.8042311462892400
  0.8042311462892400  0.0671961769911462  0.8042311462892400
  0.0671961769911462  0.8042311462892400  0.3243405304303693
  0.8042311462892400  0.8042311462892400  0.3243405304303693
  0.0671961769911462  0.3243405304303693  0.8042311462892400
  0.3243405304303693  0.8042311462892400  0.0671961769911462
  0.8042311462892400  0.8042311462892400  0.0671961769911462
  0.8042311462892400  0.3243405304303693  0.8042311462892400
  0.1828038230088538  0.4457688537107600  0.9256594695696307
  0.4457688537107600  0.4457688537107600  0.9256594695696307
  0.4457688537107600  0.9256594695696307  0.1828038230088538
  0.4457688537107600  0.1828038230088538  0.9256594695696307
  0.9256594695696307  0.1828038230088538  0.4457688537107600
  0.4457688537107600  0.1828038230088538  0.4457688537107600
  0.3243405304303693  0.8042311462892400  0.8042311462892400
  0.0671961769911462  0.8042311462892400  0.8042311462892400
  0.8042311462892400  0.3243405304303693  0.0671961769911462
  0.1250000000000000  0.1250000000000000  0.1250000000000000
  0.6250000000000000  0.1250000000000000  0.1250000000000000
  0.1250000000000000  0.1250000000000000  0.6250000000000000
  0.1250000000000000  0.6250000000000000  0.1250000000000000
  0.6250000000000000  0.6250000000000000  0.6250000000000000
  0.1250000000000000  0.6250000000000000  0.6250000000000000
  0.6250000000000000  0.6250000000000000  0.1250000000000000
  0.6250000000000000  0.1250000000000000  0.6250000000000000
 
  0.00000000E+00  0.00000000E+00  0.00000000E+00
  0.00000000E+00  0.00000000E+00  0.00000000E+00
  0.00000000E+00  0.00000000E+00  0.00000000E+00
  0.00000000E+00  0.00000000E+00  0.00000000E+00
  0.00000000E+00  0.00000000E+00  0.00000000E+00
  0.00000000E+00  0.00000000E+00  0.00000000E+00
  0.00000000E+00  0.00000000E+00  0.00000000E+00
  0.00000000E+00  0.00000000E+00  0.00000000E+00
  0.00000000E+00  0.00000000E+00  0.00000000E+00
  0.00000000E+00  0.00000000E+00  0.00000000E+00
  0.00000000E+00  0.00000000E+00  0.00000000E+00
  0.00000000E+00  0.00000000E+00  0.00000000E+00
  0.00000000E+00  0.00000000E+00  0.00000000E+00
  0.00000000E+00  0.00000000E+00  0.00000000E+00
  0.00000000E+00  0.00000000E+00  0.00000000E+00
  0.00000000E+00  0.00000000E+00  0.00000000E+00
  0.00000000E+00  0.00000000E+00  0.00000000E+00
  0.00000000E+00  0.00000000E+00  0.00000000E+00
  0.00000000E+00  0.00000000E+00  0.00000000E+00
  0.00000000E+00  0.00000000E+00  0.00000000E+00
  0.00000000E+00  0.00000000E+00  0.00000000E+00
  0.00000000E+00  0.00000000E+00  0.00000000E+00
  0.00000000E+00  0.00000000E+00  0.00000000E+00
  0.00000000E+00  0.00000000E+00  0.00000000E+00
  0.00000000E+00  0.00000000E+00  0.00000000E+00
  0.00000000E+00  0.00000000E+00  0.00000000E+00
  0.00000000E+00  0.00000000E+00  0.00000000E+00
  0.00000000E+00  0.00000000E+00  0.00000000E+00
  0.00000000E+00  0.00000000E+00  0.00000000E+00
  0.00000000E+00  0.00000000E+00  0.00000000E+00
  0.00000000E+00  0.00000000E+00  0.00000000E+00
  0.00000000E+00  0.00000000E+00  0.00000000E+00
  0.00000000E+00  0.00000000E+00  0.00000000E+00
  0.00000000E+00  0.00000000E+00  0.00000000E+00
  0.00000000E+00  0.00000000E+00  0.00000000E+00
  0.00000000E+00  0.00000000E+00  0.00000000E+00
  0.00000000E+00  0.00000000E+00  0.00000000E+00
  0.00000000E+00  0.00000000E+00  0.00000000E+00
  0.00000000E+00  0.00000000E+00  0.00000000E+00
  0.00000000E+00  0.00000000E+00  0.00000000E+00
  0.00000000E+00  0.00000000E+00  0.00000000E+00
  0.00000000E+00  0.00000000E+00  0.00000000E+00
  0.00000000E+00  0.00000000E+00  0.00000000E+00
  0.00000000E+00  0.00000000E+00  0.00000000E+00
