Be1 Ga2 F8                              
   1.00000000000000     
     4.1493216993341022   -2.9039445421271455    0.4766988698058541
     4.1493216993341022    2.9039445421271455    0.4766988698058541
    -0.7559690459060568    0.0000000000000000    4.6219926817360779
   Ga   Be   F 
     2     1     8
Direct
  0.3580231809166037  0.3580231809166037  0.2879603318273070
  0.6419768190834034  0.6419768190834034  0.7120396681726859
  0.0000000000000000  0.0000000000000000  0.0000000000000000
  0.6008670331127490  0.6008670331127490  0.3153268433105509
  0.6753556324592509  0.0896153459737761  0.1625487030170376
  0.0896153459737761  0.6753556324592509  0.1625487030170376
  0.1384872423051391  0.1384872423051391  0.2931818231495740
  0.8615127576948680  0.8615127576948680  0.7068181768504260
  0.9103846540262239  0.3246443675407491  0.8374512969829624
  0.3246443675407491  0.9103846540262239  0.8374512969829624
  0.3991329668872439  0.3991329668872439  0.6846731566894491
 
  0.00000000E+00  0.00000000E+00  0.00000000E+00
  0.00000000E+00  0.00000000E+00  0.00000000E+00
  0.00000000E+00  0.00000000E+00  0.00000000E+00
  0.00000000E+00  0.00000000E+00  0.00000000E+00
  0.00000000E+00  0.00000000E+00  0.00000000E+00
  0.00000000E+00  0.00000000E+00  0.00000000E+00
  0.00000000E+00  0.00000000E+00  0.00000000E+00
  0.00000000E+00  0.00000000E+00  0.00000000E+00
  0.00000000E+00  0.00000000E+00  0.00000000E+00
  0.00000000E+00  0.00000000E+00  0.00000000E+00
  0.00000000E+00  0.00000000E+00  0.00000000E+00
