Mg4 Tl2 I10                             
   1.0000000000000000     
     8.0393491931600156   -0.0286447255966101    0.6817481084867031
    -0.0077527391673283   11.2644374666538507   -0.6596160927472026
     4.6684152823664125    5.2602508905590506    8.4525576219954193
   I    Mg   Tl
    10     4     2
Direct
  0.1169622645023125  0.0727772103173265  0.9433743974837796
  0.5593806057777471  0.4413666850182381  0.0358067766730557
  0.5436446230697740  0.0388938106078953  0.2867693938422349
  0.0292657414455917  0.1535447745839207  0.3093924460008282
  0.7146914453679400  0.6358047288307347  0.2331988295731762
  0.2197691507503450  0.7019867203763539  0.2246527178515763
  0.6919333628212314  0.2382813916647422  0.7957734549108935
  0.1643355053898077  0.4561258394669849  0.8391052162162040
  0.0047035339138759  0.8526771181324833  0.7558635522197932
  0.5019369416248765  0.8289523817410824  0.7620108294036783
  0.3265619378517854  0.2735633331987160  0.9865287929650677
  0.8286861306185358  0.2481756456399467  0.9823203937968756
  0.1078580332840033  0.7968987670443894  0.9906636088394620
  0.6024780502684237  0.7119546030087065  0.0004562581491570
  0.2687231543088799  0.2011873999643541  0.4657511026532504
  0.8187695190048316  0.8475095904041012  0.3883322294209393

  0.00000000E+00  0.00000000E+00  0.00000000E+00
  0.00000000E+00  0.00000000E+00  0.00000000E+00
  0.00000000E+00  0.00000000E+00  0.00000000E+00
  0.00000000E+00  0.00000000E+00  0.00000000E+00
  0.00000000E+00  0.00000000E+00  0.00000000E+00
  0.00000000E+00  0.00000000E+00  0.00000000E+00
  0.00000000E+00  0.00000000E+00  0.00000000E+00
  0.00000000E+00  0.00000000E+00  0.00000000E+00
  0.00000000E+00  0.00000000E+00  0.00000000E+00
  0.00000000E+00  0.00000000E+00  0.00000000E+00
  0.00000000E+00  0.00000000E+00  0.00000000E+00
  0.00000000E+00  0.00000000E+00  0.00000000E+00
  0.00000000E+00  0.00000000E+00  0.00000000E+00
  0.00000000E+00  0.00000000E+00  0.00000000E+00
  0.00000000E+00  0.00000000E+00  0.00000000E+00
  0.00000000E+00  0.00000000E+00  0.00000000E+00
