Al28 I36                                
   1.00000000000000     
    13.1080709457225577    0.0004478913155045    0.0004480238471168
     0.0004480238471168   13.1080709457225595    0.0004478913155045
     0.0004478913155045    0.0004480238471168   13.1080709457225595
   I    Al
    36    28
Direct
  0.9999229510299372  0.9999229510299372  0.9999229510299372
  0.5000306717406957  0.5000334502403518  0.0000421745277634
  0.4517381867335857  0.2025780582000252  0.0429658202098295
  0.0482384386146890  0.7026129059700281  0.0431512570953032
  0.7026129059700281  0.0431512570953032  0.0482384386146890
  0.7973443079637690  0.5432848103041579  0.0482812652826112
  0.1743458987619277  0.1743458987619277  0.1743458987619277
  0.3257269258230835  0.6751048082811550  0.1743148693725729
  0.0429658202098295  0.4517381867335857  0.2025780582000252
  0.4569230203668226  0.9519670885414797  0.2026008440461240
  0.5432304423624288  0.4515925321945318  0.2975383150975262
  0.9568607563997986  0.9515320334716364  0.2976201938422633
  0.6751048082811550  0.1743148693725729  0.3257269258230835
  0.8249752177568936  0.6743097592493541  0.3257187571567570
  0.2025780582000252  0.0429658202098295  0.4517381867335857
  0.2975383150975262  0.5432304423624288  0.4515925321945318
  0.9519670885414797  0.2026008440461240  0.4569230203668226
  0.5482388390084338  0.7025819462378280  0.4569076358260986
  0.5000334502403518  0.0000421745277634  0.5000306717406957
  0.0000421745277634  0.5000306717406957  0.5000334502403518
  0.4515925321945318  0.2975383150975262  0.5432304423624288
  0.0482812652826112  0.7973443079637690  0.5432848103041579
  0.7025819462378280  0.4569076358260986  0.5482388390084338
  0.7975460888615160  0.9569121270558654  0.5484563517303158
  0.1743148693725729  0.3257269258230835  0.6751048082811550
  0.3257187571567570  0.8249752177568936  0.6743097592493541
  0.0431512570953032  0.0482384386146890  0.7026129059700281
  0.4569076358260986  0.5482388390084338  0.7025819462378280
  0.5432848103041579  0.0482812652826112  0.7973443079637690
  0.9569121270558654  0.5484563517303158  0.7975460888615160
  0.6743097592493541  0.3257187571567570  0.8249752177568936
  0.8254295746445592  0.8254295746445592  0.8254295746445592
  0.2026008440461240  0.4569230203668226  0.9519670885414797
  0.2976201938422633  0.9568607563997986  0.9515320334716364
  0.9515320334716364  0.2976201938422633  0.9568607563997986
  0.5484563517303158  0.7975460888615160  0.9569121270558654
  0.5000920067083996  0.0001292490625957  0.0000454650544555
  0.0000454650544555  0.5000920067083996  0.0001292490625957
  0.6644870781384782  0.3146279804528973  0.0559990262488483
  0.8352866168834652  0.8145564445747695  0.0566094172083638
  0.3141950042397212  0.4440426216287179  0.1648325317550317
  0.1857082039582636  0.9431520744276725  0.1642211403760641
  0.9431520744276725  0.1642211403760641  0.1857082039582636
  0.5570006338514446  0.6642478430569554  0.1856561418722436
  0.4440426216287179  0.1648325317550317  0.3141950042397212
  0.0559990262488483  0.6644870781384782  0.3146279804528973
  0.8142646586884865  0.4429895103039101  0.3357213914068993
  0.6857483993175890  0.9430415067757778  0.3358159987096840
  0.1648325317550317  0.3141950042397212  0.4440426216287179
  0.3357213914068993  0.8142646586884865  0.4429895103039101
  0.0001292490625957  0.0000454650544555  0.5000920067083996
  0.5000575238417184  0.5000575238417184  0.5000575238417184
  0.6642478430569554  0.1856561418722436  0.5570006338514446
  0.8357100222255269  0.6856853931622524  0.5570177920680663
  0.3146279804528973  0.0559990262488483  0.6644870781384782
  0.1856561418722436  0.5570006338514446  0.6642478430569554
  0.9430415067757778  0.3358159987096840  0.6857483993175890
  0.5570177920680663  0.8357100222255269  0.6856853931622524
  0.4429895103039101  0.3357213914068993  0.8142646586884865
  0.0566094172083638  0.8352866168834652  0.8145564445747695
  0.8145564445747695  0.0566094172083638  0.8352866168834652
  0.6856853931622524  0.5570177920680663  0.8357100222255269
  0.1642211403760641  0.1857082039582636  0.9431520744276725
  0.3358159987096840  0.6857483993175890  0.9430415067757778
 
  0.00000000E+00  0.00000000E+00  0.00000000E+00
  0.00000000E+00  0.00000000E+00  0.00000000E+00
  0.00000000E+00  0.00000000E+00  0.00000000E+00
  0.00000000E+00  0.00000000E+00  0.00000000E+00
  0.00000000E+00  0.00000000E+00  0.00000000E+00
  0.00000000E+00  0.00000000E+00  0.00000000E+00
  0.00000000E+00  0.00000000E+00  0.00000000E+00
  0.00000000E+00  0.00000000E+00  0.00000000E+00
  0.00000000E+00  0.00000000E+00  0.00000000E+00
  0.00000000E+00  0.00000000E+00  0.00000000E+00
  0.00000000E+00  0.00000000E+00  0.00000000E+00
  0.00000000E+00  0.00000000E+00  0.00000000E+00
  0.00000000E+00  0.00000000E+00  0.00000000E+00
  0.00000000E+00  0.00000000E+00  0.00000000E+00
  0.00000000E+00  0.00000000E+00  0.00000000E+00
  0.00000000E+00  0.00000000E+00  0.00000000E+00
  0.00000000E+00  0.00000000E+00  0.00000000E+00
  0.00000000E+00  0.00000000E+00  0.00000000E+00
  0.00000000E+00  0.00000000E+00  0.00000000E+00
  0.00000000E+00  0.00000000E+00  0.00000000E+00
  0.00000000E+00  0.00000000E+00  0.00000000E+00
  0.00000000E+00  0.00000000E+00  0.00000000E+00
  0.00000000E+00  0.00000000E+00  0.00000000E+00
  0.00000000E+00  0.00000000E+00  0.00000000E+00
  0.00000000E+00  0.00000000E+00  0.00000000E+00
  0.00000000E+00  0.00000000E+00  0.00000000E+00
  0.00000000E+00  0.00000000E+00  0.00000000E+00
  0.00000000E+00  0.00000000E+00  0.00000000E+00
  0.00000000E+00  0.00000000E+00  0.00000000E+00
  0.00000000E+00  0.00000000E+00  0.00000000E+00
  0.00000000E+00  0.00000000E+00  0.00000000E+00
  0.00000000E+00  0.00000000E+00  0.00000000E+00
  0.00000000E+00  0.00000000E+00  0.00000000E+00
  0.00000000E+00  0.00000000E+00  0.00000000E+00
  0.00000000E+00  0.00000000E+00  0.00000000E+00
  0.00000000E+00  0.00000000E+00  0.00000000E+00
  0.00000000E+00  0.00000000E+00  0.00000000E+00
  0.00000000E+00  0.00000000E+00  0.00000000E+00
  0.00000000E+00  0.00000000E+00  0.00000000E+00
  0.00000000E+00  0.00000000E+00  0.00000000E+00
  0.00000000E+00  0.00000000E+00  0.00000000E+00
  0.00000000E+00  0.00000000E+00  0.00000000E+00
  0.00000000E+00  0.00000000E+00  0.00000000E+00
  0.00000000E+00  0.00000000E+00  0.00000000E+00
  0.00000000E+00  0.00000000E+00  0.00000000E+00
  0.00000000E+00  0.00000000E+00  0.00000000E+00
  0.00000000E+00  0.00000000E+00  0.00000000E+00
  0.00000000E+00  0.00000000E+00  0.00000000E+00
  0.00000000E+00  0.00000000E+00  0.00000000E+00
  0.00000000E+00  0.00000000E+00  0.00000000E+00
  0.00000000E+00  0.00000000E+00  0.00000000E+00
  0.00000000E+00  0.00000000E+00  0.00000000E+00
  0.00000000E+00  0.00000000E+00  0.00000000E+00
  0.00000000E+00  0.00000000E+00  0.00000000E+00
  0.00000000E+00  0.00000000E+00  0.00000000E+00
  0.00000000E+00  0.00000000E+00  0.00000000E+00
  0.00000000E+00  0.00000000E+00  0.00000000E+00
  0.00000000E+00  0.00000000E+00  0.00000000E+00
  0.00000000E+00  0.00000000E+00  0.00000000E+00
  0.00000000E+00  0.00000000E+00  0.00000000E+00
  0.00000000E+00  0.00000000E+00  0.00000000E+00
  0.00000000E+00  0.00000000E+00  0.00000000E+00
  0.00000000E+00  0.00000000E+00  0.00000000E+00
  0.00000000E+00  0.00000000E+00  0.00000000E+00
