Sr13 Tl14                               
   1.0000000000000000     
     6.2534434705479844    6.2534434705479844    6.2542274267903508
     6.2534434705479844   -6.2542274267903508   -6.2534434705479844
    -6.2542274267903508    6.2534434705479844   -6.2534434705479844
   Tl   Sr
    14    13
Direct
  0.3252671565495930  0.9993419245977648  0.9993419245977648
  0.6747328434504070  0.0006580754022352  0.0006580754022352
  0.3458643921392266  0.3458643921392266  0.0002761344420108
  0.9993419245977648  0.3252671565495930  0.9993419245977648
  0.0006580754022352  0.6747328434504070  0.0006580754022352
  0.6541356078607734  0.6541356078607734  0.9997238655579892
  0.3458643921392266  0.0002761344420108  0.3458643921392266
  0.0002761344420108  0.3458643921392266  0.3458643921392266
  0.9993419245977648  0.9993419245977648  0.3252671565495930
  0.3258568084674209  0.3258568084674209  0.3258568084674209
  0.0006580754022352  0.0006580754022352  0.6747328434504070
  0.6741431915325862  0.6741431915325862  0.6741431915325862
  0.6541356078607734  0.9997238655579892  0.6541356078607734
  0.9997238655579892  0.6541356078607734  0.6541356078607734
  0.0000000000000000  0.0000000000000000  0.0000000000000000
  0.6851492061242084  0.3148507938757916  0.0000000000000000
  0.3148507938757916  0.6851492061242084  0.0000000000000000
  0.6860206674970541  0.6860206674970541  0.3718149791890895
  0.6851492061242084  0.0000000000000000  0.3148507938757916
  0.0000000000000000  0.6851492061242084  0.3148507938757916
  0.6281850208109105  0.3139793325029459  0.3139793325029459
  0.3139793325029459  0.6281850208109105  0.3139793325029459
  0.3148507938757916  0.0000000000000000  0.6851492061242084
  0.6860206674970541  0.3718149791890895  0.6860206674970541
  0.0000000000000000  0.3148507938757916  0.6851492061242084
  0.3718149791890895  0.6860206674970541  0.6860206674970541
  0.3139793325029459  0.3139793325029459  0.6281850208109105

  0.00000000E+00  0.00000000E+00  0.00000000E+00
  0.00000000E+00  0.00000000E+00  0.00000000E+00
  0.00000000E+00  0.00000000E+00  0.00000000E+00
  0.00000000E+00  0.00000000E+00  0.00000000E+00
  0.00000000E+00  0.00000000E+00  0.00000000E+00
  0.00000000E+00  0.00000000E+00  0.00000000E+00
  0.00000000E+00  0.00000000E+00  0.00000000E+00
  0.00000000E+00  0.00000000E+00  0.00000000E+00
  0.00000000E+00  0.00000000E+00  0.00000000E+00
  0.00000000E+00  0.00000000E+00  0.00000000E+00
  0.00000000E+00  0.00000000E+00  0.00000000E+00
  0.00000000E+00  0.00000000E+00  0.00000000E+00
  0.00000000E+00  0.00000000E+00  0.00000000E+00
  0.00000000E+00  0.00000000E+00  0.00000000E+00
  0.00000000E+00  0.00000000E+00  0.00000000E+00
  0.00000000E+00  0.00000000E+00  0.00000000E+00
  0.00000000E+00  0.00000000E+00  0.00000000E+00
  0.00000000E+00  0.00000000E+00  0.00000000E+00
  0.00000000E+00  0.00000000E+00  0.00000000E+00
  0.00000000E+00  0.00000000E+00  0.00000000E+00
  0.00000000E+00  0.00000000E+00  0.00000000E+00
  0.00000000E+00  0.00000000E+00  0.00000000E+00
  0.00000000E+00  0.00000000E+00  0.00000000E+00
  0.00000000E+00  0.00000000E+00  0.00000000E+00
  0.00000000E+00  0.00000000E+00  0.00000000E+00
  0.00000000E+00  0.00000000E+00  0.00000000E+00
  0.00000000E+00  0.00000000E+00  0.00000000E+00
