Be1 Tl2 Cl10                            
   1.0000000000000000     
     4.8385372649219818    5.1221129927151310    0.3583403708204241
    -4.8385372649219818    5.1221129927151310    0.3583403708204241
     0.0000000000000000    4.1969462379334832    8.7362254876976593
   Be   Tl   Cl
     1     2    10
Direct
  0.3668687538833026  0.6331312461166974  0.0000000000000000
  0.9631286522502975  0.9520844757572036  0.7661223489828686
  0.0479155242427964  0.0368713477497025  0.2338776510171314
  0.3732975632604578  0.4069980893750653  0.5370614927365054
  0.5930019106249347  0.6267024367395422  0.4629385072634946
  0.6862100183598656  0.6493500602658102  0.9401073296008704
  0.3506499397341898  0.3137899816401344  0.0598926703991296
  0.9197052926773281  0.0802947073226719  0.0000000000000000
  0.1306412949501166  0.8693587050498834  0.5000000000000000
  0.8749852668894675  0.2858732177882359  0.6309099866774091
  0.7141267822117641  0.1250147331105325  0.3690900133225909
  0.3031924381807087  0.7797244372652656  0.8034323083552124
  0.2202755627347344  0.6968075618192913  0.1965676916447876

  0.00000000E+00  0.00000000E+00  0.00000000E+00
  0.00000000E+00  0.00000000E+00  0.00000000E+00
  0.00000000E+00  0.00000000E+00  0.00000000E+00
  0.00000000E+00  0.00000000E+00  0.00000000E+00
  0.00000000E+00  0.00000000E+00  0.00000000E+00
  0.00000000E+00  0.00000000E+00  0.00000000E+00
  0.00000000E+00  0.00000000E+00  0.00000000E+00
  0.00000000E+00  0.00000000E+00  0.00000000E+00
  0.00000000E+00  0.00000000E+00  0.00000000E+00
  0.00000000E+00  0.00000000E+00  0.00000000E+00
  0.00000000E+00  0.00000000E+00  0.00000000E+00
  0.00000000E+00  0.00000000E+00  0.00000000E+00
  0.00000000E+00  0.00000000E+00  0.00000000E+00
