Mg4 Tl8 Cl32                            
   1.00000000000000     
    -6.2203266286805077    6.2203266286805077   10.7078082293898440
     6.2203266286805077   -6.2203266286805077   10.7078082293898440
     6.2203266286805077    6.2203266286805077  -10.7078082293898440
   Mg   Tl   Cl
     4     8    32
Direct
  0.0000000000000000  0.0000000000000000  0.0000000000000000
  0.7500000000000000  0.2500000000000000  0.5000000000000000
  0.2500000000000000  0.7500000000000000  0.5000000000000000
  0.5000000000000000  0.5000000000000000  0.0000000000000000
  0.5505704982448094  0.8750000000000000  0.1755704982448094
  0.1250000000000000  0.8005704982448094  0.1755704982448094
  0.1250000000000000  0.3005704982448094  0.6755704982448094
  0.6994295017551906  0.3750000000000000  0.8244295017551906
  0.6250000000000000  0.9494295017551906  0.8244295017551906
  0.0505704982448094  0.8750000000000000  0.6755704982448094
  0.1994295017551906  0.3750000000000000  0.3244295017551906
  0.6250000000000000  0.4494295017551906  0.3244295017551906
  0.6270290910000256  0.2342430138061431  0.2727233754502052
  0.1043057155498133  0.8770290910000256  0.8927860771938825
  0.7884803616440692  0.8956942844501867  0.7727233754502052
  0.3104117352388087  0.2476290277711399  0.2334217253940167
  0.8104117352388087  0.5769900098447849  0.0627837074676734
  0.8269900098447849  0.5604117352388087  0.5627837074676734
  0.1229709089999744  0.0157569861938569  0.2272766245497948
  0.9842430138061431  0.2115196383559308  0.1072139228061175
  0.4615196383559308  0.7342430138061431  0.6072139228061175
  0.2523709722288601  0.1895882647611913  0.7665782746059762
  0.0142063023771044  0.0769900098447849  0.7665782746059762
  0.9395882647611913  0.6730099901552151  0.4372162925323266
  0.9230099901552151  0.6895882647611913  0.9372162925323266
  0.1456942844501867  0.5384803616440692  0.2727233754502052
  0.2884803616440692  0.5157569861938569  0.8927860771938825
  0.6043057155498133  0.7115196383559308  0.2272766245497948
  0.7357936976228956  0.1730099901552151  0.7334217253940238
  0.2657569861938569  0.8729709089999744  0.7272766245497948
  0.4842430138061431  0.3770290910000256  0.7727233754502052
  0.9615196383559308  0.3543057155498133  0.7272766245497948
  0.3269900098447849  0.7642063023771044  0.2665782746059833
  0.4230099901552151  0.4857936976228956  0.2334217253940238
  0.6456942844501867  0.3729709089999744  0.6072139228061175
  0.6229709089999744  0.3956942844501867  0.1072139228061175
  0.2357936976228956  0.5023709722288601  0.5627837074676734
  0.4395882647611913  0.0023709722288601  0.2665782746059762
  0.1270290910000256  0.8543057155498133  0.3927860771938825
  0.4976290277711399  0.0604117352388087  0.7334217253940238
  0.5142063023771044  0.7476290277711399  0.9372162925323266
  0.9976290277711399  0.2642063023771044  0.4372162925323266
  0.7657569861938569  0.0384803616440692  0.3927860771938825
  0.7523709722288601  0.9857936976228956  0.0627837074676734
 
  0.00000000E+00  0.00000000E+00  0.00000000E+00
  0.00000000E+00  0.00000000E+00  0.00000000E+00
  0.00000000E+00  0.00000000E+00  0.00000000E+00
  0.00000000E+00  0.00000000E+00  0.00000000E+00
  0.00000000E+00  0.00000000E+00  0.00000000E+00
  0.00000000E+00  0.00000000E+00  0.00000000E+00
  0.00000000E+00  0.00000000E+00  0.00000000E+00
  0.00000000E+00  0.00000000E+00  0.00000000E+00
  0.00000000E+00  0.00000000E+00  0.00000000E+00
  0.00000000E+00  0.00000000E+00  0.00000000E+00
  0.00000000E+00  0.00000000E+00  0.00000000E+00
  0.00000000E+00  0.00000000E+00  0.00000000E+00
  0.00000000E+00  0.00000000E+00  0.00000000E+00
  0.00000000E+00  0.00000000E+00  0.00000000E+00
  0.00000000E+00  0.00000000E+00  0.00000000E+00
  0.00000000E+00  0.00000000E+00  0.00000000E+00
  0.00000000E+00  0.00000000E+00  0.00000000E+00
  0.00000000E+00  0.00000000E+00  0.00000000E+00
  0.00000000E+00  0.00000000E+00  0.00000000E+00
  0.00000000E+00  0.00000000E+00  0.00000000E+00
  0.00000000E+00  0.00000000E+00  0.00000000E+00
  0.00000000E+00  0.00000000E+00  0.00000000E+00
  0.00000000E+00  0.00000000E+00  0.00000000E+00
  0.00000000E+00  0.00000000E+00  0.00000000E+00
  0.00000000E+00  0.00000000E+00  0.00000000E+00
  0.00000000E+00  0.00000000E+00  0.00000000E+00
  0.00000000E+00  0.00000000E+00  0.00000000E+00
  0.00000000E+00  0.00000000E+00  0.00000000E+00
  0.00000000E+00  0.00000000E+00  0.00000000E+00
  0.00000000E+00  0.00000000E+00  0.00000000E+00
  0.00000000E+00  0.00000000E+00  0.00000000E+00
  0.00000000E+00  0.00000000E+00  0.00000000E+00
  0.00000000E+00  0.00000000E+00  0.00000000E+00
  0.00000000E+00  0.00000000E+00  0.00000000E+00
  0.00000000E+00  0.00000000E+00  0.00000000E+00
  0.00000000E+00  0.00000000E+00  0.00000000E+00
  0.00000000E+00  0.00000000E+00  0.00000000E+00
  0.00000000E+00  0.00000000E+00  0.00000000E+00
  0.00000000E+00  0.00000000E+00  0.00000000E+00
  0.00000000E+00  0.00000000E+00  0.00000000E+00
  0.00000000E+00  0.00000000E+00  0.00000000E+00
  0.00000000E+00  0.00000000E+00  0.00000000E+00
  0.00000000E+00  0.00000000E+00  0.00000000E+00
  0.00000000E+00  0.00000000E+00  0.00000000E+00
