Ba13 Al16                               
   1.00000000000000     
    -6.3370119676408816   -6.3370119676408816    6.3370119676408816
    -6.3370119676408816    6.3370119676408816   -6.3370119676408816
     6.3370119676408816   -6.3370119676408816   -6.3370119676408816
   Al   Ba
    16    13
Direct
  0.7242937855893032  0.0000000000000000  0.0000000000000000
  0.3170802736644021  0.1568123278520233  0.0000000000000000
  0.1568123278520233  0.3170802736644021  0.0000000000000000
  0.0000000000000000  0.7242937855893032  0.0000000000000000
  0.8431876721479767  0.8431876721479767  0.1602679458123788
  0.3170802736644021  0.0000000000000000  0.1568123278520233
  0.0000000000000000  0.3170802736644021  0.1568123278520233
  0.2757062144106968  0.2757062144106968  0.2757062144106968
  0.1568123278520233  0.0000000000000000  0.3170802736644021
  0.0000000000000000  0.1568123278520233  0.3170802736644021
  0.8397320541876212  0.6829197263355979  0.6829197263355979
  0.6829197263355979  0.8397320541876212  0.6829197263355979
  0.0000000000000000  0.0000000000000000  0.7242937855893032
  0.8431876721479767  0.1602679458123788  0.8431876721479767
  0.1602679458123788  0.8431876721479767  0.8431876721479767
  0.6829197263355979  0.6829197263355979  0.8397320541876212
  0.0000000000000000  0.0000000000000000  0.0000000000000000
  0.7477300687972530  0.4567214084701874  0.0000000000000000
  0.4567214084701874  0.7477300687972530  0.0000000000000000
  0.5432785915298126  0.5432785915298126  0.2910086603270585
  0.7089913396729415  0.2522699312027470  0.2522699312027470
  0.2522699312027470  0.7089913396729415  0.2522699312027470
  0.7477300687972530  0.0000000000000000  0.4567214084701874
  0.0000000000000000  0.7477300687972530  0.4567214084701874
  0.5432785915298126  0.2910086603270585  0.5432785915298126
  0.2910086603270585  0.5432785915298126  0.5432785915298126
  0.4567214084701874  0.0000000000000000  0.7477300687972530
  0.0000000000000000  0.4567214084701874  0.7477300687972530
  0.2522699312027470  0.2522699312027470  0.7089913396729415
 
  0.00000000E+00  0.00000000E+00  0.00000000E+00
  0.00000000E+00  0.00000000E+00  0.00000000E+00
  0.00000000E+00  0.00000000E+00  0.00000000E+00
  0.00000000E+00  0.00000000E+00  0.00000000E+00
  0.00000000E+00  0.00000000E+00  0.00000000E+00
  0.00000000E+00  0.00000000E+00  0.00000000E+00
  0.00000000E+00  0.00000000E+00  0.00000000E+00
  0.00000000E+00  0.00000000E+00  0.00000000E+00
  0.00000000E+00  0.00000000E+00  0.00000000E+00
  0.00000000E+00  0.00000000E+00  0.00000000E+00
  0.00000000E+00  0.00000000E+00  0.00000000E+00
  0.00000000E+00  0.00000000E+00  0.00000000E+00
  0.00000000E+00  0.00000000E+00  0.00000000E+00
  0.00000000E+00  0.00000000E+00  0.00000000E+00
  0.00000000E+00  0.00000000E+00  0.00000000E+00
  0.00000000E+00  0.00000000E+00  0.00000000E+00
  0.00000000E+00  0.00000000E+00  0.00000000E+00
  0.00000000E+00  0.00000000E+00  0.00000000E+00
  0.00000000E+00  0.00000000E+00  0.00000000E+00
  0.00000000E+00  0.00000000E+00  0.00000000E+00
  0.00000000E+00  0.00000000E+00  0.00000000E+00
  0.00000000E+00  0.00000000E+00  0.00000000E+00
  0.00000000E+00  0.00000000E+00  0.00000000E+00
  0.00000000E+00  0.00000000E+00  0.00000000E+00
  0.00000000E+00  0.00000000E+00  0.00000000E+00
  0.00000000E+00  0.00000000E+00  0.00000000E+00
  0.00000000E+00  0.00000000E+00  0.00000000E+00
  0.00000000E+00  0.00000000E+00  0.00000000E+00
  0.00000000E+00  0.00000000E+00  0.00000000E+00
