Mg1 In6                                 
   1.00000000000000     
    23.0300790336747667    0.0000000000000000    0.0000000000000000
     0.0000000000000000   23.0300790336747632    0.0000000000000000
     0.0000000000000000    0.0000000000000000   23.0300790336747703
   In   Mg
     6     1
Direct
  0.0959000916527089  0.0000000000000000  0.0000000000000000
  0.9040999083472911  0.0000000000000000  0.0000000000000000
  0.0000000000000000  0.0959000916527089  0.0000000000000000
  0.0000000000000000  0.9040999083472911  0.0000000000000000
  0.0000000000000000  0.0000000000000000  0.0959000916527089
  0.0000000000000000  0.0000000000000000  0.9040999083472911
  0.5000000000000000  0.5000000000000000  0.5000000000000000
 
  0.00000000E+00  0.00000000E+00  0.00000000E+00
  0.00000000E+00  0.00000000E+00  0.00000000E+00
  0.00000000E+00  0.00000000E+00  0.00000000E+00
  0.00000000E+00  0.00000000E+00  0.00000000E+00
  0.00000000E+00  0.00000000E+00  0.00000000E+00
  0.00000000E+00  0.00000000E+00  0.00000000E+00
  0.00000000E+00  0.00000000E+00  0.00000000E+00
