Ba2Br                                   
   1.00000000000000     
     8.0139809227860344    0.0000000000000000    0.0000000000000000
     0.0000000000000000    8.0139809227860344    0.0000000000000000
     0.0000000000000000    0.0000000000000000    4.7692617163721778
   Ba   Br
     4     2
Direct
  0.2878697096634255  0.2878697096634255  0.0000000000000000
  0.7121302903365745  0.7121302903365745  0.0000000000000000
  0.7878697096634255  0.2121302903365745  0.5000000000000000
  0.2121302903365745  0.7878697096634255  0.5000000000000000
  0.0000000000000000  0.0000000000000000  0.0000000000000000
  0.5000000000000000  0.5000000000000000  0.5000000000000000
 
  0.00000000E+00  0.00000000E+00  0.00000000E+00
  0.00000000E+00  0.00000000E+00  0.00000000E+00
  0.00000000E+00  0.00000000E+00  0.00000000E+00
  0.00000000E+00  0.00000000E+00  0.00000000E+00
  0.00000000E+00  0.00000000E+00  0.00000000E+00
  0.00000000E+00  0.00000000E+00  0.00000000E+00
