Ca28 Al11                               
   1.00000000000000     
     5.3893493271215140    0.0000000106755335   -0.4659677191433608
    -0.0800339705751901    7.5455520047071900   -0.9256654485549227
    -0.0220577347057466   -0.0095270271592023   31.1442796098493204
   Ca   Al
    28    11
Direct
  0.8234530585539801  0.6584166864082661  0.6469061171056367
  0.2371383813295580  0.9824436900248870  0.4742777626599661
  0.2247772359984950  0.4385901585375507  0.4495544719964428
  0.8631944901531980  0.0697704733061499  0.7263889803059627
  0.1368055098471856  0.3433814930004928  0.2736110196939805
  0.5954143419530240  0.2517597818768067  0.1908296839069834
  0.3536246898376731  0.3791021508911854  0.7072493796774637
  0.2937666656180866  0.3601685399472672  0.5875333312372391
  0.7628616186696533  0.5081659273649706  0.5257222373401120
  0.9559406810981415  0.5806099665607292  0.9118813621966240
  0.7752227640019740  0.9890356865415555  0.5504455280034719
  0.5837568127478150  0.7171997447839118  0.1675136254946139
  0.7062333343809328  0.7726352087094241  0.4124666687628533
  0.6820763914202104  0.3308932443154546  0.3641517828409917
  0.9409668073410984  0.0204498766388923  0.8819336146818131
  0.3179236085792709  0.9667414614745979  0.6358482171591291
  0.1175165365086031  0.8871543614596149  0.2350340730170259
  0.0590331926592853  0.1385162619566174  0.1180663853181940
  0.5000000000002771  0.6871680704317740  0.9999999999999432
  0.9999999999988560  0.9990825870362343  0.0000000000000568
  0.0440593189015672  0.6687286043637855  0.0881186378034400
  0.4698040173801417  0.2631908035007910  0.9396080347585212
  0.5301959826216134  0.3235827687414599  0.0603909652413606
  0.1765469414483150  0.0115105693019970  0.3530938828942496
  0.6463753101602094  0.6718527712145672  0.2927506203226500
  0.8824834634915959  0.6521202884418855  0.7649659269829385
  0.4045856580461447  0.0609310979693589  0.8091703160931303
  0.4162431872531087  0.5496861192895466  0.8324863745052653
  0.0908800582214795  0.4976182220053147  0.1817601164433214
  0.0000000000000071  0.4127167757622558  0.0000000000000426
  0.2730811111928162  0.7242436584668184  0.5461622223847513
  0.3610919864169588  0.7958640740081648  0.7221839728334984
  0.6389080135835101  0.0736801011742045  0.2778160271665442
  0.9091199417781510  0.3158581055621212  0.8182398835566786
  0.7269188888080365  0.1780814360823726  0.4538377776151989
  0.1802048045896569  0.6024107852914256  0.3604096091794560
  0.5437578720547549  0.9366250077783604  0.0875147441103081
  0.4562421279444635  0.8491102636675123  0.9124852558896919
  0.8197951954101725  0.2420011761116712  0.6395903908204517
 
  0.00000000E+00  0.00000000E+00  0.00000000E+00
  0.00000000E+00  0.00000000E+00  0.00000000E+00
  0.00000000E+00  0.00000000E+00  0.00000000E+00
  0.00000000E+00  0.00000000E+00  0.00000000E+00
  0.00000000E+00  0.00000000E+00  0.00000000E+00
  0.00000000E+00  0.00000000E+00  0.00000000E+00
  0.00000000E+00  0.00000000E+00  0.00000000E+00
  0.00000000E+00  0.00000000E+00  0.00000000E+00
  0.00000000E+00  0.00000000E+00  0.00000000E+00
  0.00000000E+00  0.00000000E+00  0.00000000E+00
  0.00000000E+00  0.00000000E+00  0.00000000E+00
  0.00000000E+00  0.00000000E+00  0.00000000E+00
  0.00000000E+00  0.00000000E+00  0.00000000E+00
  0.00000000E+00  0.00000000E+00  0.00000000E+00
  0.00000000E+00  0.00000000E+00  0.00000000E+00
  0.00000000E+00  0.00000000E+00  0.00000000E+00
  0.00000000E+00  0.00000000E+00  0.00000000E+00
  0.00000000E+00  0.00000000E+00  0.00000000E+00
  0.00000000E+00  0.00000000E+00  0.00000000E+00
  0.00000000E+00  0.00000000E+00  0.00000000E+00
  0.00000000E+00  0.00000000E+00  0.00000000E+00
  0.00000000E+00  0.00000000E+00  0.00000000E+00
  0.00000000E+00  0.00000000E+00  0.00000000E+00
  0.00000000E+00  0.00000000E+00  0.00000000E+00
  0.00000000E+00  0.00000000E+00  0.00000000E+00
  0.00000000E+00  0.00000000E+00  0.00000000E+00
  0.00000000E+00  0.00000000E+00  0.00000000E+00
  0.00000000E+00  0.00000000E+00  0.00000000E+00
  0.00000000E+00  0.00000000E+00  0.00000000E+00
  0.00000000E+00  0.00000000E+00  0.00000000E+00
  0.00000000E+00  0.00000000E+00  0.00000000E+00
  0.00000000E+00  0.00000000E+00  0.00000000E+00
  0.00000000E+00  0.00000000E+00  0.00000000E+00
  0.00000000E+00  0.00000000E+00  0.00000000E+00
  0.00000000E+00  0.00000000E+00  0.00000000E+00
  0.00000000E+00  0.00000000E+00  0.00000000E+00
  0.00000000E+00  0.00000000E+00  0.00000000E+00
  0.00000000E+00  0.00000000E+00  0.00000000E+00
  0.00000000E+00  0.00000000E+00  0.00000000E+00
