Mg10 In4 Br32                           
   1.0000000000000000     
     6.1347492605520397   -6.1721857166332459    0.0000000000000000
     6.1347492605520397    6.1721857166332459    0.0000000000000000
     0.0000000000000000    0.0000000000000000   20.5371304401291468
   Mg   In   Br
    10     4    32
Direct
  0.0000000000000000  0.0000000000000000  0.7553081063645237
  0.0000000000000000  0.0000000000000000  0.2446918936354763
  0.5000000000000000  0.5000000000000000  0.7446918936354763
  0.5000000000000000  0.5000000000000000  0.2553081063645237
  0.5000000000000000  0.5000000000000000  0.5000000000000000
  0.0000000000000000  0.0000000000000000  0.0000000000000000
  0.0000000000000000  0.5000000000000000  0.6724259761505422
  0.5000000000000000  0.0000000000000000  0.3275740238494578
  0.5000000000000000  0.0000000000000000  0.8275740238494578
  0.0000000000000000  0.5000000000000000  0.1724259761505422
  0.5000000000000000  0.0000000000000000  0.6279617402380850
  0.0000000000000000  0.5000000000000000  0.3720382597619150
  0.0000000000000000  0.5000000000000000  0.8720382597619150
  0.5000000000000000  0.0000000000000000  0.1279617402380850
  0.5131650262842626  0.2058151203316214  0.7385568729023788
  0.4868349737157445  0.7941848796683786  0.7385568729023788
  0.2058151203316214  0.5131650262842626  0.2614431270976212
  0.7941848796683786  0.4868349737157445  0.2614431270976212
  0.9868349737157374  0.2941848796683786  0.7614431270976212
  0.0131650262842626  0.7058151203316214  0.7614431270976212
  0.2941848796683786  0.9868349737157374  0.2385568729023788
  0.7058151203316214  0.0131650262842626  0.2385568729023788
  0.1954211478471848  0.0087710083857360  0.6432332529169429
  0.8045788521528152  0.9912289916142640  0.6432332529169429
  0.0087710083857360  0.1954211478471848  0.3567667470830571
  0.9912289916142640  0.8045788521528152  0.3567667470830571
  0.3045788521528152  0.4912289916142640  0.8567667470830571
  0.6954211478471848  0.5087710083857360  0.8567667470830571
  0.7060146739345612  0.0046346466231100  0.0302550656059495
  0.2939853260654388  0.9953653533768900  0.0302550656059495
  0.0046346466231100  0.7060146739345612  0.9697449343940505
  0.9953653533768900  0.2939853260654388  0.9697449343940505
  0.7939853260654388  0.4953653533768900  0.4697449343940505
  0.2060146739345612  0.5046346466231100  0.4697449343940505
  0.4953653533768900  0.7939853260654388  0.5302550656059495
  0.5046346466231100  0.2060146739345612  0.5302550656059495
  0.9920821921821315  0.7818441930067337  0.1446361930098590
  0.0079178078178685  0.2181558069932663  0.1446361930098590
  0.7818441930067337  0.9920821921821315  0.8553638069901410
  0.2181558069932663  0.0079178078178685  0.8553638069901410
  0.5079178078178685  0.7181558069932663  0.3553638069901410
  0.4920821921821315  0.2818441930067337  0.3553638069901410
  0.7181558069932663  0.5079178078178685  0.6446361930098590
  0.2818441930067337  0.4920821921821315  0.6446361930098590
  0.5087710083857360  0.6954211478471848  0.1432332529169429
  0.4912289916142640  0.3045788521528152  0.1432332529169429

  0.00000000E+00  0.00000000E+00  0.00000000E+00
  0.00000000E+00  0.00000000E+00  0.00000000E+00
  0.00000000E+00  0.00000000E+00  0.00000000E+00
  0.00000000E+00  0.00000000E+00  0.00000000E+00
  0.00000000E+00  0.00000000E+00  0.00000000E+00
  0.00000000E+00  0.00000000E+00  0.00000000E+00
  0.00000000E+00  0.00000000E+00  0.00000000E+00
  0.00000000E+00  0.00000000E+00  0.00000000E+00
  0.00000000E+00  0.00000000E+00  0.00000000E+00
  0.00000000E+00  0.00000000E+00  0.00000000E+00
  0.00000000E+00  0.00000000E+00  0.00000000E+00
  0.00000000E+00  0.00000000E+00  0.00000000E+00
  0.00000000E+00  0.00000000E+00  0.00000000E+00
  0.00000000E+00  0.00000000E+00  0.00000000E+00
  0.00000000E+00  0.00000000E+00  0.00000000E+00
  0.00000000E+00  0.00000000E+00  0.00000000E+00
  0.00000000E+00  0.00000000E+00  0.00000000E+00
  0.00000000E+00  0.00000000E+00  0.00000000E+00
  0.00000000E+00  0.00000000E+00  0.00000000E+00
  0.00000000E+00  0.00000000E+00  0.00000000E+00
  0.00000000E+00  0.00000000E+00  0.00000000E+00
  0.00000000E+00  0.00000000E+00  0.00000000E+00
  0.00000000E+00  0.00000000E+00  0.00000000E+00
  0.00000000E+00  0.00000000E+00  0.00000000E+00
  0.00000000E+00  0.00000000E+00  0.00000000E+00
  0.00000000E+00  0.00000000E+00  0.00000000E+00
  0.00000000E+00  0.00000000E+00  0.00000000E+00
  0.00000000E+00  0.00000000E+00  0.00000000E+00
  0.00000000E+00  0.00000000E+00  0.00000000E+00
  0.00000000E+00  0.00000000E+00  0.00000000E+00
  0.00000000E+00  0.00000000E+00  0.00000000E+00
  0.00000000E+00  0.00000000E+00  0.00000000E+00
  0.00000000E+00  0.00000000E+00  0.00000000E+00
  0.00000000E+00  0.00000000E+00  0.00000000E+00
  0.00000000E+00  0.00000000E+00  0.00000000E+00
  0.00000000E+00  0.00000000E+00  0.00000000E+00
  0.00000000E+00  0.00000000E+00  0.00000000E+00
  0.00000000E+00  0.00000000E+00  0.00000000E+00
  0.00000000E+00  0.00000000E+00  0.00000000E+00
  0.00000000E+00  0.00000000E+00  0.00000000E+00
  0.00000000E+00  0.00000000E+00  0.00000000E+00
  0.00000000E+00  0.00000000E+00  0.00000000E+00
  0.00000000E+00  0.00000000E+00  0.00000000E+00
  0.00000000E+00  0.00000000E+00  0.00000000E+00
  0.00000000E+00  0.00000000E+00  0.00000000E+00
  0.00000000E+00  0.00000000E+00  0.00000000E+00
