Ca4 Tl4 Br20                            
   1.0000000000000000     
    19.1500020447188781    0.0000000000000000    0.0000000000000000
     0.0000000000000000    7.2366676528166254   -3.9322690884169949
     0.0000000000000000   -1.1364242374879474   10.0700094646960316
   Ca   Tl   Br
     4     4    20
Direct
  0.0173557966606666  0.2943343705912014  0.2464348591427949
  0.5173557966606737  0.7056656294087915  0.2535651408572051
  0.9826442033393263  0.7056656294087915  0.7535651408572051
  0.4826442033393334  0.2943343705912014  0.7464348591427949
  0.8691394587264014  0.1649549142784821  0.6179462767893824
  0.3691394587264014  0.8350450857215108  0.8820537232106176
  0.1308605412735986  0.8350450857215108  0.3820537232106105
  0.6308605412735986  0.1649549142784821  0.1179462767893824
  0.4511725482886533  0.8551662108341631  0.5708139951684217
  0.9511725482886533  0.1448337891658369  0.9291860048315783
  0.5488274517113467  0.1448337891658369  0.4291860048315854
  0.0488274517113467  0.8551662108341631  0.0708139951684146
  0.7778991410117229  0.2274420989797079  0.3586352990412038
  0.2778991410117229  0.7725579010202921  0.1413647009587962
  0.2221008589882771  0.7725579010202921  0.6413647009587891
  0.7221008589882771  0.2274420989797079  0.8586352990412109
  0.6417933433448511  0.1873076657587163  0.6536147340161946
  0.1417933433448511  0.8126923342412837  0.8463852659838054
  0.3582066566551489  0.8126923342412837  0.3463852659838054
  0.8582066566551489  0.1873076657587163  0.1536147340161946
  0.3579313002055926  0.3905848895016319  0.6743132384133474
  0.8579313002055997  0.6094151104983681  0.8256867615866526
  0.6420686997944003  0.6094151104983681  0.3256867615866526
  0.1420686997944003  0.3905848895016319  0.1743132384133474
  0.4803647614459479  0.2906896717242304  0.0295926569438265
  0.9803647614459479  0.7093103282757696  0.4704073430561735
  0.5196352385540521  0.7093103282757696  0.9704073430561735
  0.0196352385540521  0.2906896717242304  0.5295926569438265

  0.00000000E+00  0.00000000E+00  0.00000000E+00
  0.00000000E+00  0.00000000E+00  0.00000000E+00
  0.00000000E+00  0.00000000E+00  0.00000000E+00
  0.00000000E+00  0.00000000E+00  0.00000000E+00
  0.00000000E+00  0.00000000E+00  0.00000000E+00
  0.00000000E+00  0.00000000E+00  0.00000000E+00
  0.00000000E+00  0.00000000E+00  0.00000000E+00
  0.00000000E+00  0.00000000E+00  0.00000000E+00
  0.00000000E+00  0.00000000E+00  0.00000000E+00
  0.00000000E+00  0.00000000E+00  0.00000000E+00
  0.00000000E+00  0.00000000E+00  0.00000000E+00
  0.00000000E+00  0.00000000E+00  0.00000000E+00
  0.00000000E+00  0.00000000E+00  0.00000000E+00
  0.00000000E+00  0.00000000E+00  0.00000000E+00
  0.00000000E+00  0.00000000E+00  0.00000000E+00
  0.00000000E+00  0.00000000E+00  0.00000000E+00
  0.00000000E+00  0.00000000E+00  0.00000000E+00
  0.00000000E+00  0.00000000E+00  0.00000000E+00
  0.00000000E+00  0.00000000E+00  0.00000000E+00
  0.00000000E+00  0.00000000E+00  0.00000000E+00
  0.00000000E+00  0.00000000E+00  0.00000000E+00
  0.00000000E+00  0.00000000E+00  0.00000000E+00
  0.00000000E+00  0.00000000E+00  0.00000000E+00
  0.00000000E+00  0.00000000E+00  0.00000000E+00
  0.00000000E+00  0.00000000E+00  0.00000000E+00
  0.00000000E+00  0.00000000E+00  0.00000000E+00
  0.00000000E+00  0.00000000E+00  0.00000000E+00
  0.00000000E+00  0.00000000E+00  0.00000000E+00
