Be8 In4 F28                             
   1.00000000000000     
     5.2624050370130009   -0.2129147074602714    0.5906554376211036
    -0.8267389934167459   11.7016805571504978    1.4871792690083636
     0.4082111075633545    0.7475359973887034    7.6131499653614423
   Be   F    In
     8    28     4
Direct
  0.6892685468029640  0.5512666038163303  0.9371840672606169
  0.2362776409698455  0.1115303660521150  0.0909525441112393
  0.8160055106793678  0.6019713923732510  0.2581296251482286
  0.5866116702378434  0.1626795695717931  0.2885409686926224
  0.4134268905580925  0.8373009036300800  0.7114607669454429
  0.1840187619087246  0.3980046213869031  0.7418883957486031
  0.7637624260844120  0.8884505746857769  0.9090522069105660
  0.3107520046431347  0.4487184926157042  0.0628315264342874
  0.8697235259468101  0.5929046058298937  0.0570876478075704
  0.9804128919981707  0.8517004098847138  0.0199655969164567
  0.5451852636119909  0.8951325855406793  0.0711830002462008
  0.6863025371301248  0.4767087441709634  0.3750464487827827
  0.2032376240672065  0.4159657470361182  0.2690717258817514
  0.8186952292807632  0.2589989972615783  0.2137166876476897
  0.4106919662731059  0.5844405504014247  0.9932073957152099
  0.6339716968797475  0.0363697229828617  0.3083900143605334
  0.9574266698192986  0.8151759403833481  0.4845560032934060
  0.4625536300803361  0.8168744771066869  0.5034297029348096
  0.1294173658574564  0.9956545267009318  0.2301758205854014
  0.3596621227343206  0.3072622825704983  0.7014957499083749
  0.9200460965415473  0.3682268100065258  0.6808397753931530
  0.3560132580860937  0.1946749848252196  0.1961145749884281
  0.6440232374056194  0.8053057017174439  0.8038905046839631
  0.0799770932241017  0.6317471439141187  0.3191789718859894
  0.6403667451070305  0.6927164091004840  0.2985162121508651
  0.8706185804843969  0.0043256736002490  0.7698280429965934
  0.5374766061742520  0.1831046905931899  0.4965759056435317
  0.0426061917738352  0.1848047863614326  0.5154512047178770
  0.3660631032579573  0.9636100248764095  0.6916153421943534
  0.5893290864690357  0.4155443738579621  0.0068087002105059
  0.1813396449466111  0.7409824737166772  0.7862916085203722
  0.7967830021813711  0.5840160702869497  0.7309432853120583
  0.3137159753703145  0.5232679323423852  0.6249686635748617
  0.4548526716260639  0.1048481159415218  0.9288213648539880
  0.0196240249831234  0.1482801984512037  0.9800408643770666
  0.1303025369183288  0.4070757077596170  0.9429279223509681
  0.8570380805036280  0.3278324747785675  0.4395146942166051
  0.7815259325328938  0.8816121302682163  0.2685483305232310
  0.2185083091119537  0.1183673352531116  0.7314579177047449
  0.1429858477381742  0.6721458483470997  0.5605002183690004
 
  0.00000000E+00  0.00000000E+00  0.00000000E+00
  0.00000000E+00  0.00000000E+00  0.00000000E+00
  0.00000000E+00  0.00000000E+00  0.00000000E+00
  0.00000000E+00  0.00000000E+00  0.00000000E+00
  0.00000000E+00  0.00000000E+00  0.00000000E+00
  0.00000000E+00  0.00000000E+00  0.00000000E+00
  0.00000000E+00  0.00000000E+00  0.00000000E+00
  0.00000000E+00  0.00000000E+00  0.00000000E+00
  0.00000000E+00  0.00000000E+00  0.00000000E+00
  0.00000000E+00  0.00000000E+00  0.00000000E+00
  0.00000000E+00  0.00000000E+00  0.00000000E+00
  0.00000000E+00  0.00000000E+00  0.00000000E+00
  0.00000000E+00  0.00000000E+00  0.00000000E+00
  0.00000000E+00  0.00000000E+00  0.00000000E+00
  0.00000000E+00  0.00000000E+00  0.00000000E+00
  0.00000000E+00  0.00000000E+00  0.00000000E+00
  0.00000000E+00  0.00000000E+00  0.00000000E+00
  0.00000000E+00  0.00000000E+00  0.00000000E+00
  0.00000000E+00  0.00000000E+00  0.00000000E+00
  0.00000000E+00  0.00000000E+00  0.00000000E+00
  0.00000000E+00  0.00000000E+00  0.00000000E+00
  0.00000000E+00  0.00000000E+00  0.00000000E+00
  0.00000000E+00  0.00000000E+00  0.00000000E+00
  0.00000000E+00  0.00000000E+00  0.00000000E+00
  0.00000000E+00  0.00000000E+00  0.00000000E+00
  0.00000000E+00  0.00000000E+00  0.00000000E+00
  0.00000000E+00  0.00000000E+00  0.00000000E+00
  0.00000000E+00  0.00000000E+00  0.00000000E+00
  0.00000000E+00  0.00000000E+00  0.00000000E+00
  0.00000000E+00  0.00000000E+00  0.00000000E+00
  0.00000000E+00  0.00000000E+00  0.00000000E+00
  0.00000000E+00  0.00000000E+00  0.00000000E+00
  0.00000000E+00  0.00000000E+00  0.00000000E+00
  0.00000000E+00  0.00000000E+00  0.00000000E+00
  0.00000000E+00  0.00000000E+00  0.00000000E+00
  0.00000000E+00  0.00000000E+00  0.00000000E+00
  0.00000000E+00  0.00000000E+00  0.00000000E+00
  0.00000000E+00  0.00000000E+00  0.00000000E+00
  0.00000000E+00  0.00000000E+00  0.00000000E+00
  0.00000000E+00  0.00000000E+00  0.00000000E+00
