Ca4 In4 F20                             
   1.0000000000000000     
     4.1307562595251328    0.0000000000000000    0.0000000000000003
    -0.0000000000000003    5.3099352031098901    0.0000000000000003
    -0.0000000000000002    0.0000000000000000   14.8128023246372109
   Ca   In   F 
     4     4    20
Direct
  0.7612851469772366  0.5190650551181903  0.6792614367282468
  0.2612851469772366  0.9809349448818097  0.3207385632717532
  0.2387148530227634  0.0190650551181903  0.8207385632717532
  0.7387148530227634  0.4809349448818026  0.1792614367282468
  0.2632577255804520  0.9991521170648525  0.5753599626265782
  0.7632577255804520  0.5008478829351475  0.4246400373734147
  0.7367422744195480  0.4991521170648525  0.9246400373734218
  0.2367422744195480  0.0008478829351475  0.0753599626265853
  0.0291912040821742  0.6378739639158368  0.5396706161724367
  0.5291912040821813  0.8621260360841632  0.4603293838275704
  0.9708087959178187  0.1378739639158368  0.9603293838275633
  0.4708087959178187  0.3621260360841632  0.0396706161724367
  0.7706639056988962  0.7502571300138783  0.3057347610945698
  0.2706639056988962  0.7497428699861217  0.6942652389054231
  0.2293360943011038  0.2502571300138783  0.1942652389054231
  0.7293360943011038  0.2497428699861217  0.8057347610945698
  0.2286880174137380  0.2603409796047202  0.6862324296264717
  0.7286880174137451  0.2396590203952869  0.3137675703735141
  0.7713119825862549  0.7603409796047131  0.8137675703735283
  0.2713119825862549  0.7396590203952869  0.1862324296264788
  0.7558287225282285  0.9785991880065481  0.6310592736548628
  0.2558287225282285  0.5214008119934519  0.3689407263451372
  0.2441712774717715  0.4785991880065481  0.8689407263451372
  0.7441712774717715  0.0214008119934519  0.1310592736548628
  0.5372134538605806  0.3561975069255681  0.5420148583409130
  0.0372134538605806  0.1438024930744319  0.4579851416590870
  0.4627865461394194  0.8561975069255681  0.9579851416590870
  0.9627865461394194  0.6438024930744319  0.0420148583409130

  0.00000000E+00  0.00000000E+00  0.00000000E+00
  0.00000000E+00  0.00000000E+00  0.00000000E+00
  0.00000000E+00  0.00000000E+00  0.00000000E+00
  0.00000000E+00  0.00000000E+00  0.00000000E+00
  0.00000000E+00  0.00000000E+00  0.00000000E+00
  0.00000000E+00  0.00000000E+00  0.00000000E+00
  0.00000000E+00  0.00000000E+00  0.00000000E+00
  0.00000000E+00  0.00000000E+00  0.00000000E+00
  0.00000000E+00  0.00000000E+00  0.00000000E+00
  0.00000000E+00  0.00000000E+00  0.00000000E+00
  0.00000000E+00  0.00000000E+00  0.00000000E+00
  0.00000000E+00  0.00000000E+00  0.00000000E+00
  0.00000000E+00  0.00000000E+00  0.00000000E+00
  0.00000000E+00  0.00000000E+00  0.00000000E+00
  0.00000000E+00  0.00000000E+00  0.00000000E+00
  0.00000000E+00  0.00000000E+00  0.00000000E+00
  0.00000000E+00  0.00000000E+00  0.00000000E+00
  0.00000000E+00  0.00000000E+00  0.00000000E+00
  0.00000000E+00  0.00000000E+00  0.00000000E+00
  0.00000000E+00  0.00000000E+00  0.00000000E+00
  0.00000000E+00  0.00000000E+00  0.00000000E+00
  0.00000000E+00  0.00000000E+00  0.00000000E+00
  0.00000000E+00  0.00000000E+00  0.00000000E+00
  0.00000000E+00  0.00000000E+00  0.00000000E+00
  0.00000000E+00  0.00000000E+00  0.00000000E+00
  0.00000000E+00  0.00000000E+00  0.00000000E+00
  0.00000000E+00  0.00000000E+00  0.00000000E+00
  0.00000000E+00  0.00000000E+00  0.00000000E+00
