CaTl                                    
   1.0000000000000000     
     3.9078092525114858    0.0000000000000000    0.0000000000000000
     0.0000000000000000    3.9078092525114863    0.0000000000000000
    -0.0000000000000000   -0.0000000000000000    3.9078092525114858
   Ca   Tl
     1     1
Direct
  0.0000000000000000  0.0000000000000000  0.0000000000000000
  0.5000000000000000  0.5000000000000000  0.5000000000000000

  0.00000000E+00  0.00000000E+00  0.00000000E+00
  0.00000000E+00  0.00000000E+00  0.00000000E+00
