Ba1 In13                                
   1.0000000000000000     
     7.9062613144988436   -3.7098416171544146    0.1867053174372655
     7.9062613144988436    3.7098416171544146    0.1867053174372655
    -1.3567400236116280    0.0000000000000000    7.0321196157301600
   Ba   In
     1    13
Direct
  0.0000219407221422  0.0000219407221422  0.9999383066923713
  0.7543805409766904  0.7543805409766904  0.0427570395419181
  0.5885156508720826  0.1687634817621841  0.2787150317195071
  0.1687634817621841  0.5885156508720826  0.2787150317195071
  0.9722374923307058  0.3888794368289652  0.3256471511891164
  0.3888794368289652  0.9722374923307058  0.3256471511891164
  0.5485069348788301  0.5485069348788301  0.2058041869305356
  0.9999681859338452  0.9999681859338452  0.4999398515238909
  0.4515064796384891  0.4515064796384891  0.7950622513916699
  0.6111271096776463  0.0278361987940059  0.6743016293850346
  0.0278361987940059  0.6111271096776463  0.6743016293850346
  0.8311529931085531  0.4114464849829389  0.7210505878128117
  0.4114464849829389  0.8311529931085531  0.7210505878128117
  0.2455460694929243  0.2455460694929243  0.9570695637066677

  0.00000000E+00  0.00000000E+00  0.00000000E+00
  0.00000000E+00  0.00000000E+00  0.00000000E+00
  0.00000000E+00  0.00000000E+00  0.00000000E+00
  0.00000000E+00  0.00000000E+00  0.00000000E+00
  0.00000000E+00  0.00000000E+00  0.00000000E+00
  0.00000000E+00  0.00000000E+00  0.00000000E+00
  0.00000000E+00  0.00000000E+00  0.00000000E+00
  0.00000000E+00  0.00000000E+00  0.00000000E+00
  0.00000000E+00  0.00000000E+00  0.00000000E+00
  0.00000000E+00  0.00000000E+00  0.00000000E+00
  0.00000000E+00  0.00000000E+00  0.00000000E+00
  0.00000000E+00  0.00000000E+00  0.00000000E+00
  0.00000000E+00  0.00000000E+00  0.00000000E+00
  0.00000000E+00  0.00000000E+00  0.00000000E+00
