Sr4 Al4 F2                              
   1.00000000000000     
     4.5815191671807209   -0.0005233934869628   -0.0630335239877873
    -2.2915781622990634    3.9671185785100662    0.0708762731112691
    -0.2481023815260084    0.1669196437391403   17.8387455794265151
   Al   F    Sr
     4     2     4
Direct
  0.3339748974731336  0.6671200959945267  0.0000852474732653
  0.3328457734613437  0.6663468414173082  0.5000201760988645
  0.6661571004299134  0.3330466486462242  0.4999801620410906
  0.6672832316841308  0.3338247616689713  0.0000026776924145
  0.9995066089766453  0.9995454686775034  0.2500295352570348
  0.9998778459706017  0.9996289319346658  0.7500353146010994
  0.0079867906653632  0.9905675502175342  0.1218724247407152
  0.9922972258047906  0.0097387534317974  0.3782073536299322
  0.0068142552183943  0.9899134812521240  0.6218435694470941
  0.9932562703156904  0.0102674667593377  0.8782035390184930
 
  0.00000000E+00  0.00000000E+00  0.00000000E+00
  0.00000000E+00  0.00000000E+00  0.00000000E+00
  0.00000000E+00  0.00000000E+00  0.00000000E+00
  0.00000000E+00  0.00000000E+00  0.00000000E+00
  0.00000000E+00  0.00000000E+00  0.00000000E+00
  0.00000000E+00  0.00000000E+00  0.00000000E+00
  0.00000000E+00  0.00000000E+00  0.00000000E+00
  0.00000000E+00  0.00000000E+00  0.00000000E+00
  0.00000000E+00  0.00000000E+00  0.00000000E+00
  0.00000000E+00  0.00000000E+00  0.00000000E+00
