Be10 Al12                               
   1.00000000000000     
    -2.8062894450875122   -4.8675244825604791    0.0000000000000000
    -2.8452382464928139    4.8877996115955060    0.0000000000000000
     0.0000000000000000    0.0000000000000000  -10.4608800927224461
   Be   Al
    10    12
Direct
  0.7887704255487620  0.7816827729731131  0.2500000000000000
  0.9941076279695693  0.2111503068513443  0.2500000000000000
  0.2179159151417593  0.0062308243590721  0.2500000000000000
  0.8775840507774220  0.5514810935035399  0.7500000000000000
  0.4487066537322804  0.3265571007352790  0.7500000000000000
  0.6731604926245396  0.1224768249576584  0.7500000000000000
  0.0006224750890880  0.9992517484761407  0.0715990661159580
  0.0006224750890880  0.9992517484761407  0.4284009338840420
  0.6658249506423459  0.3343687137049756  0.9283449010607470
  0.6658249506423459  0.3343687137049756  0.5716550989392530
  0.5569926679201487  0.9948952544459786  0.1119966867772249
  0.4368164353806492  0.4423501691248575  0.1134126476915469
  0.0036241787180202  0.5618665171809880  0.1130883531849420
  0.5569926679201487  0.9948952544459786  0.3880033132227751
  0.4368164353806492  0.4423501691248575  0.3865873523084531
  0.0036241787180202  0.5618665171809880  0.3869116468150580
  0.2298773464507704  0.8908583129669836  0.6134195442454313
  0.1097112431784026  0.3384467653840204  0.6120627197546824
  0.6631081197234110  0.7714730570260286  0.6131095244850826
  0.2298773464507704  0.8908583129669836  0.8865804557545687
  0.1097112431784026  0.3384467653840204  0.8879372802453176
  0.6631081197234110  0.7714730570260286  0.8868904755149174
 
  0.00000000E+00  0.00000000E+00  0.00000000E+00
  0.00000000E+00  0.00000000E+00  0.00000000E+00
  0.00000000E+00  0.00000000E+00  0.00000000E+00
  0.00000000E+00  0.00000000E+00  0.00000000E+00
  0.00000000E+00  0.00000000E+00  0.00000000E+00
  0.00000000E+00  0.00000000E+00  0.00000000E+00
  0.00000000E+00  0.00000000E+00  0.00000000E+00
  0.00000000E+00  0.00000000E+00  0.00000000E+00
  0.00000000E+00  0.00000000E+00  0.00000000E+00
  0.00000000E+00  0.00000000E+00  0.00000000E+00
  0.00000000E+00  0.00000000E+00  0.00000000E+00
  0.00000000E+00  0.00000000E+00  0.00000000E+00
  0.00000000E+00  0.00000000E+00  0.00000000E+00
  0.00000000E+00  0.00000000E+00  0.00000000E+00
  0.00000000E+00  0.00000000E+00  0.00000000E+00
  0.00000000E+00  0.00000000E+00  0.00000000E+00
  0.00000000E+00  0.00000000E+00  0.00000000E+00
  0.00000000E+00  0.00000000E+00  0.00000000E+00
  0.00000000E+00  0.00000000E+00  0.00000000E+00
  0.00000000E+00  0.00000000E+00  0.00000000E+00
  0.00000000E+00  0.00000000E+00  0.00000000E+00
  0.00000000E+00  0.00000000E+00  0.00000000E+00
