Ca2 Al2 F10                             
   1.0000000000000000     
     3.3730638261990795   -0.0000000000000000    0.0000000000000002
    -0.0000000000000005    7.8267989315983346    0.0000000000000005
    -0.0000000000000000    0.0000000000000000    7.5582658888469139
   Ca   Al   F 
     2     2    10
Direct
  0.0000000000000000  0.0000000000000000  0.5000000000000000
  0.5000000000000000  0.5000000000000000  0.0000000000000000
  0.5000000000000000  0.0000000000000000  0.0000000000000000
  0.0000000000000000  0.5000000000000000  0.5000000000000000
  0.5000000000000000  0.8053320965741833  0.5000000000000000
  0.5000000000000000  0.1946679034258167  0.5000000000000000
  0.5000000000000000  0.0000000000000000  0.2255267984928082
  0.5000000000000000  0.0000000000000000  0.7744732015071918
  0.0000000000000000  0.0000000000000000  0.0000000000000000
  0.0000000000000000  0.3053320965741833  0.0000000000000000
  0.0000000000000000  0.6946679034258167  0.0000000000000000
  0.0000000000000000  0.5000000000000000  0.7255267984928082
  0.0000000000000000  0.5000000000000000  0.2744732015071918
  0.5000000000000000  0.5000000000000000  0.5000000000000000

  0.00000000E+00  0.00000000E+00  0.00000000E+00
  0.00000000E+00  0.00000000E+00  0.00000000E+00
  0.00000000E+00  0.00000000E+00  0.00000000E+00
  0.00000000E+00  0.00000000E+00  0.00000000E+00
  0.00000000E+00  0.00000000E+00  0.00000000E+00
  0.00000000E+00  0.00000000E+00  0.00000000E+00
  0.00000000E+00  0.00000000E+00  0.00000000E+00
  0.00000000E+00  0.00000000E+00  0.00000000E+00
  0.00000000E+00  0.00000000E+00  0.00000000E+00
  0.00000000E+00  0.00000000E+00  0.00000000E+00
  0.00000000E+00  0.00000000E+00  0.00000000E+00
  0.00000000E+00  0.00000000E+00  0.00000000E+00
  0.00000000E+00  0.00000000E+00  0.00000000E+00
  0.00000000E+00  0.00000000E+00  0.00000000E+00
