Mg17 In11 I1                            
   1.00000000000000     
     7.9212582104857185   -4.9041864035407006    3.1162308513830408
    -0.2013813169708774    9.5536146101564317    3.2532200605221808
    -7.7560445012760573   -4.5743005224618019    3.1758650190291733
   In   I    Mg
    11     1    17
Direct
  0.6648937694701758  0.8284367006753754  0.0001236294220988
  0.3822161481823585  0.3935840925713165  0.1948777409421112
  0.7942118912807672  0.2131950951605788  0.1948384078124548
  0.2143409109511225  0.8085297281213641  0.1957945754460297
  0.1758148359603808  0.3803596533724374  0.3730325138207462
  0.3748762949692761  0.1829036264807584  0.3751864916268843
  0.9999908500183139  0.8081340204880121  0.6249087071336987
  0.8027860635587700  0.0072861397990351  0.6268197381548717
  0.0184128723427577  0.6131780621743346  0.8042631136133309
  0.5995945200210926  0.0182197113984515  0.8051145564478190
  0.1872094612403146  0.1990742496329929  0.8045797421837548
  0.7667109771528757  0.5443019487791716  0.0001149856831475
  0.0100114177104444  0.3366359069591667  0.0000307008494573
  0.3366141521775177  0.9721117299923989  0.0003751779347425
  0.5406129606751833  0.2747447702728891  0.9994866688406745
  0.0180742286842914  0.0028743900294046  0.0002786172206939
  0.3358761207988721  0.6043091426926921  0.9999102521896575
  0.6924544669944481  0.7072690990279042  0.2997284188956968
  0.6082423290243497  0.9933469437054612  0.3058372608945632
  0.0187880375889264  0.5952944614339728  0.3336621019527399
  0.0038897885687774  0.0260046681405939  0.3457230749548970
  0.4058693944091445  0.7215220157744113  0.4077835304132833
  0.7152431609418741  0.4170924444938748  0.4181161828751172
  0.2972676089356767  0.9988632532970811  0.5817783749439798
  0.9979058342693392  0.3141539225327463  0.5920665569039656
  0.6586679978535201  0.6806725452149465  0.6548206361092426
  0.6851549234945224  0.2616523731024927  0.6663566930815890
  0.3023092165353276  0.6876613825526618  0.6942146773670146
  0.3929157661895673  0.4079279221235268  0.7001778722856997
 
  0.00000000E+00  0.00000000E+00  0.00000000E+00
  0.00000000E+00  0.00000000E+00  0.00000000E+00
  0.00000000E+00  0.00000000E+00  0.00000000E+00
  0.00000000E+00  0.00000000E+00  0.00000000E+00
  0.00000000E+00  0.00000000E+00  0.00000000E+00
  0.00000000E+00  0.00000000E+00  0.00000000E+00
  0.00000000E+00  0.00000000E+00  0.00000000E+00
  0.00000000E+00  0.00000000E+00  0.00000000E+00
  0.00000000E+00  0.00000000E+00  0.00000000E+00
  0.00000000E+00  0.00000000E+00  0.00000000E+00
  0.00000000E+00  0.00000000E+00  0.00000000E+00
  0.00000000E+00  0.00000000E+00  0.00000000E+00
  0.00000000E+00  0.00000000E+00  0.00000000E+00
  0.00000000E+00  0.00000000E+00  0.00000000E+00
  0.00000000E+00  0.00000000E+00  0.00000000E+00
  0.00000000E+00  0.00000000E+00  0.00000000E+00
  0.00000000E+00  0.00000000E+00  0.00000000E+00
  0.00000000E+00  0.00000000E+00  0.00000000E+00
  0.00000000E+00  0.00000000E+00  0.00000000E+00
  0.00000000E+00  0.00000000E+00  0.00000000E+00
  0.00000000E+00  0.00000000E+00  0.00000000E+00
  0.00000000E+00  0.00000000E+00  0.00000000E+00
  0.00000000E+00  0.00000000E+00  0.00000000E+00
  0.00000000E+00  0.00000000E+00  0.00000000E+00
  0.00000000E+00  0.00000000E+00  0.00000000E+00
  0.00000000E+00  0.00000000E+00  0.00000000E+00
  0.00000000E+00  0.00000000E+00  0.00000000E+00
  0.00000000E+00  0.00000000E+00  0.00000000E+00
  0.00000000E+00  0.00000000E+00  0.00000000E+00
