Ba2 Al4 I16                             
   1.00000000000000     
    14.7435922309620135   -0.0030354851954900   -0.2063858657875905
    -0.0016533059010151    8.2468147399651031    0.0091878705992793
    -0.7272540346680425    0.0092258275509429    9.5374662961621244
   Al   I    Ba
     4    16     2
Direct
  0.0758065628232387  0.7402311929139103  0.3235205471143985
  0.5758648448720791  0.2604492687783804  0.3235984695497081
  0.4240969054885397  0.7395297847064910  0.6763650953485154
  0.9241592497927300  0.2597399326175136  0.6764223300531853
  0.6413549789870387  0.0300496457722446  0.1815852279514232
  0.1410659027330823  0.9718173917043558  0.1816368084116959
  0.1490550810761917  0.4697154301719806  0.2622699720444501
  0.6490238675882054  0.5313874620207244  0.2621298135772037
  0.4044569397464883  0.2940195177036102  0.2509741602931470
  0.9044105299118925  0.7062382843454031  0.2510033537729797
  0.8928854855913713  0.1889982740765532  0.4162196222974686
  0.3927898479571823  0.8113456911057284  0.4161636101562607
  0.6072519086086530  0.1887265616719702  0.5838073679356057
  0.1071021609621852  0.8109527866305513  0.5837268731853200
  0.0955578732188584  0.2936901185677598  0.7489512406510386
  0.5954991073551170  0.7059120586954748  0.7490302180008470
  0.3509013993522458  0.4686596075696698  0.7379330602132015
  0.8510151503717225  0.5302713603390075  0.7378735932310079
  0.8588979277225803  0.0281689381780055  0.8183169616753716
  0.3586395067705865  0.9699488910744378  0.8184119927145090
  0.7499927438294023  0.8509414052367248  0.4998281379534006
  0.2499720252405950  0.1490063961194750  0.5002315438692762
 
  0.00000000E+00  0.00000000E+00  0.00000000E+00
  0.00000000E+00  0.00000000E+00  0.00000000E+00
  0.00000000E+00  0.00000000E+00  0.00000000E+00
  0.00000000E+00  0.00000000E+00  0.00000000E+00
  0.00000000E+00  0.00000000E+00  0.00000000E+00
  0.00000000E+00  0.00000000E+00  0.00000000E+00
  0.00000000E+00  0.00000000E+00  0.00000000E+00
  0.00000000E+00  0.00000000E+00  0.00000000E+00
  0.00000000E+00  0.00000000E+00  0.00000000E+00
  0.00000000E+00  0.00000000E+00  0.00000000E+00
  0.00000000E+00  0.00000000E+00  0.00000000E+00
  0.00000000E+00  0.00000000E+00  0.00000000E+00
  0.00000000E+00  0.00000000E+00  0.00000000E+00
  0.00000000E+00  0.00000000E+00  0.00000000E+00
  0.00000000E+00  0.00000000E+00  0.00000000E+00
  0.00000000E+00  0.00000000E+00  0.00000000E+00
  0.00000000E+00  0.00000000E+00  0.00000000E+00
  0.00000000E+00  0.00000000E+00  0.00000000E+00
  0.00000000E+00  0.00000000E+00  0.00000000E+00
  0.00000000E+00  0.00000000E+00  0.00000000E+00
  0.00000000E+00  0.00000000E+00  0.00000000E+00
  0.00000000E+00  0.00000000E+00  0.00000000E+00
