Sr22 In14                               
   1.0000000000000000     
    -0.0000000000000000    8.9362155213748231    8.9362155213748231
     8.9362155213748231   -0.0000000000000000    8.9362155213748231
     8.9362155213748231    8.9362155213748231    0.0000000000000000
   Sr   In
    22    14
Direct
  0.6658306543202954  0.3341693456797046  0.0000000000000000
  0.6658306543202954  0.0000000000000000  0.0000000000000000
  0.1127310581390546  0.6290896472869889  0.6290896472869889
  0.0000000000000000  0.6658306543202954  0.3341693456797046
  0.0000000000000000  0.3341693456797046  0.6658306543202954
  0.3709103527130111  0.3709103527130111  0.3709103527130111
  0.0000000000000000  0.6658306543202954  0.0000000000000000
  0.6290896472869889  0.6290896472869889  0.1127310581390546
  0.0000000000000000  0.0000000000000000  0.6658306543202954
  0.6290896472869889  0.1127310581390546  0.6290896472869889
  0.0000000000000000  0.0000000000000000  0.3341693456797046
  0.3341693456797046  0.0000000000000000  0.0000000000000000
  0.0000000000000000  0.3341693456797046  0.0000000000000000
  0.6658306543202954  0.0000000000000000  0.3341693456797046
  0.5000000000000000  0.5000000000000000  0.5000000000000000
  0.3709103527130111  0.8872689418609454  0.3709103527130111
  0.3709103527130111  0.3709103527130111  0.8872689418609454
  0.3341693456797046  0.6658306543202954  0.0000000000000000
  0.3341693456797046  0.0000000000000000  0.6658306543202954
  0.6290896472869889  0.6290896472869889  0.6290896472869889
  0.0000000000000000  0.0000000000000000  0.0000000000000000
  0.8872689418609454  0.3709103527130111  0.3709103527130111
  0.2814445378730071  0.2814445378730071  0.7185554621269929
  0.7185554621269929  0.7185554621269929  0.2814445378730071
  0.8107914308782469  0.5676257073652664  0.8107914308782469
  0.7185554621269929  0.2814445378730071  0.2814445378730071
  0.4323742926347265  0.1892085691217531  0.1892085691217531
  0.2814445378730071  0.7185554621269929  0.7185554621269929
  0.1892085691217531  0.1892085691217531  0.1892085691217531
  0.1892085691217531  0.4323742926347265  0.1892085691217531
  0.5676257073652664  0.8107914308782469  0.8107914308782469
  0.8107914308782469  0.8107914308782469  0.8107914308782469
  0.7185554621269929  0.2814445378730071  0.7185554621269929
  0.1892085691217531  0.1892085691217531  0.4323742926347265
  0.2814445378730071  0.7185554621269929  0.2814445378730071
  0.8107914308782469  0.8107914308782469  0.5676257073652664

  0.00000000E+00  0.00000000E+00  0.00000000E+00
  0.00000000E+00  0.00000000E+00  0.00000000E+00
  0.00000000E+00  0.00000000E+00  0.00000000E+00
  0.00000000E+00  0.00000000E+00  0.00000000E+00
  0.00000000E+00  0.00000000E+00  0.00000000E+00
  0.00000000E+00  0.00000000E+00  0.00000000E+00
  0.00000000E+00  0.00000000E+00  0.00000000E+00
  0.00000000E+00  0.00000000E+00  0.00000000E+00
  0.00000000E+00  0.00000000E+00  0.00000000E+00
  0.00000000E+00  0.00000000E+00  0.00000000E+00
  0.00000000E+00  0.00000000E+00  0.00000000E+00
  0.00000000E+00  0.00000000E+00  0.00000000E+00
  0.00000000E+00  0.00000000E+00  0.00000000E+00
  0.00000000E+00  0.00000000E+00  0.00000000E+00
  0.00000000E+00  0.00000000E+00  0.00000000E+00
  0.00000000E+00  0.00000000E+00  0.00000000E+00
  0.00000000E+00  0.00000000E+00  0.00000000E+00
  0.00000000E+00  0.00000000E+00  0.00000000E+00
  0.00000000E+00  0.00000000E+00  0.00000000E+00
  0.00000000E+00  0.00000000E+00  0.00000000E+00
  0.00000000E+00  0.00000000E+00  0.00000000E+00
  0.00000000E+00  0.00000000E+00  0.00000000E+00
  0.00000000E+00  0.00000000E+00  0.00000000E+00
  0.00000000E+00  0.00000000E+00  0.00000000E+00
  0.00000000E+00  0.00000000E+00  0.00000000E+00
  0.00000000E+00  0.00000000E+00  0.00000000E+00
  0.00000000E+00  0.00000000E+00  0.00000000E+00
  0.00000000E+00  0.00000000E+00  0.00000000E+00
  0.00000000E+00  0.00000000E+00  0.00000000E+00
  0.00000000E+00  0.00000000E+00  0.00000000E+00
  0.00000000E+00  0.00000000E+00  0.00000000E+00
  0.00000000E+00  0.00000000E+00  0.00000000E+00
  0.00000000E+00  0.00000000E+00  0.00000000E+00
  0.00000000E+00  0.00000000E+00  0.00000000E+00
  0.00000000E+00  0.00000000E+00  0.00000000E+00
  0.00000000E+00  0.00000000E+00  0.00000000E+00
