Ca4 Al4 I20                             
   1.0000000000000000     
     4.4515341440553291   -0.0000000000000000    0.0000000000000003
    -0.0000000000000003   11.9929975936446400    0.0000000000000007
    -0.0000000000000010    0.0000000000000000   27.5512688311042560
   Ca   Al   I 
     4     4    20
Direct
  0.9914119157465464  0.7786919552693021  0.6513623421120798
  0.4914119157465464  0.7213080447306979  0.3486376578879202
  0.0085880842534536  0.2786919552693021  0.8486376578879202
  0.5085880842534536  0.2213080447306979  0.1513623421120798
  0.4763556941424625  0.1725266044201419  0.5660954932525897
  0.9763556941424767  0.3274733955798581  0.4339045067474103
  0.5236443058575233  0.6725266044201419  0.9339045067474103
  0.0236443058575375  0.8274733955798581  0.0660954932525897
  0.4891725338736777  0.9597640375144891  0.6194521298113358
  0.9891725338736777  0.5402359624855109  0.3805478701886642
  0.5108274661263223  0.4597640375144891  0.8805478701886642
  0.0108274661263223  0.0402359624855109  0.1194521298113358
  0.4965572233056221  0.5909049096801269  0.2446947992696096
  0.9965572233056221  0.9090950903198731  0.7553052007303833
  0.5034427766943779  0.0909049096801340  0.2553052007303833
  0.0034427766943779  0.4090950903198660  0.7446947992696096
  0.4916141504462246  0.6220287460067127  0.6182557626260063
  0.9916141504462317  0.8779712539932873  0.3817442373739937
  0.5083858495537683  0.1220287460067127  0.8817442373739937
  0.0083858495537754  0.3779712539932873  0.1182557626260063
  0.0010264506326862  0.1574409644393882  0.7425882157915282
  0.5010264506326862  0.3425590355606118  0.2574117842084718
  0.9989735493673138  0.6574409644393882  0.7574117842084718
  0.4989735493673138  0.8425590355606118  0.2425882157915282
  0.4756132887888782  0.3873952760710608  0.4971790031807544
  0.9756132887888782  0.1126047239289392  0.5028209968192456
  0.5243867112111218  0.8873952760710608  0.0028209968192456
  0.0243867112111147  0.6126047239289392  0.9971790031807544

  0.00000000E+00  0.00000000E+00  0.00000000E+00
  0.00000000E+00  0.00000000E+00  0.00000000E+00
  0.00000000E+00  0.00000000E+00  0.00000000E+00
  0.00000000E+00  0.00000000E+00  0.00000000E+00
  0.00000000E+00  0.00000000E+00  0.00000000E+00
  0.00000000E+00  0.00000000E+00  0.00000000E+00
  0.00000000E+00  0.00000000E+00  0.00000000E+00
  0.00000000E+00  0.00000000E+00  0.00000000E+00
  0.00000000E+00  0.00000000E+00  0.00000000E+00
  0.00000000E+00  0.00000000E+00  0.00000000E+00
  0.00000000E+00  0.00000000E+00  0.00000000E+00
  0.00000000E+00  0.00000000E+00  0.00000000E+00
  0.00000000E+00  0.00000000E+00  0.00000000E+00
  0.00000000E+00  0.00000000E+00  0.00000000E+00
  0.00000000E+00  0.00000000E+00  0.00000000E+00
  0.00000000E+00  0.00000000E+00  0.00000000E+00
  0.00000000E+00  0.00000000E+00  0.00000000E+00
  0.00000000E+00  0.00000000E+00  0.00000000E+00
  0.00000000E+00  0.00000000E+00  0.00000000E+00
  0.00000000E+00  0.00000000E+00  0.00000000E+00
  0.00000000E+00  0.00000000E+00  0.00000000E+00
  0.00000000E+00  0.00000000E+00  0.00000000E+00
  0.00000000E+00  0.00000000E+00  0.00000000E+00
  0.00000000E+00  0.00000000E+00  0.00000000E+00
  0.00000000E+00  0.00000000E+00  0.00000000E+00
  0.00000000E+00  0.00000000E+00  0.00000000E+00
  0.00000000E+00  0.00000000E+00  0.00000000E+00
  0.00000000E+00  0.00000000E+00  0.00000000E+00
