Mg1 In8                                 
   1.00000000000000     
    10.2764017617913392   -0.0656892652257484    0.0000000000000000
    -5.1945548535415815    8.8670864228845510    0.0000000000000000
     0.0000000000000000    0.0000000000000000    3.1984600203453741
   In   Mg
     8     1
Direct
  0.3347314181368901  0.1684795590881691  0.0000000000000000
  0.8316834603736538  0.1683165624265257  0.0000000000000000
  0.6672393926156133  0.3327605405661203  0.0000000000000000
  0.1684795220104292  0.3347313659135480  0.0000000000000000
  0.8315204779895708  0.6652686340864520  0.0000000000000000
  0.3327606073843867  0.6672394594338797  0.0000000000000000
  0.1683165396263391  0.8316834375734743  0.0000000000000000
  0.6652685818631099  0.8315204409118309  0.0000000000000000
  0.0000000000000000  0.0000000000000000  0.5000000000000000
 
  0.00000000E+00  0.00000000E+00  0.00000000E+00
  0.00000000E+00  0.00000000E+00  0.00000000E+00
  0.00000000E+00  0.00000000E+00  0.00000000E+00
  0.00000000E+00  0.00000000E+00  0.00000000E+00
  0.00000000E+00  0.00000000E+00  0.00000000E+00
  0.00000000E+00  0.00000000E+00  0.00000000E+00
  0.00000000E+00  0.00000000E+00  0.00000000E+00
  0.00000000E+00  0.00000000E+00  0.00000000E+00
  0.00000000E+00  0.00000000E+00  0.00000000E+00
