Ba2F                                    
   1.00000000000000     
     7.0243806784938165    0.0000000000000000    0.0000000000000000
     0.0000000000000000    7.0243806784938156    0.0000000000000000
     0.0000000000000000    0.0000000000000000    4.6815246539648747
   Ba   F 
     4     2
Direct
  0.2595808384608347  0.2595808384608347  0.0000000000000000
  0.7404191615391724  0.7404191615391724  0.0000000000000000
  0.7595808384608276  0.2404191615391653  0.5000000000000000
  0.2404191615391653  0.7595808384608276  0.5000000000000000
  0.0000000000000000  0.0000000000000000  0.0000000000000000
  0.5000000000000000  0.5000000000000000  0.5000000000000000
 
  0.00000000E+00  0.00000000E+00  0.00000000E+00
  0.00000000E+00  0.00000000E+00  0.00000000E+00
  0.00000000E+00  0.00000000E+00  0.00000000E+00
  0.00000000E+00  0.00000000E+00  0.00000000E+00
  0.00000000E+00  0.00000000E+00  0.00000000E+00
  0.00000000E+00  0.00000000E+00  0.00000000E+00
