Ba3 B4                                  
   1.00000000000000     
     2.7368859423666820    1.3442252882746275   10.8965330934932556
    -2.7368859423666936    1.3442252882746277   10.8965330934932574
    -0.0000000000000053   -1.9852827139809577   10.7906781429713021
   B    Ba
     4     3
Direct
  0.1141358335761353  0.1141358335761353  0.2611942259732132
  0.4440978654379890  0.4440978654379890  0.0374129126240703
  0.5519021345620132  0.5519021345620132  0.9585870873759319
  0.8818641664238669  0.8818641664238669  0.7348057740267890
  0.4735603161103157  0.4735603161103157  0.3847848477428712
  0.5224396838896865  0.5224396838896865  0.6112151522571310
  0.9979999999999976  0.9979999999999976  0.9979999999999976
 
  0.00000000E+00  0.00000000E+00  0.00000000E+00
  0.00000000E+00  0.00000000E+00  0.00000000E+00
  0.00000000E+00  0.00000000E+00  0.00000000E+00
  0.00000000E+00  0.00000000E+00  0.00000000E+00
  0.00000000E+00  0.00000000E+00  0.00000000E+00
  0.00000000E+00  0.00000000E+00  0.00000000E+00
  0.00000000E+00  0.00000000E+00  0.00000000E+00
