Be4 Tl2 Cl10                            
   1.0000000000000000     
     8.6976263226935906   -0.1387342377046090   -0.0981173142301238
    -0.1387342377046089    8.6976263226935906   -0.0981173142301238
     4.2037564046459668    4.2037564046459668    6.6569714642126936
   Cl   Be   Tl
    10     4     2
Direct
  0.5493786588986325  0.0162624157783000  0.9973420333459018
  0.0162624157783000  0.5493786588986325  0.9973420333459018
  0.7042164667162467  0.0518232371206935  0.2600703126736761
  0.1852746209020850  0.1852746209020850  0.2676244272852628
  0.5304051768948455  0.5304051768948455  0.2578097898404508
  0.0518232371206935  0.7042164667162467  0.2600703126736761
  0.9579616208763113  0.2970746419700347  0.7564859347075696
  0.4561991414662359  0.4561991414662359  0.7315435339312444
  0.8001353570534633  0.8001353570534633  0.7221301559804942
  0.2970746419700347  0.9579616208763113  0.7564859347075696
  0.3062436179227888  0.3062436179227888  0.9984718696188395
  0.7432121344722731  0.1262860098395677  0.0046272364167237
  0.1262860098395677  0.7432121344722731  0.0046272364167237
  0.6821031324322036  0.6821031324322036  0.9910243091869901
  0.7974711704880093  0.2960525971682983  0.4971724399345021
  0.2960525971682983  0.7974711704880093  0.4971724399345021

  0.00000000E+00  0.00000000E+00  0.00000000E+00
  0.00000000E+00  0.00000000E+00  0.00000000E+00
  0.00000000E+00  0.00000000E+00  0.00000000E+00
  0.00000000E+00  0.00000000E+00  0.00000000E+00
  0.00000000E+00  0.00000000E+00  0.00000000E+00
  0.00000000E+00  0.00000000E+00  0.00000000E+00
  0.00000000E+00  0.00000000E+00  0.00000000E+00
  0.00000000E+00  0.00000000E+00  0.00000000E+00
  0.00000000E+00  0.00000000E+00  0.00000000E+00
  0.00000000E+00  0.00000000E+00  0.00000000E+00
  0.00000000E+00  0.00000000E+00  0.00000000E+00
  0.00000000E+00  0.00000000E+00  0.00000000E+00
  0.00000000E+00  0.00000000E+00  0.00000000E+00
  0.00000000E+00  0.00000000E+00  0.00000000E+00
  0.00000000E+00  0.00000000E+00  0.00000000E+00
  0.00000000E+00  0.00000000E+00  0.00000000E+00
