Mg2 Tl2 F10                             
   1.00000000000000     
     5.0130693645715407   -0.1109820785801360    1.8376468270336985
     0.9902903592836282    4.9155368174853091    1.8376469425222650
    -0.2090351353405724   -0.1672914886156799    7.8850701808060881
   Mg   Tl   F 
     2     2    10
Direct
  0.4804896301192940  0.5195103701214308  0.2499999998742837
  0.5195103698807131  0.4804896298785692  0.7500000001257163
  0.0000000000000000  0.0000000000000000  0.5000000000000000
  0.0000000000000000  0.0000000000000000  0.0000000000000000
  0.8065087516325704  0.6793345160704476  0.6758592588326024
  0.3206654889824563  0.1934902438717003  0.8241407408302379
  0.1934902483674321  0.3206654839295524  0.3241417411674092
  0.6793345110175437  0.8065087561283022  0.1758592591697621
  0.8367255901584514  0.1632744086855666  0.7500000007661640
  0.1632744098415486  0.8367255913144334  0.2499999992338360
  0.7240682820840121  0.3637289812208309  0.0515190209450580
  0.6362710159253524  0.2759317142142166  0.4484809831810566
  0.2759317179159879  0.6362710187791691  0.9484809790549420
  0.3637289840746476  0.7240682857857834  0.5515190168189434
 
  0.00000000E+00  0.00000000E+00  0.00000000E+00
  0.00000000E+00  0.00000000E+00  0.00000000E+00
  0.00000000E+00  0.00000000E+00  0.00000000E+00
  0.00000000E+00  0.00000000E+00  0.00000000E+00
  0.00000000E+00  0.00000000E+00  0.00000000E+00
  0.00000000E+00  0.00000000E+00  0.00000000E+00
  0.00000000E+00  0.00000000E+00  0.00000000E+00
  0.00000000E+00  0.00000000E+00  0.00000000E+00
  0.00000000E+00  0.00000000E+00  0.00000000E+00
  0.00000000E+00  0.00000000E+00  0.00000000E+00
  0.00000000E+00  0.00000000E+00  0.00000000E+00
  0.00000000E+00  0.00000000E+00  0.00000000E+00
  0.00000000E+00  0.00000000E+00  0.00000000E+00
  0.00000000E+00  0.00000000E+00  0.00000000E+00
