Tl28 Cl36                               
   1.0000000000000000     
    12.6728982913044721   -0.0001547351895872   -0.0001547330374519
    -0.0001547330374519   12.6728982913044721   -0.0001547351895872
    -0.0001547351895872   -0.0001547330374519   12.6728982913044721
   Cl   Tl
    36    28
Direct
  0.0000651906754356  0.0000651906754356  0.0000651906754356
  0.5000639577859118  0.5000474721898200  0.0000405704506292
  0.4466939109977304  0.1977034464401370  0.0422243442591963
  0.0530885930505463  0.6976750252462764  0.0423843584297785
  0.6976750252462764  0.0423843584297785  0.0530885930505463
  0.8022266471063801  0.5423394880759815  0.0532493399855696
  0.1762960081009055  0.1762960081009055  0.1762960081009055
  0.3235530426934972  0.6764117552221123  0.1761479806438189
  0.0422243442591963  0.4466939109977304  0.1977034464401370
  0.4579133376189262  0.9466380253109747  0.1975554957760934
  0.5421700874545010  0.4467247334387565  0.3022896948889198
  0.9578111020015214  0.9466400259189953  0.3023512730689433
  0.6764117552221123  0.1761479806438189  0.3235530426934972
  0.8237208648461802  0.6763863612517511  0.3236978852380190
  0.1977034464401370  0.0422243442591963  0.4466939109977304
  0.3022896948889198  0.5421700874545010  0.4467247334387565
  0.9466380253109747  0.1975554957760934  0.4579133376189262
  0.5532110560861767  0.6975338615772841  0.4576648186315921
  0.5000474721898200  0.0000405704506292  0.5000639577859118
  0.0000405704506292  0.5000639577859118  0.5000474721898200
  0.4467247334387565  0.3022896948889198  0.5421700874545010
  0.0532493399855696  0.8022266471063801  0.5423394880759815
  0.6975338615772841  0.4576648186315921  0.5532110560861767
  0.8023924195246366  0.9576078736214981  0.5531663063086469
  0.1761479806438189  0.3235530426934972  0.6764117552221123
  0.3236978852380190  0.8237208648461802  0.6763863612517511
  0.0423843584297785  0.0530885930505463  0.6976750252462764
  0.4576648186315921  0.5532110560861767  0.6975338615772841
  0.5423394880759815  0.0532493399855696  0.8022266471063801
  0.9576078736214981  0.5531663063086469  0.8023924195246366
  0.6763863612517511  0.3236978852380190  0.8237208648461802
  0.8237379508598863  0.8237379508598863  0.8237379508598863
  0.1975554957760934  0.4579133376189262  0.9466380253109747
  0.3023512730689433  0.9578111020015214  0.9466400259189953
  0.9466400259189953  0.3023512730689433  0.9578111020015214
  0.5531663063086469  0.8023924195246366  0.9576078736214981
  0.5000110397902446  0.0000753397962185  0.9999254193967104
  0.9999254193967104  0.5000110397902446  0.0000753397962185
  0.6662122840231817  0.3145330068654104  0.0607215659440001
  0.8336618424652258  0.8145532524746955  0.0605695343284793
  0.3144286464864834  0.4393338671483704  0.1661744856111937
  0.1855478307937517  0.9394438514880008  0.1661151146499762
  0.9394438514880008  0.1661151146499762  0.1855478307937517
  0.5604486049110662  0.6662777294652500  0.1853990847670630
  0.4393338671483704  0.1661744856111937  0.3144286464864834
  0.0607215659440001  0.6662122840231817  0.3145330068654104
  0.8144600184925892  0.4395067340326335  0.3336926716674782
  0.6855905848499404  0.9392570756564851  0.3338495387813438
  0.1661744856111937  0.3144286464864834  0.4393338671483704
  0.3336926716674782  0.8144600184925892  0.4395067340326335
  0.0000753397962185  0.9999254193967104  0.5000110397902446
  0.4999344760546336  0.4999344760546336  0.4999344760546336
  0.6662777294652500  0.1853990847670630  0.5604486049110662
  0.8338238161065590  0.6854444719008015  0.5605838072751865
  0.3145330068654104  0.0607215659440001  0.6662122840231817
  0.1853990847670630  0.5604486049110662  0.6662777294652500
  0.9392570756564851  0.3338495387813438  0.6855905848499404
  0.5605838072751865  0.8338238161065590  0.6854444719008015
  0.4395067340326335  0.3336926716674782  0.8144600184925892
  0.0605695343284793  0.8336618424652258  0.8145532524746955
  0.8145532524746955  0.0605695343284793  0.8336618424652258
  0.6854444719008015  0.5605838072751865  0.8338238161065590
  0.1661151146499762  0.1855478307937517  0.9394438514880008
  0.3338495387813438  0.6855905848499404  0.9392570756564851

  0.00000000E+00  0.00000000E+00  0.00000000E+00
  0.00000000E+00  0.00000000E+00  0.00000000E+00
  0.00000000E+00  0.00000000E+00  0.00000000E+00
  0.00000000E+00  0.00000000E+00  0.00000000E+00
  0.00000000E+00  0.00000000E+00  0.00000000E+00
  0.00000000E+00  0.00000000E+00  0.00000000E+00
  0.00000000E+00  0.00000000E+00  0.00000000E+00
  0.00000000E+00  0.00000000E+00  0.00000000E+00
  0.00000000E+00  0.00000000E+00  0.00000000E+00
  0.00000000E+00  0.00000000E+00  0.00000000E+00
  0.00000000E+00  0.00000000E+00  0.00000000E+00
  0.00000000E+00  0.00000000E+00  0.00000000E+00
  0.00000000E+00  0.00000000E+00  0.00000000E+00
  0.00000000E+00  0.00000000E+00  0.00000000E+00
  0.00000000E+00  0.00000000E+00  0.00000000E+00
  0.00000000E+00  0.00000000E+00  0.00000000E+00
  0.00000000E+00  0.00000000E+00  0.00000000E+00
  0.00000000E+00  0.00000000E+00  0.00000000E+00
  0.00000000E+00  0.00000000E+00  0.00000000E+00
  0.00000000E+00  0.00000000E+00  0.00000000E+00
  0.00000000E+00  0.00000000E+00  0.00000000E+00
  0.00000000E+00  0.00000000E+00  0.00000000E+00
  0.00000000E+00  0.00000000E+00  0.00000000E+00
  0.00000000E+00  0.00000000E+00  0.00000000E+00
  0.00000000E+00  0.00000000E+00  0.00000000E+00
  0.00000000E+00  0.00000000E+00  0.00000000E+00
  0.00000000E+00  0.00000000E+00  0.00000000E+00
  0.00000000E+00  0.00000000E+00  0.00000000E+00
  0.00000000E+00  0.00000000E+00  0.00000000E+00
  0.00000000E+00  0.00000000E+00  0.00000000E+00
  0.00000000E+00  0.00000000E+00  0.00000000E+00
  0.00000000E+00  0.00000000E+00  0.00000000E+00
  0.00000000E+00  0.00000000E+00  0.00000000E+00
  0.00000000E+00  0.00000000E+00  0.00000000E+00
  0.00000000E+00  0.00000000E+00  0.00000000E+00
  0.00000000E+00  0.00000000E+00  0.00000000E+00
  0.00000000E+00  0.00000000E+00  0.00000000E+00
  0.00000000E+00  0.00000000E+00  0.00000000E+00
  0.00000000E+00  0.00000000E+00  0.00000000E+00
  0.00000000E+00  0.00000000E+00  0.00000000E+00
  0.00000000E+00  0.00000000E+00  0.00000000E+00
  0.00000000E+00  0.00000000E+00  0.00000000E+00
  0.00000000E+00  0.00000000E+00  0.00000000E+00
  0.00000000E+00  0.00000000E+00  0.00000000E+00
  0.00000000E+00  0.00000000E+00  0.00000000E+00
  0.00000000E+00  0.00000000E+00  0.00000000E+00
  0.00000000E+00  0.00000000E+00  0.00000000E+00
  0.00000000E+00  0.00000000E+00  0.00000000E+00
  0.00000000E+00  0.00000000E+00  0.00000000E+00
  0.00000000E+00  0.00000000E+00  0.00000000E+00
  0.00000000E+00  0.00000000E+00  0.00000000E+00
  0.00000000E+00  0.00000000E+00  0.00000000E+00
  0.00000000E+00  0.00000000E+00  0.00000000E+00
  0.00000000E+00  0.00000000E+00  0.00000000E+00
  0.00000000E+00  0.00000000E+00  0.00000000E+00
  0.00000000E+00  0.00000000E+00  0.00000000E+00
  0.00000000E+00  0.00000000E+00  0.00000000E+00
  0.00000000E+00  0.00000000E+00  0.00000000E+00
  0.00000000E+00  0.00000000E+00  0.00000000E+00
  0.00000000E+00  0.00000000E+00  0.00000000E+00
  0.00000000E+00  0.00000000E+00  0.00000000E+00
  0.00000000E+00  0.00000000E+00  0.00000000E+00
  0.00000000E+00  0.00000000E+00  0.00000000E+00
  0.00000000E+00  0.00000000E+00  0.00000000E+00
