Be5Tl                                   
   1.0000000000000000     
     4.1248184625734403    0.0000000000000000    0.0000000000000000
     0.0000000000000000    7.0945003288621926    1.0275588557988562
     0.0000000000000000    1.6323965187277927   10.7633309435337701
   Be   Tl
    20     4
Direct
  0.5000000000000000  0.3896622052500973  0.0374433132741245
  0.2567998351656868  0.6262207682699668  0.0998565267709424
  0.7432001648343132  0.6262207682699668  0.0998565267709424
  0.0000000000000000  0.3610385509674501  0.1664306735746592
  0.5000000000000000  0.3387515187178991  0.2457005844310842
  0.2494676590976894  0.5535310978820434  0.3091638075913394
  0.7505323409023106  0.5535310978820434  0.3091638075913394
  0.0000000000000000  0.2694385572544533  0.3689017484805532
  0.5000000000000000  0.3339961494426404  0.4600258547800209
  0.0000000000000000  0.4780753700904441  0.4789600661239604
  0.5000000000000000  0.6011017489715940  0.4978448014433425
  0.2561455588023094  0.3688584103893007  0.6496837245745084
  0.7438544411976835  0.3688584103893007  0.6496837245745084
  0.0000000000000000  0.6318494202796998  0.6171924659479799
  0.5000000000000000  0.6553446969003431  0.6871969893033310
  0.2502232013587999  0.4418449478233342  0.8326981395279276
  0.7497767986412001  0.4418449478233342  0.8326981395279276
  0.0000000000000000  0.7243280060222901  0.7855299314218840
  0.5000000000000000  0.6595744067414842  0.9010538493421976
  0.0000000000000000  0.5224043890926637  0.9719478538546440
  0.0000000000000000  0.0182832736959426  0.0939726684011148
  0.5000000000000000  0.9566860308808600  0.3611759017691796
  0.0000000000000000  0.0381567749937659  0.5965876292814798
  0.5000000000000000  0.0409084519690950  0.8491312716410206

  0.00000000E+00  0.00000000E+00  0.00000000E+00
  0.00000000E+00  0.00000000E+00  0.00000000E+00
  0.00000000E+00  0.00000000E+00  0.00000000E+00
  0.00000000E+00  0.00000000E+00  0.00000000E+00
  0.00000000E+00  0.00000000E+00  0.00000000E+00
  0.00000000E+00  0.00000000E+00  0.00000000E+00
  0.00000000E+00  0.00000000E+00  0.00000000E+00
  0.00000000E+00  0.00000000E+00  0.00000000E+00
  0.00000000E+00  0.00000000E+00  0.00000000E+00
  0.00000000E+00  0.00000000E+00  0.00000000E+00
  0.00000000E+00  0.00000000E+00  0.00000000E+00
  0.00000000E+00  0.00000000E+00  0.00000000E+00
  0.00000000E+00  0.00000000E+00  0.00000000E+00
  0.00000000E+00  0.00000000E+00  0.00000000E+00
  0.00000000E+00  0.00000000E+00  0.00000000E+00
  0.00000000E+00  0.00000000E+00  0.00000000E+00
  0.00000000E+00  0.00000000E+00  0.00000000E+00
  0.00000000E+00  0.00000000E+00  0.00000000E+00
  0.00000000E+00  0.00000000E+00  0.00000000E+00
  0.00000000E+00  0.00000000E+00  0.00000000E+00
  0.00000000E+00  0.00000000E+00  0.00000000E+00
  0.00000000E+00  0.00000000E+00  0.00000000E+00
  0.00000000E+00  0.00000000E+00  0.00000000E+00
  0.00000000E+00  0.00000000E+00  0.00000000E+00
