Be2 Al7                                 
   1.00000000000000     
     4.7193637532538206   -0.8687783959593391   -0.3667060422193251
    -3.1598937662735826    5.4142635788038680   -0.2968164608569764
    -0.3878493850279853   -0.6369428335633203    5.9822847668080916
   Al   Be
     7     2
Direct
  0.3086250936384189  0.4396243201765984  0.2869906908098301
  0.9995838280953677  0.6631824790453962  0.1888993772577692
  0.6557920983372796  0.8858138202716006  0.0439554157178819
  0.0000000000000000  0.0000000000000000  0.5000000000000000
  0.3442079016627204  0.1141861797283994  0.9560445842821181
  0.0004161719046323  0.3368175209546038  0.8111006227422379
  0.6913749063615811  0.5603756798234016  0.7130093091901699
  0.6472904967065816  0.1970350988460652  0.3903725941615974
  0.3527095032934184  0.8029649011539419  0.6096274058384026
 
  0.00000000E+00  0.00000000E+00  0.00000000E+00
  0.00000000E+00  0.00000000E+00  0.00000000E+00
  0.00000000E+00  0.00000000E+00  0.00000000E+00
  0.00000000E+00  0.00000000E+00  0.00000000E+00
  0.00000000E+00  0.00000000E+00  0.00000000E+00
  0.00000000E+00  0.00000000E+00  0.00000000E+00
  0.00000000E+00  0.00000000E+00  0.00000000E+00
  0.00000000E+00  0.00000000E+00  0.00000000E+00
  0.00000000E+00  0.00000000E+00  0.00000000E+00
