Sr3Br                                   
   1.00000000000000     
    -2.6476674391052253    2.6476674391052253    6.8298938028575398
     2.6476674391052257   -2.6476674391052253    6.8298938028575398
     2.6476674391052253    2.6476674391052253   -6.8298938028575398
   Br   Sr
     1     3
Direct
  0.0000000000000000  0.0000000000000000  0.0000000000000000
  0.7500000000000000  0.2500000000000000  0.5000000000000000
  0.2500000000000000  0.7500000000000000  0.5000000000000000
  0.5000000000000000  0.5000000000000000  0.0000000000000000
 
  0.00000000E+00  0.00000000E+00  0.00000000E+00
  0.00000000E+00  0.00000000E+00  0.00000000E+00
  0.00000000E+00  0.00000000E+00  0.00000000E+00
  0.00000000E+00  0.00000000E+00  0.00000000E+00
