Ba3 B33                                 
   1.00000000000000     
     6.9567409038269377    0.0000000000000000    0.0000000000000000
     0.0000000000000000    6.9567409038269350    0.0000000000000000
     0.0000000000000000    0.0000000000000000    6.9567409038269377
   Ba   B 
     3    33
Direct
  0.5000000000000000  0.0000000000000000  0.0000000000000000
  0.0000000000000000  0.5000000000000000  0.0000000000000000
  0.0000000000000000  0.0000000000000000  0.5000000000000000
  0.3774962197299345  0.3774962197299345  0.0000000000000000
  0.6225037802700655  0.3774962197299345  0.0000000000000000
  0.3774962197299345  0.6225037802700655  0.0000000000000000
  0.6225037802700655  0.6225037802700655  0.0000000000000000
  0.1271522151536715  0.1271522151536715  0.1271522151536715
  0.8728477848463285  0.1271522151536715  0.1271522151536715
  0.1271522151536715  0.8728477848463285  0.1271522151536715
  0.8728477848463285  0.8728477848463285  0.1271522151536715
  0.5000000000000000  0.3112021238788785  0.3112021238788785
  0.3112021238788785  0.5000000000000000  0.3112021238788785
  0.6887978761211215  0.5000000000000000  0.3112021238788785
  0.5000000000000000  0.6887978761211215  0.3112021238788785
  0.3774962197299345  0.0000000000000000  0.3774962197299345
  0.6225037802700655  0.0000000000000000  0.3774962197299345
  0.0000000000000000  0.3774962197299345  0.3774962197299345
  0.0000000000000000  0.6225037802700655  0.3774962197299345
  0.3112021238788785  0.3112021238788785  0.5000000000000000
  0.6887978761211215  0.3112021238788785  0.5000000000000000
  0.5000000000000000  0.5000000000000000  0.5000000000000000
  0.3112021238788785  0.6887978761211215  0.5000000000000000
  0.6887978761211215  0.6887978761211215  0.5000000000000000
  0.3774962197299345  0.0000000000000000  0.6225037802700655
  0.6225037802700655  0.0000000000000000  0.6225037802700655
  0.0000000000000000  0.3774962197299345  0.6225037802700655
  0.0000000000000000  0.6225037802700655  0.6225037802700655
  0.5000000000000000  0.3112021238788785  0.6887978761211215
  0.3112021238788785  0.5000000000000000  0.6887978761211215
  0.6887978761211215  0.5000000000000000  0.6887978761211215
  0.5000000000000000  0.6887978761211215  0.6887978761211215
  0.1271522151536715  0.1271522151536715  0.8728477848463285
  0.8728477848463285  0.1271522151536715  0.8728477848463285
  0.1271522151536715  0.8728477848463285  0.8728477848463285
  0.8728477848463285  0.8728477848463285  0.8728477848463285
 
  0.00000000E+00  0.00000000E+00  0.00000000E+00
  0.00000000E+00  0.00000000E+00  0.00000000E+00
  0.00000000E+00  0.00000000E+00  0.00000000E+00
  0.00000000E+00  0.00000000E+00  0.00000000E+00
  0.00000000E+00  0.00000000E+00  0.00000000E+00
  0.00000000E+00  0.00000000E+00  0.00000000E+00
  0.00000000E+00  0.00000000E+00  0.00000000E+00
  0.00000000E+00  0.00000000E+00  0.00000000E+00
  0.00000000E+00  0.00000000E+00  0.00000000E+00
  0.00000000E+00  0.00000000E+00  0.00000000E+00
  0.00000000E+00  0.00000000E+00  0.00000000E+00
  0.00000000E+00  0.00000000E+00  0.00000000E+00
  0.00000000E+00  0.00000000E+00  0.00000000E+00
  0.00000000E+00  0.00000000E+00  0.00000000E+00
  0.00000000E+00  0.00000000E+00  0.00000000E+00
  0.00000000E+00  0.00000000E+00  0.00000000E+00
  0.00000000E+00  0.00000000E+00  0.00000000E+00
  0.00000000E+00  0.00000000E+00  0.00000000E+00
  0.00000000E+00  0.00000000E+00  0.00000000E+00
  0.00000000E+00  0.00000000E+00  0.00000000E+00
  0.00000000E+00  0.00000000E+00  0.00000000E+00
  0.00000000E+00  0.00000000E+00  0.00000000E+00
  0.00000000E+00  0.00000000E+00  0.00000000E+00
  0.00000000E+00  0.00000000E+00  0.00000000E+00
  0.00000000E+00  0.00000000E+00  0.00000000E+00
  0.00000000E+00  0.00000000E+00  0.00000000E+00
  0.00000000E+00  0.00000000E+00  0.00000000E+00
  0.00000000E+00  0.00000000E+00  0.00000000E+00
  0.00000000E+00  0.00000000E+00  0.00000000E+00
  0.00000000E+00  0.00000000E+00  0.00000000E+00
  0.00000000E+00  0.00000000E+00  0.00000000E+00
  0.00000000E+00  0.00000000E+00  0.00000000E+00
  0.00000000E+00  0.00000000E+00  0.00000000E+00
  0.00000000E+00  0.00000000E+00  0.00000000E+00
  0.00000000E+00  0.00000000E+00  0.00000000E+00
  0.00000000E+00  0.00000000E+00  0.00000000E+00
