Ba6 In10                                
   1.0000000000000000     
     5.7287561287077118   -4.6628424720711799   -0.0007191543595659
    -5.7287561287077118   -4.6628424720711799   -0.0007191543595659
     0.0000000000000000   -0.0016514256648253  -11.2294473603530118
   Ba   In
     6    10
Direct
  0.7945247573681442  0.2054476758764281  0.0000502935574644
  0.2054476758764281  0.7945247573681442  0.0000502935574644
  0.3598436626036658  0.3598436626036658  0.2499477959995815
  0.7947165697308805  0.2053003500742463  0.4998819709620221
  0.2053003500742463  0.7947165697308805  0.4998819709620221
  0.6401661780988164  0.6401661780988164  0.7499846428198111
  0.6983773856216189  0.6983773856216189  0.0779497790787289
  0.9698245226856343  0.9698245226856343  0.2499366075792082
  0.9181269376490064  0.5235332579989347  0.2499524832431916
  0.5235332579989347  0.9181269376490064  0.2499524832431916
  0.6981146990210831  0.6981146990210831  0.4219632095987507
  0.3018573642165876  0.3018573642165876  0.5779682994196662
  0.4765259666183397  0.0819319778478729  0.7499846123455001
  0.0819319778478729  0.4765259666183397  0.7499846123455001
  0.0300608074206821  0.0300608074206821  0.7500027431184577
  0.3015878871680400  0.3015878871680400  0.9220082021694154

  0.00000000E+00 -0.00000000E+00 -0.00000000E+00
  0.00000000E+00 -0.00000000E+00 -0.00000000E+00
  0.00000000E+00 -0.00000000E+00 -0.00000000E+00
  0.00000000E+00 -0.00000000E+00 -0.00000000E+00
  0.00000000E+00 -0.00000000E+00 -0.00000000E+00
  0.00000000E+00 -0.00000000E+00 -0.00000000E+00
  0.00000000E+00 -0.00000000E+00 -0.00000000E+00
  0.00000000E+00 -0.00000000E+00 -0.00000000E+00
  0.00000000E+00 -0.00000000E+00 -0.00000000E+00
  0.00000000E+00 -0.00000000E+00 -0.00000000E+00
  0.00000000E+00 -0.00000000E+00 -0.00000000E+00
  0.00000000E+00 -0.00000000E+00 -0.00000000E+00
  0.00000000E+00 -0.00000000E+00 -0.00000000E+00
  0.00000000E+00 -0.00000000E+00 -0.00000000E+00
  0.00000000E+00 -0.00000000E+00 -0.00000000E+00
  0.00000000E+00 -0.00000000E+00 -0.00000000E+00
