Be1 B2 F8                               
   1.00000000000000     
     2.3676953032742771    6.6293721652494648    1.8154623641396199
    -2.3676953032742771    6.6293721652494648    1.8154623641396199
     0.0000000000000000    3.4152981504325939    4.1800737888123800
   Be   B    F 
     1     2     8
Direct
  0.0000000000000000  0.0000000000000000  0.0000000000000000
  0.3104065361338826  0.3104065361338826  0.6569424726795106
  0.6895934638661174  0.6895934638661174  0.3430575273204752
  0.6208814744267244  0.1381853780470408  0.3939236671716415
  0.8664645112655904  0.8664645112655904  0.0250899629965886
  0.1381853780470408  0.6208814744267244  0.3939236671716415
  0.3387448979877803  0.3387448979877803  0.8434267148536421
  0.8618146219529592  0.3791185255732756  0.6060763328283585
  0.3791185255732756  0.8618146219529592  0.6060763328283585
  0.1335354887344096  0.1335354887344096  0.9749100370034114
  0.6612551020122268  0.6612551020122268  0.1565732851463579
 
  0.00000000E+00  0.00000000E+00  0.00000000E+00
  0.00000000E+00  0.00000000E+00  0.00000000E+00
  0.00000000E+00  0.00000000E+00  0.00000000E+00
  0.00000000E+00  0.00000000E+00  0.00000000E+00
  0.00000000E+00  0.00000000E+00  0.00000000E+00
  0.00000000E+00  0.00000000E+00  0.00000000E+00
  0.00000000E+00  0.00000000E+00  0.00000000E+00
  0.00000000E+00  0.00000000E+00  0.00000000E+00
  0.00000000E+00  0.00000000E+00  0.00000000E+00
  0.00000000E+00  0.00000000E+00  0.00000000E+00
  0.00000000E+00  0.00000000E+00  0.00000000E+00
