Ba1 B2                                  
   1.00000000000000     
     4.4733748905229165   -0.7347210396619915    0.0000000000000000
    -2.8805517282045576    3.5047018531284859    0.0000000000000000
     0.0000000000000000    0.0000000000000000    4.2453649296512905
   B    Ba
     2     1
Direct
  0.7386399645791357  0.2613206603564322  0.5000000000000000
  0.2613600354208643  0.7386793396435678  0.5000000000000000
  0.0000000000000000  0.0000000000000000  0.0000000000000000
 
  0.00000000E+00  0.00000000E+00  0.00000000E+00
  0.00000000E+00  0.00000000E+00  0.00000000E+00
  0.00000000E+00  0.00000000E+00  0.00000000E+00
