Ba10 Tl4 F32                            
   1.0000000000000000     
     3.9415603051243360   -6.9199611299302646    0.0000000000000000
     3.9415603051243360    6.9199611299302646    0.0000000000000000
     0.0000000000000000    0.0000000000000000   15.3153139876809448
   Ba   Tl   F 
    10     4    32
Direct
  0.0000000000000000  0.0000000000000000  0.7133888958291621
  0.0000000000000000  0.0000000000000000  0.2866111041708379
  0.5000000000000000  0.5000000000000000  0.7866111041708379
  0.5000000000000000  0.5000000000000000  0.2133888958291621
  0.5000000000000000  0.5000000000000000  0.5000000000000000
  0.0000000000000000  0.0000000000000000  0.0000000000000000
  0.0000000000000000  0.5000000000000000  0.6469212124929342
  0.5000000000000000  0.0000000000000000  0.3530787875070587
  0.5000000000000000  0.0000000000000000  0.8530787875070658
  0.0000000000000000  0.5000000000000000  0.1469212124929413
  0.5000000000000000  0.0000000000000000  0.6059828399216656
  0.0000000000000000  0.5000000000000000  0.3940171600783344
  0.0000000000000000  0.5000000000000000  0.8940171600783344
  0.5000000000000000  0.0000000000000000  0.1059828399216656
  0.5640214512163269  0.2212748876569179  0.7070489195085443
  0.4359785487836731  0.7787251123430821  0.7070489195085443
  0.2212748876569179  0.5640214512163269  0.2929510804914557
  0.7787251123430821  0.4359785487836731  0.2929510804914557
  0.9359785487836731  0.2787251123430821  0.7929510804914557
  0.0640214512163269  0.7212748876569179  0.7929510804914557
  0.2787251123430821  0.9359785487836731  0.2070489195085443
  0.7212748876569179  0.0640214512163269  0.2070489195085443
  0.1857125571257754  0.8792652702369281  0.6124309255856772
  0.8142874428742246  0.1207347297630719  0.6124309255856772
  0.8792652702369281  0.1857125571257754  0.3875690744143228
  0.1207347297630719  0.8142874428742246  0.3875690744143228
  0.3142874428742246  0.6207347297630719  0.8875690744143228
  0.6857125571257754  0.3792652702369281  0.8875690744143228
  0.6676848264817110  0.9846817936196288  0.9992832740931732
  0.3323151735182890  0.0153182063803712  0.9992832740931732
  0.9846817936196288  0.6676848264817110  0.0007167259068268
  0.0153182063803712  0.3323151735182890  0.0007167259068268
  0.8323151735182890  0.5153182063803712  0.5007167259068268
  0.1676848264817110  0.4846817936196217  0.5007167259068268
  0.5153182063803712  0.8323151735182890  0.4992832740931732
  0.4846817936196217  0.1676848264817110  0.4992832740931732
  0.8576472958937060  0.7589353254328373  0.1540352419078417
  0.1423527041062940  0.2410646745671627  0.1540352419078417
  0.7589353254328373  0.8576472958937060  0.8459647580921583
  0.2410646745671627  0.1423527041062940  0.8459647580921583
  0.6423527041062940  0.7410646745671627  0.3459647580921583
  0.3576472958937060  0.2589353254328373  0.3459647580921583
  0.7410646745671627  0.6423527041062940  0.6540352419078417
  0.2589353254328373  0.3576472958937060  0.6540352419078417
  0.3792652702369281  0.6857125571257754  0.1124309255856772
  0.6207347297630719  0.3142874428742246  0.1124309255856772

  0.00000000E+00  0.00000000E+00  0.00000000E+00
  0.00000000E+00  0.00000000E+00  0.00000000E+00
  0.00000000E+00  0.00000000E+00  0.00000000E+00
  0.00000000E+00  0.00000000E+00  0.00000000E+00
  0.00000000E+00  0.00000000E+00  0.00000000E+00
  0.00000000E+00  0.00000000E+00  0.00000000E+00
  0.00000000E+00  0.00000000E+00  0.00000000E+00
  0.00000000E+00  0.00000000E+00  0.00000000E+00
  0.00000000E+00  0.00000000E+00  0.00000000E+00
  0.00000000E+00  0.00000000E+00  0.00000000E+00
  0.00000000E+00  0.00000000E+00  0.00000000E+00
  0.00000000E+00  0.00000000E+00  0.00000000E+00
  0.00000000E+00  0.00000000E+00  0.00000000E+00
  0.00000000E+00  0.00000000E+00  0.00000000E+00
  0.00000000E+00  0.00000000E+00  0.00000000E+00
  0.00000000E+00  0.00000000E+00  0.00000000E+00
  0.00000000E+00  0.00000000E+00  0.00000000E+00
  0.00000000E+00  0.00000000E+00  0.00000000E+00
  0.00000000E+00  0.00000000E+00  0.00000000E+00
  0.00000000E+00  0.00000000E+00  0.00000000E+00
  0.00000000E+00  0.00000000E+00  0.00000000E+00
  0.00000000E+00  0.00000000E+00  0.00000000E+00
  0.00000000E+00  0.00000000E+00  0.00000000E+00
  0.00000000E+00  0.00000000E+00  0.00000000E+00
  0.00000000E+00  0.00000000E+00  0.00000000E+00
  0.00000000E+00  0.00000000E+00  0.00000000E+00
  0.00000000E+00  0.00000000E+00  0.00000000E+00
  0.00000000E+00  0.00000000E+00  0.00000000E+00
  0.00000000E+00  0.00000000E+00  0.00000000E+00
  0.00000000E+00  0.00000000E+00  0.00000000E+00
  0.00000000E+00  0.00000000E+00  0.00000000E+00
  0.00000000E+00  0.00000000E+00  0.00000000E+00
  0.00000000E+00  0.00000000E+00  0.00000000E+00
  0.00000000E+00  0.00000000E+00  0.00000000E+00
  0.00000000E+00  0.00000000E+00  0.00000000E+00
  0.00000000E+00  0.00000000E+00  0.00000000E+00
  0.00000000E+00  0.00000000E+00  0.00000000E+00
  0.00000000E+00  0.00000000E+00  0.00000000E+00
  0.00000000E+00  0.00000000E+00  0.00000000E+00
  0.00000000E+00  0.00000000E+00  0.00000000E+00
  0.00000000E+00  0.00000000E+00  0.00000000E+00
  0.00000000E+00  0.00000000E+00  0.00000000E+00
  0.00000000E+00  0.00000000E+00  0.00000000E+00
  0.00000000E+00  0.00000000E+00  0.00000000E+00
  0.00000000E+00  0.00000000E+00  0.00000000E+00
  0.00000000E+00  0.00000000E+00  0.00000000E+00
