Tl3I                                    
   1.0000000000000000     
     5.2561319212253972    0.0000000000000000    0.0000000000000000
    -0.0000000000000000    5.2561319212253972    0.0000000000000000
     0.0000000000000000   -0.0000000000000000    5.2561319212253972
   I    Tl
     1     3
Direct
  0.0000000000000000  0.0000000000000000  0.0000000000000000
  0.5000000000000000  0.5000000000000000  0.0000000000000000
  0.5000000000000000  0.0000000000000000  0.5000000000000000
  0.0000000000000000  0.5000000000000000  0.5000000000000000

  0.00000000E+00  0.00000000E+00  0.00000000E+00
  0.00000000E+00  0.00000000E+00  0.00000000E+00
  0.00000000E+00  0.00000000E+00  0.00000000E+00
  0.00000000E+00  0.00000000E+00  0.00000000E+00
