Ca1 Al12                                
   1.00000000000000     
     0.0000000000000000    5.5234386142616012    5.5234386142616003
     5.5234386142616003    0.0000000000000000    5.5234386142616003
     5.5234386142616003    5.5234386142616012    0.0000000000000000
   Al   Ca
    12     1
Direct
  0.8377717190628076  0.5000000000000000  0.1622282809371924
  0.5000000000000000  0.8377717190628076  0.1622282809371924
  0.5000000000000000  0.5000000000000000  0.1622282809371924
  0.5000000000000000  0.1622282809371924  0.5000000000000000
  0.8377717190628076  0.1622282809371924  0.5000000000000000
  0.1622282809371924  0.5000000000000000  0.5000000000000000
  0.8377717190628076  0.5000000000000000  0.5000000000000000
  0.5000000000000000  0.8377717190628076  0.5000000000000000
  0.1622282809371924  0.8377717190628076  0.5000000000000000
  0.5000000000000000  0.1622282809371924  0.8377717190628076
  0.5000000000000000  0.5000000000000000  0.8377717190628076
  0.1622282809371924  0.5000000000000000  0.8377717190628076
  0.0000000000000000  0.0000000000000000  0.0000000000000000
 
  0.00000000E+00  0.00000000E+00  0.00000000E+00
  0.00000000E+00  0.00000000E+00  0.00000000E+00
  0.00000000E+00  0.00000000E+00  0.00000000E+00
  0.00000000E+00  0.00000000E+00  0.00000000E+00
  0.00000000E+00  0.00000000E+00  0.00000000E+00
  0.00000000E+00  0.00000000E+00  0.00000000E+00
  0.00000000E+00  0.00000000E+00  0.00000000E+00
  0.00000000E+00  0.00000000E+00  0.00000000E+00
  0.00000000E+00  0.00000000E+00  0.00000000E+00
  0.00000000E+00  0.00000000E+00  0.00000000E+00
  0.00000000E+00  0.00000000E+00  0.00000000E+00
  0.00000000E+00  0.00000000E+00  0.00000000E+00
  0.00000000E+00  0.00000000E+00  0.00000000E+00
