Al12 Cl28                               
   1.00000000000000     
    12.7649847578932132    0.0003249184088831    0.0001858554753378
     0.0005248138717137    9.1382104814720133    0.0007316555821874
     0.0006295159391126    0.0010990519862608   11.5942780399474508
   Cl   Al
    28    12
Direct
  0.1324621770904955  0.6209940555575031  0.1116049987652588
  0.6326781287976786  0.8789277766050674  0.1118770343826725
  0.7475124304969967  0.2310340316861499  0.1145348540194675
  0.2475356871266570  0.2690241272116367  0.1144306110853250
  0.4391152108587022  0.5470538064334249  0.1503657318602691
  0.9392947665607423  0.9531651244909298  0.1505835460042846
  0.4673024113891415  0.1941071329292683  0.2744764289539816
  0.9672364069446715  0.3061354035832551  0.2746153789904469
  0.7205060374127257  0.5132434442473937  0.3639229325994506
  0.2205740630121582  0.9866745591620827  0.3637979835029910
  0.7752161158535742  0.0577533875289120  0.3882053573000661
  0.2751400365775254  0.4423730084325044  0.3880060161197392
  0.9597461388382413  0.6645999143039418  0.4241546391134960
  0.4599032519152786  0.8355730791518425  0.4241835691583162
  0.3674451484126422  0.1210748243216173  0.6117538800567459
  0.8674964984233213  0.3790308077845737  0.6118215865337646
  0.7524811772157278  0.7309658638272225  0.6145559201701190
  0.2525172695300313  0.7689618180660673  0.6144337150118346
  0.0607739917351751  0.0468539188989752  0.6504068477804879
  0.5608212139073174  0.4530527989360920  0.6506121319036637
  0.0327426028490478  0.6938186283867651  0.7744782751783248
  0.5327450281161106  0.8060286783038251  0.7745491586656712
  0.7795024065184251  0.0132390527036392  0.8639192997207488
  0.2794393635095247  0.4867859123967264  0.8637163595651529
  0.7248214538977251  0.5576760083176282  0.8881790326341772
  0.2247250511666010  0.9422163775609391  0.8881045693192533
  0.5402301759011507  0.1645544620834869  0.9242593155626295
  0.0402797336601353  0.3352238782227843  0.9240589324116755
  0.8892012694476890  0.5979311214703529  0.2049590846634644
  0.3892243703969811  0.9019837917690197  0.2050323303787565
  0.8634462081846905  0.1235693012013996  0.2436452386339667
  0.3634154040498956  0.3765456222616166  0.2434738814918589
  0.8265916359700398  0.5565363219615023  0.5030654802598846
  0.3266417939224908  0.9435141924294896  0.5030499281802392
  0.6108847077060773  0.0979424989713777  0.7050804433224727
  0.1108293423127478  0.4017742160780102  0.7048621521763252
  0.6365709883776276  0.6235157252937213  0.7436457510099928
  0.1365380553514370  0.8763847722410105  0.7435234769570158
  0.6734393070238411  0.0565044929016594  0.0031391752377345
  0.1733929395389708  0.4434560622865504  0.0029149513182176
 
  0.00000000E+00  0.00000000E+00  0.00000000E+00
  0.00000000E+00  0.00000000E+00  0.00000000E+00
  0.00000000E+00  0.00000000E+00  0.00000000E+00
  0.00000000E+00  0.00000000E+00  0.00000000E+00
  0.00000000E+00  0.00000000E+00  0.00000000E+00
  0.00000000E+00  0.00000000E+00  0.00000000E+00
  0.00000000E+00  0.00000000E+00  0.00000000E+00
  0.00000000E+00  0.00000000E+00  0.00000000E+00
  0.00000000E+00  0.00000000E+00  0.00000000E+00
  0.00000000E+00  0.00000000E+00  0.00000000E+00
  0.00000000E+00  0.00000000E+00  0.00000000E+00
  0.00000000E+00  0.00000000E+00  0.00000000E+00
  0.00000000E+00  0.00000000E+00  0.00000000E+00
  0.00000000E+00  0.00000000E+00  0.00000000E+00
  0.00000000E+00  0.00000000E+00  0.00000000E+00
  0.00000000E+00  0.00000000E+00  0.00000000E+00
  0.00000000E+00  0.00000000E+00  0.00000000E+00
  0.00000000E+00  0.00000000E+00  0.00000000E+00
  0.00000000E+00  0.00000000E+00  0.00000000E+00
  0.00000000E+00  0.00000000E+00  0.00000000E+00
  0.00000000E+00  0.00000000E+00  0.00000000E+00
  0.00000000E+00  0.00000000E+00  0.00000000E+00
  0.00000000E+00  0.00000000E+00  0.00000000E+00
  0.00000000E+00  0.00000000E+00  0.00000000E+00
  0.00000000E+00  0.00000000E+00  0.00000000E+00
  0.00000000E+00  0.00000000E+00  0.00000000E+00
  0.00000000E+00  0.00000000E+00  0.00000000E+00
  0.00000000E+00  0.00000000E+00  0.00000000E+00
  0.00000000E+00  0.00000000E+00  0.00000000E+00
  0.00000000E+00  0.00000000E+00  0.00000000E+00
  0.00000000E+00  0.00000000E+00  0.00000000E+00
  0.00000000E+00  0.00000000E+00  0.00000000E+00
  0.00000000E+00  0.00000000E+00  0.00000000E+00
  0.00000000E+00  0.00000000E+00  0.00000000E+00
  0.00000000E+00  0.00000000E+00  0.00000000E+00
  0.00000000E+00  0.00000000E+00  0.00000000E+00
  0.00000000E+00  0.00000000E+00  0.00000000E+00
  0.00000000E+00  0.00000000E+00  0.00000000E+00
  0.00000000E+00  0.00000000E+00  0.00000000E+00
  0.00000000E+00  0.00000000E+00  0.00000000E+00
