Be2 In2 Br10                            
   1.00000000000000     
    -8.4561052963794037   -3.1903094502569682   -0.2092547617079535
     8.4557118663034601   -3.1929354523358575    0.2104527775329927
    -6.1292309604226665   -0.0036063679139656   10.2128046843792681
   In   Be   Br
     2     2    10
Direct
  0.1221422318752019  0.0885648340057514  0.0250668458878209
  0.9115578049567077  0.8779148911461547  0.5251071647042096
  0.6487897834934557  0.7098681513887755  0.2201955735358538
  0.2897926253441554  0.3508943313834578  0.7199676902021466
  0.9076932925139332  0.7012275646405186  0.0915224458982493
  0.6944814219935012  0.9251353786636827  0.1429013369195928
  0.2890683476643545  0.3771988108405750  0.2395277364269432
  0.9036222236373490  0.5775829010568856  0.3548559170303420
  0.6807730792641848  0.8668788414229667  0.4261804223972021
  0.2985934441252311  0.0921335917256556  0.5917464947311331
  0.0754694614356808  0.3056199446578347  0.6421497772969147
  0.6223889326428065  0.7106274718434236  0.7394736634182877
  0.4236438591114222  0.0979699003555652  0.8550249612203018
  0.1318824919420223  0.3182833868687780  0.9259779703309832
 
  0.00000000E+00  0.00000000E+00  0.00000000E+00
  0.00000000E+00  0.00000000E+00  0.00000000E+00
  0.00000000E+00  0.00000000E+00  0.00000000E+00
  0.00000000E+00  0.00000000E+00  0.00000000E+00
  0.00000000E+00  0.00000000E+00  0.00000000E+00
  0.00000000E+00  0.00000000E+00  0.00000000E+00
  0.00000000E+00  0.00000000E+00  0.00000000E+00
  0.00000000E+00  0.00000000E+00  0.00000000E+00
  0.00000000E+00  0.00000000E+00  0.00000000E+00
  0.00000000E+00  0.00000000E+00  0.00000000E+00
  0.00000000E+00  0.00000000E+00  0.00000000E+00
  0.00000000E+00  0.00000000E+00  0.00000000E+00
  0.00000000E+00  0.00000000E+00  0.00000000E+00
  0.00000000E+00  0.00000000E+00  0.00000000E+00
