Ca1 B2 I6                               
   1.00000000000000     
     5.3774187487923850    1.4016652054645782    8.4522625613918425
    -5.3774187487923859    1.4016652054645780    8.4522625613918425
    -0.0000000000000002   -4.6238798730183843    8.9082921426328472
   Ca   I    B 
     1     6     2
Direct
  0.0000000000000000  0.0000000000000000  0.0000000000000000
  0.6967264944739853  0.6967264944739853  0.2922411583716311
  0.8452046005662552  0.1945664168894510  0.2407633727873773
  0.1945664168894510  0.8452046005662552  0.2407633727873773
  0.3032735055260147  0.3032735055260147  0.7077588416283760
  0.8054335831105490  0.1547953994337448  0.7592366272126227
  0.1547953994337448  0.8054335831105490  0.7592366272126227
  0.1117050401408690  0.1117050401408690  0.0612407871957501
  0.8882949598591239  0.8882949598591239  0.9387592128042499
 
  0.00000000E+00  0.00000000E+00  0.00000000E+00
  0.00000000E+00  0.00000000E+00  0.00000000E+00
  0.00000000E+00  0.00000000E+00  0.00000000E+00
  0.00000000E+00  0.00000000E+00  0.00000000E+00
  0.00000000E+00  0.00000000E+00  0.00000000E+00
  0.00000000E+00  0.00000000E+00  0.00000000E+00
  0.00000000E+00  0.00000000E+00  0.00000000E+00
  0.00000000E+00  0.00000000E+00  0.00000000E+00
  0.00000000E+00  0.00000000E+00  0.00000000E+00
