Ba22 B14                                
   1.00000000000000     
    -9.1160742706451998   10.1224107528527050   -0.6435909712548987
     8.4745564244191982    0.0000000000000000   -6.3819714381946113
    -9.1160742706451998  -10.1224107528527050   -0.6435909712548987
   Ba   B 
    22    14
Direct
  0.0929688698051052  0.1052207101434561  0.0929688698051052
  0.4249893334363151  0.2919011755792624  0.1671975780519332
  0.9003459810455041  0.2648102941099495  0.1715811420032196
  0.8299003437256971  0.7128027382187057  0.0501639353586114
  0.3583091597078862  0.8082492662760075  0.9973196246736364
  0.3091888256692741  0.7053625495147386  0.3091888256692741
  0.6030022953849041  0.6844215360938932  0.1709479185849361
  0.1671975780519332  0.2919011755792624  0.4249893334363151
  0.9973196246736364  0.8082492662760075  0.3583091597078862
  0.6720429185240420  0.3740487459382535  0.6720429185240420
  0.8821794919264292  0.1092019446072712  0.5119132706361427
  0.3380919497888257  0.1056680744118523  0.3380919497888257
  0.7057428495705125  0.1918860552617900  0.3262207077454917
  0.1709479185849361  0.6844215360938932  0.6030022953849041
  0.5547275141730736  0.7760009093321329  0.5547275141730736
  0.8578188442722166  0.7670071623479444  0.5981186424597524
  0.5119132706361427  0.1092019446072712  0.8821794919264292
  0.3262207077454917  0.1918860552617900  0.7057428495705125
  0.9315598458833634  0.3772220131328936  0.9315598458833634
  0.1715811420032196  0.2648102941099495  0.9003459810455041
  0.0501639353586114  0.7128027382187057  0.8299003437256971
  0.5981186424597524  0.7670071623479444  0.8578188442722166
  0.6832956510511323  0.4552827319667543  0.1737667830813407
  0.0937061774857497  0.8234646708379714  0.0937061774857497
  0.8656473947597974  0.0549897304561640  0.2627075670857408
  0.3273253670879583  0.4646872285041255  0.3273253670879583
  0.6642025415173265  0.2680973158159290  0.1434919322901678
  0.7384539023021404  0.6422524373779552  0.3275203374091902
  0.7344285175649006  0.4650926055200628  0.2951002651225210
  0.1737667830813407  0.4552827319667543  0.6832956510511323
  0.1434919322901678  0.2680973158159290  0.6642025415173265
  0.3275203374091902  0.6422524373779552  0.7384539023021404
  0.2627075670857408  0.0549897304561640  0.8656473947597974
  0.8921562926562814  0.0188319347395520  0.8921562926562814
  0.8434662281588601  0.8175031761816527  0.8434662281588601
  0.2951002651225210  0.4650926055200628  0.7344285175649006
 
  0.00000000E+00  0.00000000E+00  0.00000000E+00
  0.00000000E+00  0.00000000E+00  0.00000000E+00
  0.00000000E+00  0.00000000E+00  0.00000000E+00
  0.00000000E+00  0.00000000E+00  0.00000000E+00
  0.00000000E+00  0.00000000E+00  0.00000000E+00
  0.00000000E+00  0.00000000E+00  0.00000000E+00
  0.00000000E+00  0.00000000E+00  0.00000000E+00
  0.00000000E+00  0.00000000E+00  0.00000000E+00
  0.00000000E+00  0.00000000E+00  0.00000000E+00
  0.00000000E+00  0.00000000E+00  0.00000000E+00
  0.00000000E+00  0.00000000E+00  0.00000000E+00
  0.00000000E+00  0.00000000E+00  0.00000000E+00
  0.00000000E+00  0.00000000E+00  0.00000000E+00
  0.00000000E+00  0.00000000E+00  0.00000000E+00
  0.00000000E+00  0.00000000E+00  0.00000000E+00
  0.00000000E+00  0.00000000E+00  0.00000000E+00
  0.00000000E+00  0.00000000E+00  0.00000000E+00
  0.00000000E+00  0.00000000E+00  0.00000000E+00
  0.00000000E+00  0.00000000E+00  0.00000000E+00
  0.00000000E+00  0.00000000E+00  0.00000000E+00
  0.00000000E+00  0.00000000E+00  0.00000000E+00
  0.00000000E+00  0.00000000E+00  0.00000000E+00
  0.00000000E+00  0.00000000E+00  0.00000000E+00
  0.00000000E+00  0.00000000E+00  0.00000000E+00
  0.00000000E+00  0.00000000E+00  0.00000000E+00
  0.00000000E+00  0.00000000E+00  0.00000000E+00
  0.00000000E+00  0.00000000E+00  0.00000000E+00
  0.00000000E+00  0.00000000E+00  0.00000000E+00
  0.00000000E+00  0.00000000E+00  0.00000000E+00
  0.00000000E+00  0.00000000E+00  0.00000000E+00
  0.00000000E+00  0.00000000E+00  0.00000000E+00
  0.00000000E+00  0.00000000E+00  0.00000000E+00
  0.00000000E+00  0.00000000E+00  0.00000000E+00
  0.00000000E+00  0.00000000E+00  0.00000000E+00
  0.00000000E+00  0.00000000E+00  0.00000000E+00
  0.00000000E+00  0.00000000E+00  0.00000000E+00
