Ba1 Al13                                
   1.00000000000000     
     4.9738114901146062   -3.6023650373827234   -1.7830083891044688
     4.9738114901146062    3.6023650373827234   -1.7830083891044690
    -3.2694431267289001    0.0000000000000000    9.0706211676653670
   Ba   Al
     1    13
Direct
  0.9999354673612615  0.9999354673612615  0.0000495065346371
  0.6401288387194555  0.6401288387194555  0.0206818539280107
  0.6072406243695099  0.1711220682910977  0.2348979355951357
  0.1711220682910977  0.6072406243695099  0.2348979355951357
  0.8752514630477819  0.5120438782636398  0.3281723911579419
  0.5120438782636398  0.8752514630477819  0.3281723911579419
  0.6461368742700060  0.6461368742700060  0.5441821102546882
  0.9999871105471598  0.9999871105471598  0.4998531915189588
  0.3538618041246266  0.3538618041246266  0.4558683967831954
  0.4879893320417921  0.1247666993095464  0.6718931267290813
  0.1247666993095464  0.4879893320417921  0.6718931267290813
  0.8289746156489741  0.3925300058792445  0.7650572283502584
  0.3925300058792445  0.8289746156489741  0.7650572283502584
  0.3599202181259002  0.3599202181259002  0.9793235773156610
 
  0.00000000E+00  0.00000000E+00  0.00000000E+00
  0.00000000E+00  0.00000000E+00  0.00000000E+00
  0.00000000E+00  0.00000000E+00  0.00000000E+00
  0.00000000E+00  0.00000000E+00  0.00000000E+00
  0.00000000E+00  0.00000000E+00  0.00000000E+00
  0.00000000E+00  0.00000000E+00  0.00000000E+00
  0.00000000E+00  0.00000000E+00  0.00000000E+00
  0.00000000E+00  0.00000000E+00  0.00000000E+00
  0.00000000E+00  0.00000000E+00  0.00000000E+00
  0.00000000E+00  0.00000000E+00  0.00000000E+00
  0.00000000E+00  0.00000000E+00  0.00000000E+00
  0.00000000E+00  0.00000000E+00  0.00000000E+00
  0.00000000E+00  0.00000000E+00  0.00000000E+00
  0.00000000E+00  0.00000000E+00  0.00000000E+00
