GaI                                     
   1.00000000000000     
     0.0000000000000000    3.3269480036993926    3.3269480036993926
     3.3269480036993926    0.0000000000000000    3.3269480036993926
     3.3269480036993926    3.3269480036993926    0.0000000000000000
   Ga   I 
     1     1
Direct
  0.0000000000000000  0.0000000000000000  0.0000000000000000
  0.5000000000000000  0.5000000000000000  0.5000000000000000
 
  0.00000000E+00  0.00000000E+00  0.00000000E+00
  0.00000000E+00  0.00000000E+00  0.00000000E+00
