Sr1 Ga13                                
   1.00000000000000     
     4.5267092582429056   -4.2270382106395097   -1.0510021406496330
     4.5267092582429056    4.2270382106395097   -1.0510021406496328
    -2.2132805596094731    0.0000000000000001    8.1602496660891930
   Sr   Ga
     1    13
Direct
  0.0032984889247416  0.0032984889247416  0.9991632773507462
  0.6604104898427039  0.6604104898427039  0.0758307392954052
  0.5809999372749033  0.1132954758612144  0.1804966848939600
  0.1132954758612144  0.5809999372749033  0.1804966848939600
  0.8766758107804620  0.4400344790696238  0.3328481957939715
  0.4400344790696238  0.8766758107804620  0.3328481957939715
  0.6616251044493993  0.6616251044493993  0.5849358783670624
  0.9637071210575670  0.9637071210575670  0.4935314272071807
  0.3444100334983631  0.3444100334983631  0.4127102243692278
  0.5541336234058463  0.1396752472181007  0.6700167310083458
  0.1396752472181007  0.5541336234058463  0.6700167310083458
  0.8899322445673903  0.4272345929854922  0.8192178948766298
  0.4272345929854922  0.8899322445673903  0.8192178948766298
  0.3444563510641530  0.3444563510641530  0.9286694402645281
 
  0.00000000E+00  0.00000000E+00  0.00000000E+00
  0.00000000E+00  0.00000000E+00  0.00000000E+00
  0.00000000E+00  0.00000000E+00  0.00000000E+00
  0.00000000E+00  0.00000000E+00  0.00000000E+00
  0.00000000E+00  0.00000000E+00  0.00000000E+00
  0.00000000E+00  0.00000000E+00  0.00000000E+00
  0.00000000E+00  0.00000000E+00  0.00000000E+00
  0.00000000E+00  0.00000000E+00  0.00000000E+00
  0.00000000E+00  0.00000000E+00  0.00000000E+00
  0.00000000E+00  0.00000000E+00  0.00000000E+00
  0.00000000E+00  0.00000000E+00  0.00000000E+00
  0.00000000E+00  0.00000000E+00  0.00000000E+00
  0.00000000E+00  0.00000000E+00  0.00000000E+00
  0.00000000E+00  0.00000000E+00  0.00000000E+00
