Ga4                                     
   1.00000000000000     
     2.3256767221436969   -3.8996582525219754    0.0000000000000000
     2.3256767221436969    3.8996582525219754    0.0000000000000000
     0.0000000000000000    0.0000000000000000    4.6398513521340190
   Ga
     4
Direct
  0.3350042010989753  0.0118971522210387  0.2500000000000000
  0.9881028477789613  0.6649957989010247  0.7500000000000000
  0.6649957989010247  0.9881028477789613  0.7500000000000000
  0.0118971522210387  0.3350042010989753  0.2500000000000000
 
  0.00000000E+00  0.00000000E+00  0.00000000E+00
  0.00000000E+00  0.00000000E+00  0.00000000E+00
  0.00000000E+00  0.00000000E+00  0.00000000E+00
  0.00000000E+00  0.00000000E+00  0.00000000E+00
