Be3 In4                                 
   1.00000000000000     
     2.7345702764158140    1.8568672706085569    6.7570299356284229
    -2.7345702764158117    1.8568672706085563    6.7570299356284220
     0.0000000000000011   -1.9654018850801567    6.4338547450756556
   In   Be
     4     3
Direct
  0.1658316604861625  0.1658316604861625  0.0455338871017972
  0.2994744166435979  0.2994744166435979  0.3151960688037292
  0.6965255833564044  0.6965255833564044  0.6808039311962730
  0.8301683395138397  0.8301683395138397  0.9504661128982050
  0.5273791547758080  0.5273791547758080  0.2941787154097355
  0.4686208452241942  0.4686208452241942  0.7018212845902667
  0.9979999999999976  0.9979999999999976  0.9979999999999976
 
  0.00000000E+00  0.00000000E+00  0.00000000E+00
  0.00000000E+00  0.00000000E+00  0.00000000E+00
  0.00000000E+00  0.00000000E+00  0.00000000E+00
  0.00000000E+00  0.00000000E+00  0.00000000E+00
  0.00000000E+00  0.00000000E+00  0.00000000E+00
  0.00000000E+00  0.00000000E+00  0.00000000E+00
  0.00000000E+00  0.00000000E+00  0.00000000E+00
