Ba1 Ga12                                
   1.00000000000000     
     0.0000000000000000    5.4419055984768763    5.4419055984768763
     5.4419055984768772    0.0000000000000000    5.4419055984768763
     5.4419055984768772    5.4419055984768763    0.0000000000000000
   Ga   Ba
    12     1
Direct
  0.8400395332523161  0.5000000000000000  0.1599604667476839
  0.5000000000000000  0.8400395332523161  0.1599604667476839
  0.5000000000000000  0.5000000000000000  0.1599604667476839
  0.5000000000000000  0.1599604667476839  0.5000000000000000
  0.8400395332523161  0.1599604667476839  0.5000000000000000
  0.1599604667476839  0.5000000000000000  0.5000000000000000
  0.8400395332523161  0.5000000000000000  0.5000000000000000
  0.5000000000000000  0.8400395332523161  0.5000000000000000
  0.1599604667476839  0.8400395332523161  0.5000000000000000
  0.5000000000000000  0.1599604667476839  0.8400395332523161
  0.5000000000000000  0.5000000000000000  0.8400395332523161
  0.1599604667476839  0.5000000000000000  0.8400395332523161
  0.0000000000000000  0.0000000000000000  0.0000000000000000
 
  0.00000000E+00  0.00000000E+00  0.00000000E+00
  0.00000000E+00  0.00000000E+00  0.00000000E+00
  0.00000000E+00  0.00000000E+00  0.00000000E+00
  0.00000000E+00  0.00000000E+00  0.00000000E+00
  0.00000000E+00  0.00000000E+00  0.00000000E+00
  0.00000000E+00  0.00000000E+00  0.00000000E+00
  0.00000000E+00  0.00000000E+00  0.00000000E+00
  0.00000000E+00  0.00000000E+00  0.00000000E+00
  0.00000000E+00  0.00000000E+00  0.00000000E+00
  0.00000000E+00  0.00000000E+00  0.00000000E+00
  0.00000000E+00  0.00000000E+00  0.00000000E+00
  0.00000000E+00  0.00000000E+00  0.00000000E+00
  0.00000000E+00  0.00000000E+00  0.00000000E+00
