Be4 Tl4 F20                             
   1.0000000000000000     
     4.5095796293615793   -0.0000000000000000    0.0000000000000003
    -0.0000000000000003    4.9198434387722481    0.0000000000000003
    -0.0000000000000001   -0.0000000000000000   14.5445155558729251
   Be   Tl   F 
     4     4    20
Direct
  0.8831088135848901  0.5798142652060960  0.5904293615601688
  0.3831088135848901  0.9201857347939040  0.4095706384398312
  0.1168911864151099  0.0798142652060960  0.9095706384398312
  0.6168911864151099  0.4201857347939040  0.0904293615601688
  0.3810490419478043  0.1153921393395336  0.6417360608517697
  0.8810490419478043  0.3846078606604664  0.3582639391482303
  0.6189509580521957  0.6153921393395336  0.8582639391482303
  0.1189509580521957  0.8846078606604664  0.1417360608517697
  0.0240928152606017  0.5025369889136968  0.4961532305820242
  0.5240928152606017  0.9974630110863032  0.5038467694179758
  0.9759071847393983  0.0025369889136968  0.0038467694179758
  0.4759071847393983  0.4974630110863032  0.9961532305820242
  0.4476941006157489  0.6180879610980909  0.3838865784647325
  0.9476941006157489  0.8819120389019091  0.6161134215352604
  0.5523058993842511  0.1180879610980909  0.1161134215352604
  0.0523058993842511  0.3819120389019091  0.8838865784647325
  0.0148166276405561  0.3969072589310016  0.6680551988968517
  0.5148166276405561  0.1030927410689984  0.3319448011031483
  0.9851833723594510  0.8969072589310016  0.8319448011031483
  0.4851833723594439  0.6030927410689984  0.1680551988968517
  0.5464317986370375  0.2669312827483452  0.7746020881956568
  0.0464317986370233  0.2330687172516548  0.2253979118043361
  0.4535682013629767  0.7669312827483523  0.7253979118043432
  0.9535682013629625  0.7330687172516477  0.2746020881956568
  0.5514739150454986  0.4952439630637642  0.5808048736128342
  0.0514739150454986  0.0047560369362358  0.4191951263871658
  0.4485260849545014  0.9952439630637713  0.9191951263871658
  0.9485260849545014  0.5047560369362287  0.0808048736128413

  0.00000000E+00  0.00000000E+00  0.00000000E+00
  0.00000000E+00  0.00000000E+00  0.00000000E+00
  0.00000000E+00  0.00000000E+00  0.00000000E+00
  0.00000000E+00  0.00000000E+00  0.00000000E+00
  0.00000000E+00  0.00000000E+00  0.00000000E+00
  0.00000000E+00  0.00000000E+00  0.00000000E+00
  0.00000000E+00  0.00000000E+00  0.00000000E+00
  0.00000000E+00  0.00000000E+00  0.00000000E+00
  0.00000000E+00  0.00000000E+00  0.00000000E+00
  0.00000000E+00  0.00000000E+00  0.00000000E+00
  0.00000000E+00  0.00000000E+00  0.00000000E+00
  0.00000000E+00  0.00000000E+00  0.00000000E+00
  0.00000000E+00  0.00000000E+00  0.00000000E+00
  0.00000000E+00  0.00000000E+00  0.00000000E+00
  0.00000000E+00  0.00000000E+00  0.00000000E+00
  0.00000000E+00  0.00000000E+00  0.00000000E+00
  0.00000000E+00  0.00000000E+00  0.00000000E+00
  0.00000000E+00  0.00000000E+00  0.00000000E+00
  0.00000000E+00  0.00000000E+00  0.00000000E+00
  0.00000000E+00  0.00000000E+00  0.00000000E+00
  0.00000000E+00  0.00000000E+00  0.00000000E+00
  0.00000000E+00  0.00000000E+00  0.00000000E+00
  0.00000000E+00  0.00000000E+00  0.00000000E+00
  0.00000000E+00  0.00000000E+00  0.00000000E+00
  0.00000000E+00  0.00000000E+00  0.00000000E+00
  0.00000000E+00  0.00000000E+00  0.00000000E+00
  0.00000000E+00  0.00000000E+00  0.00000000E+00
  0.00000000E+00  0.00000000E+00  0.00000000E+00
