Sr15 Ga1                                
   1.00000000000000     
     4.2142165005033592   -7.2992378008607988    0.0000000000000000
     4.2142165005033592    7.2992378008607988    0.0000000000000000
     0.0000000000000000    0.0000000000000000   13.4191686229057492
   Sr   Ga
    15     1
Direct
  0.0000000000000000  0.0000000000000000  0.0000000000000000
  0.9927460034824946  0.4963730017419437  0.5000000000000000
  0.0020815779028212  0.5010407889490480  0.0000000000000000
  0.5036269982594774  0.4963730017405226  0.5000000000000000
  0.4989592110462269  0.5010407889537731  0.0000000000000000
  0.5036269982580563  0.0072539965175125  0.5000000000000000
  0.4989592110509520  0.9979184220971788  0.0000000000000000
  0.1610375161045781  0.3220760322285514  0.2656742946547297
  0.1610375161045781  0.3220760322285514  0.7343257053452703
  0.1610375161239759  0.8389624838760241  0.2656742946547297
  0.1610375161239759  0.8389624838760241  0.7343257053452703
  0.6779239677714486  0.8389624838954219  0.2656742946547297
  0.6779239677714486  0.8389624838954219  0.7343257053452703
  0.6666669999999968  0.3333330000000032  0.2450515971517433
  0.6666669999999968  0.3333330000000032  0.7549484028482567
  0.0000000000000000  0.0000000000000000  0.5000000000000000
 
  0.00000000E+00  0.00000000E+00  0.00000000E+00
  0.00000000E+00  0.00000000E+00  0.00000000E+00
  0.00000000E+00  0.00000000E+00  0.00000000E+00
  0.00000000E+00  0.00000000E+00  0.00000000E+00
  0.00000000E+00  0.00000000E+00  0.00000000E+00
  0.00000000E+00  0.00000000E+00  0.00000000E+00
  0.00000000E+00  0.00000000E+00  0.00000000E+00
  0.00000000E+00  0.00000000E+00  0.00000000E+00
  0.00000000E+00  0.00000000E+00  0.00000000E+00
  0.00000000E+00  0.00000000E+00  0.00000000E+00
  0.00000000E+00  0.00000000E+00  0.00000000E+00
  0.00000000E+00  0.00000000E+00  0.00000000E+00
  0.00000000E+00  0.00000000E+00  0.00000000E+00
  0.00000000E+00  0.00000000E+00  0.00000000E+00
  0.00000000E+00  0.00000000E+00  0.00000000E+00
  0.00000000E+00  0.00000000E+00  0.00000000E+00
