Mg4 Tl4 Cl20                            
   1.0000000000000000     
    11.7820783612947473    0.0000000000000000    0.0000000000000000
     0.0000000000000000    6.4983374676573389   -0.0133234882394301
     0.0000000000000000    2.8919051887202980   10.7749284090867565
   Mg   Tl   Cl
     4     4    20
Direct
  0.9296962237469373  0.3753391995999209  0.3944239277142003
  0.4296962237469373  0.6246608004000791  0.1055760722857997
  0.0703037762530627  0.6246608004000791  0.6055760722857997
  0.5703037762530627  0.3753391995999209  0.8944239277142003
  0.7657215932099177  0.0110676467936841  0.7108747225263130
  0.2657215932099106  0.9889323532063159  0.7891252774736870
  0.2342784067900894  0.9889323532063159  0.2891252774736941
  0.7342784067900823  0.0110676467936841  0.2108747225263130
  0.5624388314471176  0.4094181113708757  0.4782440457252477
  0.0624388314471176  0.5905818886291243  0.0217559542747523
  0.4375611685528824  0.5905818886291243  0.5217559542747523
  0.9375611685528824  0.4094181113708757  0.9782440457252477
  0.7547843280948570  0.0995534389298243  0.4453833950997321
  0.2547843280948570  0.9004465610701757  0.0546166049002679
  0.2452156719051430  0.9004465610701757  0.5546166049002679
  0.7452156719051430  0.0995534389298243  0.9453833950997321
  0.4938978922046147  0.1107284378721118  0.7978581867495933
  0.9938978922046147  0.8892715621278882  0.7021418132504067
  0.5061021077953853  0.8892715621278882  0.2021418132504067
  0.0061021077953853  0.1107284378721118  0.2978581867495933
  0.6659612542878079  0.6267929661722462  0.7340599494470936
  0.1659612542878079  0.3732070338277538  0.7659400505529064
  0.3340387457121921  0.3732070338277538  0.2659400505529064
  0.8340387457121921  0.6267929661722462  0.2340599494470936
  0.3887060993989380  0.5601384042539053  0.9070608211523634
  0.8887060993989380  0.4398615957460947  0.5929391788476366
  0.6112939006010620  0.4398615957460947  0.0929391788476366
  0.1112939006010620  0.5601384042539053  0.4070608211523634

  0.00000000E+00  0.00000000E+00  0.00000000E+00
  0.00000000E+00  0.00000000E+00  0.00000000E+00
  0.00000000E+00  0.00000000E+00  0.00000000E+00
  0.00000000E+00  0.00000000E+00  0.00000000E+00
  0.00000000E+00  0.00000000E+00  0.00000000E+00
  0.00000000E+00  0.00000000E+00  0.00000000E+00
  0.00000000E+00  0.00000000E+00  0.00000000E+00
  0.00000000E+00  0.00000000E+00  0.00000000E+00
  0.00000000E+00  0.00000000E+00  0.00000000E+00
  0.00000000E+00  0.00000000E+00  0.00000000E+00
  0.00000000E+00  0.00000000E+00  0.00000000E+00
  0.00000000E+00  0.00000000E+00  0.00000000E+00
  0.00000000E+00  0.00000000E+00  0.00000000E+00
  0.00000000E+00  0.00000000E+00  0.00000000E+00
  0.00000000E+00  0.00000000E+00  0.00000000E+00
  0.00000000E+00  0.00000000E+00  0.00000000E+00
  0.00000000E+00  0.00000000E+00  0.00000000E+00
  0.00000000E+00  0.00000000E+00  0.00000000E+00
  0.00000000E+00  0.00000000E+00  0.00000000E+00
  0.00000000E+00  0.00000000E+00  0.00000000E+00
  0.00000000E+00  0.00000000E+00  0.00000000E+00
  0.00000000E+00  0.00000000E+00  0.00000000E+00
  0.00000000E+00  0.00000000E+00  0.00000000E+00
  0.00000000E+00  0.00000000E+00  0.00000000E+00
  0.00000000E+00  0.00000000E+00  0.00000000E+00
  0.00000000E+00  0.00000000E+00  0.00000000E+00
  0.00000000E+00  0.00000000E+00  0.00000000E+00
  0.00000000E+00  0.00000000E+00  0.00000000E+00
