Mg13 Ga14                               
   1.00000000000000     
     6.6081112245614353   -4.6796642758025149    0.0930851738613925
     6.6081112245614353    4.6796642758025149    0.0930851738613925
    -2.4375915481114325    0.0000000000000000    8.5620613397082401
   Ga   Mg
    14    13
Direct
  0.7821781942011512  0.2178646293376758  0.9999712554956730
  0.2178646293376758  0.7821781942011512  0.9999712554956730
  0.8086331684404300  0.5306000059793448  0.0758818291901164
  0.5306000059793448  0.8086331684404300  0.0758818291901164
  0.0021642065035365  0.0021642065035365  0.1901034582744927
  0.7621687837343174  0.7621687837343174  0.3659073112519096
  0.3223614158819714  0.3223614158819714  0.3933438988448685
  0.6550780067129693  0.3449572231175324  0.4999794896146028
  0.3449572231175324  0.6550780067129693  0.4999794896146028
  0.6776725201146334  0.6776725201146334  0.6066137685764730
  0.2378819614949776  0.2378819614949776  0.6340676083065020
  0.9978733208706529  0.9978733208706529  0.8098419042378140
  0.4694436034432812  0.1914065694025098  0.9240775941355892
  0.1914065694025098  0.4694436034432812  0.9240775941355892
  0.1916972103775549  0.1916972103775549  0.0796933935597366
  0.5047775986778902  0.5047775986778902  0.2053283508960178
  0.6404110065017150  0.0942198034880661  0.2371162982156250
  0.0942198034880661  0.6404110065017150  0.2371162982156250
  0.9345267646771589  0.3592284450825360  0.3577310405242287
  0.3592284450825360  0.9345267646771589  0.3577310405242287
  0.0000244404825978  0.0000244404825978  0.4999773649614028
  0.6408077677792861  0.0655056878588667  0.6422202063943558
  0.0655056878588667  0.6408077677792861  0.6422202063943558
  0.9058221441796377  0.3596286819711665  0.7628388847932328
  0.3596286819711665  0.9058221441796377  0.7628388847932328
  0.4952645974990659  0.4952645974990659  0.7946328815870700
  0.8083422421894824  0.8083422421894824  0.9202568627769026
 
  0.00000000E+00  0.00000000E+00  0.00000000E+00
  0.00000000E+00  0.00000000E+00  0.00000000E+00
  0.00000000E+00  0.00000000E+00  0.00000000E+00
  0.00000000E+00  0.00000000E+00  0.00000000E+00
  0.00000000E+00  0.00000000E+00  0.00000000E+00
  0.00000000E+00  0.00000000E+00  0.00000000E+00
  0.00000000E+00  0.00000000E+00  0.00000000E+00
  0.00000000E+00  0.00000000E+00  0.00000000E+00
  0.00000000E+00  0.00000000E+00  0.00000000E+00
  0.00000000E+00  0.00000000E+00  0.00000000E+00
  0.00000000E+00  0.00000000E+00  0.00000000E+00
  0.00000000E+00  0.00000000E+00  0.00000000E+00
  0.00000000E+00  0.00000000E+00  0.00000000E+00
  0.00000000E+00  0.00000000E+00  0.00000000E+00
  0.00000000E+00  0.00000000E+00  0.00000000E+00
  0.00000000E+00  0.00000000E+00  0.00000000E+00
  0.00000000E+00  0.00000000E+00  0.00000000E+00
  0.00000000E+00  0.00000000E+00  0.00000000E+00
  0.00000000E+00  0.00000000E+00  0.00000000E+00
  0.00000000E+00  0.00000000E+00  0.00000000E+00
  0.00000000E+00  0.00000000E+00  0.00000000E+00
  0.00000000E+00  0.00000000E+00  0.00000000E+00
  0.00000000E+00  0.00000000E+00  0.00000000E+00
  0.00000000E+00  0.00000000E+00  0.00000000E+00
  0.00000000E+00  0.00000000E+00  0.00000000E+00
  0.00000000E+00  0.00000000E+00  0.00000000E+00
  0.00000000E+00  0.00000000E+00  0.00000000E+00
