Be2Cl                                   
   1.00000000000000     
     5.7693160003287947    0.0000000000000000    0.0000000000000000
     0.0000000000000000    5.7693160003287947    0.0000000000000000
     0.0000000000000000    0.0000000000000000    2.8406484878126244
   Be   Cl
     4     2
Direct
  0.2656778827909534  0.2656778827909534  0.0000000000000000
  0.7343221172090466  0.7343221172090466  0.0000000000000000
  0.7656778827909534  0.2343221172090466  0.5000000000000000
  0.2343221172090466  0.7656778827909534  0.5000000000000000
  0.0000000000000000  0.0000000000000000  0.0000000000000000
  0.5000000000000000  0.5000000000000000  0.5000000000000000
 
  0.00000000E+00  0.00000000E+00  0.00000000E+00
  0.00000000E+00  0.00000000E+00  0.00000000E+00
  0.00000000E+00  0.00000000E+00  0.00000000E+00
  0.00000000E+00  0.00000000E+00  0.00000000E+00
  0.00000000E+00  0.00000000E+00  0.00000000E+00
  0.00000000E+00  0.00000000E+00  0.00000000E+00
