Ba16 Tl12 F1                            
   1.0000000000000000     
     9.8505748817543957   -5.6862762850845225    4.0150570181385250
    -0.1596466274795812   10.9122612327305895    3.7544381880245408
    -9.5370992476011036   -5.3224533541733878    3.7658044840115186
   Tl   F    Ba
    12     1    16
Direct
  0.8132450337633870  0.6086176000520283  0.9998285843752512
  0.6165270339442799  0.8225372165071576  0.0000434666971643
  0.3893422060491005  0.4014244775070850  0.2281004166404301
  0.1612145578323450  0.7718499811967163  0.1730040239363930
  0.7938322367541062  0.1768372009507857  0.1772648395519809
  0.3889824601281830  0.2279388582646789  0.4007137190657417
  0.2036533035884176  0.3903849077381949  0.3905831292102562
  0.8138539741331243  0.0001090099528938  0.6110277693655917
  0.9882277983132681  0.8269741141405831  0.5993503131649476
  0.6171656838569675  0.9999889258554333  0.8235083113767061
  0.9881873721112342  0.5992335071285311  0.8269198423520621
  0.1616729289842169  0.1734553736026427  0.7726411430849964
  0.3796437530128784  0.0002298203683964  0.9997573588767068
  0.5154066767916703  0.2383662236159907  0.9999294684435185
  0.2627494403432280  0.5343601637996258  0.9997351427593131
  0.1675270290330531  0.0003725302633129  0.9996297616974488
  0.9901060621589579  0.2435204576142880  0.0006077896538272
  0.6988353966823766  0.7180443703181609  0.2638165755651869
  0.5143480909137494  0.9999306623110797  0.2374188413129446
  0.9810725466478587  0.5459137552170574  0.2832380028863497
  0.9897348286888459  0.9995288259032549  0.2407830190648568
  0.4352466517573816  0.7372453270170354  0.4543167543977162
  0.7285221561480455  0.4657827855065477  0.4658332268990506
  0.2620253119472125  0.0001075871126659  0.5339415585128506
  0.9808423559309318  0.2817953813702516  0.5453898247137516
  0.7469942414492010  0.7569744732441421  0.7574270552735172
  0.6981840314273811  0.2623858033171231  0.7165858158460949
  0.2767978921417154  0.7620897176375081  0.7617955976760982
  0.4352589454668845  0.4540019424868404  0.7368106475992349

  0.00000000E+00  0.00000000E+00  0.00000000E+00
  0.00000000E+00  0.00000000E+00  0.00000000E+00
  0.00000000E+00  0.00000000E+00  0.00000000E+00
  0.00000000E+00  0.00000000E+00  0.00000000E+00
  0.00000000E+00  0.00000000E+00  0.00000000E+00
  0.00000000E+00  0.00000000E+00  0.00000000E+00
  0.00000000E+00  0.00000000E+00  0.00000000E+00
  0.00000000E+00  0.00000000E+00  0.00000000E+00
  0.00000000E+00  0.00000000E+00  0.00000000E+00
  0.00000000E+00  0.00000000E+00  0.00000000E+00
  0.00000000E+00  0.00000000E+00  0.00000000E+00
  0.00000000E+00  0.00000000E+00  0.00000000E+00
  0.00000000E+00  0.00000000E+00  0.00000000E+00
  0.00000000E+00  0.00000000E+00  0.00000000E+00
  0.00000000E+00  0.00000000E+00  0.00000000E+00
  0.00000000E+00  0.00000000E+00  0.00000000E+00
  0.00000000E+00  0.00000000E+00  0.00000000E+00
  0.00000000E+00  0.00000000E+00  0.00000000E+00
  0.00000000E+00  0.00000000E+00  0.00000000E+00
  0.00000000E+00  0.00000000E+00  0.00000000E+00
  0.00000000E+00  0.00000000E+00  0.00000000E+00
  0.00000000E+00  0.00000000E+00  0.00000000E+00
  0.00000000E+00  0.00000000E+00  0.00000000E+00
  0.00000000E+00  0.00000000E+00  0.00000000E+00
  0.00000000E+00  0.00000000E+00  0.00000000E+00
  0.00000000E+00  0.00000000E+00  0.00000000E+00
  0.00000000E+00  0.00000000E+00  0.00000000E+00
  0.00000000E+00  0.00000000E+00  0.00000000E+00
  0.00000000E+00  0.00000000E+00  0.00000000E+00
