Ba4 In4 F20                             
   1.0000000000000000     
     4.7339420530974028   -0.0000000000000000    0.0000000000000003
    -0.0000000000000003    6.0631056833780468    0.0000000000000003
     0.0000000000000000    0.0000000000000000   14.3123088864656527
   Ba   In   F 
     4     4    20
Direct
  0.6610699779986930  0.3646607937296906  0.3383999187798210
  0.1610699779986930  0.1353392062703094  0.6616000812201790
  0.3389300220013070  0.8646607937296906  0.1616000812201790
  0.8389300220012998  0.6353392062703094  0.8383999187798210
  0.0511308168736946  0.8864432501489290  0.4107254907366098
  0.5511308168736875  0.6135567498510710  0.5892745092633902
  0.9488691831263125  0.3864432501489361  0.0892745092633831
  0.4488691831263054  0.1135567498510639  0.9107254907366027
  0.8674200299526333  0.6174575200809898  0.4858183471222972
  0.3674200299526191  0.8825424799190102  0.5141816528776957
  0.1325799700473667  0.1174575200809969  0.0141816528777028
  0.6325799700473667  0.3825424799190031  0.9858183471223043
  0.6701064356774893  0.8907951127470994  0.3358635836732802
  0.1701064356774893  0.6092048872529006  0.6641364163267198
  0.3298935643225107  0.3907951127470994  0.1641364163267198
  0.8298935643225107  0.1092048872529006  0.8358635836732802
  0.1168061741176629  0.6289608369004185  0.0050442807237587
  0.6168061741176558  0.8710391630995815  0.9949557192762413
  0.8831938258823442  0.1289608369004185  0.4949557192762413
  0.3831938258823371  0.3710391630995815  0.5050442807237587
  0.8140658509266245  0.6317260852654769  0.1811463637358628
  0.3140658509266245  0.8682739147345231  0.8188536362641372
  0.1859341490733755  0.1317260852654769  0.3188536362641372
  0.6859341490733755  0.3682739147345160  0.6811463637358628
  0.3033728914181921  0.3700181443365622  0.8275809675137893
  0.8033728914181921  0.1299818556634378  0.1724190324862107
  0.6966271085818079  0.8700181443365693  0.6724190324862107
  0.1966271085818079  0.6299818556634307  0.3275809675137893

  0.00000000E+00  0.00000000E+00  0.00000000E+00
  0.00000000E+00  0.00000000E+00  0.00000000E+00
  0.00000000E+00  0.00000000E+00  0.00000000E+00
  0.00000000E+00  0.00000000E+00  0.00000000E+00
  0.00000000E+00  0.00000000E+00  0.00000000E+00
  0.00000000E+00  0.00000000E+00  0.00000000E+00
  0.00000000E+00  0.00000000E+00  0.00000000E+00
  0.00000000E+00  0.00000000E+00  0.00000000E+00
  0.00000000E+00  0.00000000E+00  0.00000000E+00
  0.00000000E+00  0.00000000E+00  0.00000000E+00
  0.00000000E+00  0.00000000E+00  0.00000000E+00
  0.00000000E+00  0.00000000E+00  0.00000000E+00
  0.00000000E+00  0.00000000E+00  0.00000000E+00
  0.00000000E+00  0.00000000E+00  0.00000000E+00
  0.00000000E+00  0.00000000E+00  0.00000000E+00
  0.00000000E+00  0.00000000E+00  0.00000000E+00
  0.00000000E+00  0.00000000E+00  0.00000000E+00
  0.00000000E+00  0.00000000E+00  0.00000000E+00
  0.00000000E+00  0.00000000E+00  0.00000000E+00
  0.00000000E+00  0.00000000E+00  0.00000000E+00
  0.00000000E+00  0.00000000E+00  0.00000000E+00
  0.00000000E+00  0.00000000E+00  0.00000000E+00
  0.00000000E+00  0.00000000E+00  0.00000000E+00
  0.00000000E+00  0.00000000E+00  0.00000000E+00
  0.00000000E+00  0.00000000E+00  0.00000000E+00
  0.00000000E+00  0.00000000E+00  0.00000000E+00
  0.00000000E+00  0.00000000E+00  0.00000000E+00
  0.00000000E+00  0.00000000E+00  0.00000000E+00
