Mg4 Ga8 Cl16                            
   1.00000000000000     
     9.1867463780280865   -0.0010132600208459   -0.0023614735651190
    -0.0007184618519689    7.3684540126036193    0.0046684706618975
    -0.0022621035776695    0.0079445773265987   13.3200871394396962
   Mg   Cl   Ga
     4    16     8
Direct
  0.7074174490694105  0.2502527107918411  0.0603552294940286
  0.2079812049688599  0.2497565860240769  0.4395029315835401
  0.7927403715540891  0.7503962652858718  0.5604604054399545
  0.2918586167666817  0.7495419860589863  0.9396186911971611
  0.1600919945957244  0.7472239242762271  0.0906261077257682
  0.4550154850088219  0.2496063200397174  0.0392845645083568
  0.7880408807082446  0.9898012396150548  0.1497645451120775
  0.7871283714437354  0.5102087144912204  0.1502475957622735
  0.2874814928211222  0.9897809141617984  0.3495381934375317
  0.2881869562223329  0.5102827613664616  0.3500788169993925
  0.9555782252079936  0.2504127196562109  0.4606416511848295
  0.6609407911730472  0.7513988982099917  0.4093890439878436
  0.3398050399221191  0.2483224253420602  0.5905625359179894
  0.0451516963341589  0.7498338030983973  0.5393225331250733
  0.7125139760929713  0.4898837239380711  0.6499823075320705
  0.7131423330662727  0.0103638905986969  0.6503057036343591
  0.2123341544317441  0.4896402466696586  0.8495438955775256
  0.2112528879873423  0.0100600493612006  0.8503308307367874
  0.5442555417984920  0.7504967285847428  0.9607492272066622
  0.8391509887296351  0.2519072766306536  0.9093234959719396
  0.1195754358998329  0.2511676483121121  0.0016422350903298
  0.5467738467490832  0.7506338209680479  0.1744978392257224
  0.0468176111135605  0.7492524010482953  0.3255729150617270
  0.6206474129627892  0.2498465919392814  0.4984573353140576
  0.3801526595946783  0.7506957855264318  0.5014890892216499
  0.9537118294200226  0.2507006574121178  0.6744367626826460
  0.4526969893439627  0.2487538079704947  0.8255946782922976
  0.8795557570132857  0.7493781026222877  0.9982808389764131
 
  0.00000000E+00  0.00000000E+00  0.00000000E+00
  0.00000000E+00  0.00000000E+00  0.00000000E+00
  0.00000000E+00  0.00000000E+00  0.00000000E+00
  0.00000000E+00  0.00000000E+00  0.00000000E+00
  0.00000000E+00  0.00000000E+00  0.00000000E+00
  0.00000000E+00  0.00000000E+00  0.00000000E+00
  0.00000000E+00  0.00000000E+00  0.00000000E+00
  0.00000000E+00  0.00000000E+00  0.00000000E+00
  0.00000000E+00  0.00000000E+00  0.00000000E+00
  0.00000000E+00  0.00000000E+00  0.00000000E+00
  0.00000000E+00  0.00000000E+00  0.00000000E+00
  0.00000000E+00  0.00000000E+00  0.00000000E+00
  0.00000000E+00  0.00000000E+00  0.00000000E+00
  0.00000000E+00  0.00000000E+00  0.00000000E+00
  0.00000000E+00  0.00000000E+00  0.00000000E+00
  0.00000000E+00  0.00000000E+00  0.00000000E+00
  0.00000000E+00  0.00000000E+00  0.00000000E+00
  0.00000000E+00  0.00000000E+00  0.00000000E+00
  0.00000000E+00  0.00000000E+00  0.00000000E+00
  0.00000000E+00  0.00000000E+00  0.00000000E+00
  0.00000000E+00  0.00000000E+00  0.00000000E+00
  0.00000000E+00  0.00000000E+00  0.00000000E+00
  0.00000000E+00  0.00000000E+00  0.00000000E+00
  0.00000000E+00  0.00000000E+00  0.00000000E+00
  0.00000000E+00  0.00000000E+00  0.00000000E+00
  0.00000000E+00  0.00000000E+00  0.00000000E+00
  0.00000000E+00  0.00000000E+00  0.00000000E+00
  0.00000000E+00  0.00000000E+00  0.00000000E+00
