Mg1 Tl2 I10                             
   1.0000000000000000     
     4.4014365050553117    7.8168061603022512    1.0123402789890741
    -4.4014365050553117    7.8168061603022512    1.0123402789890741
     0.0000000000000000    7.2533227354928433   11.6231099983409685
   Mg   Tl   I 
     1     2    10
Direct
  0.6390239574916237  0.3609760425083763  0.0000000000000000
  0.9349121794412909  0.0418419902384741  0.6981953879530849
  0.9581580097615259  0.0650878205587091  0.3018046120469151
  0.1769275905503989  0.2358612619414586  0.5889954422822825
  0.7641387380585414  0.8230724094496011  0.4110045577177246
  0.7173310812631968  0.8168787236381263  0.9084739390344083
  0.1831212763618737  0.2826689187368032  0.0915260609655917
  0.9343080276785614  0.0656919723214386  0.0000000000000000
  0.1224261390728074  0.8775738609271926  0.5000000000000000
  0.5895451789214903  0.4072646282394246  0.6044872469525444
  0.5927353717605754  0.4104548210785097  0.3955127530474556
  0.4698515012875859  0.5384800516494650  0.8318234675052238
  0.4615199483505350  0.5301484987124141  0.1681765324947762

  0.00000000E+00  0.00000000E+00  0.00000000E+00
  0.00000000E+00  0.00000000E+00  0.00000000E+00
  0.00000000E+00  0.00000000E+00  0.00000000E+00
  0.00000000E+00  0.00000000E+00  0.00000000E+00
  0.00000000E+00  0.00000000E+00  0.00000000E+00
  0.00000000E+00  0.00000000E+00  0.00000000E+00
  0.00000000E+00  0.00000000E+00  0.00000000E+00
  0.00000000E+00  0.00000000E+00  0.00000000E+00
  0.00000000E+00  0.00000000E+00  0.00000000E+00
  0.00000000E+00  0.00000000E+00  0.00000000E+00
  0.00000000E+00  0.00000000E+00  0.00000000E+00
  0.00000000E+00  0.00000000E+00  0.00000000E+00
  0.00000000E+00  0.00000000E+00  0.00000000E+00
