Ca21 Al40                               
   1.00000000000000     
     4.9229484968502621   -8.5267970932100372    0.0000000000000000
     4.9229484968502621    8.5267970932100372    0.0000000000000000
     0.0000000000000000    0.0000000000000000   16.4669966499703548
   Ca   Al
    21    40
Direct
  0.9999999999993179  0.3353436621799304  0.3853866401980568
  0.6666669999999968  0.3333330000000032  0.3150751372650902
  0.6787074855054982  0.0000000000005116  0.6769869792040595
  0.3212925144939902  0.3212925144939902  0.6769869792040595
  0.0000000000000000  0.0000000000000000  0.1083356111330431
  0.9999999999996732  0.3325455728870992  0.6025853961557033
  0.3322496325880309  0.0000000000004547  0.0065346671790181
  0.0000000000005116  0.6787074855054982  0.6769869792040595
  0.6646563378207517  0.6646563378207517  0.3853866401980568
  0.3325455728870992  0.9999999999996732  0.6025853961557033
  0.3333330000000032  0.6666669999999968  0.1032573309862812
  0.0000000000008242  0.6618150231140660  0.8922050067353311
  0.6674544271132277  0.6674544271132277  0.6025853961557033
  0.3381849768851026  0.3381849768851026  0.8922050067353311
  0.6666669999999968  0.3333330000000032  0.1032573309862812
  0.3333330000000032  0.6666669999999968  0.3150751372650902
  0.0000000000004547  0.3322496325880309  0.0065346671790181
  0.3353436621799304  0.9999999999993179  0.3853866401980568
  0.6677503674115215  0.6677503674115215  0.0065346671790181
  0.6618150231140660  0.0000000000008242  0.8922050067353311
  0.0000000000000000  0.0000000000000000  0.3130908689813907
  0.3358876484464659  0.5029007266067964  0.4939876509177168
  0.1630424533441044  0.3345554802790929  0.2097386291410501
  0.5108491619333648  0.1668432870841201  0.7788974615534343
  0.8284869730652389  0.6654445197209284  0.2097386291410501
  0.4944850985258782  0.9999999999999147  0.2079789428830168
  0.0000000000000000  0.0000000000000000  0.5942149941544130
  0.3333330000000032  0.6666669999999968  0.9151422047248730
  0.1715130269349672  0.8369575466556682  0.2097386291410501
  0.2194240068831093  0.9999999999988560  0.8175468001737229
  0.0000000000004405  0.6635558313801724  0.3458433295667689
  0.3345554802790929  0.1630424533441044  0.2097386291410501
  0.1796527571731801  0.1796527571731801  0.4823457924394461
  0.7805759931180347  0.7805759931180347  0.8175468001737229
  0.6666669999999968  0.3333330000000032  0.9151422047248730
  0.9999999999962625  0.8203472428305574  0.4823457924394461
  0.5055149014742071  0.5055149014742071  0.2079789428830168
  0.8329869218366639  0.4970992733910862  0.4939876509177168
  0.4891508380676015  0.6559941251510537  0.7788974615534343
  0.9999999999999147  0.4944850985258782  0.2079789428830168
  0.8369575466556682  0.1715130269349672  0.2097386291410501
  0.9999999999992966  0.6678980092667786  0.0795243172169862
  0.3364441686193871  0.3364441686193871  0.3458433295667689
  0.3333330000000032  0.6666669999999968  0.6374749927779675
  0.9999999999988560  0.2194240068831093  0.8175468001737229
  0.6666669999999968  0.3333330000000032  0.6374749927779675
  0.1668432870841201  0.5108491619333648  0.7788974615534343
  0.4970992733910862  0.8329869218366639  0.4939876509177168
  0.1670130781624408  0.6641123515565397  0.4939876509177168
  0.6678980092667786  0.9999999999992966  0.0795243172169862
  0.3321019907339178  0.3321019907339178  0.0795243172169862
  0.8331567129155815  0.3440058748482784  0.7788974615534343
  0.6635558313801724  0.0000000000004405  0.3458433295667689
  0.5029007266067964  0.3358876484464659  0.4939876509177168
  0.6654445197209284  0.8284869730652389  0.2097386291410501
  0.8203472428305574  0.9999999999962625  0.4823457924394461
  0.6641123515565397  0.1670130781624408  0.4939876509177168
  0.3440058748482784  0.8331567129155815  0.7788974615534343
  0.0000000000000000  0.0000000000000000  0.9195332136795784
  0.6559941251510537  0.4891508380676015  0.7788974615534343
  0.0000000000000000  0.0000000000000000  0.7401349156136590
 
  0.00000000E+00  0.00000000E+00  0.00000000E+00
  0.00000000E+00  0.00000000E+00  0.00000000E+00
  0.00000000E+00  0.00000000E+00  0.00000000E+00
  0.00000000E+00  0.00000000E+00  0.00000000E+00
  0.00000000E+00  0.00000000E+00  0.00000000E+00
  0.00000000E+00  0.00000000E+00  0.00000000E+00
  0.00000000E+00  0.00000000E+00  0.00000000E+00
  0.00000000E+00  0.00000000E+00  0.00000000E+00
  0.00000000E+00  0.00000000E+00  0.00000000E+00
  0.00000000E+00  0.00000000E+00  0.00000000E+00
  0.00000000E+00  0.00000000E+00  0.00000000E+00
  0.00000000E+00  0.00000000E+00  0.00000000E+00
  0.00000000E+00  0.00000000E+00  0.00000000E+00
  0.00000000E+00  0.00000000E+00  0.00000000E+00
  0.00000000E+00  0.00000000E+00  0.00000000E+00
  0.00000000E+00  0.00000000E+00  0.00000000E+00
  0.00000000E+00  0.00000000E+00  0.00000000E+00
  0.00000000E+00  0.00000000E+00  0.00000000E+00
  0.00000000E+00  0.00000000E+00  0.00000000E+00
  0.00000000E+00  0.00000000E+00  0.00000000E+00
  0.00000000E+00  0.00000000E+00  0.00000000E+00
  0.00000000E+00  0.00000000E+00  0.00000000E+00
  0.00000000E+00  0.00000000E+00  0.00000000E+00
  0.00000000E+00  0.00000000E+00  0.00000000E+00
  0.00000000E+00  0.00000000E+00  0.00000000E+00
  0.00000000E+00  0.00000000E+00  0.00000000E+00
  0.00000000E+00  0.00000000E+00  0.00000000E+00
  0.00000000E+00  0.00000000E+00  0.00000000E+00
  0.00000000E+00  0.00000000E+00  0.00000000E+00
  0.00000000E+00  0.00000000E+00  0.00000000E+00
  0.00000000E+00  0.00000000E+00  0.00000000E+00
  0.00000000E+00  0.00000000E+00  0.00000000E+00
  0.00000000E+00  0.00000000E+00  0.00000000E+00
  0.00000000E+00  0.00000000E+00  0.00000000E+00
  0.00000000E+00  0.00000000E+00  0.00000000E+00
  0.00000000E+00  0.00000000E+00  0.00000000E+00
  0.00000000E+00  0.00000000E+00  0.00000000E+00
  0.00000000E+00  0.00000000E+00  0.00000000E+00
  0.00000000E+00  0.00000000E+00  0.00000000E+00
  0.00000000E+00  0.00000000E+00  0.00000000E+00
  0.00000000E+00  0.00000000E+00  0.00000000E+00
  0.00000000E+00  0.00000000E+00  0.00000000E+00
  0.00000000E+00  0.00000000E+00  0.00000000E+00
  0.00000000E+00  0.00000000E+00  0.00000000E+00
  0.00000000E+00  0.00000000E+00  0.00000000E+00
  0.00000000E+00  0.00000000E+00  0.00000000E+00
  0.00000000E+00  0.00000000E+00  0.00000000E+00
  0.00000000E+00  0.00000000E+00  0.00000000E+00
  0.00000000E+00  0.00000000E+00  0.00000000E+00
  0.00000000E+00  0.00000000E+00  0.00000000E+00
  0.00000000E+00  0.00000000E+00  0.00000000E+00
  0.00000000E+00  0.00000000E+00  0.00000000E+00
  0.00000000E+00  0.00000000E+00  0.00000000E+00
  0.00000000E+00  0.00000000E+00  0.00000000E+00
  0.00000000E+00  0.00000000E+00  0.00000000E+00
  0.00000000E+00  0.00000000E+00  0.00000000E+00
  0.00000000E+00  0.00000000E+00  0.00000000E+00
  0.00000000E+00  0.00000000E+00  0.00000000E+00
  0.00000000E+00  0.00000000E+00  0.00000000E+00
  0.00000000E+00  0.00000000E+00  0.00000000E+00
  0.00000000E+00  0.00000000E+00  0.00000000E+00
