Ba4 B4 F20                              
   1.0000000000000000     
     4.4684477471599546   -0.0000000000000000    0.0000000000000003
    -0.0000000000000003    4.9717293649571026    0.0000000000000003
    -0.0000000000000000   -0.0000000000000000   16.3761601601933329
   Ba   B    F 
     4     4    20
Direct
  0.7613610021851684  0.5000373598141152  0.5787276695519310
  0.2613610021851684  0.9999626401858848  0.4212723304480619
  0.2386389978148316  0.0000373598141152  0.9212723304480690
  0.7386389978148316  0.4999626401858848  0.0787276695519381
  0.1753058908010416  0.0000107916721817  0.6808200375730635
  0.6753058908010345  0.4999892083278183  0.3191799624269365
  0.8246941091989655  0.5000107916721817  0.8191799624269365
  0.3246941091989584  0.9999892083278183  0.1808200375730635
  0.7692628113335758  0.7293168486096988  0.3642733447613509
  0.2692628113335829  0.7706831513903012  0.6357266552386491
  0.2307371886664171  0.2293168486096988  0.1357266552386491
  0.7307371886664242  0.2706831513903083  0.8642733447613509
  0.3626377417368190  0.5001679604042195  0.3168214088121886
  0.8626377417368190  0.9998320395957805  0.6831785911878043
  0.6373622582631810  0.0001679604042266  0.1831785911878043
  0.1373622582631810  0.4998320395957734  0.8168214088121886
  0.2690443781886955  0.2297438227346973  0.6358939781999524
  0.7690443781887026  0.2702561772653027  0.3641060218000476
  0.7309556218112974  0.7297438227346973  0.8641060218000476
  0.2309556218112974  0.7702561772653027  0.1358939781999524
  0.2988579149735600  0.9997535283636481  0.7580354183594764
  0.7988579149735600  0.5002464716363519  0.2419645816405236
  0.7011420850264400  0.4997535283636481  0.7419645816405236
  0.2011420850264400  0.0002464716363519  0.2580354183594764
  0.2641578274486704  0.4998997602131112  0.4868956942334464
  0.7641578274486776  0.0001002397868888  0.5131043057665536
  0.7358421725513224  0.9998997602131112  0.0131043057665536
  0.2358421725513224  0.5001002397868888  0.9868956942334464

  0.00000000E+00  0.00000000E+00  0.00000000E+00
  0.00000000E+00  0.00000000E+00  0.00000000E+00
  0.00000000E+00  0.00000000E+00  0.00000000E+00
  0.00000000E+00  0.00000000E+00  0.00000000E+00
  0.00000000E+00  0.00000000E+00  0.00000000E+00
  0.00000000E+00  0.00000000E+00  0.00000000E+00
  0.00000000E+00  0.00000000E+00  0.00000000E+00
  0.00000000E+00  0.00000000E+00  0.00000000E+00
  0.00000000E+00  0.00000000E+00  0.00000000E+00
  0.00000000E+00  0.00000000E+00  0.00000000E+00
  0.00000000E+00  0.00000000E+00  0.00000000E+00
  0.00000000E+00  0.00000000E+00  0.00000000E+00
  0.00000000E+00  0.00000000E+00  0.00000000E+00
  0.00000000E+00  0.00000000E+00  0.00000000E+00
  0.00000000E+00  0.00000000E+00  0.00000000E+00
  0.00000000E+00  0.00000000E+00  0.00000000E+00
  0.00000000E+00  0.00000000E+00  0.00000000E+00
  0.00000000E+00  0.00000000E+00  0.00000000E+00
  0.00000000E+00  0.00000000E+00  0.00000000E+00
  0.00000000E+00  0.00000000E+00  0.00000000E+00
  0.00000000E+00  0.00000000E+00  0.00000000E+00
  0.00000000E+00  0.00000000E+00  0.00000000E+00
  0.00000000E+00  0.00000000E+00  0.00000000E+00
  0.00000000E+00  0.00000000E+00  0.00000000E+00
  0.00000000E+00  0.00000000E+00  0.00000000E+00
  0.00000000E+00  0.00000000E+00  0.00000000E+00
  0.00000000E+00  0.00000000E+00  0.00000000E+00
  0.00000000E+00  0.00000000E+00  0.00000000E+00
