Ba4 In4 I20                             
   1.0000000000000000     
    16.1930067554286481   -0.0004615540137894    0.0042100925464412
     0.0003335856801434   10.0293796920854277   -0.0037377231493250
    -0.0027320502486686    0.0034292600974140    8.8444233597310102
   Ba   I    In
     4    20     4
Direct
  0.0874929083557845  0.0199856974728263  0.0250550631911324
  0.9125297796415239  0.5200119946508366  0.4749102086100763
  0.4125464686677773  0.9799720807509260  0.5250704361270238
  0.5874948978330252  0.4799635177639061  0.9749064870592363
  0.3811469510934415  0.5655092971632811  0.0277777783706838
  0.4502257463873107  0.1925115030538507  0.1951543136594864
  0.0551666185065969  0.7020589113376658  0.2090310946507756
  0.7911628314811452  0.4935535909495883  0.1359988492462207
  0.8252828748476801  0.8392229890756653  0.4644546815818060
  0.1747491099531331  0.3392121831670991  0.0354891828926966
  0.2088795857562644  0.9935563852886062  0.3639695440025505
  0.9448530481580093  0.2020902158434552  0.2909278003081397
  0.5498064144979153  0.6924916768738356  0.3047811545974568
  0.6188974163762211  0.0654994260171691  0.4721596531626915
  0.1188718796847681  0.4344523221109853  0.5278118966231062
  0.0498203710133325  0.8074478059922541  0.6951568750676671
  0.4448469328246532  0.2978871747890608  0.7090455981288670
  0.7088688419012925  0.5064205606834378  0.6360112723951161
  0.6747391365514375  0.1607337645253395  0.9644521367835850
  0.3252803756032563  0.6607538837756834  0.5355054485359290
  0.2911371426774423  0.0064084966122735  0.8639540446660234
  0.5551816034628558  0.7978752427209059  0.7909137816118701
  0.9502072409057902  0.3074712701586506  0.8048151711897731
  0.8811457095605348  0.9344360283874309  0.9721435819879147
  0.8402036604592524  0.2143223793306319  0.0280198517619823
  0.1598411412687497  0.7143335128212271  0.4719246413539722
  0.6598314538954071  0.7856049493404953  0.5280115386691762
  0.3401898586354477  0.2856131393428996  0.9719479137650495

  0.00000000E+00  0.00000000E+00  0.00000000E+00
  0.00000000E+00  0.00000000E+00  0.00000000E+00
  0.00000000E+00  0.00000000E+00  0.00000000E+00
  0.00000000E+00  0.00000000E+00  0.00000000E+00
  0.00000000E+00  0.00000000E+00  0.00000000E+00
  0.00000000E+00  0.00000000E+00  0.00000000E+00
  0.00000000E+00  0.00000000E+00  0.00000000E+00
  0.00000000E+00  0.00000000E+00  0.00000000E+00
  0.00000000E+00  0.00000000E+00  0.00000000E+00
  0.00000000E+00  0.00000000E+00  0.00000000E+00
  0.00000000E+00  0.00000000E+00  0.00000000E+00
  0.00000000E+00  0.00000000E+00  0.00000000E+00
  0.00000000E+00  0.00000000E+00  0.00000000E+00
  0.00000000E+00  0.00000000E+00  0.00000000E+00
  0.00000000E+00  0.00000000E+00  0.00000000E+00
  0.00000000E+00  0.00000000E+00  0.00000000E+00
  0.00000000E+00  0.00000000E+00  0.00000000E+00
  0.00000000E+00  0.00000000E+00  0.00000000E+00
  0.00000000E+00  0.00000000E+00  0.00000000E+00
  0.00000000E+00  0.00000000E+00  0.00000000E+00
  0.00000000E+00  0.00000000E+00  0.00000000E+00
  0.00000000E+00  0.00000000E+00  0.00000000E+00
  0.00000000E+00  0.00000000E+00  0.00000000E+00
  0.00000000E+00  0.00000000E+00  0.00000000E+00
  0.00000000E+00  0.00000000E+00  0.00000000E+00
  0.00000000E+00  0.00000000E+00  0.00000000E+00
  0.00000000E+00  0.00000000E+00  0.00000000E+00
  0.00000000E+00  0.00000000E+00  0.00000000E+00
