Tl2                                     
   1.00000000000000     
     3.5914067926500453    0.0000000798918664    0.0000000000000000
    -1.7957017621266878    3.1102475651881925    0.0000000000000000
     0.0000000000000000    0.0000000000000000    5.7124284374029637
   Tl
     2
Direct
  0.3333330000000032  0.6666669999999968  0.2500000000000000
  0.6666669999999968  0.3333330000000032  0.7500000000000000
 
  0.00000000E+00  0.00000000E+00  0.00000000E+00
  0.00000000E+00  0.00000000E+00  0.00000000E+00
