In4                                     
   1.00000000000000     
     3.6392220979925702    0.0000000000000000    0.0000000000000000
    -1.8196110489962851    3.1516574591500128    0.0000000000000000
     0.0000000000000000    0.0000000000000000    9.7298259447283773
   In
     4
Direct
  0.0000000000000000  0.0000000000000000  0.0000000000000000
  0.3333330000000032  0.6666659999999993  0.2500000000000000
  0.0000000000000000  0.0000000000000000  0.5000000000000000
  0.6666669999999968  0.3333340000000007  0.7500000000000000
 
  0.00000000E+00  0.00000000E+00  0.00000000E+00
  0.00000000E+00  0.00000000E+00  0.00000000E+00
  0.00000000E+00  0.00000000E+00  0.00000000E+00
  0.00000000E+00  0.00000000E+00  0.00000000E+00
