Ba2 Al2 Cl10                            
   1.0000000000000000     
     4.6381114502771696   -0.0000000000000001    0.0000000000000003
    -0.0000000000000009   11.3671474845139482    0.0000000000000009
     0.0000000000000002    0.0000000000000003   10.5211741164729773
   Ba   Al   Cl
     2     2    10
Direct
  0.0000000000000000  0.0000000000000000  0.5000000000000000
  0.5000000000000000  0.5000000000000000  0.0000000000000000
  0.5000000000000000  0.0000000000000000  0.0000000000000000
  0.0000000000000000  0.5000000000000000  0.5000000000000000
  0.5000000000000000  0.8277281486323815  0.5000000000000000
  0.5000000000000000  0.1722718513676185  0.5000000000000000
  0.5000000000000000  0.0000000000000000  0.2025884517492287
  0.5000000000000000  0.0000000000000000  0.7974115482507713
  0.0000000000000000  0.0000000000000000  0.0000000000000000
  0.0000000000000000  0.3277281486323815  0.0000000000000000
  0.0000000000000000  0.6722718513676185  0.0000000000000000
  0.0000000000000000  0.5000000000000000  0.7025884517492287
  0.0000000000000000  0.5000000000000000  0.2974115482507784
  0.5000000000000000  0.5000000000000000  0.5000000000000000

  0.00000000E+00  0.00000000E+00  0.00000000E+00
  0.00000000E+00  0.00000000E+00  0.00000000E+00
  0.00000000E+00  0.00000000E+00  0.00000000E+00
  0.00000000E+00  0.00000000E+00  0.00000000E+00
  0.00000000E+00  0.00000000E+00  0.00000000E+00
  0.00000000E+00  0.00000000E+00  0.00000000E+00
  0.00000000E+00  0.00000000E+00  0.00000000E+00
  0.00000000E+00  0.00000000E+00  0.00000000E+00
  0.00000000E+00  0.00000000E+00  0.00000000E+00
  0.00000000E+00  0.00000000E+00  0.00000000E+00
  0.00000000E+00  0.00000000E+00  0.00000000E+00
  0.00000000E+00  0.00000000E+00  0.00000000E+00
  0.00000000E+00  0.00000000E+00  0.00000000E+00
  0.00000000E+00  0.00000000E+00  0.00000000E+00
