Ba4 Ga4 Cl20                            
   1.0000000000000000     
     0.0000000000000000    7.0021663427992040    0.2721275411739696
    12.1366533499010902    0.0000000000000000    0.0000000000000000
     0.0000000000000000   -0.4773734499592219  -11.4662582103220991
   Ba   Ga   Cl
     4     4    20
Direct
  0.6265213022716551  0.3090540698708608  0.5032172859974651
  0.3734786977283449  0.8090540698708466  0.4967827140025349
  0.8567372401673126  0.9398684921842673  0.1844729443300608
  0.1432627598326874  0.4398684921842744  0.8155270556699392
  0.3625690654766416  0.7487880155309270  0.9603442057173268
  0.6374309345233584  0.2487880155309270  0.0396557942826661
  0.9165980137142711  0.6171713399640240  0.4686752672028689
  0.0834019862857289  0.1171713399640169  0.5313247327971311
  0.1963952059996004  0.0137422719122497  0.3631539239157959
  0.2200845311281867  0.5581355064743008  0.5234728627370231
  0.7799154688718133  0.0581355064743008  0.4765271372629698
  0.6721742892930607  0.7823229950116115  0.9672320454705812
  0.7196336545521902  0.5184910735605897  0.3474150913212881
  0.1951307429690985  0.8949422490603709  0.0041303962039265
  0.9565825506661199  0.2216659242807637  0.6847890224143214
  0.5333301492948763  0.8196621929659287  0.2675260289976080
  0.2803663454478169  0.0184910735605897  0.6525849086787119
  0.8308337667207155  0.7722213469023771  0.5601948972696249
  0.8048692570309015  0.3949422490603709  0.9958696037960735
  0.8036047940003996  0.5137422719122569  0.6368460760842041
  0.7171171896456343  0.0952684428012986  0.9537142577976994
  0.7211834565152415  0.2062650594804154  0.2283052174206261
  0.1691662332792845  0.2722213469023842  0.4398051027303751
  0.0434174493338872  0.7216659242807637  0.3152109775856857
  0.3278257107069322  0.2823229950116115  0.0327679545294117
  0.2788165434847585  0.7062650594804154  0.7716947825793667
  0.4666698507051237  0.3196621929659216  0.7324739710023849
  0.2828828103543657  0.5952684428012986  0.0462857422023006

  0.00000000E+00  0.00000000E+00  0.00000000E+00
  0.00000000E+00  0.00000000E+00  0.00000000E+00
  0.00000000E+00  0.00000000E+00  0.00000000E+00
  0.00000000E+00  0.00000000E+00  0.00000000E+00
  0.00000000E+00  0.00000000E+00  0.00000000E+00
  0.00000000E+00  0.00000000E+00  0.00000000E+00
  0.00000000E+00  0.00000000E+00  0.00000000E+00
  0.00000000E+00  0.00000000E+00  0.00000000E+00
  0.00000000E+00  0.00000000E+00  0.00000000E+00
  0.00000000E+00  0.00000000E+00  0.00000000E+00
  0.00000000E+00  0.00000000E+00  0.00000000E+00
  0.00000000E+00  0.00000000E+00  0.00000000E+00
  0.00000000E+00  0.00000000E+00  0.00000000E+00
  0.00000000E+00  0.00000000E+00  0.00000000E+00
  0.00000000E+00  0.00000000E+00  0.00000000E+00
  0.00000000E+00  0.00000000E+00  0.00000000E+00
  0.00000000E+00  0.00000000E+00  0.00000000E+00
  0.00000000E+00  0.00000000E+00  0.00000000E+00
  0.00000000E+00  0.00000000E+00  0.00000000E+00
  0.00000000E+00  0.00000000E+00  0.00000000E+00
  0.00000000E+00  0.00000000E+00  0.00000000E+00
  0.00000000E+00  0.00000000E+00  0.00000000E+00
  0.00000000E+00  0.00000000E+00  0.00000000E+00
  0.00000000E+00  0.00000000E+00  0.00000000E+00
  0.00000000E+00  0.00000000E+00  0.00000000E+00
  0.00000000E+00  0.00000000E+00  0.00000000E+00
  0.00000000E+00  0.00000000E+00  0.00000000E+00
  0.00000000E+00  0.00000000E+00  0.00000000E+00
