Ba4 Tl4 F20                             
   1.0000000000000000     
     4.4579697095922537   -0.0000000000000000    0.0000000000000003
    -0.0000000000000003    5.7047801271298715    0.0000000000000003
     0.0000000000000000   -0.0000000000000000   16.0412465650542195
   Ba   Tl   F 
     4     4    20
Direct
  0.7485026578991807  0.4999492036889919  0.3265453877873270
  0.2485026578991807  0.0000507963110081  0.6734546122126730
  0.2514973421008193  0.9999492036889919  0.1734546122126730
  0.7514973421008122  0.5000507963110081  0.8265453877873270
  0.2499705235152163  0.9993190624750312  0.4267169383437377
  0.7499705235152163  0.5006809375249688  0.5732830616562552
  0.7500294764847837  0.4993190624750312  0.0732830616562552
  0.2500294764847837  0.0006809375249688  0.9267169383437377
  0.0035534492313616  0.6480341732334551  0.4677161250234718
  0.5035534492313474  0.8519658267665449  0.5322838749765282
  0.9964465507686384  0.1480341732334551  0.0322838749765282
  0.4964465507686384  0.3519658267665520  0.9677161250234718
  0.7470016724869950  0.9990255254174372  0.3709097200183109
  0.2470016724869950  0.5009744745825628  0.6290902799816891
  0.2529983275130050  0.4990255254174443  0.1290902799816891
  0.7529983275130050  0.0009744745825557  0.8709097200183109
  0.0028489433035475  0.6474443788472684  0.9681615988466135
  0.5028489433035475  0.8525556211527316  0.0318384011533865
  0.9971510566964525  0.1474443788472684  0.5318384011533865
  0.4971510566964525  0.3525556211527316  0.4681615988466135
  0.7585846893248700  0.7448875972210232  0.1824598093259624
  0.2585846893248700  0.7551124027789768  0.8175401906740376
  0.2414153106751300  0.2448875972210232  0.3175401906740376
  0.7414153106751300  0.2551124027789768  0.6824598093259624
  0.2450728167443614  0.2454273838116592  0.8171011845921257
  0.7450728167443614  0.2545726161883408  0.1828988154078814
  0.7549271832556386  0.7454273838116592  0.6828988154078743
  0.2549271832556386  0.7545726161883408  0.3171011845921257

  0.00000000E+00  0.00000000E+00  0.00000000E+00
  0.00000000E+00  0.00000000E+00  0.00000000E+00
  0.00000000E+00  0.00000000E+00  0.00000000E+00
  0.00000000E+00  0.00000000E+00  0.00000000E+00
  0.00000000E+00  0.00000000E+00  0.00000000E+00
  0.00000000E+00  0.00000000E+00  0.00000000E+00
  0.00000000E+00  0.00000000E+00  0.00000000E+00
  0.00000000E+00  0.00000000E+00  0.00000000E+00
  0.00000000E+00  0.00000000E+00  0.00000000E+00
  0.00000000E+00  0.00000000E+00  0.00000000E+00
  0.00000000E+00  0.00000000E+00  0.00000000E+00
  0.00000000E+00  0.00000000E+00  0.00000000E+00
  0.00000000E+00  0.00000000E+00  0.00000000E+00
  0.00000000E+00  0.00000000E+00  0.00000000E+00
  0.00000000E+00  0.00000000E+00  0.00000000E+00
  0.00000000E+00  0.00000000E+00  0.00000000E+00
  0.00000000E+00  0.00000000E+00  0.00000000E+00
  0.00000000E+00  0.00000000E+00  0.00000000E+00
  0.00000000E+00  0.00000000E+00  0.00000000E+00
  0.00000000E+00  0.00000000E+00  0.00000000E+00
  0.00000000E+00  0.00000000E+00  0.00000000E+00
  0.00000000E+00  0.00000000E+00  0.00000000E+00
  0.00000000E+00  0.00000000E+00  0.00000000E+00
  0.00000000E+00  0.00000000E+00  0.00000000E+00
  0.00000000E+00  0.00000000E+00  0.00000000E+00
  0.00000000E+00  0.00000000E+00  0.00000000E+00
  0.00000000E+00  0.00000000E+00  0.00000000E+00
  0.00000000E+00  0.00000000E+00  0.00000000E+00
