Ba40 Ga4                                
   1.00000000000000     
     0.0000000000000000   10.9117129014421614   10.9117129014421614
    10.9117129014421614    0.0000000000000000   10.9117129014421614
    10.9117129014421614   10.9117129014421614    0.0000000000000000
   Ba   Ga
    40     4
Direct
  0.6176847608102847  0.6176847608102847  0.8823152391897153
  0.3676847608102847  0.6323152391897153  0.6323152391897153
  0.6323152391897153  0.3676847608102847  0.3676847608102847
  0.3676847608102847  0.3676847608102847  0.6323152391897153
  0.3676847608102847  0.6323152391897153  0.3676847608102847
  0.6323152391897153  0.3676847608102847  0.6323152391897153
  0.8823152391897153  0.6176847608102847  0.8823152391897153
  0.8823152391897153  0.6176847608102847  0.6176847608102847
  0.6176847608102847  0.8823152391897153  0.8823152391897153
  0.6176847608102847  0.8823152391897153  0.6176847608102847
  0.6323152391897153  0.6323152391897153  0.3676847608102847
  0.8823152391897153  0.8823152391897153  0.6176847608102847
  0.7923013646300134  0.0699153082440134  0.3454809624959481
  0.4576986353699866  0.4576986353699866  0.1800846917559866
  0.1800846917559866  0.9045190375040519  0.4576986353699866
  0.4576986353699866  0.9045190375040519  0.4576986353699866
  0.9045190375040519  0.4576986353699866  0.1800846917559866
  0.9045190375040519  0.4576986353699866  0.4576986353699866
  0.1800846917559866  0.4576986353699866  0.4576986353699866
  0.3454809624959481  0.0699153082440134  0.7923013646300134
  0.7923013646300134  0.0699153082440134  0.7923013646300134
  0.0699153082440134  0.7923013646300134  0.3454809624959481
  0.7923013646300134  0.7923013646300134  0.3454809624959481
  0.0699153082440134  0.3454809624959481  0.7923013646300134
  0.3454809624959481  0.7923013646300134  0.0699153082440134
  0.7923013646300134  0.7923013646300134  0.0699153082440134
  0.7923013646300134  0.3454809624959481  0.7923013646300134
  0.1800846917559866  0.4576986353699866  0.9045190375040519
  0.4576986353699866  0.4576986353699866  0.9045190375040519
  0.4576986353699866  0.9045190375040519  0.1800846917559866
  0.4576986353699866  0.1800846917559866  0.9045190375040519
  0.9045190375040519  0.1800846917559866  0.4576986353699866
  0.4576986353699866  0.1800846917559866  0.4576986353699866
  0.3454809624959481  0.7923013646300134  0.7923013646300134
  0.0699153082440134  0.7923013646300134  0.7923013646300134
  0.7923013646300134  0.3454809624959481  0.0699153082440134
  0.1250000000000000  0.1250000000000000  0.1250000000000000
  0.6250000000000000  0.1250000000000000  0.1250000000000000
  0.1250000000000000  0.1250000000000000  0.6250000000000000
  0.1250000000000000  0.6250000000000000  0.1250000000000000
  0.6250000000000000  0.6250000000000000  0.6250000000000000
  0.1250000000000000  0.6250000000000000  0.6250000000000000
  0.6250000000000000  0.6250000000000000  0.1250000000000000
  0.6250000000000000  0.1250000000000000  0.6250000000000000
 
  0.00000000E+00  0.00000000E+00  0.00000000E+00
  0.00000000E+00  0.00000000E+00  0.00000000E+00
  0.00000000E+00  0.00000000E+00  0.00000000E+00
  0.00000000E+00  0.00000000E+00  0.00000000E+00
  0.00000000E+00  0.00000000E+00  0.00000000E+00
  0.00000000E+00  0.00000000E+00  0.00000000E+00
  0.00000000E+00  0.00000000E+00  0.00000000E+00
  0.00000000E+00  0.00000000E+00  0.00000000E+00
  0.00000000E+00  0.00000000E+00  0.00000000E+00
  0.00000000E+00  0.00000000E+00  0.00000000E+00
  0.00000000E+00  0.00000000E+00  0.00000000E+00
  0.00000000E+00  0.00000000E+00  0.00000000E+00
  0.00000000E+00  0.00000000E+00  0.00000000E+00
  0.00000000E+00  0.00000000E+00  0.00000000E+00
  0.00000000E+00  0.00000000E+00  0.00000000E+00
  0.00000000E+00  0.00000000E+00  0.00000000E+00
  0.00000000E+00  0.00000000E+00  0.00000000E+00
  0.00000000E+00  0.00000000E+00  0.00000000E+00
  0.00000000E+00  0.00000000E+00  0.00000000E+00
  0.00000000E+00  0.00000000E+00  0.00000000E+00
  0.00000000E+00  0.00000000E+00  0.00000000E+00
  0.00000000E+00  0.00000000E+00  0.00000000E+00
  0.00000000E+00  0.00000000E+00  0.00000000E+00
  0.00000000E+00  0.00000000E+00  0.00000000E+00
  0.00000000E+00  0.00000000E+00  0.00000000E+00
  0.00000000E+00  0.00000000E+00  0.00000000E+00
  0.00000000E+00  0.00000000E+00  0.00000000E+00
  0.00000000E+00  0.00000000E+00  0.00000000E+00
  0.00000000E+00  0.00000000E+00  0.00000000E+00
  0.00000000E+00  0.00000000E+00  0.00000000E+00
  0.00000000E+00  0.00000000E+00  0.00000000E+00
  0.00000000E+00  0.00000000E+00  0.00000000E+00
  0.00000000E+00  0.00000000E+00  0.00000000E+00
  0.00000000E+00  0.00000000E+00  0.00000000E+00
  0.00000000E+00  0.00000000E+00  0.00000000E+00
  0.00000000E+00  0.00000000E+00  0.00000000E+00
  0.00000000E+00  0.00000000E+00  0.00000000E+00
  0.00000000E+00  0.00000000E+00  0.00000000E+00
  0.00000000E+00  0.00000000E+00  0.00000000E+00
  0.00000000E+00  0.00000000E+00  0.00000000E+00
  0.00000000E+00  0.00000000E+00  0.00000000E+00
  0.00000000E+00  0.00000000E+00  0.00000000E+00
  0.00000000E+00  0.00000000E+00  0.00000000E+00
  0.00000000E+00  0.00000000E+00  0.00000000E+00
