Ba4 B4 F20                              
   1.0000000000000000     
     8.5047021815989847    0.0000000000000000    0.0000000000000000
     0.0000000000000000    5.2543632425509150   -0.9095368174614160
     0.0000000000000000    1.4483998990522509    7.9102762863263818
   Ba   B    F 
     4     4    20
Direct
  0.8899465492006513  0.3557647381358180  0.3024521421885140
  0.3899465492006513  0.6442352618641749  0.1975478578114860
  0.1100534507993487  0.6442352618641749  0.6975478578114860
  0.6100534507993487  0.3557647381358180  0.8024521421885140
  0.6993831628613876  0.8716381919912450  0.5186264381374670
  0.1993831628613876  0.1283618080087550  0.9813735618625330
  0.3006168371386124  0.1283618080087550  0.4813735618625330
  0.8006168371386124  0.8716381919912450  0.0186264381374670
  0.6405179167389008  0.0926912996983162  0.4461883459244760
  0.1405179167389079  0.9073087003016838  0.0538116540755240
  0.3594820832610921  0.9073087003016838  0.5538116540755240
  0.8594820832610992  0.0926912996983162  0.9461883459244760
  0.8461226539652316  0.8585922828307631  0.1869809276862213
  0.3461226539652387  0.1414077171692369  0.3130190723137787
  0.1538773460347613  0.1414077171692369  0.8130190723137787
  0.6538773460347684  0.8585922828307631  0.6869809276862213
  0.3638448366969556  0.1270304241356826  0.9921258392302761
  0.8638448366969556  0.8729695758643174  0.5078741607697239
  0.6361551633030444  0.8729695758643174  0.0078741607697239
  0.1361551633030444  0.1270304241356826  0.4921258392302761
  0.6370546188745720  0.6603876007782716  0.4353828181852322
  0.1370546188745649  0.3396123992217284  0.0646171818147678
  0.3629453811254351  0.3396123992217284  0.5646171818147678
  0.8629453811254280  0.6603876007782716  0.9353828181852322
  0.3636643057190980  0.6117048369967861  0.8759228811602426
  0.8636643057190980  0.3882951630032139  0.6240771188397574
  0.6363356942809020  0.3882951630032139  0.1240771188397574
  0.1363356942809020  0.6117048369967861  0.3759228811602426

  0.00000000E+00  0.00000000E+00  0.00000000E+00
  0.00000000E+00  0.00000000E+00  0.00000000E+00
  0.00000000E+00  0.00000000E+00  0.00000000E+00
  0.00000000E+00  0.00000000E+00  0.00000000E+00
  0.00000000E+00  0.00000000E+00  0.00000000E+00
  0.00000000E+00  0.00000000E+00  0.00000000E+00
  0.00000000E+00  0.00000000E+00  0.00000000E+00
  0.00000000E+00  0.00000000E+00  0.00000000E+00
  0.00000000E+00  0.00000000E+00  0.00000000E+00
  0.00000000E+00  0.00000000E+00  0.00000000E+00
  0.00000000E+00  0.00000000E+00  0.00000000E+00
  0.00000000E+00  0.00000000E+00  0.00000000E+00
  0.00000000E+00  0.00000000E+00  0.00000000E+00
  0.00000000E+00  0.00000000E+00  0.00000000E+00
  0.00000000E+00  0.00000000E+00  0.00000000E+00
  0.00000000E+00  0.00000000E+00  0.00000000E+00
  0.00000000E+00  0.00000000E+00  0.00000000E+00
  0.00000000E+00  0.00000000E+00  0.00000000E+00
  0.00000000E+00  0.00000000E+00  0.00000000E+00
  0.00000000E+00  0.00000000E+00  0.00000000E+00
  0.00000000E+00  0.00000000E+00  0.00000000E+00
  0.00000000E+00  0.00000000E+00  0.00000000E+00
  0.00000000E+00  0.00000000E+00  0.00000000E+00
  0.00000000E+00  0.00000000E+00  0.00000000E+00
  0.00000000E+00  0.00000000E+00  0.00000000E+00
  0.00000000E+00  0.00000000E+00  0.00000000E+00
  0.00000000E+00  0.00000000E+00  0.00000000E+00
  0.00000000E+00  0.00000000E+00  0.00000000E+00
