Be5 In9                                 
   1.00000000000000     
     5.8202719405815504    0.3016876943146375   -1.2381917244334228
    -2.6125283003419035    5.2903797302096951    1.2917388424436840
    -4.9009167551971871    3.0253233642468245   10.8350237912113112
   In   Be
     9     5
Direct
  0.0553193158139678  0.0551998636212474  0.0125733825248133
  0.0593870682866680  0.4110850332865041  0.1873727141167407
  0.5179905251549357  0.8411868047476077  0.3844718890378473
  0.6312080016712471  0.8888173478355270  0.1225365927492419
  0.2325872198161960  0.8572258456940816  0.5563659145681257
  0.0079774409016480  0.4177216217166375  0.4338144735192415
  0.3280004016872766  0.0577451773696680  0.7757256900633109
  0.8029740157623522  0.3156621304605380  0.6612557308927620
  0.7536336922612108  0.5926178065140917  0.8465635556859823
  0.5477002398905810  0.3379932999077866  0.0640631074849907
  0.5135380590310774  0.3694205379714290  0.2221543354819602
  0.5084578177547243  0.2736847435610272  0.4192440564110811
  0.2717021509764166  0.5085093497431998  0.8263385092573969
  0.2695240509917056  0.5731304375706898  0.9870200482065101
 
  0.00000000E+00  0.00000000E+00  0.00000000E+00
  0.00000000E+00  0.00000000E+00  0.00000000E+00
  0.00000000E+00  0.00000000E+00  0.00000000E+00
  0.00000000E+00  0.00000000E+00  0.00000000E+00
  0.00000000E+00  0.00000000E+00  0.00000000E+00
  0.00000000E+00  0.00000000E+00  0.00000000E+00
  0.00000000E+00  0.00000000E+00  0.00000000E+00
  0.00000000E+00  0.00000000E+00  0.00000000E+00
  0.00000000E+00  0.00000000E+00  0.00000000E+00
  0.00000000E+00  0.00000000E+00  0.00000000E+00
  0.00000000E+00  0.00000000E+00  0.00000000E+00
  0.00000000E+00  0.00000000E+00  0.00000000E+00
  0.00000000E+00  0.00000000E+00  0.00000000E+00
  0.00000000E+00  0.00000000E+00  0.00000000E+00
