Ba20 In4                                
   1.0000000000000000     
     8.8527319823695905    0.0003733814834968   -0.0009666550628263
     0.0008229533154812   18.9327754264221788    0.0003695483080918
    -0.0008694366192154    0.0001018327407981    8.1053463883080070
   In   Ba
     4    20
Direct
  0.7530665586478733  0.2500711505430573  0.0394907205337134
  0.2529137911766526  0.2500587948251720  0.4607893175654212
  0.7470293631594345  0.7500272817592588  0.5393719063006444
  0.2469751544444563  0.7499994581602252  0.9605612553465193
  0.6219445020383745  0.7500047128706413  0.1199406458613126
  0.3215389353792162  0.5635414124349367  0.1576996619808142
  0.3214952929414849  0.9365206459502389  0.1577177457746686
  0.0439490920413661  0.1359066604269472  0.1799519850066815
  0.0439434679259563  0.3641972522776058  0.1798830061250598
  0.5438520806478735  0.1359471567010999  0.3201410617426035
  0.5438189861854354  0.3641483338952440  0.3201873211655695
  0.8215192493379178  0.5635305209517512  0.3422664759563858
  0.8214694685502124  0.9365216568794921  0.3422097122435019
  0.1219282026228115  0.7499993814294967  0.3799799889121971
  0.8779505228314548  0.2500771542704001  0.6198902312273589
  0.1784205213308212  0.0635679795684680  0.6578976856032668
  0.1783989023115922  0.4365189999215602  0.6578140370769319
  0.4561962485593085  0.6359040150752691  0.6797607056079258
  0.4561717606980835  0.8641112671339712  0.6797873085693382
  0.9562019166547771  0.6358967472052441  0.8201579519701738
  0.9561986980211756  0.8641054778492290  0.8201168625722630
  0.6784902206586949  0.0635212270936805  0.8422730646487580
  0.6784595695649500  0.4365564700051507  0.8423291133273239
  0.3782674942700694  0.2500662427718652  0.8800822348815629

  0.00000000E+00  0.00000000E+00  0.00000000E+00
  0.00000000E+00  0.00000000E+00  0.00000000E+00
  0.00000000E+00  0.00000000E+00  0.00000000E+00
  0.00000000E+00  0.00000000E+00  0.00000000E+00
  0.00000000E+00  0.00000000E+00  0.00000000E+00
  0.00000000E+00  0.00000000E+00  0.00000000E+00
  0.00000000E+00  0.00000000E+00  0.00000000E+00
  0.00000000E+00  0.00000000E+00  0.00000000E+00
  0.00000000E+00  0.00000000E+00  0.00000000E+00
  0.00000000E+00  0.00000000E+00  0.00000000E+00
  0.00000000E+00  0.00000000E+00  0.00000000E+00
  0.00000000E+00  0.00000000E+00  0.00000000E+00
  0.00000000E+00  0.00000000E+00  0.00000000E+00
  0.00000000E+00  0.00000000E+00  0.00000000E+00
  0.00000000E+00  0.00000000E+00  0.00000000E+00
  0.00000000E+00  0.00000000E+00  0.00000000E+00
  0.00000000E+00  0.00000000E+00  0.00000000E+00
  0.00000000E+00  0.00000000E+00  0.00000000E+00
  0.00000000E+00  0.00000000E+00  0.00000000E+00
  0.00000000E+00  0.00000000E+00  0.00000000E+00
  0.00000000E+00  0.00000000E+00  0.00000000E+00
  0.00000000E+00  0.00000000E+00  0.00000000E+00
  0.00000000E+00  0.00000000E+00  0.00000000E+00
  0.00000000E+00  0.00000000E+00  0.00000000E+00
