Sr4 Ga4 F20                             
   1.0000000000000000     
     4.8146116378806596    0.0000000000000000    0.0000000000000003
    -0.0000000000000003    5.4308481565697253    0.0000000000000003
    -0.0000000000000000    0.0000000000000000   13.4034396531241313
   Sr   Ga   F 
     4     4    20
Direct
  0.7291904188296101  0.6467930122600052  0.6602287886850959
  0.2291904188296101  0.8532069877399948  0.3397712113149041
  0.2708095811703899  0.1467930122599981  0.8397712113149041
  0.7708095811703899  0.3532069877400019  0.1602287886850959
  0.3123233167847630  0.1302715743856169  0.5871521441491225
  0.8123233167847701  0.3697284256143831  0.4128478558508775
  0.6876766832152299  0.6302715743856169  0.9128478558508775
  0.1876766832152370  0.8697284256143831  0.0871521441491225
  0.9830967978199538  0.6230069562830423  0.4833153559570178
  0.4830967978199538  0.8769930437169577  0.5166846440429822
  0.0169032021800462  0.1230069562830494  0.0166846440429822
  0.5169032021800462  0.3769930437169506  0.9833153559570178
  0.6362435505492599  0.5921269086565530  0.3262471425793692
  0.1362435505492599  0.9078730913434470  0.6737528574206237
  0.3637564494507401  0.0921269086565459  0.1737528574206237
  0.8637564494507401  0.4078730913434470  0.8262471425793692
  0.1628231170810821  0.3955762243811094  0.6576913195342016
  0.6628231170810821  0.1044237756188906  0.3423086804657984
  0.8371768829189179  0.8955762243811094  0.8423086804657984
  0.3371768829189179  0.6044237756188906  0.1576913195342016
  0.6049513058335805  0.1356619954941962  0.6833145407110095
  0.1049513058335734  0.3643380045058038  0.3166854592889905
  0.3950486941664266  0.6356619954941962  0.8166854592889905
  0.8950486941664195  0.8643380045058038  0.1833145407110095
  0.5241515347105334  0.3770317385150577  0.5122787736026453
  0.0241515347105263  0.1229682614849494  0.4877212263973476
  0.4758484652894666  0.8770317385150577  0.9877212263973547
  0.9758484652894666  0.6229682614849423  0.0122787736026524

  0.00000000E+00  0.00000000E+00  0.00000000E+00
  0.00000000E+00  0.00000000E+00  0.00000000E+00
  0.00000000E+00  0.00000000E+00  0.00000000E+00
  0.00000000E+00  0.00000000E+00  0.00000000E+00
  0.00000000E+00  0.00000000E+00  0.00000000E+00
  0.00000000E+00  0.00000000E+00  0.00000000E+00
  0.00000000E+00  0.00000000E+00  0.00000000E+00
  0.00000000E+00  0.00000000E+00  0.00000000E+00
  0.00000000E+00  0.00000000E+00  0.00000000E+00
  0.00000000E+00  0.00000000E+00  0.00000000E+00
  0.00000000E+00  0.00000000E+00  0.00000000E+00
  0.00000000E+00  0.00000000E+00  0.00000000E+00
  0.00000000E+00  0.00000000E+00  0.00000000E+00
  0.00000000E+00  0.00000000E+00  0.00000000E+00
  0.00000000E+00  0.00000000E+00  0.00000000E+00
  0.00000000E+00  0.00000000E+00  0.00000000E+00
  0.00000000E+00  0.00000000E+00  0.00000000E+00
  0.00000000E+00  0.00000000E+00  0.00000000E+00
  0.00000000E+00  0.00000000E+00  0.00000000E+00
  0.00000000E+00  0.00000000E+00  0.00000000E+00
  0.00000000E+00  0.00000000E+00  0.00000000E+00
  0.00000000E+00  0.00000000E+00  0.00000000E+00
  0.00000000E+00  0.00000000E+00  0.00000000E+00
  0.00000000E+00  0.00000000E+00  0.00000000E+00
  0.00000000E+00  0.00000000E+00  0.00000000E+00
  0.00000000E+00  0.00000000E+00  0.00000000E+00
  0.00000000E+00  0.00000000E+00  0.00000000E+00
  0.00000000E+00  0.00000000E+00  0.00000000E+00
