Be16 Ga13                               
   1.00000000000000     
     6.4115184130491691   -3.6622015060188144    2.7606207653456529
     0.0634849002901264    7.2771149247632394    2.5098648063460738
    -6.5304313562317020   -3.8242489064524694    2.8559832267397343
   Ga   Be
    13    16
Direct
  0.4532563086943853  0.8195671035092360  0.9056263960320479
  0.9377140575398286  0.8769011637655382  0.1089288767788545
  0.6777635913011224  0.4817727260508065  0.9656106182256821
  0.3922106102999834  0.2995001720414265  0.2161492364262401
  0.3122124707316090  0.7976661979829061  0.2282851804830131
  0.8551135200556530  0.2171534649086979  0.2318912737552878
  0.4054078998226629  0.2487262921865465  0.5559111410375692
  0.2285638310865323  0.4859986758677053  0.5390128767519045
  0.7185076962853287  0.9735069733037776  0.4197781310621309
  0.8426816934014099  0.6554993009182652  0.3804875008368498
  0.7025931842952389  0.9600636723335967  0.7670553911157398
  0.0198790153335793  0.5433741431401131  0.7976550670727391
  0.2047609543870621  0.0163161396175227  0.7367874551706919
  0.2081440064855187  0.9244745993287466  0.9947739519382921
  0.0470908372178371  0.1093662183490594  0.9782119742685964
  0.9016171365183112  0.3200551991573661  0.9849054729836197
  0.2121844328763629  0.4399290448372355  0.0650878689389742
  0.5232076685712101  0.6055954996003408  0.1587988662089757
  0.5347951251619563  0.0820621305203559  0.2183501267374339
  0.0871067640099668  0.5657545729157079  0.2894965965807472
  0.0670715173339573  0.1402848854603320  0.4948639862177302
  0.6927236406008390  0.4143081131575812  0.5047884640322522
  0.5675710694477942  0.6450335277680423  0.4756730134657943
  0.9874878674140390  0.2110069403342223  0.7499009690516374
  0.1474543038545733  0.8923210921955445  0.4096700921717158
  0.8920687697870804  0.7709599609566666  0.7327876770644721
  0.7072130911751700  0.2506179543965814  0.6926671094811425
  0.3660854438020849  0.8218543485796843  0.5688493390153724
  0.3071834925088197  0.4304898868163960  0.8279983470944927
 
  0.00000000E+00  0.00000000E+00  0.00000000E+00
  0.00000000E+00  0.00000000E+00  0.00000000E+00
  0.00000000E+00  0.00000000E+00  0.00000000E+00
  0.00000000E+00  0.00000000E+00  0.00000000E+00
  0.00000000E+00  0.00000000E+00  0.00000000E+00
  0.00000000E+00  0.00000000E+00  0.00000000E+00
  0.00000000E+00  0.00000000E+00  0.00000000E+00
  0.00000000E+00  0.00000000E+00  0.00000000E+00
  0.00000000E+00  0.00000000E+00  0.00000000E+00
  0.00000000E+00  0.00000000E+00  0.00000000E+00
  0.00000000E+00  0.00000000E+00  0.00000000E+00
  0.00000000E+00  0.00000000E+00  0.00000000E+00
  0.00000000E+00  0.00000000E+00  0.00000000E+00
  0.00000000E+00  0.00000000E+00  0.00000000E+00
  0.00000000E+00  0.00000000E+00  0.00000000E+00
  0.00000000E+00  0.00000000E+00  0.00000000E+00
  0.00000000E+00  0.00000000E+00  0.00000000E+00
  0.00000000E+00  0.00000000E+00  0.00000000E+00
  0.00000000E+00  0.00000000E+00  0.00000000E+00
  0.00000000E+00  0.00000000E+00  0.00000000E+00
  0.00000000E+00  0.00000000E+00  0.00000000E+00
  0.00000000E+00  0.00000000E+00  0.00000000E+00
  0.00000000E+00  0.00000000E+00  0.00000000E+00
  0.00000000E+00  0.00000000E+00  0.00000000E+00
  0.00000000E+00  0.00000000E+00  0.00000000E+00
  0.00000000E+00  0.00000000E+00  0.00000000E+00
  0.00000000E+00  0.00000000E+00  0.00000000E+00
  0.00000000E+00  0.00000000E+00  0.00000000E+00
  0.00000000E+00  0.00000000E+00  0.00000000E+00
