Be4F                                    
   1.00000000000000     
     3.0499546331221574    0.0000000000000000    0.0000000000000000
     0.0000000000000000    3.0499546331221574    0.0000000000000000
     0.0000000000000000    0.0000000000000000   11.4490749004861190
   Be   F 
     8     2
Direct
  0.0000000000000000  0.0000000000000000  0.0000000000000000
  0.5000000000000000  0.5000000000000000  0.0000000000000000
  0.0000000000000000  0.0000000000000000  0.3673278222139089
  0.5000000000000000  0.5000000000000000  0.3673278222139089
  0.5000000000000000  0.0000000000000000  0.4894208188209532
  0.0000000000000000  0.5000000000000000  0.5105791811790468
  0.0000000000000000  0.0000000000000000  0.6326721777860911
  0.5000000000000000  0.5000000000000000  0.6326721777860911
  0.0000000000000000  0.5000000000000000  0.2593865413318852
  0.5000000000000000  0.0000000000000000  0.7406134586681148
 
  0.00000000E+00  0.00000000E+00  0.00000000E+00
  0.00000000E+00  0.00000000E+00  0.00000000E+00
  0.00000000E+00  0.00000000E+00  0.00000000E+00
  0.00000000E+00  0.00000000E+00  0.00000000E+00
  0.00000000E+00  0.00000000E+00  0.00000000E+00
  0.00000000E+00  0.00000000E+00  0.00000000E+00
  0.00000000E+00  0.00000000E+00  0.00000000E+00
  0.00000000E+00  0.00000000E+00  0.00000000E+00
  0.00000000E+00  0.00000000E+00  0.00000000E+00
  0.00000000E+00  0.00000000E+00  0.00000000E+00
