Ba16 Ga6                                
   1.00000000000000     
    10.5889909116549195    0.0010805967093574   -0.0214213245147819
     5.3010573432211343    9.1507407605659221   -0.0019654679340117
     2.0636132770741087    3.0846250788265634    9.9150157922675888
   Ba   Ga
    16     6
Direct
  0.6473352400463384  0.2631286485714526  0.1020158752740556
  0.0600015738821043  0.6170708929230955  0.1178290880355632
  0.2804050492947852  0.0170709129606621  0.1128539840652181
  0.6639695272227897  0.7815225451567898  0.2903027285435371
  0.8686063596344340  0.3560388345599037  0.2957263446986076
  0.3978449177308647  0.5635327267312960  0.3352761952635603
  0.3347966583615545  0.1948261662731952  0.3576782148543600
  0.9656805629540344  0.9074825415272585  0.3514767448209426
  0.0343051147974620  0.0925547177539698  0.6486365731970949
  0.6651612813416250  0.8052919741237616  0.6422455508754439
  0.6020793664543476  0.4366476126197085  0.6646565475786019
  0.1314742901911004  0.6439166238088134  0.7042415830760689
  0.3361160322947256  0.2183783917313065  0.7097335725963276
  0.7198622678689048  0.9829660329619614  0.8871745815336425
  0.9400023975336111  0.3829308775800868  0.8821677014946374
  0.3528195374146534  0.7367106293072823  0.8981890955326648
  0.0001789855376302  0.9999759626224574  0.0001406102534460
  0.6631907132482269  0.6614941934134393  0.0232732184262332
  0.3473577673151098  0.8236362636905170  0.5022978038658366
  0.9996346119876236  0.4999647377010916  0.4997984691703223
  0.6524450017737635  0.1765557538509128  0.4976280971159071
  0.3370327431142996  0.3386619601310201  0.9765574197278823
 
  0.00000000E+00  0.00000000E+00  0.00000000E+00
  0.00000000E+00  0.00000000E+00  0.00000000E+00
  0.00000000E+00  0.00000000E+00  0.00000000E+00
  0.00000000E+00  0.00000000E+00  0.00000000E+00
  0.00000000E+00  0.00000000E+00  0.00000000E+00
  0.00000000E+00  0.00000000E+00  0.00000000E+00
  0.00000000E+00  0.00000000E+00  0.00000000E+00
  0.00000000E+00  0.00000000E+00  0.00000000E+00
  0.00000000E+00  0.00000000E+00  0.00000000E+00
  0.00000000E+00  0.00000000E+00  0.00000000E+00
  0.00000000E+00  0.00000000E+00  0.00000000E+00
  0.00000000E+00  0.00000000E+00  0.00000000E+00
  0.00000000E+00  0.00000000E+00  0.00000000E+00
  0.00000000E+00  0.00000000E+00  0.00000000E+00
  0.00000000E+00  0.00000000E+00  0.00000000E+00
  0.00000000E+00  0.00000000E+00  0.00000000E+00
  0.00000000E+00  0.00000000E+00  0.00000000E+00
  0.00000000E+00  0.00000000E+00  0.00000000E+00
  0.00000000E+00  0.00000000E+00  0.00000000E+00
  0.00000000E+00  0.00000000E+00  0.00000000E+00
  0.00000000E+00  0.00000000E+00  0.00000000E+00
  0.00000000E+00  0.00000000E+00  0.00000000E+00
