InCl4                                   
   1.00000000000000     
     3.2962951354847534   -5.7010134882325332    0.0156865865804869
     3.2962951354847534    5.7010134882325332    0.0156865865804869
    -1.3996238809564909    0.0000000000000000    9.8735597767931473
   Cl   In
     8     2
Direct
  0.8933825816346115  0.8933825816346115  0.1480920214437873
  0.5298081132607209  0.1673515971305903  0.1481603112869436
  0.1673515971305903  0.5298081132607209  0.1481603112869436
  0.6392498047630326  0.6392498047630326  0.4707955662890981
  0.3607501952369674  0.3607501952369674  0.5292044337109019
  0.8326484028694097  0.4701918867392720  0.8518396887130564
  0.4701918867392720  0.8326484028694097  0.8518396887130564
  0.1066174183653885  0.1066174183653885  0.8519079785562127
  0.8328799222680487  0.1671200777319513  0.0000000000000000
  0.1671200777319513  0.8328799222680487  0.0000000000000000
 
  0.00000000E+00  0.00000000E+00  0.00000000E+00
  0.00000000E+00  0.00000000E+00  0.00000000E+00
  0.00000000E+00  0.00000000E+00  0.00000000E+00
  0.00000000E+00  0.00000000E+00  0.00000000E+00
  0.00000000E+00  0.00000000E+00  0.00000000E+00
  0.00000000E+00  0.00000000E+00  0.00000000E+00
  0.00000000E+00  0.00000000E+00  0.00000000E+00
  0.00000000E+00  0.00000000E+00  0.00000000E+00
  0.00000000E+00  0.00000000E+00  0.00000000E+00
  0.00000000E+00  0.00000000E+00  0.00000000E+00
