Sr17 In12                               
   1.0000000000000000     
    -6.4143677673725303   -6.4143677673725303    6.4160728483875564
    -6.4143677673725303    6.4160728483875564   -6.4143677673725303
     6.4160728483875564   -6.4143677673725303   -6.4143677673725303
   In   Sr
    12    17
Direct
  0.3678421335018314  0.1803732015160904  0.0000977313999826
  0.1803732015160904  0.3678421335018314  0.0000977313999826
  0.8198154638008504  0.8198154638008504  0.1874790309764904
  0.3678421335018314  0.0000977313999826  0.1803732015160904
  0.0000977313999826  0.3678421335018314  0.1803732015160904
  0.1803732015160904  0.0000977313999826  0.3678421335018314
  0.0000977313999826  0.1803732015160904  0.3678421335018314
  0.8120029036945837  0.6319467666345844  0.6319467666345844
  0.6319467666345844  0.8120029036945837  0.6319467666345844
  0.8198154638008504  0.1874790309764904  0.8198154638008504
  0.1874790309764904  0.8198154638008504  0.8198154638008504
  0.6319467666345844  0.6319467666345844  0.8120029036945837
  0.0004424002140837  0.0004424002140837  0.0004424002140837
  0.6800210058843561  0.9999150329030684  0.9999150329030684
  0.6945325610624593  0.4086775077727722  0.9999203704044959
  0.9999150329030684  0.6800210058843561  0.9999150329030684
  0.4086775077727722  0.6945325610624593  0.9999203704044959
  0.5911675008192532  0.5911675008192532  0.2852914390420764
  0.7142915548978621  0.3055474601733010  0.3055474601733010
  0.3055474601733010  0.7142915548978621  0.3055474601733010
  0.3208002053131978  0.3208002053131978  0.3208002053131978
  0.6945325610624593  0.9999203704044959  0.4086775077727722
  0.9999203704044959  0.6945325610624593  0.4086775077727722
  0.5911675008192532  0.2852914390420764  0.5911675008192532
  0.2852914390420764  0.5911675008192532  0.5911675008192532
  0.9999150329030684  0.9999150329030684  0.6800210058843561
  0.4086775077727722  0.9999203704044959  0.6945325610624593
  0.9999203704044959  0.4086775077727722  0.6945325610624593
  0.3055474601733010  0.3055474601733010  0.7142915548978621

  0.00000000E+00  0.00000000E+00  0.00000000E+00
  0.00000000E+00  0.00000000E+00  0.00000000E+00
  0.00000000E+00  0.00000000E+00  0.00000000E+00
  0.00000000E+00  0.00000000E+00  0.00000000E+00
  0.00000000E+00  0.00000000E+00  0.00000000E+00
  0.00000000E+00  0.00000000E+00  0.00000000E+00
  0.00000000E+00  0.00000000E+00  0.00000000E+00
  0.00000000E+00  0.00000000E+00  0.00000000E+00
  0.00000000E+00  0.00000000E+00  0.00000000E+00
  0.00000000E+00  0.00000000E+00  0.00000000E+00
  0.00000000E+00  0.00000000E+00  0.00000000E+00
  0.00000000E+00  0.00000000E+00  0.00000000E+00
  0.00000000E+00  0.00000000E+00  0.00000000E+00
  0.00000000E+00  0.00000000E+00  0.00000000E+00
  0.00000000E+00  0.00000000E+00  0.00000000E+00
  0.00000000E+00  0.00000000E+00  0.00000000E+00
  0.00000000E+00  0.00000000E+00  0.00000000E+00
  0.00000000E+00  0.00000000E+00  0.00000000E+00
  0.00000000E+00  0.00000000E+00  0.00000000E+00
  0.00000000E+00  0.00000000E+00  0.00000000E+00
  0.00000000E+00  0.00000000E+00  0.00000000E+00
  0.00000000E+00  0.00000000E+00  0.00000000E+00
  0.00000000E+00  0.00000000E+00  0.00000000E+00
  0.00000000E+00  0.00000000E+00  0.00000000E+00
  0.00000000E+00  0.00000000E+00  0.00000000E+00
  0.00000000E+00  0.00000000E+00  0.00000000E+00
  0.00000000E+00  0.00000000E+00  0.00000000E+00
  0.00000000E+00  0.00000000E+00  0.00000000E+00
  0.00000000E+00  0.00000000E+00  0.00000000E+00
