Ba4 Al4 Cl20                            
   1.0000000000000000     
     6.4872664749033708   -0.0000000000000001    0.0000000000000004
    -0.0000000000000004    6.8315426781979331    0.0000000000000004
     0.0000000000000002    0.0000000000000002   17.0033642400150562
   Ba   Al   Cl
     4     4    20
Direct
  0.7157858538950563  0.5947586902396722  0.6463855855886038
  0.2157858538950563  0.9052413097603278  0.3536144144113962
  0.2842141461049437  0.0947586902396722  0.8536144144113962
  0.7842141461049437  0.4052413097603278  0.1463855855886038
  0.2735460920806858  0.1135926649926802  0.6015873498823225
  0.7735460920806858  0.3864073350073198  0.3984126501176775
  0.7264539079193142  0.6135926649926802  0.8984126501176775
  0.2264539079193142  0.8864073350073198  0.1015873498823225
  0.9401612619354580  0.6280671736374330  0.4643000365487140
  0.4401612619354580  0.8719328263625670  0.5356999634512860
  0.0598387380645420  0.1280671736374330  0.0356999634512860
  0.5598387380645420  0.3719328263625670  0.9643000365487140
  0.5812540987377091  0.5630846185556919  0.3146509619244355
  0.0812540987377091  0.9369153814443081  0.6853490380755574
  0.4187459012622909  0.0630846185556919  0.1853490380755574
  0.9187459012622909  0.4369153814443081  0.8146509619244355
  0.1890500286855783  0.4217293219518723  0.6401016175422711
  0.6890500286855783  0.0782706780481277  0.3598983824577289
  0.8109499713144217  0.9217293219518723  0.8598983824577289
  0.3109499713144217  0.5782706780481277  0.1401016175422711
  0.5532680897669522  0.1346763977040197  0.6882181142018666
  0.0532680897669522  0.3653236022959803  0.3117818857981334
  0.4467319102330478  0.6346763977040197  0.8117818857981334
  0.9467319102330478  0.8653236022959803  0.1882181142018666
  0.5416779009776960  0.3705106028173049  0.4995388653071231
  0.0416779009776960  0.1294893971826951  0.5004611346928769
  0.4583220990223040  0.8705106028173049  0.0004611346928769
  0.9583220990223040  0.6294893971826951  0.9995388653071231

  0.00000000E+00  0.00000000E+00  0.00000000E+00
  0.00000000E+00  0.00000000E+00  0.00000000E+00
  0.00000000E+00  0.00000000E+00  0.00000000E+00
  0.00000000E+00  0.00000000E+00  0.00000000E+00
  0.00000000E+00  0.00000000E+00  0.00000000E+00
  0.00000000E+00  0.00000000E+00  0.00000000E+00
  0.00000000E+00  0.00000000E+00  0.00000000E+00
  0.00000000E+00  0.00000000E+00  0.00000000E+00
  0.00000000E+00  0.00000000E+00  0.00000000E+00
  0.00000000E+00  0.00000000E+00  0.00000000E+00
  0.00000000E+00  0.00000000E+00  0.00000000E+00
  0.00000000E+00  0.00000000E+00  0.00000000E+00
  0.00000000E+00  0.00000000E+00  0.00000000E+00
  0.00000000E+00  0.00000000E+00  0.00000000E+00
  0.00000000E+00  0.00000000E+00  0.00000000E+00
  0.00000000E+00  0.00000000E+00  0.00000000E+00
  0.00000000E+00  0.00000000E+00  0.00000000E+00
  0.00000000E+00  0.00000000E+00  0.00000000E+00
  0.00000000E+00  0.00000000E+00  0.00000000E+00
  0.00000000E+00  0.00000000E+00  0.00000000E+00
  0.00000000E+00  0.00000000E+00  0.00000000E+00
  0.00000000E+00  0.00000000E+00  0.00000000E+00
  0.00000000E+00  0.00000000E+00  0.00000000E+00
  0.00000000E+00  0.00000000E+00  0.00000000E+00
  0.00000000E+00  0.00000000E+00  0.00000000E+00
  0.00000000E+00  0.00000000E+00  0.00000000E+00
  0.00000000E+00  0.00000000E+00  0.00000000E+00
  0.00000000E+00  0.00000000E+00  0.00000000E+00
