Ba4 Al2 F10                             
   1.00000000000000     
     7.4715875099035944    0.2572824815671341    0.1092104943579295
     0.3014960711696962    8.5721551416040285   -0.4315812744481750
     3.9886068242154997    4.1526159966830232    4.4317204534449663
   F    Al   Ba
    10     2     4
Direct
  0.0168102026855834  0.0329799858921405  0.1440946028030652
  0.3637781521431265  0.3229645955082603  0.3840855223698227
  0.4805792287565680  0.0101560525015501  0.1782192877193864
  0.2255650769935542  0.3544575982515497  0.1131024783061676
  0.6853334275918144  0.7109024326072202  0.4069700199237545
  0.1397341876024498  0.7328170019693090  0.1974678488483121
  0.9096099453590440  0.3065153278531341  0.5970689526519450
  0.2360133077938968  0.5083035768590136  0.6461849995777271
  0.8045923344862373  0.5125241833036824  0.1632975452054097
  0.5622672605372685  0.0182710333854175  0.6227887282597067
  0.1054368671984065  0.1828715000976615  0.4880122971860459
  0.8927967528973895  0.7619317932793308  0.4425296706242179
  0.4737430394634004  0.2729336796758943  0.7402279441956310
  0.7901002390540697  0.2774883358808324  0.0484970834164784
  0.2458849815620781  0.7472766838238201  0.7605779267350670
  0.5680549958751158  0.7479062191111439  0.0668750921772698
 
  0.00000000E+00  0.00000000E+00  0.00000000E+00
  0.00000000E+00  0.00000000E+00  0.00000000E+00
  0.00000000E+00  0.00000000E+00  0.00000000E+00
  0.00000000E+00  0.00000000E+00  0.00000000E+00
  0.00000000E+00  0.00000000E+00  0.00000000E+00
  0.00000000E+00  0.00000000E+00  0.00000000E+00
  0.00000000E+00  0.00000000E+00  0.00000000E+00
  0.00000000E+00  0.00000000E+00  0.00000000E+00
  0.00000000E+00  0.00000000E+00  0.00000000E+00
  0.00000000E+00  0.00000000E+00  0.00000000E+00
  0.00000000E+00  0.00000000E+00  0.00000000E+00
  0.00000000E+00  0.00000000E+00  0.00000000E+00
  0.00000000E+00  0.00000000E+00  0.00000000E+00
  0.00000000E+00  0.00000000E+00  0.00000000E+00
  0.00000000E+00  0.00000000E+00  0.00000000E+00
  0.00000000E+00  0.00000000E+00  0.00000000E+00
