Ba1 B2 F8                               
   1.00000000000000     
     2.4710031923931677    6.1852947744121547   -0.0955397715070155
    -2.4710031923931677    6.1852947744121547   -0.0955397715070155
     0.0000000000000000    1.6986228805309374    4.2705716456741944
   Ba   B    F 
     1     2     8
Direct
  0.0000000000000000  0.0000000000000000  0.0000000000000000
  0.3461951278516722  0.3461951278516722  0.7201326139668751
  0.6538048721483349  0.6538048721483349  0.2798673860331249
  0.6178449428280075  0.1498739355315593  0.5387988567945996
  0.7733758388664427  0.7733758388664427  0.1397876025858551
  0.1498739355315593  0.6178449428280075  0.5387988567945996
  0.3978501057588844  0.3978501057588844  0.9524458622507055
  0.8501260644684550  0.3821550571719925  0.4612011432054004
  0.3821550571719925  0.8501260644684550  0.4612011432054004
  0.2266241611335644  0.2266241611335644  0.8602123974141449
  0.6021498942411156  0.6021498942411156  0.0475541377492945
 
  0.00000000E+00  0.00000000E+00  0.00000000E+00
  0.00000000E+00  0.00000000E+00  0.00000000E+00
  0.00000000E+00  0.00000000E+00  0.00000000E+00
  0.00000000E+00  0.00000000E+00  0.00000000E+00
  0.00000000E+00  0.00000000E+00  0.00000000E+00
  0.00000000E+00  0.00000000E+00  0.00000000E+00
  0.00000000E+00  0.00000000E+00  0.00000000E+00
  0.00000000E+00  0.00000000E+00  0.00000000E+00
  0.00000000E+00  0.00000000E+00  0.00000000E+00
  0.00000000E+00  0.00000000E+00  0.00000000E+00
  0.00000000E+00  0.00000000E+00  0.00000000E+00
