Mg4 Tl4 Cl20                            
   1.0000000000000000     
     7.0351710876132039   -0.0000000000000001    0.0000000000000006
    -0.0000000000000005    7.7870236199561482    0.0000000000000006
     0.0000000000000004    0.0000000000000003   18.3008403602796008
   Mg   Tl   Cl
     4     4    20
Direct
  0.4091374105746937  0.2730247383263347  0.4335970556346851
  0.9091374105746937  0.2269752616736653  0.5664029443653149
  0.5908625894252992  0.7730247383263347  0.0664029443653149
  0.0908625894252992  0.7269752616736653  0.9335970556346851
  0.2677630716631398  0.7967009252844264  0.3970494282958725
  0.7677630716631398  0.7032990747155736  0.6029505717041275
  0.7322369283368602  0.2967009252844264  0.1029505717041204
  0.2322369283368602  0.2032990747155736  0.8970494282958725
  0.8207281238269530  0.7155532376064642  0.4732805251070076
  0.3207281238269459  0.7844467623935358  0.5267194748929924
  0.1792718761730470  0.2155532376064642  0.0267194748929924
  0.6792718761730470  0.2844467623935358  0.9732805251070076
  0.0392122149323342  0.8261523978394720  0.3024871486616902
  0.5392122149323342  0.6738476021605280  0.6975128513383098
  0.9607877850676658  0.3261523978394791  0.1975128513383098
  0.4607877850676658  0.1738476021605209  0.8024871486616902
  0.9200366699428884  0.7121768783065860  0.0454140153549218
  0.4200366699428884  0.7878231216934140  0.9545859846450782
  0.0799633300571116  0.2121768783065860  0.4545859846450782
  0.5799633300571116  0.2878231216934140  0.5454140153549218
  0.4835309427368557  0.5365795879848392  0.1366791881736162
  0.9835309427368628  0.9634204120151608  0.8633208118263838
  0.5164690572631443  0.0365795879848392  0.3633208118263838
  0.0164690572631372  0.4634204120151608  0.6366791881736162
  0.0620825390434945  0.4884457884075317  0.8546846256153984
  0.5620825390434945  0.0115542115924683  0.1453153743846087
  0.9379174609565055  0.9884457884075317  0.6453153743846016
  0.4379174609565055  0.5115542115924683  0.3546846256153913

  0.00000000E+00  0.00000000E+00  0.00000000E+00
  0.00000000E+00  0.00000000E+00  0.00000000E+00
  0.00000000E+00  0.00000000E+00  0.00000000E+00
  0.00000000E+00  0.00000000E+00  0.00000000E+00
  0.00000000E+00  0.00000000E+00  0.00000000E+00
  0.00000000E+00  0.00000000E+00  0.00000000E+00
  0.00000000E+00  0.00000000E+00  0.00000000E+00
  0.00000000E+00  0.00000000E+00  0.00000000E+00
  0.00000000E+00  0.00000000E+00  0.00000000E+00
  0.00000000E+00  0.00000000E+00  0.00000000E+00
  0.00000000E+00  0.00000000E+00  0.00000000E+00
  0.00000000E+00  0.00000000E+00  0.00000000E+00
  0.00000000E+00  0.00000000E+00  0.00000000E+00
  0.00000000E+00  0.00000000E+00  0.00000000E+00
  0.00000000E+00  0.00000000E+00  0.00000000E+00
  0.00000000E+00  0.00000000E+00  0.00000000E+00
  0.00000000E+00  0.00000000E+00  0.00000000E+00
  0.00000000E+00  0.00000000E+00  0.00000000E+00
  0.00000000E+00  0.00000000E+00  0.00000000E+00
  0.00000000E+00  0.00000000E+00  0.00000000E+00
  0.00000000E+00  0.00000000E+00  0.00000000E+00
  0.00000000E+00  0.00000000E+00  0.00000000E+00
  0.00000000E+00  0.00000000E+00  0.00000000E+00
  0.00000000E+00  0.00000000E+00  0.00000000E+00
  0.00000000E+00  0.00000000E+00  0.00000000E+00
  0.00000000E+00  0.00000000E+00  0.00000000E+00
  0.00000000E+00  0.00000000E+00  0.00000000E+00
  0.00000000E+00  0.00000000E+00  0.00000000E+00
