Sr2 Ga2 Cl10                            
   1.00000000000000     
     6.5735656565462159    0.0921062134579831    2.4765258760560229
     1.5304125864675771    6.3935965285632346    2.4765261762850157
     0.0303880105148835    0.0243221512251271    9.7927350569470129
   Sr   Ga   Cl
     2     2    10
Direct
  0.4402304154063685  0.5597695842891213  0.2500000003617942
  0.5597695845936315  0.4402304157108716  0.7499999996382058
  0.0000000000000000  0.0000000000000000  0.5000000000000000
  0.0000000000000000  0.0000000000000000  0.0000000000000000
  0.8036624177421103  0.7532577124362874  0.6187231306970702
  0.2467422938062498  0.1963365766775098  0.8812768689069799
  0.1963365822578922  0.2467422875637126  0.3812778693029344
  0.7532577061937502  0.8036624233224927  0.1187231310930201
  0.9284111172210174  0.0715888815831178  0.7500000007669101
  0.0715888827789826  0.9284111184168822  0.2499999992330899
  0.7267543061291448  0.3143688444204216  0.0241400014573188
  0.6856311517083356  0.2732456880190384  0.4758600046217794
  0.2732456938708552  0.6856311555795855  0.9758599985426812
  0.3143688482916644  0.7267543119809616  0.5241399953782206
 
  0.00000000E+00  0.00000000E+00  0.00000000E+00
  0.00000000E+00  0.00000000E+00  0.00000000E+00
  0.00000000E+00  0.00000000E+00  0.00000000E+00
  0.00000000E+00  0.00000000E+00  0.00000000E+00
  0.00000000E+00  0.00000000E+00  0.00000000E+00
  0.00000000E+00  0.00000000E+00  0.00000000E+00
  0.00000000E+00  0.00000000E+00  0.00000000E+00
  0.00000000E+00  0.00000000E+00  0.00000000E+00
  0.00000000E+00  0.00000000E+00  0.00000000E+00
  0.00000000E+00  0.00000000E+00  0.00000000E+00
  0.00000000E+00  0.00000000E+00  0.00000000E+00
  0.00000000E+00  0.00000000E+00  0.00000000E+00
  0.00000000E+00  0.00000000E+00  0.00000000E+00
  0.00000000E+00  0.00000000E+00  0.00000000E+00
