Al1 Cl6                                 
   1.00000000000000     
     3.3112284453777217    3.2335178965812363    6.2982430697650029
    -2.7296379131056683    3.0736171329805120    6.0625653580751164
     0.0525082452920259   -3.8324713328878088    5.1681591756737282
   Cl   Al
     6     1
Direct
  0.8557930071164321  0.4082605531713384  0.8813296094081906
  0.6468208968324518  0.0852699978177824  0.1230736937702019
  0.0462727833959136  0.8627061620288359  0.4301636610106883
  0.9538440467135345  0.1373598213626437  0.5699522731616398
  0.3532973661492775  0.9148765048584053  0.8769663271178132
  0.1443157924481966  0.5918554044367710  0.1188579388912672
  0.0000561073441787  0.0000715563242224  0.0000564966401981
 
  0.00000000E+00  0.00000000E+00  0.00000000E+00
  0.00000000E+00  0.00000000E+00  0.00000000E+00
  0.00000000E+00  0.00000000E+00  0.00000000E+00
  0.00000000E+00  0.00000000E+00  0.00000000E+00
  0.00000000E+00  0.00000000E+00  0.00000000E+00
  0.00000000E+00  0.00000000E+00  0.00000000E+00
  0.00000000E+00  0.00000000E+00  0.00000000E+00
