Ba2Al5                                  
   1.00000000000000     
    10.0651985853786083   -5.1846118259198182   -0.0054925468142848
    10.0647484556076972    5.1837395217549460   -0.0051255536722051
    -5.4151506658031749    0.0005510923689274    8.8978963453029749
   Al   Ba
    20     8
Direct
  0.1749062348023074  0.3253442268307154  0.0425195634101598
  0.4187170681117891  0.0898623324322614  0.0903772277817296
  0.1162303695714400  0.6158501572038233  0.1164169721877357
  0.2496980783549745  0.7503635355225384  0.1201116951888181
  0.9595213767612307  0.5404584899689979  0.1739902580911590
  0.4595571050126637  0.0405384266309667  0.3260186031437442
  0.2495811628016043  0.7504514153841697  0.3798719830197186
  0.3842277045083407  0.8837986058603491  0.3836020860621403
  0.9101771891858874  0.5813438481775037  0.4096410700998376
  0.6747185115924594  0.8251631093116671  0.4575309675021302
  0.3253425244060324  0.1749141318679719  0.5425037334565062
  0.0898670265531933  0.4187143595704867  0.5903928599599766
  0.6158192056349705  0.1162625957635157  0.6164224794787714
  0.7505829024618862  0.2494829609997424  0.6201134511399005
  0.5404792344696148  0.9595037211688151  0.6740001721707642
  0.0405063614918362  0.4595806788891110  0.8260115209434673
  0.7503355651942627  0.2496895787192202  0.8798739986636619
  0.8837996776970982  0.3842082913868623  0.8835990747560700
  0.5813174368815055  0.9101879256447774  0.9096462630430153
  0.8251469337160131  0.6746993778117982  0.9574938066473138
  0.5601876970369162  0.6800509261755820  0.0507070068073716
  0.0605944029273786  0.1800822622655005  0.1891537728107551
  0.8199146616525823  0.9394632797656044  0.3107603682671112
  0.3200166128152091  0.4398885456574746  0.4493516786375764
  0.6800222624728747  0.5601626070132610  0.5506812849215805
  0.1800856521739362  0.0606618388845774  0.6891333117384804
  0.9395122295861214  0.8199455285093293  0.8107724987954512
  0.4398348121258451  0.3200272425833646  0.9493022912750462
 
  0.00000000E+00  0.00000000E+00  0.00000000E+00
  0.00000000E+00  0.00000000E+00  0.00000000E+00
  0.00000000E+00  0.00000000E+00  0.00000000E+00
  0.00000000E+00  0.00000000E+00  0.00000000E+00
  0.00000000E+00  0.00000000E+00  0.00000000E+00
  0.00000000E+00  0.00000000E+00  0.00000000E+00
  0.00000000E+00  0.00000000E+00  0.00000000E+00
  0.00000000E+00  0.00000000E+00  0.00000000E+00
  0.00000000E+00  0.00000000E+00  0.00000000E+00
  0.00000000E+00  0.00000000E+00  0.00000000E+00
  0.00000000E+00  0.00000000E+00  0.00000000E+00
  0.00000000E+00  0.00000000E+00  0.00000000E+00
  0.00000000E+00  0.00000000E+00  0.00000000E+00
  0.00000000E+00  0.00000000E+00  0.00000000E+00
  0.00000000E+00  0.00000000E+00  0.00000000E+00
  0.00000000E+00  0.00000000E+00  0.00000000E+00
  0.00000000E+00  0.00000000E+00  0.00000000E+00
  0.00000000E+00  0.00000000E+00  0.00000000E+00
  0.00000000E+00  0.00000000E+00  0.00000000E+00
  0.00000000E+00  0.00000000E+00  0.00000000E+00
  0.00000000E+00  0.00000000E+00  0.00000000E+00
  0.00000000E+00  0.00000000E+00  0.00000000E+00
  0.00000000E+00  0.00000000E+00  0.00000000E+00
  0.00000000E+00  0.00000000E+00  0.00000000E+00
  0.00000000E+00  0.00000000E+00  0.00000000E+00
  0.00000000E+00  0.00000000E+00  0.00000000E+00
  0.00000000E+00  0.00000000E+00  0.00000000E+00
  0.00000000E+00  0.00000000E+00  0.00000000E+00
