Sr4 B4 Br20                             
   1.0000000000000000     
     8.4218298216960807   -0.0000000000000001    0.0000000000000007
    -0.0000000000000007    7.3387324237690388    0.0000000000000005
     0.0000000000000008    0.0000000000000002   18.8580947750336740
   Sr   B    Br
     4     4    20
Direct
  0.7766977972324298  0.5110788239580657  0.7470083964214922
  0.2766977972324227  0.9889211760419343  0.2529916035785078
  0.2233022027675773  0.0110788239580657  0.7529916035785078
  0.7233022027675702  0.4889211760419343  0.2470083964214922
  0.5205483884884572  0.1956783538326050  0.6214545609626896
  0.0205483884884572  0.3043216461673950  0.3785454390373104
  0.4794516115115428  0.6956783538326050  0.8785454390373104
  0.9794516115115428  0.8043216461673950  0.1214545609626896
  0.0509867862304745  0.5147724086539114  0.4418711672126321
  0.5509867862304745  0.9852275913460886  0.5581288327873679
  0.9490132137695255  0.0147724086539114  0.0581288327873679
  0.4490132137695255  0.4852275913460886  0.9418711672126321
  0.4978382399416432  0.7313182323366902  0.3207819468995794
  0.9978382399416432  0.7686817676633098  0.6792180531004135
  0.5021617600583568  0.2313182323366902  0.1792180531004135
  0.0021617600583568  0.2686817676633098  0.8207819468995794
  0.2872702970453176  0.2746026188169566  0.6251895565714207
  0.7872702970453176  0.2253973811830434  0.3748104434285793
  0.7127297029546824  0.7746026188169566  0.8748104434285793
  0.2127297029546824  0.7253973811830434  0.1251895565714278
  0.5875533899196554  0.1237013629229722  0.7254737965805731
  0.0875533899196554  0.3762986370770278  0.2745262034194269
  0.4124466100803446  0.6237013629229722  0.7745262034194269
  0.9124466100803446  0.8762986370770278  0.2254737965805731
  0.6572208242743613  0.4134177017891432  0.5932652403892291
  0.1572208242743613  0.0865822982108639  0.4067347596107709
  0.3427791757256387  0.9134177017891432  0.9067347596107709
  0.8427791757256387  0.5865822982108568  0.0932652403892291

  0.00000000E+00  0.00000000E+00  0.00000000E+00
  0.00000000E+00  0.00000000E+00  0.00000000E+00
  0.00000000E+00  0.00000000E+00  0.00000000E+00
  0.00000000E+00  0.00000000E+00  0.00000000E+00
  0.00000000E+00  0.00000000E+00  0.00000000E+00
  0.00000000E+00  0.00000000E+00  0.00000000E+00
  0.00000000E+00  0.00000000E+00  0.00000000E+00
  0.00000000E+00  0.00000000E+00  0.00000000E+00
  0.00000000E+00  0.00000000E+00  0.00000000E+00
  0.00000000E+00  0.00000000E+00  0.00000000E+00
  0.00000000E+00  0.00000000E+00  0.00000000E+00
  0.00000000E+00  0.00000000E+00  0.00000000E+00
  0.00000000E+00  0.00000000E+00  0.00000000E+00
  0.00000000E+00  0.00000000E+00  0.00000000E+00
  0.00000000E+00  0.00000000E+00  0.00000000E+00
  0.00000000E+00  0.00000000E+00  0.00000000E+00
  0.00000000E+00  0.00000000E+00  0.00000000E+00
  0.00000000E+00  0.00000000E+00  0.00000000E+00
  0.00000000E+00  0.00000000E+00  0.00000000E+00
  0.00000000E+00  0.00000000E+00  0.00000000E+00
  0.00000000E+00  0.00000000E+00  0.00000000E+00
  0.00000000E+00  0.00000000E+00  0.00000000E+00
  0.00000000E+00  0.00000000E+00  0.00000000E+00
  0.00000000E+00  0.00000000E+00  0.00000000E+00
  0.00000000E+00  0.00000000E+00  0.00000000E+00
  0.00000000E+00  0.00000000E+00  0.00000000E+00
  0.00000000E+00  0.00000000E+00  0.00000000E+00
  0.00000000E+00  0.00000000E+00  0.00000000E+00
