Ba6 Br4                                 
   1.00000000000000     
    -8.2898781710583940    0.0037779361030336    0.0110907231576468
     4.1487841154999803   -7.1761595863908667   -0.0113176554809148
    -4.1562908987610019    2.3994849213246932    7.6478269086498258
   Br   Ba
     4     6
Direct
  0.3319689921665301  0.6687010883789952  0.0043971954789370
  0.1686945220797611  0.8319740378780480  0.4955663289404697
  0.8312415425463513  0.1679913604211762  0.5044264828157168
  0.6679744997627850  0.3312226178472315  0.9955764609946272
  0.5925071189425140  0.7484754584166637  0.2498770664689403
  0.9068259686533366  0.4068108169935059  0.2500130670038487
  0.2484577432897694  0.0924937354601099  0.2500850234000893
  0.7514525707759603  0.9074109771400529  0.7498465060998072
  0.0931288028025747  0.5931509525087293  0.7499732305148399
  0.4074482389804217  0.2514689549554987  0.7501086382827182
 
  0.00000000E+00  0.00000000E+00  0.00000000E+00
  0.00000000E+00  0.00000000E+00  0.00000000E+00
  0.00000000E+00  0.00000000E+00  0.00000000E+00
  0.00000000E+00  0.00000000E+00  0.00000000E+00
  0.00000000E+00  0.00000000E+00  0.00000000E+00
  0.00000000E+00  0.00000000E+00  0.00000000E+00
  0.00000000E+00  0.00000000E+00  0.00000000E+00
  0.00000000E+00  0.00000000E+00  0.00000000E+00
  0.00000000E+00  0.00000000E+00  0.00000000E+00
  0.00000000E+00  0.00000000E+00  0.00000000E+00
