Be1 Tl2 Br6                             
   1.0000000000000000     
     3.6117006989415965    2.0847498597687579    5.8974988250145071
    -3.6117006989415965    2.0847498597687579    5.8974988250145071
     0.0000000000000000   -4.1645027924972604    5.8957326562198498
   Be   Br   Tl
     1     6     2
Direct
  0.0000000000000000  0.0000000000000000  0.0000000000000000
  0.7635876931182963  0.7635876931182963  0.2364242872341862
  0.7636007479623785  0.2363995655484459  0.2363981508685740
  0.2363995655484459  0.7636007479623785  0.2363981508685740
  0.2364123068817037  0.2364123068817037  0.7635757127658138
  0.7636004344515541  0.2363992520376215  0.7636018491314260
  0.2363992520376215  0.7636004344515541  0.7636018491314260
  0.2499995479861425  0.2499995479861425  0.2499962946732310
  0.7500004520138575  0.7500004520138575  0.7500037053267690

  0.00000000E+00  0.00000000E+00  0.00000000E+00
  0.00000000E+00  0.00000000E+00  0.00000000E+00
  0.00000000E+00  0.00000000E+00  0.00000000E+00
  0.00000000E+00  0.00000000E+00  0.00000000E+00
  0.00000000E+00  0.00000000E+00  0.00000000E+00
  0.00000000E+00  0.00000000E+00  0.00000000E+00
  0.00000000E+00  0.00000000E+00  0.00000000E+00
  0.00000000E+00  0.00000000E+00  0.00000000E+00
  0.00000000E+00  0.00000000E+00  0.00000000E+00
