Ca22 Al14                               
   1.00000000000000     
     0.0000000000000000    8.1888127041037464    8.1888127041037464
     8.1888127041037464    0.0000000000000000    8.1888127041037464
     8.1888127041037464    8.1888127041037464    0.0000000000000000
   Ca   Al
    22    14
Direct
  0.6648859127105808  0.3351140872894192  0.0000000000000000
  0.6648859127105808  0.0000000000000000  0.0000000000000000
  0.1126789071057459  0.6291070309647537  0.6291070309647537
  0.0000000000000000  0.6648859127105808  0.3351140872894192
  0.0000000000000000  0.3351140872894192  0.6648859127105808
  0.3708929690352463  0.3708929690352463  0.3708929690352463
  0.0000000000000000  0.6648859127105808  0.0000000000000000
  0.6291070309647537  0.6291070309647537  0.1126789071057459
  0.0000000000000000  0.0000000000000000  0.6648859127105808
  0.6291070309647537  0.1126789071057459  0.6291070309647537
  0.0000000000000000  0.0000000000000000  0.3351140872894192
  0.3351140872894192  0.0000000000000000  0.0000000000000000
  0.0000000000000000  0.3351140872894192  0.0000000000000000
  0.6648859127105808  0.0000000000000000  0.3351140872894192
  0.5000000000000000  0.5000000000000000  0.5000000000000000
  0.3708929690352463  0.8873210928942541  0.3708929690352463
  0.3708929690352463  0.3708929690352463  0.8873210928942541
  0.3351140872894192  0.6648859127105808  0.0000000000000000
  0.3351140872894192  0.0000000000000000  0.6648859127105808
  0.6291070309647537  0.6291070309647537  0.6291070309647537
  0.0000000000000000  0.0000000000000000  0.0000000000000000
  0.8873210928942541  0.3708929690352463  0.3708929690352463
  0.2803337869571152  0.2803337869571152  0.7196662130428848
  0.7196662130428848  0.7196662130428848  0.2803337869571152
  0.8083031220823429  0.5750906337529855  0.8083031220823429
  0.7196662130428848  0.2803337869571152  0.2803337869571152
  0.4249093662470074  0.1916968779176571  0.1916968779176571
  0.2803337869571152  0.7196662130428848  0.7196662130428848
  0.1916968779176571  0.1916968779176571  0.1916968779176571
  0.1916968779176571  0.4249093662470074  0.1916968779176571
  0.5750906337529855  0.8083031220823429  0.8083031220823429
  0.8083031220823429  0.8083031220823429  0.8083031220823429
  0.7196662130428848  0.2803337869571152  0.7196662130428848
  0.1916968779176571  0.1916968779176571  0.4249093662470074
  0.2803337869571152  0.7196662130428848  0.2803337869571152
  0.8083031220823429  0.8083031220823429  0.5750906337529855
 
  0.00000000E+00  0.00000000E+00  0.00000000E+00
  0.00000000E+00  0.00000000E+00  0.00000000E+00
  0.00000000E+00  0.00000000E+00  0.00000000E+00
  0.00000000E+00  0.00000000E+00  0.00000000E+00
  0.00000000E+00  0.00000000E+00  0.00000000E+00
  0.00000000E+00  0.00000000E+00  0.00000000E+00
  0.00000000E+00  0.00000000E+00  0.00000000E+00
  0.00000000E+00  0.00000000E+00  0.00000000E+00
  0.00000000E+00  0.00000000E+00  0.00000000E+00
  0.00000000E+00  0.00000000E+00  0.00000000E+00
  0.00000000E+00  0.00000000E+00  0.00000000E+00
  0.00000000E+00  0.00000000E+00  0.00000000E+00
  0.00000000E+00  0.00000000E+00  0.00000000E+00
  0.00000000E+00  0.00000000E+00  0.00000000E+00
  0.00000000E+00  0.00000000E+00  0.00000000E+00
  0.00000000E+00  0.00000000E+00  0.00000000E+00
  0.00000000E+00  0.00000000E+00  0.00000000E+00
  0.00000000E+00  0.00000000E+00  0.00000000E+00
  0.00000000E+00  0.00000000E+00  0.00000000E+00
  0.00000000E+00  0.00000000E+00  0.00000000E+00
  0.00000000E+00  0.00000000E+00  0.00000000E+00
  0.00000000E+00  0.00000000E+00  0.00000000E+00
  0.00000000E+00  0.00000000E+00  0.00000000E+00
  0.00000000E+00  0.00000000E+00  0.00000000E+00
  0.00000000E+00  0.00000000E+00  0.00000000E+00
  0.00000000E+00  0.00000000E+00  0.00000000E+00
  0.00000000E+00  0.00000000E+00  0.00000000E+00
  0.00000000E+00  0.00000000E+00  0.00000000E+00
  0.00000000E+00  0.00000000E+00  0.00000000E+00
  0.00000000E+00  0.00000000E+00  0.00000000E+00
  0.00000000E+00  0.00000000E+00  0.00000000E+00
  0.00000000E+00  0.00000000E+00  0.00000000E+00
  0.00000000E+00  0.00000000E+00  0.00000000E+00
  0.00000000E+00  0.00000000E+00  0.00000000E+00
  0.00000000E+00  0.00000000E+00  0.00000000E+00
  0.00000000E+00  0.00000000E+00  0.00000000E+00
