CaGa4                                   
   1.00000000000000     
    -3.0965094575858512   -3.0826250316736976   -0.0031010945311562
     3.0965094575858507   -3.0826250316736976    0.0031010945311562
    -2.9608649352524679    0.0000000000000000    5.4028917217745009
   Ca   Ga
     1     4
Direct
  0.0000000000000000  0.0000000000000000  0.0000000000000000
  0.4066759462765361  0.5933240537234639  0.2312368657804384
  0.2297792775186096  0.2297792775186096  0.5000000000000000
  0.7702207224813904  0.7702207224813904  0.5000000000000000
  0.5933240537234639  0.4066759462765361  0.7687631342195687
 
  0.00000000E+00  0.00000000E+00  0.00000000E+00
  0.00000000E+00  0.00000000E+00  0.00000000E+00
  0.00000000E+00  0.00000000E+00  0.00000000E+00
  0.00000000E+00  0.00000000E+00  0.00000000E+00
  0.00000000E+00  0.00000000E+00  0.00000000E+00
