Mg4 Tl4 F20                             
   1.0000000000000000     
     4.8894501220577169    0.0000000000000000    0.0000000000000003
    -0.0000000000000003    5.5250550118750370    0.0000000000000003
     0.0000000000000000    0.0000000000000000   13.0829604527103918
   Mg   Tl   F 
     4     4    20
Direct
  0.7585993051999225  0.3441496453640198  0.4040068730671820
  0.2585993051999225  0.1558503546359802  0.5959931269328180
  0.2414006948000704  0.8441496453640198  0.0959931269328180
  0.7414006948000704  0.6558503546359802  0.9040068730671820
  0.2404913090589602  0.8412718407960398  0.3704639685063782
  0.7404913090589602  0.6587281592039602  0.6295360314936218
  0.7595086909410398  0.3412718407960398  0.1295360314936147
  0.2595086909410398  0.1587281592039602  0.8704639685063782
  0.9116736407657342  0.6557073890740597  0.4592515817316425
  0.4116736407657200  0.8442926109259403  0.5407484182683717
  0.0883263592342729  0.1557073890740597  0.0407484182683646
  0.5883263592342658  0.3442926109259403  0.9592515817316283
  0.0732073868828991  0.9429149093806473  0.2268717144202839
  0.5732073868828991  0.5570850906193527  0.7731282855797161
  0.9267926131171009  0.4429149093806473  0.2731282855797161
  0.4267926131171009  0.0570850906193598  0.7268717144202839
  0.9112871492312564  0.6685163872557922  0.0454800182238202
  0.4112871492312635  0.8314836127442078  0.9545199817761798
  0.0887128507687365  0.1685163872557922  0.4545199817761798
  0.5887128507687436  0.3314836127442078  0.5454800182238202
  0.3789140677843506  0.5365930756885149  0.1456186400436508
  0.8789140677843506  0.9634069243114851  0.8543813599563563
  0.6210859322156494  0.0365930756885220  0.3543813599563492
  0.1210859322156494  0.4634069243114851  0.6456186400436437
  0.0737476447877938  0.4997171043814532  0.8573927321008910
  0.5737476447877938  0.0002828956185468  0.1426072678991090
  0.9262523552122062  0.9997171043814532  0.6426072678991090
  0.4262523552122062  0.5002828956185468  0.3573927321008910

  0.00000000E+00  0.00000000E+00  0.00000000E+00
  0.00000000E+00  0.00000000E+00  0.00000000E+00
  0.00000000E+00  0.00000000E+00  0.00000000E+00
  0.00000000E+00  0.00000000E+00  0.00000000E+00
  0.00000000E+00  0.00000000E+00  0.00000000E+00
  0.00000000E+00  0.00000000E+00  0.00000000E+00
  0.00000000E+00  0.00000000E+00  0.00000000E+00
  0.00000000E+00  0.00000000E+00  0.00000000E+00
  0.00000000E+00  0.00000000E+00  0.00000000E+00
  0.00000000E+00  0.00000000E+00  0.00000000E+00
  0.00000000E+00  0.00000000E+00  0.00000000E+00
  0.00000000E+00  0.00000000E+00  0.00000000E+00
  0.00000000E+00  0.00000000E+00  0.00000000E+00
  0.00000000E+00  0.00000000E+00  0.00000000E+00
  0.00000000E+00  0.00000000E+00  0.00000000E+00
  0.00000000E+00  0.00000000E+00  0.00000000E+00
  0.00000000E+00  0.00000000E+00  0.00000000E+00
  0.00000000E+00  0.00000000E+00  0.00000000E+00
  0.00000000E+00  0.00000000E+00  0.00000000E+00
  0.00000000E+00  0.00000000E+00  0.00000000E+00
  0.00000000E+00  0.00000000E+00  0.00000000E+00
  0.00000000E+00  0.00000000E+00  0.00000000E+00
  0.00000000E+00  0.00000000E+00  0.00000000E+00
  0.00000000E+00  0.00000000E+00  0.00000000E+00
  0.00000000E+00  0.00000000E+00  0.00000000E+00
  0.00000000E+00  0.00000000E+00  0.00000000E+00
  0.00000000E+00  0.00000000E+00  0.00000000E+00
  0.00000000E+00  0.00000000E+00  0.00000000E+00
