Be17 B11 I1                             
   1.00000000000000     
     5.5415342505913934   -2.9379391508030572    2.3425221361840580
     0.5785361505837189    7.2182560646100304    2.8949785049308714
    -5.6281788931794949   -3.6217853199429513    1.5919604630239015
   B    I    Be
    11     1    17
Direct
  0.6325900924753469  0.9043404798613253  0.0000480813915615
  0.4125442388831786  0.3154770572645162  0.1644516950259316
  0.8260960298116089  0.1827281632573730  0.2848526848067081
  0.3218536782426682  0.0031985739047684  0.3314770090364547
  0.1302053254151687  0.3290782448395788  0.3886698868677243
  0.3172525575257481  0.2306332984056212  0.3219243389620701
  0.9953186704787669  0.9085194003458383  0.6781496421865256
  0.7416099198045885  0.9403928854076327  0.6114311653042392
  0.9905980564335053  0.6717281798265233  0.6687478411028067
  0.5411898391193262  0.8978452477849714  0.7151130553229521
  0.2479311255410792  0.1508743168446500  0.8353732274752161
  0.7733021851575401  0.5166396669918072  0.0002625708701203
  0.3043341629522445  0.4508242610254669  0.9998102318101161
  0.2014902795278459  0.9657548858154641  0.0002122925053669
  0.5616026768012432  0.1475540938642510  0.9999601495442434
  0.0503570196614973  0.1720340301820897  0.9995528754422622
  0.3141286124074227  0.7360726812613976  0.9998668476542960
  0.6775561863621320  0.6348391725884781  0.3846780020894158
  0.6455246657406661  0.0120694139533697  0.3522743999080404
  0.9301797940681737  0.4525346007647997  0.3240730834604904
  0.0002459295069812  0.0084359862774548  0.2004724359168790
  0.4001719902537957  0.7738371552936343  0.3495757236902790
  0.6960052710877136  0.3868647674526784  0.4498480705300096
  0.2463372592389277  0.9371896455250166  0.5502978382014305
  0.0505629780976804  0.4240148670711577  0.6504930761384173
  0.7996394621721876  0.8075370728229956  0.7994411792434235
  0.6064316362721200  0.1285246834893030  0.6760444799324929
  0.2933737068869533  0.6596990150369351  0.6477059204672599
  0.2925226500738987  0.2500981528409483  0.6151931951132639
 
  0.00000000E+00  0.00000000E+00  0.00000000E+00
  0.00000000E+00  0.00000000E+00  0.00000000E+00
  0.00000000E+00  0.00000000E+00  0.00000000E+00
  0.00000000E+00  0.00000000E+00  0.00000000E+00
  0.00000000E+00  0.00000000E+00  0.00000000E+00
  0.00000000E+00  0.00000000E+00  0.00000000E+00
  0.00000000E+00  0.00000000E+00  0.00000000E+00
  0.00000000E+00  0.00000000E+00  0.00000000E+00
  0.00000000E+00  0.00000000E+00  0.00000000E+00
  0.00000000E+00  0.00000000E+00  0.00000000E+00
  0.00000000E+00  0.00000000E+00  0.00000000E+00
  0.00000000E+00  0.00000000E+00  0.00000000E+00
  0.00000000E+00  0.00000000E+00  0.00000000E+00
  0.00000000E+00  0.00000000E+00  0.00000000E+00
  0.00000000E+00  0.00000000E+00  0.00000000E+00
  0.00000000E+00  0.00000000E+00  0.00000000E+00
  0.00000000E+00  0.00000000E+00  0.00000000E+00
  0.00000000E+00  0.00000000E+00  0.00000000E+00
  0.00000000E+00  0.00000000E+00  0.00000000E+00
  0.00000000E+00  0.00000000E+00  0.00000000E+00
  0.00000000E+00  0.00000000E+00  0.00000000E+00
  0.00000000E+00  0.00000000E+00  0.00000000E+00
  0.00000000E+00  0.00000000E+00  0.00000000E+00
  0.00000000E+00  0.00000000E+00  0.00000000E+00
  0.00000000E+00  0.00000000E+00  0.00000000E+00
  0.00000000E+00  0.00000000E+00  0.00000000E+00
  0.00000000E+00  0.00000000E+00  0.00000000E+00
  0.00000000E+00  0.00000000E+00  0.00000000E+00
  0.00000000E+00  0.00000000E+00  0.00000000E+00
