Ca4 In10 I2                             
   1.0000000000000000     
     7.2161800965266734    0.3814468669430039    0.1473676179095275
    -3.1853148070645787    8.2257477152983167    0.8366372713104897
    -3.5839465763987715   -2.1380191222535396    8.0175281022324256
   I    Ca   In
     2     4    10
Direct
  0.9506237750360782  0.3719304097717924  0.1950609969496497
  0.8990491618649585  0.6624469418393133  0.8728891542927357
  0.8710288498097967  0.7015715030864129  0.2111405854064685
  0.5438244460643062  0.1953531126066537  0.2347751180639435
  0.4774144535530311  0.7624268370866147  0.6664869175092036
  0.2236086064219194  0.4580789638625689  0.9591309781655610
  0.9726861396482747  0.0541903951840368  0.0133286263951575
  0.5174735209008219  0.8733633735042048  0.0090623000301093
  0.4415178581040067  0.8251536083450404  0.3033877155868510
  0.5346331178699870  0.5237921405117021  0.3810630729436824
  0.9081439832122413  0.9143458849729242  0.5373750285704944
  0.9717000635545787  0.4869351996627032  0.5664935541964056
  0.2488577691967961  0.0410330547863325  0.4238700502148447
  0.3778700053725856  0.3654103502131036  0.6287245360220481
  0.7534994733270750  0.1618644540595184  0.6663025700367200
  0.3080687760635357  0.1019037705070645  0.8307087956161325

  0.00000000E+00  0.00000000E+00  0.00000000E+00
  0.00000000E+00  0.00000000E+00  0.00000000E+00
  0.00000000E+00  0.00000000E+00  0.00000000E+00
  0.00000000E+00  0.00000000E+00  0.00000000E+00
  0.00000000E+00  0.00000000E+00  0.00000000E+00
  0.00000000E+00  0.00000000E+00  0.00000000E+00
  0.00000000E+00  0.00000000E+00  0.00000000E+00
  0.00000000E+00  0.00000000E+00  0.00000000E+00
  0.00000000E+00  0.00000000E+00  0.00000000E+00
  0.00000000E+00  0.00000000E+00  0.00000000E+00
  0.00000000E+00  0.00000000E+00  0.00000000E+00
  0.00000000E+00  0.00000000E+00  0.00000000E+00
  0.00000000E+00  0.00000000E+00  0.00000000E+00
  0.00000000E+00  0.00000000E+00  0.00000000E+00
  0.00000000E+00  0.00000000E+00  0.00000000E+00
  0.00000000E+00  0.00000000E+00  0.00000000E+00
