Mg8 Tl2                                 
   1.0000000000000000     
     4.9234283412422020    0.0000000000000000    0.0000000000000000
     0.0000000000000000    4.9234283412422020    0.0000000000000000
     0.0000000000000000    0.0000000000000000   10.2654450081210449
   Mg   Tl
     8     2
Direct
  0.0000000000000000  0.0000000000000000  0.0000000000000000
  0.5000000000000000  0.5000000000000000  0.0000000000000000
  0.0000000000000000  0.0000000000000000  0.3188432527196596
  0.5000000000000000  0.5000000000000000  0.3188432527196596
  0.5000000000000000  0.0000000000000000  0.5021849204609410
  0.0000000000000000  0.5000000000000000  0.4978150795390590
  0.0000000000000000  0.0000000000000000  0.6811567472803333
  0.5000000000000000  0.5000000000000000  0.6811567472803404
  0.0000000000000000  0.5000000000000000  0.1601293480208454
  0.5000000000000000  0.0000000000000000  0.8398706519791546

  0.00000000E+00  0.00000000E+00  0.00000000E+00
  0.00000000E+00  0.00000000E+00  0.00000000E+00
  0.00000000E+00  0.00000000E+00  0.00000000E+00
  0.00000000E+00  0.00000000E+00  0.00000000E+00
  0.00000000E+00  0.00000000E+00  0.00000000E+00
  0.00000000E+00  0.00000000E+00  0.00000000E+00
  0.00000000E+00  0.00000000E+00  0.00000000E+00
  0.00000000E+00  0.00000000E+00  0.00000000E+00
  0.00000000E+00  0.00000000E+00  0.00000000E+00
  0.00000000E+00  0.00000000E+00  0.00000000E+00
