Be2 B2 Cl10                             
   1.00000000000000     
     6.2840139389459866   -0.1092431031649435    2.9892452141680921
     1.2705044147271927    6.1552071612282431    2.9892459095395494
     0.1929410014261806    0.1544157036594109   11.6021089193795088
   Be   B    Cl
     2     2    10
Direct
  0.3846800413369209  0.6153199602952810  0.2499999998374136
  0.6153199586630791  0.3846800397047261  0.7500000001625864
  0.0000000000000000  0.0000000000000000  0.5000000000000000
  0.0000000000000000  0.0000000000000000  0.0000000000000000
  0.6594560410226293  0.6811109593633091  0.6745171368277880
  0.3188890425385367  0.3405429583748898  0.8254828634125317
  0.3405429589773732  0.3188890406366909  0.3254838631722166
  0.6811109574614633  0.6594560416251056  0.1745171365874683
  0.8566222139516668  0.1433777848118609  0.7499999998063984
  0.1433777860483332  0.8566222151881391  0.2500000001936016
  0.8164259039586028  0.1892457877032712  0.0551843584500986
  0.8107542112720623  0.1835740938411021  0.4448156467479478
  0.1835740960413972  0.8107542122967288  0.9448156415499014
  0.1892457887279377  0.8164259061588908  0.5551843532520522
 
  0.00000000E+00  0.00000000E+00  0.00000000E+00
  0.00000000E+00  0.00000000E+00  0.00000000E+00
  0.00000000E+00  0.00000000E+00  0.00000000E+00
  0.00000000E+00  0.00000000E+00  0.00000000E+00
  0.00000000E+00  0.00000000E+00  0.00000000E+00
  0.00000000E+00  0.00000000E+00  0.00000000E+00
  0.00000000E+00  0.00000000E+00  0.00000000E+00
  0.00000000E+00  0.00000000E+00  0.00000000E+00
  0.00000000E+00  0.00000000E+00  0.00000000E+00
  0.00000000E+00  0.00000000E+00  0.00000000E+00
  0.00000000E+00  0.00000000E+00  0.00000000E+00
  0.00000000E+00  0.00000000E+00  0.00000000E+00
  0.00000000E+00  0.00000000E+00  0.00000000E+00
  0.00000000E+00  0.00000000E+00  0.00000000E+00
