Mg10 Al4 Br32                           
   1.00000000000000     
     6.0038068988330373   -6.1515607420403313    0.0000000000000000
     6.0038068988330373    6.1515607420403313    0.0000000000000000
     0.0000000000000000    0.0000000000000000   19.3669368898553387
   Mg   Al   Br
    10     4    32
Direct
  0.0000000000000000  0.0000000000000000  0.7513998151482113
  0.0000000000000000  0.0000000000000000  0.2486001848517887
  0.5000000000000000  0.5000000000000000  0.7486001848517887
  0.5000000000000000  0.5000000000000000  0.2513998151482113
  0.5000000000000000  0.5000000000000000  0.5000000000000000
  0.0000000000000000  0.0000000000000000  0.0000000000000000
  0.0000000000000000  0.5000000000000000  0.6668630379673601
  0.5000000000000000  0.0000000000000000  0.3331369620326399
  0.5000000000000000  0.0000000000000000  0.8331369620326399
  0.0000000000000000  0.5000000000000000  0.1668630379673601
  0.5000000000000000  0.0000000000000000  0.6302432618189329
  0.0000000000000000  0.5000000000000000  0.3697567381810671
  0.0000000000000000  0.5000000000000000  0.8697567381810671
  0.5000000000000000  0.0000000000000000  0.1302432618189329
  0.5214393875792496  0.2006709125093522  0.7356030845248469
  0.4785606124207504  0.7993290874906478  0.7356030845248469
  0.2006709125093522  0.5214393875792496  0.2643969154751531
  0.7993290874906478  0.4785606124207504  0.2643969154751531
  0.9785606124207504  0.2993290874906478  0.7643969154751531
  0.0214393875792496  0.7006709125093522  0.7643969154751531
  0.2993290874906478  0.9785606124207504  0.2356030845248469
  0.7006709125093522  0.0214393875792496  0.2356030845248469
  0.2079079946675293  0.0114068401433869  0.6404233903183538
  0.7920920053324707  0.9885931598566131  0.6404233903183538
  0.0114068401433869  0.2079079946675293  0.3595766096816462
  0.9885931598566131  0.7920920053324707  0.3595766096816462
  0.2920920053324707  0.4885931598566131  0.8595766096816462
  0.7079079946675293  0.5114068401433869  0.8595766096816462
  0.6971769157252012  0.0118749305856269  0.0370996247922619
  0.3028230842747988  0.9881250694143731  0.0370996247922619
  0.0118749305856269  0.6971769157252012  0.9629003752077381
  0.9881250694143731  0.3028230842747988  0.9629003752077381
  0.8028230842747988  0.4881250694143731  0.4629003752077381
  0.1971769157252012  0.5118749305856269  0.4629003752077381
  0.4881250694143731  0.8028230842747988  0.5370996247922619
  0.5118749305856269  0.1971769157252012  0.5370996247922619
  0.9826505841448778  0.7845300770668899  0.1405619193740364
  0.0173494158551222  0.2154699229331101  0.1405619193740364
  0.7845300770668899  0.9826505841448778  0.8594380806259636
  0.2154699229331101  0.0173494158551222  0.8594380806259636
  0.5173494158551222  0.7154699229331101  0.3594380806259636
  0.4826505841448778  0.2845300770668899  0.3594380806259636
  0.7154699229331101  0.5173494158551222  0.6405619193740364
  0.2845300770668899  0.4826505841448778  0.6405619193740364
  0.5114068401433869  0.7079079946675293  0.1404233903183538
  0.4885931598566131  0.2920920053324707  0.1404233903183538
 
  0.00000000E+00  0.00000000E+00  0.00000000E+00
  0.00000000E+00  0.00000000E+00  0.00000000E+00
  0.00000000E+00  0.00000000E+00  0.00000000E+00
  0.00000000E+00  0.00000000E+00  0.00000000E+00
  0.00000000E+00  0.00000000E+00  0.00000000E+00
  0.00000000E+00  0.00000000E+00  0.00000000E+00
  0.00000000E+00  0.00000000E+00  0.00000000E+00
  0.00000000E+00  0.00000000E+00  0.00000000E+00
  0.00000000E+00  0.00000000E+00  0.00000000E+00
  0.00000000E+00  0.00000000E+00  0.00000000E+00
  0.00000000E+00  0.00000000E+00  0.00000000E+00
  0.00000000E+00  0.00000000E+00  0.00000000E+00
  0.00000000E+00  0.00000000E+00  0.00000000E+00
  0.00000000E+00  0.00000000E+00  0.00000000E+00
  0.00000000E+00  0.00000000E+00  0.00000000E+00
  0.00000000E+00  0.00000000E+00  0.00000000E+00
  0.00000000E+00  0.00000000E+00  0.00000000E+00
  0.00000000E+00  0.00000000E+00  0.00000000E+00
  0.00000000E+00  0.00000000E+00  0.00000000E+00
  0.00000000E+00  0.00000000E+00  0.00000000E+00
  0.00000000E+00  0.00000000E+00  0.00000000E+00
  0.00000000E+00  0.00000000E+00  0.00000000E+00
  0.00000000E+00  0.00000000E+00  0.00000000E+00
  0.00000000E+00  0.00000000E+00  0.00000000E+00
  0.00000000E+00  0.00000000E+00  0.00000000E+00
  0.00000000E+00  0.00000000E+00  0.00000000E+00
  0.00000000E+00  0.00000000E+00  0.00000000E+00
  0.00000000E+00  0.00000000E+00  0.00000000E+00
  0.00000000E+00  0.00000000E+00  0.00000000E+00
  0.00000000E+00  0.00000000E+00  0.00000000E+00
  0.00000000E+00  0.00000000E+00  0.00000000E+00
  0.00000000E+00  0.00000000E+00  0.00000000E+00
  0.00000000E+00  0.00000000E+00  0.00000000E+00
  0.00000000E+00  0.00000000E+00  0.00000000E+00
  0.00000000E+00  0.00000000E+00  0.00000000E+00
  0.00000000E+00  0.00000000E+00  0.00000000E+00
  0.00000000E+00  0.00000000E+00  0.00000000E+00
  0.00000000E+00  0.00000000E+00  0.00000000E+00
  0.00000000E+00  0.00000000E+00  0.00000000E+00
  0.00000000E+00  0.00000000E+00  0.00000000E+00
  0.00000000E+00  0.00000000E+00  0.00000000E+00
  0.00000000E+00  0.00000000E+00  0.00000000E+00
  0.00000000E+00  0.00000000E+00  0.00000000E+00
  0.00000000E+00  0.00000000E+00  0.00000000E+00
  0.00000000E+00  0.00000000E+00  0.00000000E+00
  0.00000000E+00  0.00000000E+00  0.00000000E+00
