Ca4 Ga2 I10                             
   1.00000000000000     
     6.2944432354493616   -6.4812469236632424   -0.5417009409257574
     6.2944432354493616    6.4812469236632424   -0.5417009409257574
    -6.9225054879162000    0.0000000000000000    8.9559844279735792
   I    Ca   Ga
    10     4     2
Direct
  0.4999501742493067  0.9997749799946476  0.9992383283152861
  0.9997749799946476  0.4999501742493067  0.9992383283152861
  0.9902678943886087  0.9902678943886087  0.3068083314615606
  0.7889545277812999  0.4985147272467074  0.2472880298520508
  0.4985147272467074  0.7889545277812999  0.2472880298520508
  0.2393610830126960  0.2393610830126960  0.1978282398725142
  0.7620010873288834  0.7620010873288834  0.8025428737785205
  0.5016086011479857  0.2119404374435163  0.7536246773754272
  0.2119404374435163  0.5016086011479857  0.7536246773754272
  0.0087160146160485  0.0087160146160485  0.6940394982932219
  0.8256958013096209  0.1759404768563044  0.0001718660458963
  0.3399695121426660  0.3399695121426660  0.9973282737916875
  0.6600021017408650  0.6600021017408650  0.0008186590585169
  0.1759404768563044  0.8256958013096209  0.0001718660458963
  0.8261946539699068  0.1710079267709332  0.4999941602833289
  0.1710079267709332  0.8261946539699068  0.4999941602833289
 
  0.00000000E+00  0.00000000E+00  0.00000000E+00
  0.00000000E+00  0.00000000E+00  0.00000000E+00
  0.00000000E+00  0.00000000E+00  0.00000000E+00
  0.00000000E+00  0.00000000E+00  0.00000000E+00
  0.00000000E+00  0.00000000E+00  0.00000000E+00
  0.00000000E+00  0.00000000E+00  0.00000000E+00
  0.00000000E+00  0.00000000E+00  0.00000000E+00
  0.00000000E+00  0.00000000E+00  0.00000000E+00
  0.00000000E+00  0.00000000E+00  0.00000000E+00
  0.00000000E+00  0.00000000E+00  0.00000000E+00
  0.00000000E+00  0.00000000E+00  0.00000000E+00
  0.00000000E+00  0.00000000E+00  0.00000000E+00
  0.00000000E+00  0.00000000E+00  0.00000000E+00
  0.00000000E+00  0.00000000E+00  0.00000000E+00
  0.00000000E+00  0.00000000E+00  0.00000000E+00
  0.00000000E+00  0.00000000E+00  0.00000000E+00
