In8 I14                                 
   1.00000000000000     
     4.3152255203641143   -7.4806151963755054    0.2354437216657739
    -4.3152255203641134   -7.4806151963755054    0.2354437216657739
     0.0000000000000000    5.5438527800887387  -17.0382838485504351
   I    In
    14     8
Direct
  0.3617690455566134  0.3617690455566134  0.0549916258437335
  0.9074772403697793  0.3866846948169353  0.1649570630631843
  0.3866846948169353  0.9074772403697793  0.1649570630631843
  0.9075941019596456  0.9075941019596456  0.1646861313262917
  0.6011059541660657  0.1236804919258248  0.4074620983069366
  0.1236804919258248  0.6011059541660657  0.4074620983069366
  0.5949549656827173  0.5949549656827173  0.3799286134179169
  0.4055718523642895  0.4055718523642895  0.6198314997411245
  0.8772894170607302  0.3998810559554400  0.5923986543612969
  0.3998810559554400  0.8772894170607302  0.5923986543612969
  0.0911350629560133  0.0911350629560133  0.8337367095952288
  0.6130556138215937  0.0928082189669155  0.8354576279507029
  0.0928082189669155  0.6130556138215937  0.8354576279507029
  0.6349053791109682  0.6349053791109682  0.9446338943666817
  0.0011607925568811  0.0011607925568811  0.0004188773270712
  0.7123398003822530  0.7123398003822530  0.1068441130748923
  0.3532705923488422  0.3532705923488422  0.2519416143937718
  0.2071938207220612  0.2071938207220612  0.4669532927717981
  0.5005229828888318  0.5005229828888318  0.5001078190217285
  0.7934306168212473  0.7934306168212473  0.5328593895647700
  0.6485812725643214  0.6485812725643214  0.7494908128484639
  0.2863870270020357  0.2863870270020357  0.8927247193422687
 
  0.00000000E+00  0.00000000E+00  0.00000000E+00
  0.00000000E+00  0.00000000E+00  0.00000000E+00
  0.00000000E+00  0.00000000E+00  0.00000000E+00
  0.00000000E+00  0.00000000E+00  0.00000000E+00
  0.00000000E+00  0.00000000E+00  0.00000000E+00
  0.00000000E+00  0.00000000E+00  0.00000000E+00
  0.00000000E+00  0.00000000E+00  0.00000000E+00
  0.00000000E+00  0.00000000E+00  0.00000000E+00
  0.00000000E+00  0.00000000E+00  0.00000000E+00
  0.00000000E+00  0.00000000E+00  0.00000000E+00
  0.00000000E+00  0.00000000E+00  0.00000000E+00
  0.00000000E+00  0.00000000E+00  0.00000000E+00
  0.00000000E+00  0.00000000E+00  0.00000000E+00
  0.00000000E+00  0.00000000E+00  0.00000000E+00
  0.00000000E+00  0.00000000E+00  0.00000000E+00
  0.00000000E+00  0.00000000E+00  0.00000000E+00
  0.00000000E+00  0.00000000E+00  0.00000000E+00
  0.00000000E+00  0.00000000E+00  0.00000000E+00
  0.00000000E+00  0.00000000E+00  0.00000000E+00
  0.00000000E+00  0.00000000E+00  0.00000000E+00
  0.00000000E+00  0.00000000E+00  0.00000000E+00
  0.00000000E+00  0.00000000E+00  0.00000000E+00
