F4                                      
   1.00000000000000     
     2.7040407634966388   -0.1360412902143495    0.0000026007748000
    -1.0024792414601269    2.5150305534777022    0.0000026138473493
     0.0000030488919039    0.0000051886076669    6.3690831146079550
   F 
     4
Direct
  0.0966285788027363  0.0966285788017629  0.1022474300273899
  0.4033724211903404  0.4033724211861980  0.6022474298908733
  0.5966295788096616  0.5966295788138041  0.3977525701091267
  0.9033704211972591  0.9033704211982325  0.8977525699726101
 
  0.00000000E+00  0.00000000E+00  0.00000000E+00
  0.00000000E+00  0.00000000E+00  0.00000000E+00
  0.00000000E+00  0.00000000E+00  0.00000000E+00
  0.00000000E+00  0.00000000E+00  0.00000000E+00
