Be13 Al16                               
   1.00000000000000     
    -4.6114137955418819   -4.6114137955418819    4.6114137955418819
    -4.6114137955418819    4.6114137955418819   -4.6114137955418819
     4.6114137955418819   -4.6114137955418819   -4.6114137955418819
   Al   Be
    16    13
Direct
  0.6533171520439751  0.0000000000000000  0.0000000000000000
  0.4032203289703276  0.2010433129464033  0.0000000000000000
  0.2010433129464033  0.4032203289703276  0.0000000000000000
  0.0000000000000000  0.6533171520439751  0.0000000000000000
  0.7989566870535967  0.7989566870535967  0.2021770160239242
  0.4032203289703276  0.0000000000000000  0.2010433129464033
  0.0000000000000000  0.4032203289703276  0.2010433129464033
  0.3466828479560249  0.3466828479560249  0.3466828479560249
  0.2010433129464033  0.0000000000000000  0.4032203289703276
  0.0000000000000000  0.2010433129464033  0.4032203289703276
  0.7978229839760758  0.5967796710296724  0.5967796710296724
  0.5967796710296724  0.7978229839760758  0.5967796710296724
  0.0000000000000000  0.0000000000000000  0.6533171520439751
  0.7989566870535967  0.2021770160239242  0.7989566870535967
  0.2021770160239242  0.7989566870535967  0.7989566870535967
  0.5967796710296724  0.5967796710296724  0.7978229839760758
  0.0000000000000000  0.0000000000000000  0.0000000000000000
  0.6895105894891671  0.4233544381700440  0.0000000000000000
  0.4233544381700440  0.6895105894891671  0.0000000000000000
  0.5766455618299560  0.5766455618299560  0.2661561513191231
  0.7338438486808769  0.3104894105108329  0.3104894105108329
  0.3104894105108329  0.7338438486808769  0.3104894105108329
  0.6895105894891671  0.0000000000000000  0.4233544381700440
  0.0000000000000000  0.6895105894891671  0.4233544381700440
  0.5766455618299560  0.2661561513191231  0.5766455618299560
  0.2661561513191231  0.5766455618299560  0.5766455618299560
  0.4233544381700440  0.0000000000000000  0.6895105894891671
  0.0000000000000000  0.4233544381700440  0.6895105894891671
  0.3104894105108329  0.3104894105108329  0.7338438486808769
 
  0.00000000E+00  0.00000000E+00  0.00000000E+00
  0.00000000E+00  0.00000000E+00  0.00000000E+00
  0.00000000E+00  0.00000000E+00  0.00000000E+00
  0.00000000E+00  0.00000000E+00  0.00000000E+00
  0.00000000E+00  0.00000000E+00  0.00000000E+00
  0.00000000E+00  0.00000000E+00  0.00000000E+00
  0.00000000E+00  0.00000000E+00  0.00000000E+00
  0.00000000E+00  0.00000000E+00  0.00000000E+00
  0.00000000E+00  0.00000000E+00  0.00000000E+00
  0.00000000E+00  0.00000000E+00  0.00000000E+00
  0.00000000E+00  0.00000000E+00  0.00000000E+00
  0.00000000E+00  0.00000000E+00  0.00000000E+00
  0.00000000E+00  0.00000000E+00  0.00000000E+00
  0.00000000E+00  0.00000000E+00  0.00000000E+00
  0.00000000E+00  0.00000000E+00  0.00000000E+00
  0.00000000E+00  0.00000000E+00  0.00000000E+00
  0.00000000E+00  0.00000000E+00  0.00000000E+00
  0.00000000E+00  0.00000000E+00  0.00000000E+00
  0.00000000E+00  0.00000000E+00  0.00000000E+00
  0.00000000E+00  0.00000000E+00  0.00000000E+00
  0.00000000E+00  0.00000000E+00  0.00000000E+00
  0.00000000E+00  0.00000000E+00  0.00000000E+00
  0.00000000E+00  0.00000000E+00  0.00000000E+00
  0.00000000E+00  0.00000000E+00  0.00000000E+00
  0.00000000E+00  0.00000000E+00  0.00000000E+00
  0.00000000E+00  0.00000000E+00  0.00000000E+00
  0.00000000E+00  0.00000000E+00  0.00000000E+00
  0.00000000E+00  0.00000000E+00  0.00000000E+00
  0.00000000E+00  0.00000000E+00  0.00000000E+00
