Be4 B2 I10                              
   1.00000000000000     
    -4.1988052100483442    4.1988052100483442    7.6268724525600522
     4.1988052100483442   -4.1988052100483442    7.6268724525600522
     4.1988052100483442    4.1988052100483442   -7.6268724525600522
   Be   B    I 
     4     2    10
Direct
  0.7034016180048184  0.2034016180048184  0.9068032360096439
  0.2034016180048184  0.2965983819951816  0.5000000000000000
  0.2965983819951816  0.7965983819951816  0.0931967639903561
  0.7965983819951816  0.7034016180048184  0.5000000000000000
  0.2500000000000000  0.2500000000000000  0.0000000000000000
  0.7500000000000000  0.7500000000000000  0.0000000000000000
  0.5000000000000000  0.5000000000000000  0.0000000000000000
  0.0000000000000000  0.0000000000000000  0.0000000000000000
  0.5268150110337899  0.0268150110337899  0.8463488979768954
  0.0268150110337899  0.1804661130568874  0.5000000000000000
  0.6804661130568874  0.5268150110337899  0.5000000000000000
  0.9731849889662101  0.8195338869431126  0.5000000000000000
  0.3195338869431126  0.4731849889662101  0.5000000000000000
  0.8195338869431126  0.3195338869431126  0.8463488979768954
  0.4731849889662101  0.9731849889662101  0.1536511020231046
  0.1804661130568874  0.6804661130568874  0.1536511020231046
 
  0.00000000E+00  0.00000000E+00  0.00000000E+00
  0.00000000E+00  0.00000000E+00  0.00000000E+00
  0.00000000E+00  0.00000000E+00  0.00000000E+00
  0.00000000E+00  0.00000000E+00  0.00000000E+00
  0.00000000E+00  0.00000000E+00  0.00000000E+00
  0.00000000E+00  0.00000000E+00  0.00000000E+00
  0.00000000E+00  0.00000000E+00  0.00000000E+00
  0.00000000E+00  0.00000000E+00  0.00000000E+00
  0.00000000E+00  0.00000000E+00  0.00000000E+00
  0.00000000E+00  0.00000000E+00  0.00000000E+00
  0.00000000E+00  0.00000000E+00  0.00000000E+00
  0.00000000E+00  0.00000000E+00  0.00000000E+00
  0.00000000E+00  0.00000000E+00  0.00000000E+00
  0.00000000E+00  0.00000000E+00  0.00000000E+00
  0.00000000E+00  0.00000000E+00  0.00000000E+00
  0.00000000E+00  0.00000000E+00  0.00000000E+00
