Be1 Tl1 F5                              
   1.0000000000000000     
    -1.8855471525766252    3.6750415923324096    4.3689983180702541
     1.8855471525766252   -3.6750415923324096    4.3689983180702541
     1.8855471525766252    3.6750415923324096   -4.3689983180702541
   Be   Tl   F 
     1     1     5
Direct
  0.5000000000000000  0.5000000000000000  0.0000000000000000
  0.0000000000000000  0.5000000000000000  0.5000000000000000
  0.3433773629980408  0.0000000000000000  0.3433773629980408
  0.6566226370019592  0.0000000000000000  0.6566226370019592
  0.2373266081169163  0.7373266081169163  0.5000000000000000
  0.7626733918830837  0.2626733918830837  0.5000000000000000
  0.0000000000000000  0.0000000000000000  0.0000000000000000

  0.00000000E+00  0.00000000E+00  0.00000000E+00
  0.00000000E+00  0.00000000E+00  0.00000000E+00
  0.00000000E+00  0.00000000E+00  0.00000000E+00
  0.00000000E+00  0.00000000E+00  0.00000000E+00
  0.00000000E+00  0.00000000E+00  0.00000000E+00
  0.00000000E+00  0.00000000E+00  0.00000000E+00
  0.00000000E+00  0.00000000E+00  0.00000000E+00
