Mg2 Al2 Br10                            
   1.00000000000000     
     6.5526635436331686   -1.4105335256779401    2.5432878215422319
     0.0597170468647206    6.7024956007364933    2.5432877163739640
    -0.0077227279789600   -0.0061783944474445   10.0670043636057578
   Mg   Al   Br
     2     2    10
Direct
  0.6441328788720924  0.3558671185979136  0.2500000012097203
  0.3558671211279076  0.6441328814020864  0.7499999987902797
  0.0000000000000000  0.0000000000000000  0.5000000000000000
  0.0000000000000000  0.0000000000000000  0.0000000000000000
  0.7445823670707341  0.6733268349853745  0.6534651426073097
  0.3266731785028512  0.2554166190113989  0.8465348574413056
  0.2554166329292755  0.3266731650146255  0.3465358573926949
  0.6733268214971488  0.7445823809886036  0.1534651425586944
  0.9371350015925231  0.0628649970126745  0.7500000009558505
  0.0628649984074769  0.9371350029873255  0.2499999990441495
  0.7976787281030582  0.2771928177355392  0.0143128552341167
  0.7228071763028510  0.2023212600087874  0.4856871550876605
  0.2023212718969418  0.7228071822644608  0.9856871447658833
  0.2771928236971490  0.7976787399912126  0.5143128449123395
 
  0.00000000E+00  0.00000000E+00  0.00000000E+00
  0.00000000E+00  0.00000000E+00  0.00000000E+00
  0.00000000E+00  0.00000000E+00  0.00000000E+00
  0.00000000E+00  0.00000000E+00  0.00000000E+00
  0.00000000E+00  0.00000000E+00  0.00000000E+00
  0.00000000E+00  0.00000000E+00  0.00000000E+00
  0.00000000E+00  0.00000000E+00  0.00000000E+00
  0.00000000E+00  0.00000000E+00  0.00000000E+00
  0.00000000E+00  0.00000000E+00  0.00000000E+00
  0.00000000E+00  0.00000000E+00  0.00000000E+00
  0.00000000E+00  0.00000000E+00  0.00000000E+00
  0.00000000E+00  0.00000000E+00  0.00000000E+00
  0.00000000E+00  0.00000000E+00  0.00000000E+00
  0.00000000E+00  0.00000000E+00  0.00000000E+00
