Mg10 Tl4 Cl32                           
   1.00000000000000     
     5.7966660385541866   -5.8088450776532863    0.0000000000000000
     5.7966660385541866    5.8088450776532863    0.0000000000000000
     0.0000000000000000    0.0000000000000000   19.8599275662551236
   Mg   Tl   Cl
    10     4    32
Direct
  0.0000000000000000  0.0000000000000000  0.7608616330554625
  0.0000000000000000  0.0000000000000000  0.2391383669445375
  0.5000000000000000  0.5000000000000000  0.7391383669445375
  0.5000000000000000  0.5000000000000000  0.2608616330554625
  0.5000000000000000  0.5000000000000000  0.5000000000000000
  0.0000000000000000  0.0000000000000000  0.0000000000000000
  0.0000000000000000  0.5000000000000000  0.6731572282728635
  0.5000000000000000  0.0000000000000000  0.3268427717271294
  0.5000000000000000  0.0000000000000000  0.8268427717271365
  0.0000000000000000  0.5000000000000000  0.1731572282728635
  0.5000000000000000  0.0000000000000000  0.6262831721665734
  0.0000000000000000  0.5000000000000000  0.3737168278334266
  0.0000000000000000  0.5000000000000000  0.8737168278334266
  0.5000000000000000  0.0000000000000000  0.1262831721665734
  0.5046285220286606  0.2088507512965805  0.7424244140644305
  0.4953714779713394  0.7911492487034195  0.7424244140644305
  0.2088507512965805  0.5046285220286606  0.2575755859355695
  0.7911492487034195  0.4953714779713394  0.2575755859355695
  0.9953714779713394  0.2911492487034195  0.7575755859355695
  0.0046285220286606  0.7088507512965805  0.7575755859355695
  0.2911492487034195  0.9953714779713394  0.2424244140644305
  0.7088507512965805  0.0046285220286606  0.2424244140644305
  0.1947184290808721  0.0034451125201258  0.6457643083212830
  0.8052815709191279  0.9965548874798742  0.6457643083212830
  0.0034451125201258  0.1947184290808721  0.3542356916787170
  0.9965548874798742  0.8052815709191279  0.3542356916787170
  0.3052815709191279  0.4965548874798742  0.8542356916787170
  0.6947184290808721  0.5034451125201258  0.8542356916787170
  0.7112805747713153  0.0014619286523399  0.0281067026766237
  0.2887194252286847  0.9985380713476601  0.0281067026766237
  0.0014619286523399  0.7112805747713153  0.9718932973233763
  0.9985380713476601  0.2887194252286847  0.9718932973233763
  0.7887194252286847  0.4985380713476601  0.4718932973233763
  0.2112805747713153  0.5014619286523399  0.4718932973233763
  0.4985380713476601  0.7887194252286847  0.5281067026766237
  0.5014619286523399  0.2112805747713153  0.5281067026766237
  0.9971202871180722  0.7813832493434063  0.1469458390896676
  0.0028797128819278  0.2186167506565937  0.1469458390896676
  0.7813832493434063  0.9971202871180722  0.8530541609103395
  0.2186167506565937  0.0028797128819278  0.8530541609103395
  0.5028797128819278  0.7186167506565937  0.3530541609103324
  0.4971202871180722  0.2813832493434063  0.3530541609103324
  0.7186167506565937  0.5028797128819278  0.6469458390896605
  0.2813832493434063  0.4971202871180722  0.6469458390896605
  0.5034451125201258  0.6947184290808721  0.1457643083212830
  0.4965548874798742  0.3052815709191279  0.1457643083212830
 
  0.00000000E+00  0.00000000E+00  0.00000000E+00
  0.00000000E+00  0.00000000E+00  0.00000000E+00
  0.00000000E+00  0.00000000E+00  0.00000000E+00
  0.00000000E+00  0.00000000E+00  0.00000000E+00
  0.00000000E+00  0.00000000E+00  0.00000000E+00
  0.00000000E+00  0.00000000E+00  0.00000000E+00
  0.00000000E+00  0.00000000E+00  0.00000000E+00
  0.00000000E+00  0.00000000E+00  0.00000000E+00
  0.00000000E+00  0.00000000E+00  0.00000000E+00
  0.00000000E+00  0.00000000E+00  0.00000000E+00
  0.00000000E+00  0.00000000E+00  0.00000000E+00
  0.00000000E+00  0.00000000E+00  0.00000000E+00
  0.00000000E+00  0.00000000E+00  0.00000000E+00
  0.00000000E+00  0.00000000E+00  0.00000000E+00
  0.00000000E+00  0.00000000E+00  0.00000000E+00
  0.00000000E+00  0.00000000E+00  0.00000000E+00
  0.00000000E+00  0.00000000E+00  0.00000000E+00
  0.00000000E+00  0.00000000E+00  0.00000000E+00
  0.00000000E+00  0.00000000E+00  0.00000000E+00
  0.00000000E+00  0.00000000E+00  0.00000000E+00
  0.00000000E+00  0.00000000E+00  0.00000000E+00
  0.00000000E+00  0.00000000E+00  0.00000000E+00
  0.00000000E+00  0.00000000E+00  0.00000000E+00
  0.00000000E+00  0.00000000E+00  0.00000000E+00
  0.00000000E+00  0.00000000E+00  0.00000000E+00
  0.00000000E+00  0.00000000E+00  0.00000000E+00
  0.00000000E+00  0.00000000E+00  0.00000000E+00
  0.00000000E+00  0.00000000E+00  0.00000000E+00
  0.00000000E+00  0.00000000E+00  0.00000000E+00
  0.00000000E+00  0.00000000E+00  0.00000000E+00
  0.00000000E+00  0.00000000E+00  0.00000000E+00
  0.00000000E+00  0.00000000E+00  0.00000000E+00
  0.00000000E+00  0.00000000E+00  0.00000000E+00
  0.00000000E+00  0.00000000E+00  0.00000000E+00
  0.00000000E+00  0.00000000E+00  0.00000000E+00
  0.00000000E+00  0.00000000E+00  0.00000000E+00
  0.00000000E+00  0.00000000E+00  0.00000000E+00
  0.00000000E+00  0.00000000E+00  0.00000000E+00
  0.00000000E+00  0.00000000E+00  0.00000000E+00
  0.00000000E+00  0.00000000E+00  0.00000000E+00
  0.00000000E+00  0.00000000E+00  0.00000000E+00
  0.00000000E+00  0.00000000E+00  0.00000000E+00
  0.00000000E+00  0.00000000E+00  0.00000000E+00
  0.00000000E+00  0.00000000E+00  0.00000000E+00
  0.00000000E+00  0.00000000E+00  0.00000000E+00
  0.00000000E+00  0.00000000E+00  0.00000000E+00
