Tl20 Cl4                                
   1.0000000000000000     
     9.0104971820581881    3.3089184328903540    0.0566919597084186
    -9.0104971820581881    3.3089184328903540    0.0566919597084186
     0.0000000000000000    3.7054705757138704   13.0809709712061384
   Tl   Cl
    20     4
Direct
  0.7717250454177815  0.7461633842230171  0.7307155600707134
  0.2538366157769829  0.2282749545822185  0.7692844399292866
  0.2282749545822185  0.2538366157769829  0.2692844399292937
  0.7461633842230171  0.7717250454177815  0.2307155600707063
  0.1098192313074193  0.4351821081174592  0.8563075637729369
  0.5648178918825408  0.8901807686925807  0.6436924362270631
  0.8901807686925807  0.5648178918825408  0.1436924362270702
  0.4351821081174592  0.1098192313074193  0.3563075637729298
  0.2348857365593773  0.2344753329186204  0.5214450840747418
  0.7655246670813796  0.7651142634406227  0.9785549159252582
  0.7651142634406227  0.7655246670813796  0.4785549159252582
  0.2344753329186204  0.2348857365593773  0.0214450840747418
  0.6874624234869700  0.3723157347956700  0.6071329291140657
  0.6276842652043300  0.3125375765130300  0.8928670708859343
  0.3125375765130300  0.6276842652043300  0.3928670708859343
  0.3723157347956771  0.6874624234869700  0.1071329291140657
  0.1454823634968463  0.8058318121577983  0.8739219987884539
  0.1941681878422017  0.8545176365031537  0.6260780012115461
  0.8545176365031537  0.1941681878422017  0.1260780012115461
  0.8058318121577983  0.1454823634968463  0.3739219987884539
  0.0373786333366510  0.3933134394879829  0.6189753070930379
  0.6066865605120171  0.9626213666633490  0.8810246929069621
  0.9626213666633490  0.6066865605120171  0.3810246929069621
  0.3933134394879829  0.0373786333366510  0.1189753070930379

  0.00000000E+00  0.00000000E+00  0.00000000E+00
  0.00000000E+00  0.00000000E+00  0.00000000E+00
  0.00000000E+00  0.00000000E+00  0.00000000E+00
  0.00000000E+00  0.00000000E+00  0.00000000E+00
  0.00000000E+00  0.00000000E+00  0.00000000E+00
  0.00000000E+00  0.00000000E+00  0.00000000E+00
  0.00000000E+00  0.00000000E+00  0.00000000E+00
  0.00000000E+00  0.00000000E+00  0.00000000E+00
  0.00000000E+00  0.00000000E+00  0.00000000E+00
  0.00000000E+00  0.00000000E+00  0.00000000E+00
  0.00000000E+00  0.00000000E+00  0.00000000E+00
  0.00000000E+00  0.00000000E+00  0.00000000E+00
  0.00000000E+00  0.00000000E+00  0.00000000E+00
  0.00000000E+00  0.00000000E+00  0.00000000E+00
  0.00000000E+00  0.00000000E+00  0.00000000E+00
  0.00000000E+00  0.00000000E+00  0.00000000E+00
  0.00000000E+00  0.00000000E+00  0.00000000E+00
  0.00000000E+00  0.00000000E+00  0.00000000E+00
  0.00000000E+00  0.00000000E+00  0.00000000E+00
  0.00000000E+00  0.00000000E+00  0.00000000E+00
  0.00000000E+00  0.00000000E+00  0.00000000E+00
  0.00000000E+00  0.00000000E+00  0.00000000E+00
  0.00000000E+00  0.00000000E+00  0.00000000E+00
  0.00000000E+00  0.00000000E+00  0.00000000E+00
