Ca6 Tl4 Cl24                            
   1.0000000000000000     
     0.0000000000000000    0.0000000000000000    7.2787261904466369
    14.9764280748530041   -0.2320913587917386    0.0000000000000000
    -0.1670106717624873   12.7180658138123714    0.0000000000000000
   Ca   Cl   Tl
     6    24     4
Direct
  0.0000000000000000  0.1519578060573323  0.8570184850761251
  0.5000000000000000  0.4351717795742474  0.8925758971716604
  0.5000000000000000  0.9576739207813389  0.6600819289345878
  0.0000000000000000  0.3798519124386672  0.3875676407595279
  0.5000000000000000  0.0803089883639032  0.3784928489260153
  0.5000000000000000  0.5740130141938096  0.1579666451896315
  0.2598297663107232  0.5164638801672226  0.0066599775168683
  0.7401702336892768  0.5164638801672226  0.0066599775168683
  0.2566708928036974  0.7138453968145768  0.2043249196574095
  0.7433291071963026  0.7138453968145768  0.2043249196574095
  0.0000000000000000  0.2090831259008255  0.0640406164949354
  0.2610541953521661  0.0155956243583830  0.2179465925768582
  0.7389458046478339  0.0155956243583830  0.2179465925768582
  0.2414563131239760  0.4917626678319564  0.2941105367532160
  0.7585436868760240  0.4917626678319564  0.2941105367532160
  0.0000000000000000  0.6536839207298470  0.4893952444008178
  0.2367297317826313  0.2323029953628222  0.3383386553407419
  0.7632702682173615  0.2323029953628222  0.3383386553407419
  0.2651167799709597  0.0160781718830876  0.5149075881437710
  0.7348832200290403  0.0160781718830876  0.5149075881437710
  0.2565965843714579  0.8139031095761808  0.6903044786374650
  0.7434034156285421  0.8139031095761808  0.6903044786374650
  0.0000000000000000  0.1722247711683522  0.6398441913586339
  0.2401660876323390  0.4072362505896336  0.5636217353411794
  0.7598339123676610  0.4072362505896336  0.5636217353411794
  0.2492571092681004  0.0220549208340231  0.8257057194884752
  0.7507428907318996  0.0220549208340231  0.8257057194884752
  0.0000000000000000  0.8380778999780532  0.9839675971974273
  0.2418158098139784  0.3073854709895727  0.8313396879625827
  0.7581841901860216  0.3073854709895727  0.8313396879625827
  0.0000000000000000  0.6383439991619824  0.3004708344897793
  0.0000000000000000  0.1237462906043021  0.2360865329292920
  0.0000000000000000  0.8777418604020895  0.8025379421478220
  0.0000000000000000  0.3350637338303315  0.6756338120866729

  0.00000000E+00  0.00000000E+00  0.00000000E+00
  0.00000000E+00  0.00000000E+00  0.00000000E+00
  0.00000000E+00  0.00000000E+00  0.00000000E+00
  0.00000000E+00  0.00000000E+00  0.00000000E+00
  0.00000000E+00  0.00000000E+00  0.00000000E+00
  0.00000000E+00  0.00000000E+00  0.00000000E+00
  0.00000000E+00  0.00000000E+00  0.00000000E+00
  0.00000000E+00  0.00000000E+00  0.00000000E+00
  0.00000000E+00  0.00000000E+00  0.00000000E+00
  0.00000000E+00  0.00000000E+00  0.00000000E+00
  0.00000000E+00  0.00000000E+00  0.00000000E+00
  0.00000000E+00  0.00000000E+00  0.00000000E+00
  0.00000000E+00  0.00000000E+00  0.00000000E+00
  0.00000000E+00  0.00000000E+00  0.00000000E+00
  0.00000000E+00  0.00000000E+00  0.00000000E+00
  0.00000000E+00  0.00000000E+00  0.00000000E+00
  0.00000000E+00  0.00000000E+00  0.00000000E+00
  0.00000000E+00  0.00000000E+00  0.00000000E+00
  0.00000000E+00  0.00000000E+00  0.00000000E+00
  0.00000000E+00  0.00000000E+00  0.00000000E+00
  0.00000000E+00  0.00000000E+00  0.00000000E+00
  0.00000000E+00  0.00000000E+00  0.00000000E+00
  0.00000000E+00  0.00000000E+00  0.00000000E+00
  0.00000000E+00  0.00000000E+00  0.00000000E+00
  0.00000000E+00  0.00000000E+00  0.00000000E+00
  0.00000000E+00  0.00000000E+00  0.00000000E+00
  0.00000000E+00  0.00000000E+00  0.00000000E+00
  0.00000000E+00  0.00000000E+00  0.00000000E+00
  0.00000000E+00  0.00000000E+00  0.00000000E+00
  0.00000000E+00  0.00000000E+00  0.00000000E+00
  0.00000000E+00  0.00000000E+00  0.00000000E+00
  0.00000000E+00  0.00000000E+00  0.00000000E+00
  0.00000000E+00  0.00000000E+00  0.00000000E+00
  0.00000000E+00  0.00000000E+00  0.00000000E+00
