Be1 B3 Br6                              
   1.00000000000000     
     8.4982223158900698    0.0199004523474134    1.3233786820514273
     0.0199004523474133    8.4982223158900716    1.3233786820514271
     4.9906773384610865    4.9906773384610883    7.6237955788010909
   Br   Be   B 
     6     1     3
Direct
  0.8372328589139073  0.1627671410860927  0.0000000000000000
  0.2945760353669300  0.2945760353669300  0.0677320655099152
  0.1627671410860927  0.8372328589139073  0.0000000000000000
  0.7054239646330700  0.7054239646330700  0.9322679344900848
  0.7205066286834025  0.7205066286834025  0.6193526190735597
  0.2794933713165975  0.2794933713165975  0.3806473809264403
  0.0000000000000000  0.0000000000000000  0.0000000000000000
  0.5000000000000000  0.5000000000000000  0.0000000000000000
  0.0696517343164942  0.9303482656835058  0.5000000000000000
  0.9303482656835058  0.0696517343164942  0.5000000000000000
 
  0.00000000E+00  0.00000000E+00  0.00000000E+00
  0.00000000E+00  0.00000000E+00  0.00000000E+00
  0.00000000E+00  0.00000000E+00  0.00000000E+00
  0.00000000E+00  0.00000000E+00  0.00000000E+00
  0.00000000E+00  0.00000000E+00  0.00000000E+00
  0.00000000E+00  0.00000000E+00  0.00000000E+00
  0.00000000E+00  0.00000000E+00  0.00000000E+00
  0.00000000E+00  0.00000000E+00  0.00000000E+00
  0.00000000E+00  0.00000000E+00  0.00000000E+00
  0.00000000E+00  0.00000000E+00  0.00000000E+00
