Sr4 Ga4 F20                             
   1.0000000000000000     
     0.0000000000000000    5.2218854832425050   -0.0084524122371704
     9.2236132924807865    0.0000000000000000    0.0000000000000000
     0.0000000000000000   -0.1222735436966908   -7.2944839106506372
   Sr   Ga   F 
     4     4    20
Direct
  0.5238738861958652  0.3478615152241815  0.3656308411555997
  0.4761261138041348  0.8478615152241815  0.6343691588444003
  0.9838264507383485  0.0002998034478097  0.1090942391173755
  0.0161735492616515  0.5002998034478097  0.8909057608826245
  0.4607173100108852  0.7292349508619509  0.1148135255760323
  0.5392826899891148  0.2292349508619509  0.8851864744239677
  0.9642226592121048  0.6305700277043300  0.4211940171150772
  0.0357773407878952  0.1305700277043300  0.5788059828849228
  0.2341256225882447  0.0170229709037386  0.4214209288611244
  0.2640069649174279  0.5580167382142847  0.5307895311948485
  0.7359930350825721  0.0580167382142847  0.4692104688051444
  0.7541828757974116  0.7277410035576395  0.9686748790530331
  0.8724151124270065  0.5097061409311863  0.2234581863721061
  0.4657563391740283  0.9316435982380256  0.1243765134635808
  0.8724289164265429  0.2642052620717479  0.7450797864280858
  0.6369147029404800  0.7377126408140171  0.3468389805380454
  0.1275848875729935  0.0097061409311863  0.7765418136279010
  0.9603848053279549  0.7784881213645178  0.5993164155488060
  0.5342436608259646  0.4316435982380256  0.8756234865364121
  0.7658743774117553  0.5170229709037457  0.5785790711388756
  0.6385644445865211  0.0379505586450506  0.8410578086556342
  0.7358328207419476  0.2271456480215619  0.1051440140340745
  0.0396151946720451  0.2784881213645178  0.4006835844511940
  0.1275710835734571  0.7642052620717479  0.2549202135719142
  0.2458171242025813  0.2277410035576395  0.0313251209469598
  0.2641671792580524  0.7271456480215619  0.8948559859659326
  0.3630852970595200  0.2377126408140171  0.6531610194619546
  0.3614355554134789  0.5379505586450506  0.1589421913443658

  0.00000000E+00  0.00000000E+00  0.00000000E+00
  0.00000000E+00  0.00000000E+00  0.00000000E+00
  0.00000000E+00  0.00000000E+00  0.00000000E+00
  0.00000000E+00  0.00000000E+00  0.00000000E+00
  0.00000000E+00  0.00000000E+00  0.00000000E+00
  0.00000000E+00  0.00000000E+00  0.00000000E+00
  0.00000000E+00  0.00000000E+00  0.00000000E+00
  0.00000000E+00  0.00000000E+00  0.00000000E+00
  0.00000000E+00  0.00000000E+00  0.00000000E+00
  0.00000000E+00  0.00000000E+00  0.00000000E+00
  0.00000000E+00  0.00000000E+00  0.00000000E+00
  0.00000000E+00  0.00000000E+00  0.00000000E+00
  0.00000000E+00  0.00000000E+00  0.00000000E+00
  0.00000000E+00  0.00000000E+00  0.00000000E+00
  0.00000000E+00  0.00000000E+00  0.00000000E+00
  0.00000000E+00  0.00000000E+00  0.00000000E+00
  0.00000000E+00  0.00000000E+00  0.00000000E+00
  0.00000000E+00  0.00000000E+00  0.00000000E+00
  0.00000000E+00  0.00000000E+00  0.00000000E+00
  0.00000000E+00  0.00000000E+00  0.00000000E+00
  0.00000000E+00  0.00000000E+00  0.00000000E+00
  0.00000000E+00  0.00000000E+00  0.00000000E+00
  0.00000000E+00  0.00000000E+00  0.00000000E+00
  0.00000000E+00  0.00000000E+00  0.00000000E+00
  0.00000000E+00  0.00000000E+00  0.00000000E+00
  0.00000000E+00  0.00000000E+00  0.00000000E+00
  0.00000000E+00  0.00000000E+00  0.00000000E+00
  0.00000000E+00  0.00000000E+00  0.00000000E+00
