Mg4 Tl4 F20                             
   1.0000000000000000     
    10.1820462765556883    0.0000000000000000    0.0000000000000000
     0.0000000000000000    4.6826931021571285   -0.0674926038477934
     0.0000000000000000    2.0689030032549076    7.6463262819161342
   Mg   Tl   F 
     4     4    20
Direct
  0.9941998854938063  0.4516451354418862  0.2075212210788422
  0.4941998854938063  0.5483548645581138  0.2924787789211578
  0.0058001145061937  0.5483548645581138  0.7924787789211578
  0.5058001145061937  0.4516451354418862  0.7075212210788422
  0.7733379900702815  0.0992372410888862  0.6095341916256629
  0.2733379900702815  0.9007627589111067  0.8904658083743371
  0.2266620099297185  0.9007627589111067  0.3904658083743371
  0.7266620099297185  0.0992372410888862  0.1095341916256629
  0.6024877775760586  0.3498573755110783  0.4959022408851226
  0.1024877775760586  0.6501426244889288  0.0040977591148774
  0.3975122224239414  0.6501426244889288  0.5040977591148774
  0.8975122224239414  0.3498573755110783  0.9959022408851226
  0.8585919539745817  0.1717778705153989  0.3501769559000536
  0.3585919539745888  0.8282221294846082  0.1498230440999464
  0.1414080460254112  0.8282221294846082  0.6498230440999464
  0.6414080460254183  0.1717778705153989  0.8501769559000536
  0.4092931201616494  0.0876188346431377  0.6940871595373892
  0.9092931201616494  0.9123811653568623  0.8059128404626108
  0.5907068798383506  0.9123811653568623  0.3059128404626108
  0.0907068798383506  0.0876188346431377  0.1940871595373892
  0.6447781817069185  0.7352822275680779  0.6908627229687454
  0.1447781817069185  0.2647177724319221  0.8091372770312546
  0.3552218182930815  0.2647177724319221  0.3091372770312546
  0.8552218182930815  0.7352822275680779  0.1908627229687454
  0.3847920496355428  0.4948918503658248  0.8904948066684426
  0.8847920496355428  0.5051081496341752  0.6095051933315574
  0.6152079503644572  0.5051081496341752  0.1095051933315574
  0.1152079503644572  0.4948918503658248  0.3904948066684426

  0.00000000E+00  0.00000000E+00  0.00000000E+00
  0.00000000E+00  0.00000000E+00  0.00000000E+00
  0.00000000E+00  0.00000000E+00  0.00000000E+00
  0.00000000E+00  0.00000000E+00  0.00000000E+00
  0.00000000E+00  0.00000000E+00  0.00000000E+00
  0.00000000E+00  0.00000000E+00  0.00000000E+00
  0.00000000E+00  0.00000000E+00  0.00000000E+00
  0.00000000E+00  0.00000000E+00  0.00000000E+00
  0.00000000E+00  0.00000000E+00  0.00000000E+00
  0.00000000E+00  0.00000000E+00  0.00000000E+00
  0.00000000E+00  0.00000000E+00  0.00000000E+00
  0.00000000E+00  0.00000000E+00  0.00000000E+00
  0.00000000E+00  0.00000000E+00  0.00000000E+00
  0.00000000E+00  0.00000000E+00  0.00000000E+00
  0.00000000E+00  0.00000000E+00  0.00000000E+00
  0.00000000E+00  0.00000000E+00  0.00000000E+00
  0.00000000E+00  0.00000000E+00  0.00000000E+00
  0.00000000E+00  0.00000000E+00  0.00000000E+00
  0.00000000E+00  0.00000000E+00  0.00000000E+00
  0.00000000E+00  0.00000000E+00  0.00000000E+00
  0.00000000E+00  0.00000000E+00  0.00000000E+00
  0.00000000E+00  0.00000000E+00  0.00000000E+00
  0.00000000E+00  0.00000000E+00  0.00000000E+00
  0.00000000E+00  0.00000000E+00  0.00000000E+00
  0.00000000E+00  0.00000000E+00  0.00000000E+00
  0.00000000E+00  0.00000000E+00  0.00000000E+00
  0.00000000E+00  0.00000000E+00  0.00000000E+00
  0.00000000E+00  0.00000000E+00  0.00000000E+00
