Mg10 B4 Br32                            
   1.00000000000000     
     6.4502607819979527   -6.5682176211625194    0.0000000000000000
     6.4502607819979527    6.5682176211625194    0.0000000000000000
     0.0000000000000000    0.0000000000000000   17.2465703695591372
   Mg   B    Br
    10     4    32
Direct
  0.0000000000000000  0.0000000000000000  0.7657550948344891
  0.0000000000000000  0.0000000000000000  0.2342449051655109
  0.5000000000000000  0.5000000000000000  0.7342449051655109
  0.5000000000000000  0.5000000000000000  0.2657550948344891
  0.5000000000000000  0.5000000000000000  0.5000000000000000
  0.0000000000000000  0.0000000000000000  0.0000000000000000
  0.0000000000000000  0.5000000000000000  0.7018493692761751
  0.5000000000000000  0.0000000000000000  0.2981506307238249
  0.5000000000000000  0.0000000000000000  0.7981506307238249
  0.0000000000000000  0.5000000000000000  0.2018493692761751
  0.5000000000000000  0.0000000000000000  0.6070723888865714
  0.0000000000000000  0.5000000000000000  0.3929276111134286
  0.0000000000000000  0.5000000000000000  0.8929276111134286
  0.5000000000000000  0.0000000000000000  0.1070723888865714
  0.6636611211319163  0.0783326931290844  0.6784982312971266
  0.3363388788680837  0.9216673068709156  0.6784982312971266
  0.0783326931290844  0.6636611211319163  0.3215017687028734
  0.9216673068709156  0.3363388788680837  0.3215017687028734
  0.8363388788680837  0.4216673068709156  0.8215017687028734
  0.1636611211319163  0.5783326931290844  0.8215017687028734
  0.4216673068709156  0.8363388788680837  0.1784982312971266
  0.5783326931290844  0.1636611211319163  0.1784982312971266
  0.9508011645488779  0.7764624407034262  0.6766750042884979
  0.0491988354511221  0.2235375592965667  0.6766750042884979
  0.7764624407034262  0.9508011645488779  0.3233249957115021
  0.2235375592965667  0.0491988354511221  0.3233249957115021
  0.5491988354511221  0.7235375592965738  0.8233249957115021
  0.4508011645488779  0.2764624407034333  0.8233249957115021
  0.6549135312719017  0.9132903089705593  0.0422478045237540
  0.3450864687280983  0.0867096910294407  0.0422478045237540
  0.9132903089705593  0.6549135312719017  0.9577521954762460
  0.0867096910294407  0.3450864687280983  0.9577521954762460
  0.8450864687280983  0.5867096910294407  0.4577521954762460
  0.1549135312719017  0.4132903089705593  0.4577521954762460
  0.5867096910294407  0.8450864687280983  0.5422478045237540
  0.4132903089705593  0.1549135312719017  0.5422478045237540
  0.0364195241518033  0.8132402356370463  0.1243680315154023
  0.9635804758481967  0.1867597643629537  0.1243680315154023
  0.8132402356370463  0.0364195241518033  0.8756319684845977
  0.1867597643629537  0.9635804758481967  0.8756319684845977
  0.4635804758481967  0.6867597643629537  0.3756319684846048
  0.5364195241518033  0.3132402356370463  0.3756319684846048
  0.6867597643629537  0.4635804758481967  0.6243680315154023
  0.3132402356370534  0.5364195241518033  0.6243680315154023
  0.2764624407034333  0.4508011645488779  0.1766750042884979
  0.7235375592965738  0.5491988354511221  0.1766750042884979
 
  0.00000000E+00  0.00000000E+00  0.00000000E+00
  0.00000000E+00  0.00000000E+00  0.00000000E+00
  0.00000000E+00  0.00000000E+00  0.00000000E+00
  0.00000000E+00  0.00000000E+00  0.00000000E+00
  0.00000000E+00  0.00000000E+00  0.00000000E+00
  0.00000000E+00  0.00000000E+00  0.00000000E+00
  0.00000000E+00  0.00000000E+00  0.00000000E+00
  0.00000000E+00  0.00000000E+00  0.00000000E+00
  0.00000000E+00  0.00000000E+00  0.00000000E+00
  0.00000000E+00  0.00000000E+00  0.00000000E+00
  0.00000000E+00  0.00000000E+00  0.00000000E+00
  0.00000000E+00  0.00000000E+00  0.00000000E+00
  0.00000000E+00  0.00000000E+00  0.00000000E+00
  0.00000000E+00  0.00000000E+00  0.00000000E+00
  0.00000000E+00  0.00000000E+00  0.00000000E+00
  0.00000000E+00  0.00000000E+00  0.00000000E+00
  0.00000000E+00  0.00000000E+00  0.00000000E+00
  0.00000000E+00  0.00000000E+00  0.00000000E+00
  0.00000000E+00  0.00000000E+00  0.00000000E+00
  0.00000000E+00  0.00000000E+00  0.00000000E+00
  0.00000000E+00  0.00000000E+00  0.00000000E+00
  0.00000000E+00  0.00000000E+00  0.00000000E+00
  0.00000000E+00  0.00000000E+00  0.00000000E+00
  0.00000000E+00  0.00000000E+00  0.00000000E+00
  0.00000000E+00  0.00000000E+00  0.00000000E+00
  0.00000000E+00  0.00000000E+00  0.00000000E+00
  0.00000000E+00  0.00000000E+00  0.00000000E+00
  0.00000000E+00  0.00000000E+00  0.00000000E+00
  0.00000000E+00  0.00000000E+00  0.00000000E+00
  0.00000000E+00  0.00000000E+00  0.00000000E+00
  0.00000000E+00  0.00000000E+00  0.00000000E+00
  0.00000000E+00  0.00000000E+00  0.00000000E+00
  0.00000000E+00  0.00000000E+00  0.00000000E+00
  0.00000000E+00  0.00000000E+00  0.00000000E+00
  0.00000000E+00  0.00000000E+00  0.00000000E+00
  0.00000000E+00  0.00000000E+00  0.00000000E+00
  0.00000000E+00  0.00000000E+00  0.00000000E+00
  0.00000000E+00  0.00000000E+00  0.00000000E+00
  0.00000000E+00  0.00000000E+00  0.00000000E+00
  0.00000000E+00  0.00000000E+00  0.00000000E+00
  0.00000000E+00  0.00000000E+00  0.00000000E+00
  0.00000000E+00  0.00000000E+00  0.00000000E+00
  0.00000000E+00  0.00000000E+00  0.00000000E+00
  0.00000000E+00  0.00000000E+00  0.00000000E+00
  0.00000000E+00  0.00000000E+00  0.00000000E+00
  0.00000000E+00  0.00000000E+00  0.00000000E+00
