Mg4 B6                                  
   1.00000000000000     
    -4.7166421800509184    0.8368965006231367   -0.6827453039339485
     3.0677850282825898   -3.6775794328749436    0.6775352164576127
    -1.5788444746913219    0.9117153107793804    7.3385522725177292
   Mg   B 
     4     6
Direct
  0.3582881974201300  0.6409317602092415  0.0627175869257997
  0.1417403610130492  0.8591149454274785  0.4372184021570504
  0.8582516043630335  0.1409021649316031  0.5627037711950749
  0.6417034270490163  0.3590798377939564  0.9372035521342994
  0.5539543404520657  0.4460856764643779  0.2475162676646505
  0.7500332541560653  0.2499980354484066  0.2499773471187865
  0.9461185249152706  0.0539104520168721  0.2523858936398682
  0.0538852338413918  0.9460781302914114  0.7475251873980042
  0.2499754552430531  0.7499964533612200  0.7499572173400537
  0.4460496015469388  0.5539025440554326  0.7523947744264063
 
  0.00000000E+00  0.00000000E+00  0.00000000E+00
  0.00000000E+00  0.00000000E+00  0.00000000E+00
  0.00000000E+00  0.00000000E+00  0.00000000E+00
  0.00000000E+00  0.00000000E+00  0.00000000E+00
  0.00000000E+00  0.00000000E+00  0.00000000E+00
  0.00000000E+00  0.00000000E+00  0.00000000E+00
  0.00000000E+00  0.00000000E+00  0.00000000E+00
  0.00000000E+00  0.00000000E+00  0.00000000E+00
  0.00000000E+00  0.00000000E+00  0.00000000E+00
  0.00000000E+00  0.00000000E+00  0.00000000E+00
