Ca4 Tl2 F10                             
   1.0000000000000000     
     6.5079542036868139    0.0006511104835744    0.0047037763807394
     0.0006511104835744    6.5079542036868139    0.0047037763807394
     3.2589454669192608    3.2589454669192595    5.8176223412417585
   F    Ca   Tl
    10     4     2
Direct
  0.5000157114608967  0.0000102527482824  0.9999980001376514
  0.0000102527482824  0.5000157114608967  0.9999980001376514
  0.7418816135814055  0.0278125228218116  0.2299261022413575
  0.2417791096179585  0.2417791096179585  0.2300015813944114
  0.5277896466204837  0.5277896466204837  0.2298334434375420
  0.0278125228218116  0.7418816135814055  0.2299261022413575
  0.9722157671788949  0.2581474304832270  0.7700726254859802
  0.4722305448872248  0.4722305448872248  0.7701635047904531
  0.7582411104151703  0.7582411104151703  0.7699976337081154
  0.2581474304832270  0.9722157671788949  0.7700726254859802
  0.1631691916312690  0.1631691916312690  0.0000551052963615
  0.6631854896420393  0.3368256125581297  0.0000006593969744
  0.3368256125581297  0.6631854896420393  0.0000006593969744
  0.8368533917073080  0.8368533917073080  0.9999463523894221
  0.7500032475252851  0.2499393571205957  0.5000038022298980
  0.2499393571205957  0.7500032475252851  0.5000038022298980

  0.00000000E+00  0.00000000E+00  0.00000000E+00
  0.00000000E+00  0.00000000E+00  0.00000000E+00
  0.00000000E+00  0.00000000E+00  0.00000000E+00
  0.00000000E+00  0.00000000E+00  0.00000000E+00
  0.00000000E+00  0.00000000E+00  0.00000000E+00
  0.00000000E+00  0.00000000E+00  0.00000000E+00
  0.00000000E+00  0.00000000E+00  0.00000000E+00
  0.00000000E+00  0.00000000E+00  0.00000000E+00
  0.00000000E+00  0.00000000E+00  0.00000000E+00
  0.00000000E+00  0.00000000E+00  0.00000000E+00
  0.00000000E+00  0.00000000E+00  0.00000000E+00
  0.00000000E+00  0.00000000E+00  0.00000000E+00
  0.00000000E+00  0.00000000E+00  0.00000000E+00
  0.00000000E+00  0.00000000E+00  0.00000000E+00
  0.00000000E+00  0.00000000E+00  0.00000000E+00
  0.00000000E+00  0.00000000E+00  0.00000000E+00
