Ba10 B6                                 
   1.00000000000000     
     8.0405486822277386    0.0000000000000000    0.0000000000000000
     0.0000000000000000    8.6464777069251308   -0.0005465510167252
     0.0000000000000000   -4.3241228427404410    7.4873056391156263
   Ba   B 
    10     6
Direct
  0.7500000000000000  0.2726247878139745  0.9999173257664822
  0.2500000000000000  0.7273752121860255  0.0000826742335178
  0.2500000000000000  0.2729079393618079  0.2729021221757861
  0.7500000000000000  0.9999230310091463  0.2726395432198956
  0.9999967493568676  0.6667116228453978  0.3332826964214135
  0.5000032506431324  0.6667116228453978  0.3332826964214135
  0.0000032506431324  0.3332883771546022  0.6667173035785865
  0.4999967493568676  0.3332883771546022  0.6667173035785865
  0.2500000000000000  0.0000769689908537  0.7273604567801044
  0.7500000000000000  0.7270920606381921  0.7270978778242139
  0.2500000000000000  0.3863911933909776  0.0000617203962463
  0.7500000000000000  0.6136088066090224  0.9999382796037537
  0.2500000000000000  0.0000751191595612  0.3863956745357484
  0.7500000000000000  0.3861903438155920  0.3861760299192625
  0.2500000000000000  0.6138096561844080  0.6138239700807375
  0.7500000000000000  0.9999248808404388  0.6136043254642516
 
  0.00000000E+00  0.00000000E+00  0.00000000E+00
  0.00000000E+00  0.00000000E+00  0.00000000E+00
  0.00000000E+00  0.00000000E+00  0.00000000E+00
  0.00000000E+00  0.00000000E+00  0.00000000E+00
  0.00000000E+00  0.00000000E+00  0.00000000E+00
  0.00000000E+00  0.00000000E+00  0.00000000E+00
  0.00000000E+00  0.00000000E+00  0.00000000E+00
  0.00000000E+00  0.00000000E+00  0.00000000E+00
  0.00000000E+00  0.00000000E+00  0.00000000E+00
  0.00000000E+00  0.00000000E+00  0.00000000E+00
  0.00000000E+00  0.00000000E+00  0.00000000E+00
  0.00000000E+00  0.00000000E+00  0.00000000E+00
  0.00000000E+00  0.00000000E+00  0.00000000E+00
  0.00000000E+00  0.00000000E+00  0.00000000E+00
  0.00000000E+00  0.00000000E+00  0.00000000E+00
  0.00000000E+00  0.00000000E+00  0.00000000E+00
