Sr4 Al4 Cl20                            
   1.0000000000000000     
     0.0000000000000000    7.8283786726065312   -0.2893626806712888
    12.5477895383396980    0.0000000000000000    0.0000000000000000
     0.0000000000000000    0.2014214845345862   -8.1629113234363739
   Sr   Al   Cl
     4     4    20
Direct
  0.6649412661736633  0.3725149417488609  0.3014572074063011
  0.3350587338263367  0.8725149417488538  0.6985427925936989
  0.0746151122411547  0.0790503316333684  0.1243361286856626
  0.9253848877588453  0.5790503316333684  0.8756638713143374
  0.4165950670782053  0.7251806290787428  0.1429372009493619
  0.5834049329217947  0.2251806290787428  0.8570627990506381
  0.9967130873430037  0.6121552585305921  0.4394323054407252
  0.0032869126569963  0.1121552585305921  0.5605676945592748
  0.2633069791826301  0.0621554197987351  0.4606690298010818
  0.1551259860820835  0.5067639029709454  0.5801099047075553
  0.8448740139179165  0.0067639029709454  0.4198900952924376
  0.6806930472011246  0.7413950155272317  0.0122511740355478
  0.9711340139581495  0.4956817020220896  0.2083804378199687
  0.3376773377817841  0.9027708589378420  0.0642578800807385
  0.9147350864769095  0.2348061762364111  0.7428773078468680
  0.4899498696767566  0.7917211058255518  0.3898806568204662
  0.0288659860418505  0.9956817020220896  0.7916195621800313
  0.9917552726115559  0.7495073722184173  0.6368115788982607
  0.6623226622182159  0.4027708589378420  0.9357421199192615
  0.7366930208173699  0.5621554197987422  0.5393309701989182
  0.5734767372129994  0.0545267838009593  0.7701797856691073
  0.7027395964565670  0.1693694816702447  0.0998890737657518
  0.0082447273884441  0.2495073722184173  0.3631884211017393
  0.0852649135230905  0.7348061762364111  0.2571226921531320
  0.3193069527988683  0.2413950155272317  0.9877488259644451
  0.2972604035434330  0.6693694816702447  0.9001109262342482
  0.5100501303232434  0.2917211058255518  0.6101193431795338
  0.4265232627870006  0.5545267838009593  0.2298202143308927

  0.00000000E+00  0.00000000E+00  0.00000000E+00
  0.00000000E+00  0.00000000E+00  0.00000000E+00
  0.00000000E+00  0.00000000E+00  0.00000000E+00
  0.00000000E+00  0.00000000E+00  0.00000000E+00
  0.00000000E+00  0.00000000E+00  0.00000000E+00
  0.00000000E+00  0.00000000E+00  0.00000000E+00
  0.00000000E+00  0.00000000E+00  0.00000000E+00
  0.00000000E+00  0.00000000E+00  0.00000000E+00
  0.00000000E+00  0.00000000E+00  0.00000000E+00
  0.00000000E+00  0.00000000E+00  0.00000000E+00
  0.00000000E+00  0.00000000E+00  0.00000000E+00
  0.00000000E+00  0.00000000E+00  0.00000000E+00
  0.00000000E+00  0.00000000E+00  0.00000000E+00
  0.00000000E+00  0.00000000E+00  0.00000000E+00
  0.00000000E+00  0.00000000E+00  0.00000000E+00
  0.00000000E+00  0.00000000E+00  0.00000000E+00
  0.00000000E+00  0.00000000E+00  0.00000000E+00
  0.00000000E+00  0.00000000E+00  0.00000000E+00
  0.00000000E+00  0.00000000E+00  0.00000000E+00
  0.00000000E+00  0.00000000E+00  0.00000000E+00
  0.00000000E+00  0.00000000E+00  0.00000000E+00
  0.00000000E+00  0.00000000E+00  0.00000000E+00
  0.00000000E+00  0.00000000E+00  0.00000000E+00
  0.00000000E+00  0.00000000E+00  0.00000000E+00
  0.00000000E+00  0.00000000E+00  0.00000000E+00
  0.00000000E+00  0.00000000E+00  0.00000000E+00
  0.00000000E+00  0.00000000E+00  0.00000000E+00
  0.00000000E+00  0.00000000E+00  0.00000000E+00
