Be41 Al67                               
   1.00000000000000     
    11.4148929561663657    0.0000000000000000    0.0000000000000000
     0.0000000000000000   11.4148929561663657    0.0000000000000000
     0.0000000000000000    0.0000000000000000   11.4148929561663657
   Be   Al
    41    67
Direct
  0.6831319015157646  0.3168680984842354  0.1734234514437603
  0.6831319015157646  0.8265765485562397  0.3168680984842354
  0.1734234514437603  0.6831319015157646  0.6831319015157646
  0.3168680984842354  0.8265765485562397  0.6831319015157646
  0.0000000000000000  0.8469861990598915  0.0000000000000000
  0.8265765485562397  0.6831319015157646  0.6831319015157646
  0.1734234514437603  0.3168680984842354  0.3168680984842354
  0.6831319015157646  0.1734234514437603  0.3168680984842354
  0.8319110351077654  0.1680889648922346  0.1680889648922346
  0.8265765485562397  0.6831319015157646  0.3168680984842354
  0.0000000000000000  0.0000000000000000  0.1530138009401085
  0.6831319015157646  0.6831319015157646  0.1734234514437603
  0.3168680984842354  0.6831319015157646  0.8265765485562397
  0.1680889648922346  0.1680889648922346  0.8319110351077654
  0.6831319015157646  0.3168680984842354  0.8265765485562397
  0.0000000000000000  0.5000000000000000  0.0000000000000000
  0.6831319015157646  0.1734234514437603  0.6831319015157646
  0.1734234514437603  0.6831319015157646  0.3168680984842354
  0.8319110351077654  0.1680889648922346  0.8319110351077654
  0.1734234514437603  0.3168680984842354  0.6831319015157646
  0.1680889648922346  0.1680889648922346  0.1680889648922346
  0.6831319015157646  0.6831319015157646  0.8265765485562397
  0.6831319015157646  0.8265765485562397  0.6831319015157646
  0.8319110351077654  0.8319110351077654  0.1680889648922346
  0.1530138009401085  0.0000000000000000  0.0000000000000000
  0.3168680984842354  0.1734234514437603  0.6831319015157646
  0.8265765485562397  0.3168680984842354  0.6831319015157646
  0.0000000000000000  0.0000000000000000  0.5000000000000000
  0.1680889648922346  0.8319110351077654  0.1680889648922346
  0.3168680984842354  0.6831319015157646  0.1734234514437603
  0.0000000000000000  0.1530138009401085  0.0000000000000000
  0.1680889648922346  0.8319110351077654  0.8319110351077654
  0.8469861990598915  0.0000000000000000  0.0000000000000000
  0.3168680984842354  0.3168680984842354  0.8265765485562397
  0.3168680984842354  0.3168680984842354  0.1734234514437603
  0.3168680984842354  0.1734234514437603  0.3168680984842354
  0.5000000000000000  0.0000000000000000  0.0000000000000000
  0.8265765485562397  0.3168680984842354  0.3168680984842354
  0.3168680984842354  0.8265765485562397  0.3168680984842354
  0.0000000000000000  0.0000000000000000  0.8469861990598915
  0.8319110351077654  0.8319110351077654  0.8319110351077654
  0.5000000000000000  0.3252517825126873  0.3252517825126873
  0.8368325290664274  0.1631674709335726  0.5000000000000000
  0.3252517825126873  0.5000000000000000  0.6747482174873127
  0.6687083610428530  0.0000000000000000  0.5000000000000000
  0.6764408659207888  0.0000000000000000  0.8360629310487582
  0.8360629310487582  0.0000000000000000  0.6764408659207888
  0.5000000000000000  0.0000000000000000  0.3312916389571470
  0.3235591340792112  0.8360629310487582  0.0000000000000000
  0.0000000000000000  0.6687083610428530  0.5000000000000000
  0.3312916389571470  0.0000000000000000  0.5000000000000000
  0.6764408659207888  0.0000000000000000  0.1639370689512418
  0.5000000000000000  0.8368325290664274  0.1631674709335726
  0.6687083610428530  0.5000000000000000  0.0000000000000000
  0.1639370689512418  0.6764408659207888  0.0000000000000000
  0.8368325290664274  0.5000000000000000  0.1631674709335726
  0.1661703593260100  0.5000000000000000  0.5000000000000000
  0.1639370689512418  0.3235591340792112  0.0000000000000000
  0.5000000000000000  0.5000000000000000  0.1661703593260100
  0.5000000000000000  0.8368325290664274  0.8368325290664274
  0.5000000000000000  0.0000000000000000  0.6687083610428530
  0.3252517825126873  0.3252517825126873  0.5000000000000000
  0.5000000000000000  0.1631674709335726  0.1631674709335726
  0.5000000000000000  0.6747482174873127  0.3252517825126873
  0.3235591340792112  0.0000000000000000  0.1639370689512418
  0.1639370689512418  0.0000000000000000  0.6764408659207888
  0.8360629310487582  0.0000000000000000  0.3235591340792112
  0.1631674709335726  0.5000000000000000  0.1631674709335726
  0.0000000000000000  0.1639370689512418  0.6764408659207888
  0.3235591340792112  0.0000000000000000  0.8360629310487582
  0.0000000000000000  0.8360629310487582  0.3235591340792112
  0.1631674709335726  0.1631674709335726  0.5000000000000000
  0.5000000000000000  0.5000000000000000  0.5000000000000000
  0.5000000000000000  0.3312916389571470  0.0000000000000000
  0.5000000000000000  0.6747482174873127  0.6747482174873127
  0.6747482174873127  0.3252517825126873  0.5000000000000000
  0.1639370689512418  0.0000000000000000  0.3235591340792112
  0.6747482174873127  0.5000000000000000  0.6747482174873127
  0.5000000000000000  0.6687083610428530  0.0000000000000000
  0.0000000000000000  0.3235591340792112  0.8360629310487582
  0.0000000000000000  0.6764408659207888  0.8360629310487582
  0.5000000000000000  0.1661703593260100  0.5000000000000000
  0.5000000000000000  0.8338296406739900  0.5000000000000000
  0.8368325290664274  0.8368325290664274  0.5000000000000000
  0.0000000000000000  0.1639370689512418  0.3235591340792112
  0.1631674709335726  0.8368325290664274  0.5000000000000000
  0.0000000000000000  0.3235591340792112  0.1639370689512418
  0.0000000000000000  0.6764408659207888  0.1639370689512418
  0.0000000000000000  0.8360629310487582  0.6764408659207888
  0.3252517825126873  0.6747482174873127  0.5000000000000000
  0.6764408659207888  0.1639370689512418  0.0000000000000000
  0.8360629310487582  0.6764408659207888  0.0000000000000000
  0.3312916389571470  0.5000000000000000  0.0000000000000000
  0.3235591340792112  0.1639370689512418  0.0000000000000000
  0.6764408659207888  0.8360629310487582  0.0000000000000000
  0.8368325290664274  0.5000000000000000  0.8368325290664274
  0.8338296406739900  0.5000000000000000  0.5000000000000000
  0.0000000000000000  0.5000000000000000  0.3312916389571470
  0.5000000000000000  0.1631674709335726  0.8368325290664274
  0.5000000000000000  0.3252517825126873  0.6747482174873127
  0.3252517825126873  0.5000000000000000  0.3252517825126873
  0.0000000000000000  0.3312916389571470  0.5000000000000000
  0.8360629310487582  0.3235591340792112  0.0000000000000000
  0.1631674709335726  0.5000000000000000  0.8368325290664274
  0.6747482174873127  0.5000000000000000  0.3252517825126873
  0.6747482174873127  0.6747482174873127  0.5000000000000000
  0.5000000000000000  0.5000000000000000  0.8338296406739900
  0.0000000000000000  0.5000000000000000  0.6687083610428530
 
  0.00000000E+00  0.00000000E+00  0.00000000E+00
  0.00000000E+00  0.00000000E+00  0.00000000E+00
  0.00000000E+00  0.00000000E+00  0.00000000E+00
  0.00000000E+00  0.00000000E+00  0.00000000E+00
  0.00000000E+00  0.00000000E+00  0.00000000E+00
  0.00000000E+00  0.00000000E+00  0.00000000E+00
  0.00000000E+00  0.00000000E+00  0.00000000E+00
  0.00000000E+00  0.00000000E+00  0.00000000E+00
  0.00000000E+00  0.00000000E+00  0.00000000E+00
  0.00000000E+00  0.00000000E+00  0.00000000E+00
  0.00000000E+00  0.00000000E+00  0.00000000E+00
  0.00000000E+00  0.00000000E+00  0.00000000E+00
  0.00000000E+00  0.00000000E+00  0.00000000E+00
  0.00000000E+00  0.00000000E+00  0.00000000E+00
  0.00000000E+00  0.00000000E+00  0.00000000E+00
  0.00000000E+00  0.00000000E+00  0.00000000E+00
  0.00000000E+00  0.00000000E+00  0.00000000E+00
  0.00000000E+00  0.00000000E+00  0.00000000E+00
  0.00000000E+00  0.00000000E+00  0.00000000E+00
  0.00000000E+00  0.00000000E+00  0.00000000E+00
  0.00000000E+00  0.00000000E+00  0.00000000E+00
  0.00000000E+00  0.00000000E+00  0.00000000E+00
  0.00000000E+00  0.00000000E+00  0.00000000E+00
  0.00000000E+00  0.00000000E+00  0.00000000E+00
  0.00000000E+00  0.00000000E+00  0.00000000E+00
  0.00000000E+00  0.00000000E+00  0.00000000E+00
  0.00000000E+00  0.00000000E+00  0.00000000E+00
  0.00000000E+00  0.00000000E+00  0.00000000E+00
  0.00000000E+00  0.00000000E+00  0.00000000E+00
  0.00000000E+00  0.00000000E+00  0.00000000E+00
  0.00000000E+00  0.00000000E+00  0.00000000E+00
  0.00000000E+00  0.00000000E+00  0.00000000E+00
  0.00000000E+00  0.00000000E+00  0.00000000E+00
  0.00000000E+00  0.00000000E+00  0.00000000E+00
  0.00000000E+00  0.00000000E+00  0.00000000E+00
  0.00000000E+00  0.00000000E+00  0.00000000E+00
  0.00000000E+00  0.00000000E+00  0.00000000E+00
  0.00000000E+00  0.00000000E+00  0.00000000E+00
  0.00000000E+00  0.00000000E+00  0.00000000E+00
  0.00000000E+00  0.00000000E+00  0.00000000E+00
  0.00000000E+00  0.00000000E+00  0.00000000E+00
  0.00000000E+00  0.00000000E+00  0.00000000E+00
  0.00000000E+00  0.00000000E+00  0.00000000E+00
  0.00000000E+00  0.00000000E+00  0.00000000E+00
  0.00000000E+00  0.00000000E+00  0.00000000E+00
  0.00000000E+00  0.00000000E+00  0.00000000E+00
  0.00000000E+00  0.00000000E+00  0.00000000E+00
  0.00000000E+00  0.00000000E+00  0.00000000E+00
  0.00000000E+00  0.00000000E+00  0.00000000E+00
  0.00000000E+00  0.00000000E+00  0.00000000E+00
  0.00000000E+00  0.00000000E+00  0.00000000E+00
  0.00000000E+00  0.00000000E+00  0.00000000E+00
  0.00000000E+00  0.00000000E+00  0.00000000E+00
  0.00000000E+00  0.00000000E+00  0.00000000E+00
  0.00000000E+00  0.00000000E+00  0.00000000E+00
  0.00000000E+00  0.00000000E+00  0.00000000E+00
  0.00000000E+00  0.00000000E+00  0.00000000E+00
  0.00000000E+00  0.00000000E+00  0.00000000E+00
  0.00000000E+00  0.00000000E+00  0.00000000E+00
  0.00000000E+00  0.00000000E+00  0.00000000E+00
  0.00000000E+00  0.00000000E+00  0.00000000E+00
  0.00000000E+00  0.00000000E+00  0.00000000E+00
  0.00000000E+00  0.00000000E+00  0.00000000E+00
  0.00000000E+00  0.00000000E+00  0.00000000E+00
  0.00000000E+00  0.00000000E+00  0.00000000E+00
  0.00000000E+00  0.00000000E+00  0.00000000E+00
  0.00000000E+00  0.00000000E+00  0.00000000E+00
  0.00000000E+00  0.00000000E+00  0.00000000E+00
  0.00000000E+00  0.00000000E+00  0.00000000E+00
  0.00000000E+00  0.00000000E+00  0.00000000E+00
  0.00000000E+00  0.00000000E+00  0.00000000E+00
  0.00000000E+00  0.00000000E+00  0.00000000E+00
  0.00000000E+00  0.00000000E+00  0.00000000E+00
  0.00000000E+00  0.00000000E+00  0.00000000E+00
  0.00000000E+00  0.00000000E+00  0.00000000E+00
  0.00000000E+00  0.00000000E+00  0.00000000E+00
  0.00000000E+00  0.00000000E+00  0.00000000E+00
  0.00000000E+00  0.00000000E+00  0.00000000E+00
  0.00000000E+00  0.00000000E+00  0.00000000E+00
  0.00000000E+00  0.00000000E+00  0.00000000E+00
  0.00000000E+00  0.00000000E+00  0.00000000E+00
  0.00000000E+00  0.00000000E+00  0.00000000E+00
  0.00000000E+00  0.00000000E+00  0.00000000E+00
  0.00000000E+00  0.00000000E+00  0.00000000E+00
  0.00000000E+00  0.00000000E+00  0.00000000E+00
  0.00000000E+00  0.00000000E+00  0.00000000E+00
  0.00000000E+00  0.00000000E+00  0.00000000E+00
  0.00000000E+00  0.00000000E+00  0.00000000E+00
  0.00000000E+00  0.00000000E+00  0.00000000E+00
  0.00000000E+00  0.00000000E+00  0.00000000E+00
  0.00000000E+00  0.00000000E+00  0.00000000E+00
  0.00000000E+00  0.00000000E+00  0.00000000E+00
  0.00000000E+00  0.00000000E+00  0.00000000E+00
  0.00000000E+00  0.00000000E+00  0.00000000E+00
  0.00000000E+00  0.00000000E+00  0.00000000E+00
  0.00000000E+00  0.00000000E+00  0.00000000E+00
  0.00000000E+00  0.00000000E+00  0.00000000E+00
  0.00000000E+00  0.00000000E+00  0.00000000E+00
  0.00000000E+00  0.00000000E+00  0.00000000E+00
  0.00000000E+00  0.00000000E+00  0.00000000E+00
  0.00000000E+00  0.00000000E+00  0.00000000E+00
  0.00000000E+00  0.00000000E+00  0.00000000E+00
  0.00000000E+00  0.00000000E+00  0.00000000E+00
  0.00000000E+00  0.00000000E+00  0.00000000E+00
  0.00000000E+00  0.00000000E+00  0.00000000E+00
  0.00000000E+00  0.00000000E+00  0.00000000E+00
  0.00000000E+00  0.00000000E+00  0.00000000E+00
  0.00000000E+00  0.00000000E+00  0.00000000E+00
