Ba4 Tl2 F10                             
   1.0000000000000000     
     7.7451830203665457   -0.2698543123561691   -0.4370317807320664
    -0.2698543123561692    7.7451830203665457   -0.4370317807320666
     3.4160460857288859    3.4160460857288859    4.7703124950556006
   F    Ba   Tl
    10     4     2
Direct
  0.4994468658810760  0.0550093433946159  0.9194782862353463
  0.0550093433946159  0.4994468658810760  0.9194782862353463
  0.5882697252659028  0.9900598473590421  0.3836248610031490
  0.2664159654809737  0.2664159654809737  0.1893485924439489
  0.4956210672547456  0.4956210672547456  0.2918498767407627
  0.9900598473590421  0.5882697252659028  0.3836248610031490
  0.9275418738511263  0.1716591738203235  0.8231491712649515
  0.5522804572997302  0.5522804572997302  0.6700966356947973
  0.7843710624152607  0.7843710624152607  0.7772109096407078
  0.1716591738203235  0.9275418738511263  0.8231491712649515
  0.2696466265208315  0.2696466265208315  0.7848680033560882
  0.6954429013534806  0.3636787287293188  0.9609519411687870
  0.3636787287293188  0.6954429013534806  0.9609519411687870
  0.7836395105484684  0.7836395105484684  0.1748627077814078
  0.8626709365017788  0.1943459143233355  0.4686773774988851
  0.1943459143233355  0.8626709365017788  0.4686773774988851

  0.00000000E+00  0.00000000E+00  0.00000000E+00
  0.00000000E+00  0.00000000E+00  0.00000000E+00
  0.00000000E+00  0.00000000E+00  0.00000000E+00
  0.00000000E+00  0.00000000E+00  0.00000000E+00
  0.00000000E+00  0.00000000E+00  0.00000000E+00
  0.00000000E+00  0.00000000E+00  0.00000000E+00
  0.00000000E+00  0.00000000E+00  0.00000000E+00
  0.00000000E+00  0.00000000E+00  0.00000000E+00
  0.00000000E+00  0.00000000E+00  0.00000000E+00
  0.00000000E+00  0.00000000E+00  0.00000000E+00
  0.00000000E+00  0.00000000E+00  0.00000000E+00
  0.00000000E+00  0.00000000E+00  0.00000000E+00
  0.00000000E+00  0.00000000E+00  0.00000000E+00
  0.00000000E+00  0.00000000E+00  0.00000000E+00
  0.00000000E+00  0.00000000E+00  0.00000000E+00
  0.00000000E+00  0.00000000E+00  0.00000000E+00
