Mg2 Ga2 Cl10                            
   1.0000000000000000     
     4.3783250654610884   -0.0000000000000001    0.0000000000000003
    -0.0000000000000009   10.8513120215972130    0.0000000000000009
     0.0000000000000001    0.0000000000000003   11.0182348569668829
   Mg   Ga   Cl
     2     2    10
Direct
  0.0000000000000000  0.0000000000000000  0.5000000000000000
  0.5000000000000000  0.5000000000000000  0.0000000000000000
  0.5000000000000000  0.0000000000000000  0.0000000000000000
  0.0000000000000000  0.5000000000000000  0.5000000000000000
  0.5000000000000000  0.8564315733069137  0.5000000000000000
  0.5000000000000000  0.1435684266930863  0.5000000000000000
  0.5000000000000000  0.0000000000000000  0.1993284318052204
  0.5000000000000000  0.0000000000000000  0.8006715681947796
  0.0000000000000000  0.0000000000000000  0.0000000000000000
  0.0000000000000000  0.3564315733069137  0.0000000000000000
  0.0000000000000000  0.6435684266930863  0.0000000000000000
  0.0000000000000000  0.5000000000000000  0.6993284318052204
  0.0000000000000000  0.5000000000000000  0.3006715681947796
  0.5000000000000000  0.5000000000000000  0.5000000000000000

  0.00000000E+00  0.00000000E+00  0.00000000E+00
  0.00000000E+00  0.00000000E+00  0.00000000E+00
  0.00000000E+00  0.00000000E+00  0.00000000E+00
  0.00000000E+00  0.00000000E+00  0.00000000E+00
  0.00000000E+00  0.00000000E+00  0.00000000E+00
  0.00000000E+00  0.00000000E+00  0.00000000E+00
  0.00000000E+00  0.00000000E+00  0.00000000E+00
  0.00000000E+00  0.00000000E+00  0.00000000E+00
  0.00000000E+00  0.00000000E+00  0.00000000E+00
  0.00000000E+00  0.00000000E+00  0.00000000E+00
  0.00000000E+00  0.00000000E+00  0.00000000E+00
  0.00000000E+00  0.00000000E+00  0.00000000E+00
  0.00000000E+00  0.00000000E+00  0.00000000E+00
  0.00000000E+00  0.00000000E+00  0.00000000E+00
