Ba2 Ga10                                
   1.00000000000000     
     3.1026572185084915   -5.3739157951127314    0.0000000000000000
     3.1026572185084915    5.3739157951127314    0.0000000000000000
     0.0000000000000000    0.0000000000000000    8.3200874127873554
   Ba   Ga
     2    10
Direct
  0.0000000000000000  0.0000000000000000  0.0000000000000000
  0.0000000000000000  0.0000000000000000  0.5000000000000000
  0.6675623948300213  0.3341187808816741  0.0000000000000000
  0.3324376051699787  0.6658812191183259  0.0000000000000000
  0.5000000000000000  0.0000000000000000  0.2495030469492150
  0.5000000000000000  0.5000000000000000  0.2500000000000000
  0.0000000000000000  0.5000000000000000  0.2504969530507850
  0.6658812191183259  0.3324376051699787  0.5000000000000000
  0.3341187808816741  0.6675623948300213  0.5000000000000000
  0.0000000000000000  0.5000000000000000  0.7495030469492150
  0.5000000000000000  0.5000000000000000  0.7500000000000000
  0.5000000000000000  0.0000000000000000  0.7504969530507850
 
  0.00000000E+00  0.00000000E+00  0.00000000E+00
  0.00000000E+00  0.00000000E+00  0.00000000E+00
  0.00000000E+00  0.00000000E+00  0.00000000E+00
  0.00000000E+00  0.00000000E+00  0.00000000E+00
  0.00000000E+00  0.00000000E+00  0.00000000E+00
  0.00000000E+00  0.00000000E+00  0.00000000E+00
  0.00000000E+00  0.00000000E+00  0.00000000E+00
  0.00000000E+00  0.00000000E+00  0.00000000E+00
  0.00000000E+00  0.00000000E+00  0.00000000E+00
  0.00000000E+00  0.00000000E+00  0.00000000E+00
  0.00000000E+00  0.00000000E+00  0.00000000E+00
  0.00000000E+00  0.00000000E+00  0.00000000E+00
