Be16 B12 Cl1                            
   1.00000000000000     
     6.7905730255406986   -3.9206103546533213    2.2038329827631218
    -0.6645534928303868    6.4622981017940608    2.0477315825005533
    -5.9288620589013608   -2.6554501123841012    2.0479728609937569
   B    Cl   Be
    12     1    16
Direct
  0.7646242523012887  0.5865298481682828  0.9763125640722521
  0.6083303307407775  0.7001272412019901  0.0079526130529928
  0.2701079151839636  0.3482942299357106  0.1657643553185153
  0.0698763791501094  0.8324058657314879  0.1616097402678704
  0.9806528440978326  0.3590101786095872  0.3590102204896368
  0.2701079068033181  0.1657641796385789  0.3482943817706925
  0.2126197470181168  0.3796380701178208  0.3796379101095226
  0.7646244353846825  0.9763127063242081  0.5865301942464853
  0.8902365081267689  0.8223314483823856  0.6618808365447677
  0.6083303324280820  0.0079525772405944  0.7001272587592453
  0.8902367306867944  0.6618812778275966  0.8223316153161377
  0.0698761506594465  0.1616095794099124  0.8324054048121425
  0.4657425105109638  0.0610652284305431  0.0610652785893180
  0.9389102501162156  0.2342348796584091  0.0122380442165735
  0.6859327095886059  0.2640061446562356  0.9861352651288655
  0.3312942294784094  0.4861833773943545  0.9557980176067602
  0.1829963611151229  0.0076924512906515  0.0076934518360758
  0.6416296473229650  0.6648955289343448  0.3064026519159668
  0.6859324657342185  0.9861360421428955  0.2640057448109587
  0.9856906895675124  0.6238784551980174  0.2938926278555556
  0.9389099652115078  0.0122377941670209  0.2342344433947474
  0.9146054872307801  0.5537291812767435  0.5537293679715773
  0.4135564217085914  0.7007801881823141  0.3872524042775183
  0.9856908204798387  0.2938927335481054  0.6238786685557969
  0.3312940023867483  0.9557978213989529  0.4861829762414374
  0.6905503673535662  0.7854503741499812  0.7854506128908127
  0.6416295314295013  0.3064024399859449  0.6648954157410998
  0.3456546100285749  0.6745086546100509  0.6745088742438696
  0.4135563981556700  0.3872525023872626  0.7007800599627814
 
  0.00000000E+00  0.00000000E+00  0.00000000E+00
  0.00000000E+00  0.00000000E+00  0.00000000E+00
  0.00000000E+00  0.00000000E+00  0.00000000E+00
  0.00000000E+00  0.00000000E+00  0.00000000E+00
  0.00000000E+00  0.00000000E+00  0.00000000E+00
  0.00000000E+00  0.00000000E+00  0.00000000E+00
  0.00000000E+00  0.00000000E+00  0.00000000E+00
  0.00000000E+00  0.00000000E+00  0.00000000E+00
  0.00000000E+00  0.00000000E+00  0.00000000E+00
  0.00000000E+00  0.00000000E+00  0.00000000E+00
  0.00000000E+00  0.00000000E+00  0.00000000E+00
  0.00000000E+00  0.00000000E+00  0.00000000E+00
  0.00000000E+00  0.00000000E+00  0.00000000E+00
  0.00000000E+00  0.00000000E+00  0.00000000E+00
  0.00000000E+00  0.00000000E+00  0.00000000E+00
  0.00000000E+00  0.00000000E+00  0.00000000E+00
  0.00000000E+00  0.00000000E+00  0.00000000E+00
  0.00000000E+00  0.00000000E+00  0.00000000E+00
  0.00000000E+00  0.00000000E+00  0.00000000E+00
  0.00000000E+00  0.00000000E+00  0.00000000E+00
  0.00000000E+00  0.00000000E+00  0.00000000E+00
  0.00000000E+00  0.00000000E+00  0.00000000E+00
  0.00000000E+00  0.00000000E+00  0.00000000E+00
  0.00000000E+00  0.00000000E+00  0.00000000E+00
  0.00000000E+00  0.00000000E+00  0.00000000E+00
  0.00000000E+00  0.00000000E+00  0.00000000E+00
  0.00000000E+00  0.00000000E+00  0.00000000E+00
  0.00000000E+00  0.00000000E+00  0.00000000E+00
  0.00000000E+00  0.00000000E+00  0.00000000E+00
