Mg8 Al50                                
   1.00000000000000     
    13.0237545922153899    0.0000000000000000    0.0000000000000000
     0.0000000000000000    7.4867573833349388   -0.0136108497703857
     0.0000000000000000    7.4118532904136023   12.7397057711010078
   Mg   Al
     8    50
Direct
  0.6563097180250139  0.2395364240336875  0.3175064349532732
  0.3436902819749790  0.2395364240336875  0.8175064349532732
  0.1403704669090189  0.3800477477869180  0.6530597008230288
  0.8596295330909811  0.3800477477869180  0.1530597008230288
  0.3436902819749790  0.7604635759663125  0.6824935650467268
  0.6563097180250139  0.7604635759663125  0.1824935650467268
  0.8596295330909811  0.6199522522130820  0.3469402991769712
  0.1403704669090189  0.6199522522130820  0.8469402991769712
  0.6756758268358496  0.5687403158350293  0.5796676913135173
  0.3243241731641504  0.5687403158350293  0.0796676913135173
  0.1650488490958892  0.2297488218375179  0.4270312759230492
  0.8349511509041108  0.2297488218375179  0.9270312759230492
  0.3243241731641504  0.4312596841649707  0.4203323086864827
  0.6756758268358496  0.4312596841649707  0.9203323086864827
  0.8349511509041108  0.7702511781624821  0.5729687240769508
  0.1650488490958892  0.7702511781624821  0.0729687240769508
  0.1033234127603251  0.9864619722830170  0.1672914765373577
  0.6687734699837193  0.8448832000849720  0.8515396368171082
  0.8966765872396749  0.9864619722830170  0.6672914765373577
  0.3312265300162807  0.8448832000849720  0.3515396368171011
  0.8966765872396749  0.0135380277169830  0.8327085234626423
  0.3312265300162807  0.1551167999150280  0.1484603631828918
  0.1033234127603251  0.0135380277169830  0.3327085234626423
  0.6687734699837193  0.1551167999150280  0.6484603631828918
  0.6818614639871470  0.8270110635511827  0.3667618188030133
  0.3181385360128530  0.8270110635511827  0.8667618188030133
  0.1308242216661029  0.0022051142084081  0.6455412857550797
  0.8691757783338971  0.0022051142084081  0.1455412857550797
  0.3181385360128530  0.1729889364488173  0.6332381811969867
  0.6818614639871470  0.1729889364488173  0.1332381811969867
  0.8691757783338971  0.9977948857915919  0.3544587142449203
  0.1308242216661029  0.9977948857915919  0.8544587142449203
  0.5062355496319313  0.4365514406048305  0.6790628712218378
  0.4937644503680687  0.4365514406048305  0.1790628712218378
  0.9851742276986002  0.3129763480499719  0.3309062504162341
  0.0148257723013998  0.3129763480499719  0.8309062504162341
  0.4937644503680687  0.5634485593951695  0.3209371287781622
  0.5062355496319313  0.5634485593951695  0.8209371287781622
  0.0148257723013998  0.6870236519500281  0.6690937495837659
  0.9851742276986002  0.6870236519500281  0.1690937495837659
  0.1799071895528570  0.1777096872387176  0.9742082769613702
  0.6610247345537061  0.5760981080226699  0.0565847385600620
  0.8200928104471430  0.1777096872387176  0.4742082769613774
  0.3389752654462939  0.5760981080226699  0.5565847385600620
  0.8200928104471430  0.8222903127612824  0.0257917230386226
  0.3389752654462939  0.4239018919773301  0.9434152614399380
  0.1799071895528570  0.8222903127612824  0.5257917230386298
  0.6610247345537061  0.4239018919773301  0.4434152614399380
  0.5054652926399186  0.8450753777498079  0.4769651247495830
  0.4945347073600814  0.8450753777498079  0.9769651247495830
  0.9994362156800420  0.3120601106366081  0.5140822167947761
  0.0005637843199580  0.3120601106366081  0.0140822167947761
  0.4945347073600814  0.1549246222501921  0.5230348752504170
  0.5054652926399186  0.1549246222501921  0.0230348752504170
  0.0005637843199580  0.6879398893633919  0.4859177832052239
  0.9994362156800420  0.6879398893633919  0.9859177832052239
  0.5107594583534691  0.0000000000000000  0.2500000000000000
  0.4892405416465309  0.0000000000000000  0.7500000000000000
 
  0.00000000E+00  0.00000000E+00  0.00000000E+00
  0.00000000E+00  0.00000000E+00  0.00000000E+00
  0.00000000E+00  0.00000000E+00  0.00000000E+00
  0.00000000E+00  0.00000000E+00  0.00000000E+00
  0.00000000E+00  0.00000000E+00  0.00000000E+00
  0.00000000E+00  0.00000000E+00  0.00000000E+00
  0.00000000E+00  0.00000000E+00  0.00000000E+00
  0.00000000E+00  0.00000000E+00  0.00000000E+00
  0.00000000E+00  0.00000000E+00  0.00000000E+00
  0.00000000E+00  0.00000000E+00  0.00000000E+00
  0.00000000E+00  0.00000000E+00  0.00000000E+00
  0.00000000E+00  0.00000000E+00  0.00000000E+00
  0.00000000E+00  0.00000000E+00  0.00000000E+00
  0.00000000E+00  0.00000000E+00  0.00000000E+00
  0.00000000E+00  0.00000000E+00  0.00000000E+00
  0.00000000E+00  0.00000000E+00  0.00000000E+00
  0.00000000E+00  0.00000000E+00  0.00000000E+00
  0.00000000E+00  0.00000000E+00  0.00000000E+00
  0.00000000E+00  0.00000000E+00  0.00000000E+00
  0.00000000E+00  0.00000000E+00  0.00000000E+00
  0.00000000E+00  0.00000000E+00  0.00000000E+00
  0.00000000E+00  0.00000000E+00  0.00000000E+00
  0.00000000E+00  0.00000000E+00  0.00000000E+00
  0.00000000E+00  0.00000000E+00  0.00000000E+00
  0.00000000E+00  0.00000000E+00  0.00000000E+00
  0.00000000E+00  0.00000000E+00  0.00000000E+00
  0.00000000E+00  0.00000000E+00  0.00000000E+00
  0.00000000E+00  0.00000000E+00  0.00000000E+00
  0.00000000E+00  0.00000000E+00  0.00000000E+00
  0.00000000E+00  0.00000000E+00  0.00000000E+00
  0.00000000E+00  0.00000000E+00  0.00000000E+00
  0.00000000E+00  0.00000000E+00  0.00000000E+00
  0.00000000E+00  0.00000000E+00  0.00000000E+00
  0.00000000E+00  0.00000000E+00  0.00000000E+00
  0.00000000E+00  0.00000000E+00  0.00000000E+00
  0.00000000E+00  0.00000000E+00  0.00000000E+00
  0.00000000E+00  0.00000000E+00  0.00000000E+00
  0.00000000E+00  0.00000000E+00  0.00000000E+00
  0.00000000E+00  0.00000000E+00  0.00000000E+00
  0.00000000E+00  0.00000000E+00  0.00000000E+00
  0.00000000E+00  0.00000000E+00  0.00000000E+00
  0.00000000E+00  0.00000000E+00  0.00000000E+00
  0.00000000E+00  0.00000000E+00  0.00000000E+00
  0.00000000E+00  0.00000000E+00  0.00000000E+00
  0.00000000E+00  0.00000000E+00  0.00000000E+00
  0.00000000E+00  0.00000000E+00  0.00000000E+00
  0.00000000E+00  0.00000000E+00  0.00000000E+00
  0.00000000E+00  0.00000000E+00  0.00000000E+00
  0.00000000E+00  0.00000000E+00  0.00000000E+00
  0.00000000E+00  0.00000000E+00  0.00000000E+00
  0.00000000E+00  0.00000000E+00  0.00000000E+00
  0.00000000E+00  0.00000000E+00  0.00000000E+00
  0.00000000E+00  0.00000000E+00  0.00000000E+00
  0.00000000E+00  0.00000000E+00  0.00000000E+00
  0.00000000E+00  0.00000000E+00  0.00000000E+00
  0.00000000E+00  0.00000000E+00  0.00000000E+00
  0.00000000E+00  0.00000000E+00  0.00000000E+00
  0.00000000E+00  0.00000000E+00  0.00000000E+00
