Sr1 In2 I10                             
   1.0000000000000000     
     6.7064649855261891    5.9843081194513061    1.2660023434326844
    -6.7064649855261891    5.9843081194513061    1.2660023434326844
     0.0000000000000000    5.7669923074860492   10.0434771994496366
   Sr   In   I 
     1     2    10
Direct
  0.6201731244360076  0.3798268755639924  0.0000000000000000
  0.9372919947111171  0.1049209293599347  0.7181946595777902
  0.8950790706400653  0.0627080052888829  0.2818053404222098
  0.2600348338570129  0.3941734863372162  0.5105800509741201
  0.6058265136627767  0.7399651661429871  0.4894199490258728
  0.9078480547023133  0.7606241724058052  0.9142361464875250
  0.2393758275941877  0.0921519452976867  0.0857638535124750
  0.8605217794766915  0.1394782205233085  0.0000000000000000
  0.0015144337757178  0.9984855662242822  0.5000000000000000
  0.6845946048175335  0.2596689026938535  0.7239994700612016
  0.7403310973061465  0.3154053951824736  0.2760005299387984
  0.4553972489429015  0.6639895839224792  0.8425906251959958
  0.3360104160775208  0.5446027510570985  0.1574093748040042

  0.00000000E+00  0.00000000E+00  0.00000000E+00
  0.00000000E+00  0.00000000E+00  0.00000000E+00
  0.00000000E+00  0.00000000E+00  0.00000000E+00
  0.00000000E+00  0.00000000E+00  0.00000000E+00
  0.00000000E+00  0.00000000E+00  0.00000000E+00
  0.00000000E+00  0.00000000E+00  0.00000000E+00
  0.00000000E+00  0.00000000E+00  0.00000000E+00
  0.00000000E+00  0.00000000E+00  0.00000000E+00
  0.00000000E+00  0.00000000E+00  0.00000000E+00
  0.00000000E+00  0.00000000E+00  0.00000000E+00
  0.00000000E+00  0.00000000E+00  0.00000000E+00
  0.00000000E+00  0.00000000E+00  0.00000000E+00
  0.00000000E+00  0.00000000E+00  0.00000000E+00
