Ca4 Al8 Br16                            
   1.00000000000000     
     6.9564901916348969   -0.3602963147217612    0.6414530037958560
    -0.3378697085714109    7.3941272418941573    1.5436111425595356
     2.0187105761930000    3.2576692204998898   22.9795563481339862
   Ca   Br   Al
     4    16     8
Direct
  0.5820330665514319  0.2482176502623830  0.0215376017899516
  0.1705066549884364  0.1834636339363911  0.5210105379293068
  0.9164240183679837  0.7339361736963923  0.4902802417091436
  0.2950163529105936  0.0461064695318143  0.8927053074600053
  0.3065542869799671  0.5955795838847493  0.4815593549101891
  0.9241668505290122  0.2688025094050417  0.0749431067209443
  0.9789516312019870  0.4618081252535404  0.3467375967748580
  0.6758849393065489  0.8550278567796852  0.2763084417940149
  0.0606561688388680  0.6217934740095075  0.1426715421489604
  0.3546327734868413  0.1994010261297277  0.1529334413572272
  0.4873965954010160  0.1716616254533889  0.4244533956038694
  0.5824606289055794  0.8212727654571808  0.0742800378490998
  0.4599374332469210  0.3840704384394229  0.9059035664430937
  0.6033691410923865  0.7697085511058859  0.5836209304033773
  0.6389170626673248  0.9914216422878468  0.8099785825436072
  0.8965837200836191  0.1256169435625480  0.9228574258546303
  0.2038827636233194  0.1061168811926194  0.6502167517160800
  0.2642822758118655  0.3749200919542943  0.7613973432391177
  0.0464901203858616  0.7373683055074522  0.8734755307778883
  0.7903278367835327  0.3257833767503939  0.5294650341191698
  0.2146692574175759  0.4389335247105137  0.0839576248274625
  0.2359912617109146  0.9200012853733384  0.0466447581241169
  0.8137422614996837  0.7583033925639739  0.3620585922414818
  0.8337515704506018  0.1682162920178669  0.4360877985360219
  0.2503891054895675  0.7394323821799134  0.5716909673406150
  0.2170357727420864  0.4109541783342294  0.6626206801086951
  0.7467387506340799  0.8435609731100939  0.9060402989060421
  0.4492076988923657  0.6981208471098341  0.9941635087710239
 
  0.00000000E+00  0.00000000E+00  0.00000000E+00
  0.00000000E+00  0.00000000E+00  0.00000000E+00
  0.00000000E+00  0.00000000E+00  0.00000000E+00
  0.00000000E+00  0.00000000E+00  0.00000000E+00
  0.00000000E+00  0.00000000E+00  0.00000000E+00
  0.00000000E+00  0.00000000E+00  0.00000000E+00
  0.00000000E+00  0.00000000E+00  0.00000000E+00
  0.00000000E+00  0.00000000E+00  0.00000000E+00
  0.00000000E+00  0.00000000E+00  0.00000000E+00
  0.00000000E+00  0.00000000E+00  0.00000000E+00
  0.00000000E+00  0.00000000E+00  0.00000000E+00
  0.00000000E+00  0.00000000E+00  0.00000000E+00
  0.00000000E+00  0.00000000E+00  0.00000000E+00
  0.00000000E+00  0.00000000E+00  0.00000000E+00
  0.00000000E+00  0.00000000E+00  0.00000000E+00
  0.00000000E+00  0.00000000E+00  0.00000000E+00
  0.00000000E+00  0.00000000E+00  0.00000000E+00
  0.00000000E+00  0.00000000E+00  0.00000000E+00
  0.00000000E+00  0.00000000E+00  0.00000000E+00
  0.00000000E+00  0.00000000E+00  0.00000000E+00
  0.00000000E+00  0.00000000E+00  0.00000000E+00
  0.00000000E+00  0.00000000E+00  0.00000000E+00
  0.00000000E+00  0.00000000E+00  0.00000000E+00
  0.00000000E+00  0.00000000E+00  0.00000000E+00
  0.00000000E+00  0.00000000E+00  0.00000000E+00
  0.00000000E+00  0.00000000E+00  0.00000000E+00
  0.00000000E+00  0.00000000E+00  0.00000000E+00
  0.00000000E+00  0.00000000E+00  0.00000000E+00
