Sr15 In1                                
   1.0000000000000000     
     4.2188184401906206   -7.3072068632025360   -0.0000000000000000
     4.2188184401906206    7.3072068632025360   -0.0000000000000000
     0.0000000000000000    0.0000000000000000   13.4766887938127979
   Sr   In
    15     1
Direct
  0.0000000000000000  0.0000000000000000  0.0000000000000000
  0.9936862179681256  0.4968431089796184  0.5000000000000000
  0.0012338985690477  0.5006169492905599  0.0000000000000000
  0.5031568910114999  0.4968431089885001  0.5000000000000000
  0.4993830507215193  0.5006169492784807  0.0000000000000000
  0.5031568910203816  0.0063137820318744  0.5000000000000000
  0.4993830507094401  0.9987661014309523  0.0000000000000000
  0.1615365206411639  0.3230740412612150  0.2639700278094850
  0.1615365206411639  0.3230740412612150  0.7360299721905150
  0.1615365206200607  0.8384634793799393  0.2639700278094850
  0.1615365206200607  0.8384634793799393  0.7360299721905150
  0.6769259587387779  0.8384634793588361  0.2639700278094850
  0.6769259587387779  0.8384634793588361  0.7360299721905150
  0.6666669999999968  0.3333330000000032  0.2455633219265394
  0.6666669999999968  0.3333330000000032  0.7544366780734606
  0.0000000000000000  0.0000000000000000  0.5000000000000000

  0.00000000E+00  0.00000000E+00  0.00000000E+00
  0.00000000E+00  0.00000000E+00  0.00000000E+00
  0.00000000E+00  0.00000000E+00  0.00000000E+00
  0.00000000E+00  0.00000000E+00  0.00000000E+00
  0.00000000E+00  0.00000000E+00  0.00000000E+00
  0.00000000E+00  0.00000000E+00  0.00000000E+00
  0.00000000E+00  0.00000000E+00  0.00000000E+00
  0.00000000E+00  0.00000000E+00  0.00000000E+00
  0.00000000E+00  0.00000000E+00  0.00000000E+00
  0.00000000E+00  0.00000000E+00  0.00000000E+00
  0.00000000E+00  0.00000000E+00  0.00000000E+00
  0.00000000E+00  0.00000000E+00  0.00000000E+00
  0.00000000E+00  0.00000000E+00  0.00000000E+00
  0.00000000E+00  0.00000000E+00  0.00000000E+00
  0.00000000E+00  0.00000000E+00  0.00000000E+00
  0.00000000E+00  0.00000000E+00  0.00000000E+00
