Mg6 In33                                
   1.00000000000000     
    10.2927586631985637    0.0000000000000000    0.0000000000000000
     0.0000000000000000   10.2927586631985637    0.0000000000000000
     0.0000000000000000    0.0000000000000000   10.2927586631985637
   Mg   In
     6    33
Direct
  0.2045768009769162  0.5000000000000000  0.0000000000000000
  0.7954231990230838  0.5000000000000000  0.0000000000000000
  0.5000000000000000  0.0000000000000000  0.2045768009769162
  0.0000000000000000  0.2045768009769162  0.5000000000000000
  0.0000000000000000  0.7954231990230838  0.5000000000000000
  0.5000000000000000  0.0000000000000000  0.7954231990230838
  0.0000000000000000  0.0000000000000000  0.0000000000000000
  0.2858846748785240  0.1484427488015498  0.0000000000000000
  0.7141153251214760  0.1484427488015498  0.0000000000000000
  0.5000000000000000  0.3522495136029491  0.0000000000000000
  0.5000000000000000  0.6477504863970509  0.0000000000000000
  0.2858846748785240  0.8515572511984502  0.0000000000000000
  0.7141153251214760  0.8515572511984502  0.0000000000000000
  0.0000000000000000  0.2858846748785240  0.1484427488015498
  0.0000000000000000  0.7141153251214760  0.1484427488015498
  0.5000000000000000  0.5000000000000000  0.2703408902801812
  0.1484427488015498  0.0000000000000000  0.2858846748785240
  0.8515572511984502  0.0000000000000000  0.2858846748785240
  0.2776711707731891  0.2776711707731891  0.2776711707731891
  0.7223288292268109  0.2776711707731891  0.2776711707731891
  0.2776711707731891  0.7223288292268109  0.2776711707731891
  0.7223288292268109  0.7223288292268109  0.2776711707731891
  0.0000000000000000  0.5000000000000000  0.3522495136029491
  0.3522495136029491  0.0000000000000000  0.5000000000000000
  0.6477504863970509  0.0000000000000000  0.5000000000000000
  0.5000000000000000  0.2703408902801812  0.5000000000000000
  0.2703408902801812  0.5000000000000000  0.5000000000000000
  0.7296591097198188  0.5000000000000000  0.5000000000000000
  0.5000000000000000  0.7296591097198188  0.5000000000000000
  0.0000000000000000  0.5000000000000000  0.6477504863970509
  0.2776711707731891  0.2776711707731891  0.7223288292268109
  0.7223288292268109  0.2776711707731891  0.7223288292268109
  0.2776711707731891  0.7223288292268109  0.7223288292268109
  0.7223288292268109  0.7223288292268109  0.7223288292268109
  0.1484427488015498  0.0000000000000000  0.7141153251214760
  0.8515572511984502  0.0000000000000000  0.7141153251214760
  0.5000000000000000  0.5000000000000000  0.7296591097198188
  0.0000000000000000  0.2858846748785240  0.8515572511984502
  0.0000000000000000  0.7141153251214760  0.8515572511984502
 
  0.00000000E+00  0.00000000E+00  0.00000000E+00
  0.00000000E+00  0.00000000E+00  0.00000000E+00
  0.00000000E+00  0.00000000E+00  0.00000000E+00
  0.00000000E+00  0.00000000E+00  0.00000000E+00
  0.00000000E+00  0.00000000E+00  0.00000000E+00
  0.00000000E+00  0.00000000E+00  0.00000000E+00
  0.00000000E+00  0.00000000E+00  0.00000000E+00
  0.00000000E+00  0.00000000E+00  0.00000000E+00
  0.00000000E+00  0.00000000E+00  0.00000000E+00
  0.00000000E+00  0.00000000E+00  0.00000000E+00
  0.00000000E+00  0.00000000E+00  0.00000000E+00
  0.00000000E+00  0.00000000E+00  0.00000000E+00
  0.00000000E+00  0.00000000E+00  0.00000000E+00
  0.00000000E+00  0.00000000E+00  0.00000000E+00
  0.00000000E+00  0.00000000E+00  0.00000000E+00
  0.00000000E+00  0.00000000E+00  0.00000000E+00
  0.00000000E+00  0.00000000E+00  0.00000000E+00
  0.00000000E+00  0.00000000E+00  0.00000000E+00
  0.00000000E+00  0.00000000E+00  0.00000000E+00
  0.00000000E+00  0.00000000E+00  0.00000000E+00
  0.00000000E+00  0.00000000E+00  0.00000000E+00
  0.00000000E+00  0.00000000E+00  0.00000000E+00
  0.00000000E+00  0.00000000E+00  0.00000000E+00
  0.00000000E+00  0.00000000E+00  0.00000000E+00
  0.00000000E+00  0.00000000E+00  0.00000000E+00
  0.00000000E+00  0.00000000E+00  0.00000000E+00
  0.00000000E+00  0.00000000E+00  0.00000000E+00
  0.00000000E+00  0.00000000E+00  0.00000000E+00
  0.00000000E+00  0.00000000E+00  0.00000000E+00
  0.00000000E+00  0.00000000E+00  0.00000000E+00
  0.00000000E+00  0.00000000E+00  0.00000000E+00
  0.00000000E+00  0.00000000E+00  0.00000000E+00
  0.00000000E+00  0.00000000E+00  0.00000000E+00
  0.00000000E+00  0.00000000E+00  0.00000000E+00
  0.00000000E+00  0.00000000E+00  0.00000000E+00
  0.00000000E+00  0.00000000E+00  0.00000000E+00
  0.00000000E+00  0.00000000E+00  0.00000000E+00
  0.00000000E+00  0.00000000E+00  0.00000000E+00
  0.00000000E+00  0.00000000E+00  0.00000000E+00
