Sr4 In4 Cl20                            
   1.0000000000000000     
    11.4897319456387699    0.0000000000000000    0.0000000000000000
     0.0000000000000000   10.6286063512655939   -2.0869484941686882
     0.0000000000000000    2.4561179215867854    7.1654230336631395
   Sr   In   Cl
     4     4    20
Direct
  0.9025247701456323  0.5241867498888624  0.2663333585617806
  0.4025247701456323  0.4758132501111305  0.2336666414382194
  0.0974752298543677  0.4758132501111305  0.7336666414382194
  0.5974752298543677  0.5241867498888624  0.7663333585617806
  0.6570956416295388  0.9846190323957771  0.5676681831959840
  0.1570956416295388  0.0153809676042229  0.9323318168040160
  0.3429043583704612  0.0153809676042229  0.4323318168040160
  0.8429043583704612  0.9846190323957771  0.0676681831959840
  0.6522807431054218  0.4931741835007841  0.4012997690651616
  0.1522807431054218  0.5068258164992159  0.0987002309348384
  0.3477192568945782  0.5068258164992159  0.5987002309348384
  0.8477192568945782  0.4931741835007841  0.9012997690651616
  0.7449897677439239  0.1104821293827598  0.3096489852092787
  0.2449897677439239  0.8895178706172473  0.1903510147907213
  0.2550102322560761  0.8895178706172473  0.6903510147907213
  0.7550102322560761  0.1104821293827598  0.8096489852092787
  0.4912248831541959  0.1145214881413565  0.6340611947614434
  0.9912248831542030  0.8854785118586435  0.8659388052385566
  0.5087751168457970  0.8854785118586435  0.3659388052385495
  0.0087751168457970  0.1145214881413565  0.1340611947614505
  0.7343345414979083  0.7910403111758981  0.6924069356281848
  0.2343345414979012  0.2089596888240948  0.8075930643718152
  0.2656654585020988  0.2089596888240948  0.3075930643718152
  0.7656654585020917  0.7910403111758981  0.1924069356281848
  0.4765422664782974  0.6749647493954072  0.9829401010294418
  0.9765422664782974  0.3250352506045857  0.5170598989705582
  0.5234577335217026  0.3250352506045857  0.0170598989705653
  0.0234577335217026  0.6749647493954072  0.4829401010294347

  0.00000000E+00  0.00000000E+00  0.00000000E+00
  0.00000000E+00  0.00000000E+00  0.00000000E+00
  0.00000000E+00  0.00000000E+00  0.00000000E+00
  0.00000000E+00  0.00000000E+00  0.00000000E+00
  0.00000000E+00  0.00000000E+00  0.00000000E+00
  0.00000000E+00  0.00000000E+00  0.00000000E+00
  0.00000000E+00  0.00000000E+00  0.00000000E+00
  0.00000000E+00  0.00000000E+00  0.00000000E+00
  0.00000000E+00  0.00000000E+00  0.00000000E+00
  0.00000000E+00  0.00000000E+00  0.00000000E+00
  0.00000000E+00  0.00000000E+00  0.00000000E+00
  0.00000000E+00  0.00000000E+00  0.00000000E+00
  0.00000000E+00  0.00000000E+00  0.00000000E+00
  0.00000000E+00  0.00000000E+00  0.00000000E+00
  0.00000000E+00  0.00000000E+00  0.00000000E+00
  0.00000000E+00  0.00000000E+00  0.00000000E+00
  0.00000000E+00  0.00000000E+00  0.00000000E+00
  0.00000000E+00  0.00000000E+00  0.00000000E+00
  0.00000000E+00  0.00000000E+00  0.00000000E+00
  0.00000000E+00  0.00000000E+00  0.00000000E+00
  0.00000000E+00  0.00000000E+00  0.00000000E+00
  0.00000000E+00  0.00000000E+00  0.00000000E+00
  0.00000000E+00  0.00000000E+00  0.00000000E+00
  0.00000000E+00  0.00000000E+00  0.00000000E+00
  0.00000000E+00  0.00000000E+00  0.00000000E+00
  0.00000000E+00  0.00000000E+00  0.00000000E+00
  0.00000000E+00  0.00000000E+00  0.00000000E+00
  0.00000000E+00  0.00000000E+00  0.00000000E+00
