B2Cl                                    
   1.00000000000000     
     5.2724863011123446    0.0000000000000000    0.0000000000000000
     0.0000000000000000    5.2724863011123446    0.0000000000000000
     0.0000000000000000    0.0000000000000000    2.9101132039668025
   B    Cl
     4     2
Direct
  0.2768518058710043  0.2768518058710043  0.0000000000000000
  0.7231481941289957  0.7231481941289957  0.0000000000000000
  0.7768518058710043  0.2231481941289957  0.5000000000000000
  0.2231481941289957  0.7768518058710043  0.5000000000000000
  0.0000000000000000  0.0000000000000000  0.0000000000000000
  0.5000000000000000  0.5000000000000000  0.5000000000000000
 
  0.00000000E+00  0.00000000E+00  0.00000000E+00
  0.00000000E+00  0.00000000E+00  0.00000000E+00
  0.00000000E+00  0.00000000E+00  0.00000000E+00
  0.00000000E+00  0.00000000E+00  0.00000000E+00
  0.00000000E+00  0.00000000E+00  0.00000000E+00
  0.00000000E+00  0.00000000E+00  0.00000000E+00
