Ca2 Ga2 Br10                            
   1.00000000000000     
     6.2458216285900390   -1.4410666316047474    2.8724418830964988
    -0.0373159369599329    6.4098027186879225    2.8724423213833843
    -0.0658655854839362   -0.0527099178936741   11.4312478523990464
   Ca   Ga   Br
     2     2    10
Direct
  0.3016241873455741  0.6983758102516475  0.2499999998970210
  0.6983758126544188  0.3016241897483525  0.7500000001029790
  0.0000000000000000  0.0000000000000000  0.5000000000000000
  0.0000000000000000  0.0000000000000000  0.0000000000000000
  0.6513024650339361  0.7565371619644310  0.6405792506478960
  0.2434628430215326  0.3486965348221744  0.8594207489834957
  0.3486965349660665  0.2434628380355690  0.3594217493521157
  0.7565371569784674  0.6513024651778281  0.1405792510165043
  0.9862254749323611  0.0137745177545341  0.7500000024847324
  0.0137745250676389  0.9862254822454659  0.2499999975152676
  0.6756391046961525  0.1756274318643989  0.0343525016886019
  0.8243725544841354  0.3243608789983625  0.4656475070856914
  0.3243608953038475  0.8243725681356011  0.9656474983113981
  0.1756274455158575  0.6756391210016375  0.5343524929143086
 
  0.00000000E+00  0.00000000E+00  0.00000000E+00
  0.00000000E+00  0.00000000E+00  0.00000000E+00
  0.00000000E+00  0.00000000E+00  0.00000000E+00
  0.00000000E+00  0.00000000E+00  0.00000000E+00
  0.00000000E+00  0.00000000E+00  0.00000000E+00
  0.00000000E+00  0.00000000E+00  0.00000000E+00
  0.00000000E+00  0.00000000E+00  0.00000000E+00
  0.00000000E+00  0.00000000E+00  0.00000000E+00
  0.00000000E+00  0.00000000E+00  0.00000000E+00
  0.00000000E+00  0.00000000E+00  0.00000000E+00
  0.00000000E+00  0.00000000E+00  0.00000000E+00
  0.00000000E+00  0.00000000E+00  0.00000000E+00
  0.00000000E+00  0.00000000E+00  0.00000000E+00
  0.00000000E+00  0.00000000E+00  0.00000000E+00
