Ca4 B10 Br2                             
   1.00000000000000     
     8.1945140547751922    2.4224549989361410    0.0126015363000943
     1.8719244212823232    7.3785538954305343   -0.1957666316582458
     4.6322949746467996    4.2852128699111356    4.4757302496526696
   Br   Ca   B 
     2     4    10
Direct
  0.9159873538199292  0.5868376399967659  0.3153869585220335
  0.0602012794692612  0.1185858530132933  0.7126787242923527
  0.3288413681352367  0.2890726370166448  0.0610198799209343
  0.8773524409580276  0.5022193626388187  0.7623676895184843
  0.2872846932903457  0.8846200611434867  0.9745308970754607
  0.7670399753163792  0.8239029939816618  0.9832205941770340
  0.7778849887184833  0.1101672518182468  0.3320397500216643
  0.4406915945836332  0.4466534583026984  0.2678315302270633
  0.4451848054351473  0.9406039464286025  0.4476729862320994
  0.9389028044210832  0.9938324557621740  0.4344294813409064
  0.5436538041333350  0.3043098915045093  0.4527377113776652
  0.3518782379558232  0.7792231337390305  0.4700788970502501
  0.6817101161012360  0.1359026891372537  0.5982470622291416
  0.3727892748046528  0.5967291864762387  0.4011727211968008
  0.1466847123616546  0.8327027012132859  0.4587231534037386
  0.5638125504957614  0.1545367378272857  0.3278619634143780
 
  0.00000000E+00  0.00000000E+00  0.00000000E+00
  0.00000000E+00  0.00000000E+00  0.00000000E+00
  0.00000000E+00  0.00000000E+00  0.00000000E+00
  0.00000000E+00  0.00000000E+00  0.00000000E+00
  0.00000000E+00  0.00000000E+00  0.00000000E+00
  0.00000000E+00  0.00000000E+00  0.00000000E+00
  0.00000000E+00  0.00000000E+00  0.00000000E+00
  0.00000000E+00  0.00000000E+00  0.00000000E+00
  0.00000000E+00  0.00000000E+00  0.00000000E+00
  0.00000000E+00  0.00000000E+00  0.00000000E+00
  0.00000000E+00  0.00000000E+00  0.00000000E+00
  0.00000000E+00  0.00000000E+00  0.00000000E+00
  0.00000000E+00  0.00000000E+00  0.00000000E+00
  0.00000000E+00  0.00000000E+00  0.00000000E+00
  0.00000000E+00  0.00000000E+00  0.00000000E+00
  0.00000000E+00  0.00000000E+00  0.00000000E+00
