Mg10 Tl6 Br38                           
   1.0000000000000000     
    -9.9445084894429705    9.9444605000114592    5.9771646911016827
     9.9445084894429705   -9.9444605000114592    5.9771646911016827
     9.9444605000114592    9.9445084894429705   -5.9771646911016827
   Mg   Tl   Br
    10     6    38
Direct
  0.7954152484982373  0.1564180000522200  0.9518332485504146
  0.2045847515017627  0.8435819999477800  0.0481667514495854
  0.1564180000522200  0.2045847515017627  0.3610027515539969
  0.8435819999477800  0.7954152484982373  0.6389972484459960
  0.6254669617783577  0.0944648272347166  0.7199317890130885
  0.3745330382216565  0.9055351727652834  0.2800682109869115
  0.0944648272347166  0.3745330382216565  0.4689978654563731
  0.9055351727652834  0.6254669617783577  0.5310021345436269
  0.7500000000000000  0.2500000000000000  0.5000000000000000
  0.2500000000000000  0.7500000000000000  0.5000000000000000
  0.8907907419176482  0.3003146721188017  0.1911044140364524
  0.1092092580823447  0.6996853278811983  0.8088955859635476
  0.3003146721188017  0.1092092580823447  0.4095239302011606
  0.6996853278811983  0.8907907419176482  0.5904760697988536
  0.7504885619425181  0.7504885619425181  0.0000000000000000
  0.2495114380574890  0.2495114380574890  0.0000000000000000
  0.7047193676073320  0.0392684196185442  0.0687238000000221
  0.2952806323926680  0.9607315803814558  0.9312761999999708
  0.9705436196185460  0.6359955676073028  0.9312761999999708
  0.0392684196185442  0.9705436196185460  0.3345490520112264
  0.0294563803814540  0.3640044323926972  0.0687238000000221
  0.9607315803814558  0.0294563803814540  0.6654509479887736
  0.6359955676073028  0.7047193676073320  0.6654509479887736
  0.3640044323926972  0.2952806323926680  0.3345490520112264
  0.6075313256442598  0.7931717397254161  0.9382157264606619
  0.3924686743557402  0.2068282602745910  0.0617842735393452
  0.8549560132647755  0.6693155991835837  0.0617842735393452
  0.7931717397254161  0.8549560132647755  0.1856404140811847
  0.1450439867352173  0.3306844008164092  0.9382157264606619
  0.2068282602745910  0.1450439867352173  0.8143595859188153
  0.6693155991835837  0.6075313256442598  0.8143595859188153
  0.3306844008164092  0.3924686743557402  0.1856404140811847
  0.7460615871100771  0.0398448903362763  0.7859064774463747
  0.2539384128899158  0.9601551096637309  0.2140935225536325
  0.0398448903362763  0.2539384128899158  0.2937833032262063
  0.9601551096637309  0.7460615871100771  0.7062166967738008
  0.0000000000000000  0.0000000000000000  0.0000000000000000
  0.9568868712969660  0.4208216535273337  0.3777085248243068
  0.0431131287030269  0.5791783464726663  0.6222914751756932
  0.4208216535273337  0.0431131287030269  0.4639337822303702
  0.5791783464726663  0.9568868712969660  0.5360662177696298
  0.6206867965749296  0.0764828137030946  0.3284439066350515
  0.3793132034250846  0.9235171862969054  0.6715560933649485
  0.7480389070680147  0.2922428899398568  0.6715560933649485
  0.0764828137030946  0.7480389070680147  0.4557970171282122
  0.2519610929319853  0.7077571100601432  0.3284439066350515
  0.9235171862969054  0.2519610929319853  0.5442029828717807
  0.2922428899398568  0.6206867965749154  0.5442029828717807
  0.7077571100601432  0.3793132034250846  0.4557970171282122
  0.6836796281778135  0.2140694166859518  0.8977490448637653
  0.3163203718221865  0.7859305833140553  0.1022509551362347
  0.2140694166859518  0.3163203718221865  0.5303897885081099
  0.7859305833140553  0.6836796281778135  0.4696102114918901
  0.5000000000000000  0.5000000000000000  0.0000000000000000

  0.00000000E+00  0.00000000E+00  0.00000000E+00
  0.00000000E+00  0.00000000E+00  0.00000000E+00
  0.00000000E+00  0.00000000E+00  0.00000000E+00
  0.00000000E+00  0.00000000E+00  0.00000000E+00
  0.00000000E+00  0.00000000E+00  0.00000000E+00
  0.00000000E+00  0.00000000E+00  0.00000000E+00
  0.00000000E+00  0.00000000E+00  0.00000000E+00
  0.00000000E+00  0.00000000E+00  0.00000000E+00
  0.00000000E+00  0.00000000E+00  0.00000000E+00
  0.00000000E+00  0.00000000E+00  0.00000000E+00
  0.00000000E+00  0.00000000E+00  0.00000000E+00
  0.00000000E+00  0.00000000E+00  0.00000000E+00
  0.00000000E+00  0.00000000E+00  0.00000000E+00
  0.00000000E+00  0.00000000E+00  0.00000000E+00
  0.00000000E+00  0.00000000E+00  0.00000000E+00
  0.00000000E+00  0.00000000E+00  0.00000000E+00
  0.00000000E+00  0.00000000E+00  0.00000000E+00
  0.00000000E+00  0.00000000E+00  0.00000000E+00
  0.00000000E+00  0.00000000E+00  0.00000000E+00
  0.00000000E+00  0.00000000E+00  0.00000000E+00
  0.00000000E+00  0.00000000E+00  0.00000000E+00
  0.00000000E+00  0.00000000E+00  0.00000000E+00
  0.00000000E+00  0.00000000E+00  0.00000000E+00
  0.00000000E+00  0.00000000E+00  0.00000000E+00
  0.00000000E+00  0.00000000E+00  0.00000000E+00
  0.00000000E+00  0.00000000E+00  0.00000000E+00
  0.00000000E+00  0.00000000E+00  0.00000000E+00
  0.00000000E+00  0.00000000E+00  0.00000000E+00
  0.00000000E+00  0.00000000E+00  0.00000000E+00
  0.00000000E+00  0.00000000E+00  0.00000000E+00
  0.00000000E+00  0.00000000E+00  0.00000000E+00
  0.00000000E+00  0.00000000E+00  0.00000000E+00
  0.00000000E+00  0.00000000E+00  0.00000000E+00
  0.00000000E+00  0.00000000E+00  0.00000000E+00
  0.00000000E+00  0.00000000E+00  0.00000000E+00
  0.00000000E+00  0.00000000E+00  0.00000000E+00
  0.00000000E+00  0.00000000E+00  0.00000000E+00
  0.00000000E+00  0.00000000E+00  0.00000000E+00
  0.00000000E+00  0.00000000E+00  0.00000000E+00
  0.00000000E+00  0.00000000E+00  0.00000000E+00
  0.00000000E+00  0.00000000E+00  0.00000000E+00
  0.00000000E+00  0.00000000E+00  0.00000000E+00
  0.00000000E+00  0.00000000E+00  0.00000000E+00
  0.00000000E+00  0.00000000E+00  0.00000000E+00
  0.00000000E+00  0.00000000E+00  0.00000000E+00
  0.00000000E+00  0.00000000E+00  0.00000000E+00
  0.00000000E+00  0.00000000E+00  0.00000000E+00
  0.00000000E+00  0.00000000E+00  0.00000000E+00
  0.00000000E+00  0.00000000E+00  0.00000000E+00
  0.00000000E+00  0.00000000E+00  0.00000000E+00
  0.00000000E+00  0.00000000E+00  0.00000000E+00
  0.00000000E+00  0.00000000E+00  0.00000000E+00
  0.00000000E+00  0.00000000E+00  0.00000000E+00
  0.00000000E+00  0.00000000E+00  0.00000000E+00
