Ba8 Tl6                                 
   1.0000000000000000     
     7.9729788658281864    9.1090770873265807    0.0000000000000000
    -2.5061376427001916   10.2584375920775965    0.0000000000000000
     0.0000000000000000    0.0000000000000000    6.0431440623617414
   Ba   Tl
     8     6
Direct
  0.2686346306976617  0.4407123440673146  0.0000000000000000
  0.7608154847844375  0.4495663799583767  0.0000000000000000
  0.5183746600807098  0.9378170935444530  0.0000000000000000
  0.0200651164705690  0.9291390347841357  0.0000000000000000
  0.2552463699983178  0.9401474446600631  0.5000000000000000
  0.5038328644984844  0.4516912078389836  0.5000000000000000
  0.0055150706362568  0.4430731312950158  0.5000000000000000
  0.7630715039036673  0.9312913214653591  0.5000000000000000
  0.1522232639494803  0.1914472064804613  0.0000000000000000
  0.3905603928740504  0.6906105069581230  0.0000000000000000
  0.8908450805251036  0.6894893002425491  0.0000000000000000
  0.3716558177140143  0.1893973579615533  0.5000000000000000
  0.6330375756818114  0.6913493133383639  0.5000000000000000
  0.1333221681854440  0.6902683574052517  0.5000000000000000

  0.00000000E+00  0.00000000E+00  0.00000000E+00
  0.00000000E+00  0.00000000E+00  0.00000000E+00
  0.00000000E+00  0.00000000E+00  0.00000000E+00
  0.00000000E+00  0.00000000E+00  0.00000000E+00
  0.00000000E+00  0.00000000E+00  0.00000000E+00
  0.00000000E+00  0.00000000E+00  0.00000000E+00
  0.00000000E+00  0.00000000E+00  0.00000000E+00
  0.00000000E+00  0.00000000E+00  0.00000000E+00
  0.00000000E+00  0.00000000E+00  0.00000000E+00
  0.00000000E+00  0.00000000E+00  0.00000000E+00
  0.00000000E+00  0.00000000E+00  0.00000000E+00
  0.00000000E+00  0.00000000E+00  0.00000000E+00
  0.00000000E+00  0.00000000E+00  0.00000000E+00
  0.00000000E+00  0.00000000E+00  0.00000000E+00
