Ca4 Ga4 F20                             
   1.0000000000000000     
     4.7196464292908882   -0.0000000000000000    0.0000000000000003
    -0.0000000000000003    5.3116805023589642    0.0000000000000003
     0.0000000000000000   -0.0000000000000000   13.6241148262766849
   Ca   Ga   F 
     4     4    20
Direct
  0.7455726097743707  0.3724073135383961  0.3334701986712503
  0.2455726097743707  0.1275926864616039  0.6665298013287497
  0.2544273902256222  0.8724073135383961  0.1665298013287497
  0.7544273902256222  0.6275926864616039  0.8334701986712503
  0.1741340775146512  0.8491797723331231  0.4066327841029391
  0.6741340775146512  0.6508202276668769  0.5933672158970538
  0.8258659224853488  0.3491797723331231  0.0933672158970538
  0.3258659224853488  0.1508202276668769  0.9066327841029391
  0.8798771217918357  0.6324524169134591  0.4722925769412996
  0.3798771217918286  0.8675475830865409  0.5277074230587004
  0.1201228782081643  0.1324524169134591  0.0277074230587004
  0.6201228782081643  0.3675475830865409  0.9722925769412996
  0.9441074780045682  0.7840350372024787  0.2919620571739614
  0.4441074780045682  0.7159649627975213  0.7080379428260386
  0.0558925219954318  0.2840350372024787  0.2080379428260386
  0.5558925219954318  0.2159649627975213  0.7919620571739614
  0.0276135657196050  0.6307275425525134  0.0588540152941945
  0.5276135657196050  0.8692724574474866  0.9411459847058055
  0.9723864342803950  0.1307275425525134  0.4411459847058055
  0.4723864342803950  0.3692724574474866  0.5588540152941945
  0.5651991735449968  0.5244333662005616  0.1751404698534813
  0.0651991735449968  0.9755666337994384  0.8248595301465187
  0.4348008264550032  0.0244333662005616  0.3248595301465187
  0.9348008264550032  0.4755666337994384  0.6751404698534813
  0.1610468998203700  0.4574593824820781  0.8735086110790604
  0.6610468998203700  0.0425406175179219  0.1264913889209396
  0.8389531001796300  0.9574593824820781  0.6264913889209396
  0.3389531001796300  0.5425406175179219  0.3735086110790604

  0.00000000E+00  0.00000000E+00  0.00000000E+00
  0.00000000E+00  0.00000000E+00  0.00000000E+00
  0.00000000E+00  0.00000000E+00  0.00000000E+00
  0.00000000E+00  0.00000000E+00  0.00000000E+00
  0.00000000E+00  0.00000000E+00  0.00000000E+00
  0.00000000E+00  0.00000000E+00  0.00000000E+00
  0.00000000E+00  0.00000000E+00  0.00000000E+00
  0.00000000E+00  0.00000000E+00  0.00000000E+00
  0.00000000E+00  0.00000000E+00  0.00000000E+00
  0.00000000E+00  0.00000000E+00  0.00000000E+00
  0.00000000E+00  0.00000000E+00  0.00000000E+00
  0.00000000E+00  0.00000000E+00  0.00000000E+00
  0.00000000E+00  0.00000000E+00  0.00000000E+00
  0.00000000E+00  0.00000000E+00  0.00000000E+00
  0.00000000E+00  0.00000000E+00  0.00000000E+00
  0.00000000E+00  0.00000000E+00  0.00000000E+00
  0.00000000E+00  0.00000000E+00  0.00000000E+00
  0.00000000E+00  0.00000000E+00  0.00000000E+00
  0.00000000E+00  0.00000000E+00  0.00000000E+00
  0.00000000E+00  0.00000000E+00  0.00000000E+00
  0.00000000E+00  0.00000000E+00  0.00000000E+00
  0.00000000E+00  0.00000000E+00  0.00000000E+00
  0.00000000E+00  0.00000000E+00  0.00000000E+00
  0.00000000E+00  0.00000000E+00  0.00000000E+00
  0.00000000E+00  0.00000000E+00  0.00000000E+00
  0.00000000E+00  0.00000000E+00  0.00000000E+00
  0.00000000E+00  0.00000000E+00  0.00000000E+00
  0.00000000E+00  0.00000000E+00  0.00000000E+00
