Be2 B2 Br6                              
   1.00000000000000     
     8.4702027627025522    0.1431940695171698    0.0000000000000000
    -4.0900768736393465    7.8040319447450965    0.0000000000000000
     0.0000000000000000    0.0000000000000000    6.5445027654744630
   Br   Be   B 
     6     2     2
Direct
  0.2988010762605313  0.5650045388969431  0.2500000000000000
  0.1987367135844522  0.0287600799334840  0.2500000000000000
  0.8062481331718416  0.9836966175517574  0.2500000000000000
  0.1937518668281584  0.0163033824482426  0.7500000000000000
  0.8012632864155478  0.9712399200665160  0.7500000000000000
  0.7011989237394687  0.4349954611030569  0.7500000000000000
  0.0000000000000000  0.0000000000000000  0.0000000000000000
  0.0000000000000000  0.0000000000000000  0.5000000000000000
  0.0606177063670899  0.5279816481107105  0.2500000000000000
  0.9393822936329030  0.4720183518892824  0.7500000000000000
 
  0.00000000E+00  0.00000000E+00  0.00000000E+00
  0.00000000E+00  0.00000000E+00  0.00000000E+00
  0.00000000E+00  0.00000000E+00  0.00000000E+00
  0.00000000E+00  0.00000000E+00  0.00000000E+00
  0.00000000E+00  0.00000000E+00  0.00000000E+00
  0.00000000E+00  0.00000000E+00  0.00000000E+00
  0.00000000E+00  0.00000000E+00  0.00000000E+00
  0.00000000E+00  0.00000000E+00  0.00000000E+00
  0.00000000E+00  0.00000000E+00  0.00000000E+00
  0.00000000E+00  0.00000000E+00  0.00000000E+00
