SrAl3                                   
   1.00000000000000     
     6.9654006095245373   -0.0023800094583835    0.0000000000000000
    -3.4852611335598089    6.0304571700711911    0.0000000000000000
     0.0000000000000000    0.0000000000000000    4.5648342218880682
   Al   Sr
     6     2
Direct
  0.1347590133810002  0.2692704846727523  0.2500000000000000
  0.1345472378062169  0.8654199430905649  0.2500000000000000
  0.7307268158029174  0.8652416310736015  0.2500000000000000
  0.2692731841970826  0.1347583689263985  0.7500000000000000
  0.8654527621937831  0.1345800569094351  0.7500000000000000
  0.8652409866189998  0.7307295153272477  0.7500000000000000
  0.6668680450103466  0.3331398291230272  0.2500000000000000
  0.3331319549896534  0.6668601708769728  0.7500000000000000
 
  0.00000000E+00  0.00000000E+00  0.00000000E+00
  0.00000000E+00  0.00000000E+00  0.00000000E+00
  0.00000000E+00  0.00000000E+00  0.00000000E+00
  0.00000000E+00  0.00000000E+00  0.00000000E+00
  0.00000000E+00  0.00000000E+00  0.00000000E+00
  0.00000000E+00  0.00000000E+00  0.00000000E+00
  0.00000000E+00  0.00000000E+00  0.00000000E+00
  0.00000000E+00  0.00000000E+00  0.00000000E+00
