Sr2 Ga2 Br10                            
   1.0000000000000000     
     5.3839500015827504   -0.0000000000000001    0.0000000000000003
    -0.0000000000000011   11.6792370177712144    0.0000000000000007
     0.0000000000000002    0.0000000000000003    9.7205044747115803
   Sr   Ga   Br
     2     2    10
Direct
  0.0000000000000000  0.0000000000000000  0.5000000000000000
  0.5000000000000000  0.5000000000000000  0.0000000000000000
  0.5000000000000000  0.0000000000000000  0.0000000000000000
  0.0000000000000000  0.5000000000000000  0.5000000000000000
  0.5000000000000000  0.7205456318638070  0.5000000000000000
  0.5000000000000000  0.2794543681361930  0.5000000000000000
  0.5000000000000000  0.0000000000000000  0.3168885161940409
  0.5000000000000000  0.0000000000000000  0.6831114838059591
  0.0000000000000000  0.0000000000000000  0.0000000000000000
  0.0000000000000000  0.2205456318638070  0.0000000000000000
  0.0000000000000000  0.7794543681361930  0.0000000000000000
  0.0000000000000000  0.5000000000000000  0.8168885161940409
  0.0000000000000000  0.5000000000000000  0.1831114838059591
  0.5000000000000000  0.5000000000000000  0.5000000000000000

  0.00000000E+00  0.00000000E+00  0.00000000E+00
  0.00000000E+00  0.00000000E+00  0.00000000E+00
  0.00000000E+00  0.00000000E+00  0.00000000E+00
  0.00000000E+00  0.00000000E+00  0.00000000E+00
  0.00000000E+00  0.00000000E+00  0.00000000E+00
  0.00000000E+00  0.00000000E+00  0.00000000E+00
  0.00000000E+00  0.00000000E+00  0.00000000E+00
  0.00000000E+00  0.00000000E+00  0.00000000E+00
  0.00000000E+00  0.00000000E+00  0.00000000E+00
  0.00000000E+00  0.00000000E+00  0.00000000E+00
  0.00000000E+00  0.00000000E+00  0.00000000E+00
  0.00000000E+00  0.00000000E+00  0.00000000E+00
  0.00000000E+00  0.00000000E+00  0.00000000E+00
  0.00000000E+00  0.00000000E+00  0.00000000E+00
