Mg4 B8 Br16                             
   1.00000000000000     
    10.1900527461696537   -0.0078199920718449    0.0035644105320823
    -0.0027911891228794    7.5218610189655406   -2.0437307761757268
     0.0063794089506559   -3.4714310186513240   14.9281517099874161
   Mg   Br   B 
     4    16     8
Direct
  0.0026785375138303  0.3167872128247566  0.0648410019398469
  0.5025288058449959  0.1827249469464860  0.4349694379172817
  0.4974799776059271  0.8186814857093339  0.5646468175330028
  0.9972992503871509  0.6817413845205920  0.9354654082541813
  0.1536590765463615  0.6381316723706689  0.0614529462961926
  0.3499014294884333  0.2003897724069006  0.0852106303609190
  0.8017904925714419  0.1282813160733056  0.1097753035567521
  0.9610877610468620  0.6239970369806755  0.2388822825378227
  0.4606080362187441  0.8755264963344018  0.2608975492104690
  0.3017842766969636  0.3714394526807325  0.3904971705030960
  0.8497067485785976  0.2996118622202104  0.4144822756205713
  0.6534200773179180  0.8618484234869683  0.4380800301131629
  0.3462552163693005  0.1387477981237737  0.5611888266925575
  0.1505143945940830  0.7007742997123643  0.5857740040632038
  0.6983546486425070  0.6303497686891362  0.6091816828990346
  0.5398126887331074  0.1265854783751408  0.7383682456200731
  0.0393187372173003  0.3738439928689488  0.7617706749499646
  0.1983770756338075  0.8699167461414845  0.8904827021585291
  0.6502893559563034  0.7991510348874158  0.9145083007669470
  0.8459645954132498  0.3612543047329098  0.9392684464066150
  0.1846410015113733  0.1244170186768159  0.0170338815874160
  0.5714765620658326  0.6649457132994172  0.2803873339041800
  0.0720593085924151  0.8346994196451760  0.2192634293864657
  0.6844322080432548  0.3755785037225152  0.4827368312450062
  0.3156318056602672  0.6257352556444573  0.5172503183073331
  0.9274600572119525  0.1640167941556996  0.7815239969018535
  0.4280696337336778  0.3363268804217441  0.7187587295473463
  0.8153982408043632  0.8740959283479270  0.9829017417201911
 
  0.00000000E+00  0.00000000E+00  0.00000000E+00
  0.00000000E+00  0.00000000E+00  0.00000000E+00
  0.00000000E+00  0.00000000E+00  0.00000000E+00
  0.00000000E+00  0.00000000E+00  0.00000000E+00
  0.00000000E+00  0.00000000E+00  0.00000000E+00
  0.00000000E+00  0.00000000E+00  0.00000000E+00
  0.00000000E+00  0.00000000E+00  0.00000000E+00
  0.00000000E+00  0.00000000E+00  0.00000000E+00
  0.00000000E+00  0.00000000E+00  0.00000000E+00
  0.00000000E+00  0.00000000E+00  0.00000000E+00
  0.00000000E+00  0.00000000E+00  0.00000000E+00
  0.00000000E+00  0.00000000E+00  0.00000000E+00
  0.00000000E+00  0.00000000E+00  0.00000000E+00
  0.00000000E+00  0.00000000E+00  0.00000000E+00
  0.00000000E+00  0.00000000E+00  0.00000000E+00
  0.00000000E+00  0.00000000E+00  0.00000000E+00
  0.00000000E+00  0.00000000E+00  0.00000000E+00
  0.00000000E+00  0.00000000E+00  0.00000000E+00
  0.00000000E+00  0.00000000E+00  0.00000000E+00
  0.00000000E+00  0.00000000E+00  0.00000000E+00
  0.00000000E+00  0.00000000E+00  0.00000000E+00
  0.00000000E+00  0.00000000E+00  0.00000000E+00
  0.00000000E+00  0.00000000E+00  0.00000000E+00
  0.00000000E+00  0.00000000E+00  0.00000000E+00
  0.00000000E+00  0.00000000E+00  0.00000000E+00
  0.00000000E+00  0.00000000E+00  0.00000000E+00
  0.00000000E+00  0.00000000E+00  0.00000000E+00
  0.00000000E+00  0.00000000E+00  0.00000000E+00
