TlBr                                    
   1.0000000000000000     
     0.0000000000000000    3.3876174302037629    3.3876174302037629
     3.3876174302037629    0.0000000000000000    3.3876174302037629
     3.3876174302037629    3.3876174302037629    0.0000000000000000
   Br   Tl
     1     1
Direct
  0.0000000000000000  0.0000000000000000  0.0000000000000000
  0.5000000000000000  0.5000000000000000  0.5000000000000000

  0.00000000E+00  0.00000000E+00  0.00000000E+00
  0.00000000E+00  0.00000000E+00  0.00000000E+00
