Mg4 Tl4 I20                             
   1.0000000000000000     
    11.9614747873378402    0.0000000000000000    0.0000000000000000
     0.0000000000000000    8.6829776912031349   -1.4175171271306544
     0.0000000000000000    1.5853979376258698   13.5297534553565999
   Mg   Tl   I 
     4     4    20
Direct
  0.9153424893608815  0.4376550231028844  0.2966073401982499
  0.4153424893608815  0.5623449768971156  0.2033926598017501
  0.0846575106391185  0.5623449768971156  0.7033926598017501
  0.5846575106391185  0.4376550231028844  0.7966073401982499
  0.7993938192553429  0.1408981636140467  0.6104552873060172
  0.2993938192553429  0.8591018363859533  0.8895447126939828
  0.2006061807446642  0.8591018363859533  0.3895447126939828
  0.7006061807446571  0.1408981636140467  0.1104552873060172
  0.5136249257083279  0.8472760543381526  0.4295831347066112
  0.0136249257083279  0.1527239456618474  0.0704168652933888
  0.4863750742916721  0.1527239456618474  0.5704168652933888
  0.9863750742916721  0.8472760543381526  0.9295831347066112
  0.8001110418369421  0.1927171234582801  0.3558094410316315
  0.3001110418369421  0.8072828765417199  0.1441905589683685
  0.1998889581630579  0.8072828765417199  0.6441905589683685
  0.6998889581630579  0.1927171234582801  0.8558094410316315
  0.7047066975038661  0.5122470331148961  0.6262008116772861
  0.2047066975038661  0.4877529668851111  0.8737991883227139
  0.2952933024961339  0.4877529668851111  0.3737991883227139
  0.7952933024961339  0.5122470331148961  0.1262008116772861
  0.3681276365997874  0.3198450904287213  0.7247461188767019
  0.8681276365997874  0.6801549095712787  0.7752538811232981
  0.6318723634002126  0.6801549095712787  0.2752538811232981
  0.1318723634002126  0.3198450904287213  0.2247461188767019
  0.4484079216833479  0.3039652971780740  0.0942496182925296
  0.9484079216833479  0.6960347028219260  0.4057503817074704
  0.5515920783166521  0.6960347028219260  0.9057503817074704
  0.0515920783166521  0.3039652971780740  0.5942496182925296

  0.00000000E+00  0.00000000E+00  0.00000000E+00
  0.00000000E+00  0.00000000E+00  0.00000000E+00
  0.00000000E+00  0.00000000E+00  0.00000000E+00
  0.00000000E+00  0.00000000E+00  0.00000000E+00
  0.00000000E+00  0.00000000E+00  0.00000000E+00
  0.00000000E+00  0.00000000E+00  0.00000000E+00
  0.00000000E+00  0.00000000E+00  0.00000000E+00
  0.00000000E+00  0.00000000E+00  0.00000000E+00
  0.00000000E+00  0.00000000E+00  0.00000000E+00
  0.00000000E+00  0.00000000E+00  0.00000000E+00
  0.00000000E+00  0.00000000E+00  0.00000000E+00
  0.00000000E+00  0.00000000E+00  0.00000000E+00
  0.00000000E+00  0.00000000E+00  0.00000000E+00
  0.00000000E+00  0.00000000E+00  0.00000000E+00
  0.00000000E+00  0.00000000E+00  0.00000000E+00
  0.00000000E+00  0.00000000E+00  0.00000000E+00
  0.00000000E+00  0.00000000E+00  0.00000000E+00
  0.00000000E+00  0.00000000E+00  0.00000000E+00
  0.00000000E+00  0.00000000E+00  0.00000000E+00
  0.00000000E+00  0.00000000E+00  0.00000000E+00
  0.00000000E+00  0.00000000E+00  0.00000000E+00
  0.00000000E+00  0.00000000E+00  0.00000000E+00
  0.00000000E+00  0.00000000E+00  0.00000000E+00
  0.00000000E+00  0.00000000E+00  0.00000000E+00
  0.00000000E+00  0.00000000E+00  0.00000000E+00
  0.00000000E+00  0.00000000E+00  0.00000000E+00
  0.00000000E+00  0.00000000E+00  0.00000000E+00
  0.00000000E+00  0.00000000E+00  0.00000000E+00
