Mg6 Tl33                                
   1.0000000000000000     
    10.7194282780282801   -0.0000000000000000    0.0000000000000000
     0.0000000000000000   10.7194282780282801    0.0000000000000000
    -0.0000000000000000    0.0000000000000000   10.7194282780282801
   Mg   Tl
     6    33
Direct
  0.1926114652720372  0.5000000000000000  0.0000000000000000
  0.8073885347279628  0.5000000000000000  0.0000000000000000
  0.5000000000000000  0.0000000000000000  0.1926114652720372
  0.0000000000000000  0.1926114652720372  0.5000000000000000
  0.0000000000000000  0.8073885347279628  0.5000000000000000
  0.5000000000000000  0.0000000000000000  0.8073885347279628
  0.0000000000000000  0.0000000000000000  0.0000000000000000
  0.2865671537530758  0.1480261499066984  0.0000000000000000
  0.7134328462469242  0.1480261499066984  0.0000000000000000
  0.5000000000000000  0.3485749413719006  0.0000000000000000
  0.5000000000000000  0.6514250586280994  0.0000000000000000
  0.2865671537530758  0.8519738500933016  0.0000000000000000
  0.7134328462469242  0.8519738500933016  0.0000000000000000
  0.0000000000000000  0.2865671537530758  0.1480261499066984
  0.0000000000000000  0.7134328462469242  0.1480261499066984
  0.5000000000000000  0.5000000000000000  0.2680266986439719
  0.1480261499066984  0.0000000000000000  0.2865671537530758
  0.8519738500933016  0.0000000000000000  0.2865671537530758
  0.2800948964678298  0.2800948964678298  0.2800948964678298
  0.7199051035321702  0.2800948964678298  0.2800948964678298
  0.2800948964678298  0.7199051035321702  0.2800948964678298
  0.7199051035321702  0.7199051035321702  0.2800948964678298
  0.0000000000000000  0.5000000000000000  0.3485749413719006
  0.3485749413719006  0.0000000000000000  0.5000000000000000
  0.6514250586280994  0.0000000000000000  0.5000000000000000
  0.5000000000000000  0.2680266986439719  0.5000000000000000
  0.2680266986439719  0.5000000000000000  0.5000000000000000
  0.7319733013560281  0.5000000000000000  0.5000000000000000
  0.5000000000000000  0.7319733013560281  0.5000000000000000
  0.0000000000000000  0.5000000000000000  0.6514250586280994
  0.2800948964678298  0.2800948964678298  0.7199051035321702
  0.7199051035321702  0.2800948964678298  0.7199051035321702
  0.2800948964678298  0.7199051035321702  0.7199051035321702
  0.7199051035321702  0.7199051035321702  0.7199051035321702
  0.1480261499066984  0.0000000000000000  0.7134328462469242
  0.8519738500933016  0.0000000000000000  0.7134328462469242
  0.5000000000000000  0.5000000000000000  0.7319733013560281
  0.0000000000000000  0.2865671537530758  0.8519738500933016
  0.0000000000000000  0.7134328462469242  0.8519738500933016

  0.00000000E+00  0.00000000E+00  0.00000000E+00
  0.00000000E+00  0.00000000E+00  0.00000000E+00
  0.00000000E+00  0.00000000E+00  0.00000000E+00
  0.00000000E+00  0.00000000E+00  0.00000000E+00
  0.00000000E+00  0.00000000E+00  0.00000000E+00
  0.00000000E+00  0.00000000E+00  0.00000000E+00
  0.00000000E+00  0.00000000E+00  0.00000000E+00
  0.00000000E+00  0.00000000E+00  0.00000000E+00
  0.00000000E+00  0.00000000E+00  0.00000000E+00
  0.00000000E+00  0.00000000E+00  0.00000000E+00
  0.00000000E+00  0.00000000E+00  0.00000000E+00
  0.00000000E+00  0.00000000E+00  0.00000000E+00
  0.00000000E+00  0.00000000E+00  0.00000000E+00
  0.00000000E+00  0.00000000E+00  0.00000000E+00
  0.00000000E+00  0.00000000E+00  0.00000000E+00
  0.00000000E+00  0.00000000E+00  0.00000000E+00
  0.00000000E+00  0.00000000E+00  0.00000000E+00
  0.00000000E+00  0.00000000E+00  0.00000000E+00
  0.00000000E+00  0.00000000E+00  0.00000000E+00
  0.00000000E+00  0.00000000E+00  0.00000000E+00
  0.00000000E+00  0.00000000E+00  0.00000000E+00
  0.00000000E+00  0.00000000E+00  0.00000000E+00
  0.00000000E+00  0.00000000E+00  0.00000000E+00
  0.00000000E+00  0.00000000E+00  0.00000000E+00
  0.00000000E+00  0.00000000E+00  0.00000000E+00
  0.00000000E+00  0.00000000E+00  0.00000000E+00
  0.00000000E+00  0.00000000E+00  0.00000000E+00
  0.00000000E+00  0.00000000E+00  0.00000000E+00
  0.00000000E+00  0.00000000E+00  0.00000000E+00
  0.00000000E+00  0.00000000E+00  0.00000000E+00
  0.00000000E+00  0.00000000E+00  0.00000000E+00
  0.00000000E+00  0.00000000E+00  0.00000000E+00
  0.00000000E+00  0.00000000E+00  0.00000000E+00
  0.00000000E+00  0.00000000E+00  0.00000000E+00
  0.00000000E+00  0.00000000E+00  0.00000000E+00
  0.00000000E+00  0.00000000E+00  0.00000000E+00
  0.00000000E+00  0.00000000E+00  0.00000000E+00
  0.00000000E+00  0.00000000E+00  0.00000000E+00
  0.00000000E+00  0.00000000E+00  0.00000000E+00
