Ba4 Ga2 Cl10                            
   1.00000000000000     
     8.9802011746769530   -0.0710264881375779    0.2104127864068106
    -0.0710264881375779    8.9802011746769548    0.2104127864068107
     4.6477733478866403    4.6477733478866403    6.4006305391115825
   Cl   Ba   Ga
    10     4     2
Direct
  0.5083498482084039  0.0055316300611779  0.9903409271847181
  0.0055316300611779  0.5083498482084039  0.9903409271847181
  0.6805228964031329  0.9656897388239400  0.2843234943470350
  0.2123824059491994  0.2123824059491994  0.3181375170473331
  0.5391391985520997  0.5391391985520997  0.2456061032973054
  0.9656897388239400  0.6805228964031329  0.2843234943470350
  0.0358028748513917  0.3159073189024113  0.7217438217364460
  0.4593327597167445  0.4593327597167445  0.7508048414629158
  0.7870677491469280  0.7870677491469280  0.6797010369488419
  0.3159073189024113  0.0358028748513917  0.7217438217364460
  0.0905908339775365  0.0905908339775365  0.1248974769271882
  0.6647896488125795  0.3362311690032058  0.0001414116930434
  0.3362311690032058  0.6647896488125795  0.0001414116930434
  0.9068090302716101  0.9068090302716101  0.8755302011679191
  0.6620739356299694  0.3298789616896727  0.5061117566130093
  0.3298789616896727  0.6620739356299694  0.5061117566130093
 
  0.00000000E+00  0.00000000E+00  0.00000000E+00
  0.00000000E+00  0.00000000E+00  0.00000000E+00
  0.00000000E+00  0.00000000E+00  0.00000000E+00
  0.00000000E+00  0.00000000E+00  0.00000000E+00
  0.00000000E+00  0.00000000E+00  0.00000000E+00
  0.00000000E+00  0.00000000E+00  0.00000000E+00
  0.00000000E+00  0.00000000E+00  0.00000000E+00
  0.00000000E+00  0.00000000E+00  0.00000000E+00
  0.00000000E+00  0.00000000E+00  0.00000000E+00
  0.00000000E+00  0.00000000E+00  0.00000000E+00
  0.00000000E+00  0.00000000E+00  0.00000000E+00
  0.00000000E+00  0.00000000E+00  0.00000000E+00
  0.00000000E+00  0.00000000E+00  0.00000000E+00
  0.00000000E+00  0.00000000E+00  0.00000000E+00
  0.00000000E+00  0.00000000E+00  0.00000000E+00
  0.00000000E+00  0.00000000E+00  0.00000000E+00
