Cl4                                     
   1.00000000000000     
    -0.0000002752595148   -4.3602414935270843    0.0000000000000000
    -3.8030581620944801    2.1801188522442549    0.0000000000000000
     0.0000000000000000    0.0000000000000000   -8.3323200606457117
   Cl
     4
Direct
  0.8873925061872754  0.9999999998323048  0.3940992006161324
  0.1126074938127246  0.0000000001676952  0.6059007993838676
  0.6126074938127246  0.0000000001676952  0.8940992006161324
  0.3873925061872754  0.9999999998323048  0.1059007993838676
 
  0.00000000E+00  0.00000000E+00  0.00000000E+00
  0.00000000E+00  0.00000000E+00  0.00000000E+00
  0.00000000E+00  0.00000000E+00  0.00000000E+00
  0.00000000E+00  0.00000000E+00  0.00000000E+00
