Ba8 Al4 Cl28                            
   1.00000000000000     
    10.3938831078349825   -0.0003259765190810   -0.0000049782007549
    -0.0003045780675139    9.5612400855905850    0.0001359045183693
    -0.0000153786451325    0.0001741931528664   12.4469852299343362
   Al   Ba   Cl
     4     8    28
Direct
  0.3098302203218992  0.2500105425346888  0.0607627178310395
  0.8098569371547200  0.2499973270649463  0.4391824666244943
  0.1901717118761113  0.7500039576522255  0.5607759387750875
  0.6901864922055907  0.7500006678611228  0.9392060650033329
  0.7804450801467340  0.2499877391097911  0.1200458124772368
  0.3864667636977330  0.7499934421847172  0.2492819307288627
  0.8864594903438956  0.7499854640468939  0.2506986503226045
  0.2804467069326790  0.2499794552683170  0.3799383792380766
  0.7196104739580775  0.7499878035693399  0.6200296282786084
  0.1135492338130319  0.2500229143364479  0.7492730473036531
  0.6135729278240092  0.2499947654044519  0.7507005981140864
  0.2195695962914286  0.7500189383177229  0.8799492463896641
  0.4803553000534535  0.7499977245326548  0.0112740823549586
  0.7512910863323228  0.5782635760800545  0.0664944541847134
  0.7512812711091925  0.9217387737657745  0.0665182917160934
  0.1348848756400471  0.7499991440929463  0.1193949530153660
  0.1136549924966275  0.2499374885462728  0.1436743183323301
  0.3819830117068364  0.0752357289530750  0.1832085672270409
  0.3819660391863948  0.4247461476402634  0.1832286077729606
  0.8820311908412322  0.0752265988645817  0.3167446772709042
  0.8820487660537069  0.4247235880320801  0.3167485584125700
  0.6137030761479423  0.2499710545685829  0.3562211494937202
  0.6348748438510370  0.7499814669179727  0.3806025833518163
  0.2512969925403254  0.5782366764394098  0.4334938936737274
  0.2512946935786076  0.9217236243793110  0.4334722580578330
  0.9803567544516909  0.7499881681659062  0.4886970103066801
  0.0196685866029256  0.2499659661639200  0.5112767177310360
  0.7486809173901392  0.0782484843560880  0.5664661734402401
  0.7486938543466266  0.4217036394747709  0.5664538695611370
  0.3651765324682330  0.2499982686945970  0.6193817346342740
  0.3863401273069655  0.7500030226991186  0.6436867910687880
  0.1180007754649495  0.5752571697968278  0.6832373333798998
  0.1180265877499878  0.9247401238106505  0.6832194018723925
  0.6180575940010868  0.5752596006241006  0.8167539307307692
  0.6180363498259567  0.9247528688976985  0.8167436062479609
  0.8863787938149414  0.7500509037857626  0.8563277575380823
  0.8651710606493737  0.2500013554085072  0.8805980334796786
  0.2487273600110598  0.0782795005408232  0.9334365291519120
  0.2486988326915665  0.4217617638350788  0.9334981397096911
  0.5196540991208778  0.2500245535824845  0.9887020951966861
 
  0.00000000E+00  0.00000000E+00  0.00000000E+00
  0.00000000E+00  0.00000000E+00  0.00000000E+00
  0.00000000E+00  0.00000000E+00  0.00000000E+00
  0.00000000E+00  0.00000000E+00  0.00000000E+00
  0.00000000E+00  0.00000000E+00  0.00000000E+00
  0.00000000E+00  0.00000000E+00  0.00000000E+00
  0.00000000E+00  0.00000000E+00  0.00000000E+00
  0.00000000E+00  0.00000000E+00  0.00000000E+00
  0.00000000E+00  0.00000000E+00  0.00000000E+00
  0.00000000E+00  0.00000000E+00  0.00000000E+00
  0.00000000E+00  0.00000000E+00  0.00000000E+00
  0.00000000E+00  0.00000000E+00  0.00000000E+00
  0.00000000E+00  0.00000000E+00  0.00000000E+00
  0.00000000E+00  0.00000000E+00  0.00000000E+00
  0.00000000E+00  0.00000000E+00  0.00000000E+00
  0.00000000E+00  0.00000000E+00  0.00000000E+00
  0.00000000E+00  0.00000000E+00  0.00000000E+00
  0.00000000E+00  0.00000000E+00  0.00000000E+00
  0.00000000E+00  0.00000000E+00  0.00000000E+00
  0.00000000E+00  0.00000000E+00  0.00000000E+00
  0.00000000E+00  0.00000000E+00  0.00000000E+00
  0.00000000E+00  0.00000000E+00  0.00000000E+00
  0.00000000E+00  0.00000000E+00  0.00000000E+00
  0.00000000E+00  0.00000000E+00  0.00000000E+00
  0.00000000E+00  0.00000000E+00  0.00000000E+00
  0.00000000E+00  0.00000000E+00  0.00000000E+00
  0.00000000E+00  0.00000000E+00  0.00000000E+00
  0.00000000E+00  0.00000000E+00  0.00000000E+00
  0.00000000E+00  0.00000000E+00  0.00000000E+00
  0.00000000E+00  0.00000000E+00  0.00000000E+00
  0.00000000E+00  0.00000000E+00  0.00000000E+00
  0.00000000E+00  0.00000000E+00  0.00000000E+00
  0.00000000E+00  0.00000000E+00  0.00000000E+00
  0.00000000E+00  0.00000000E+00  0.00000000E+00
  0.00000000E+00  0.00000000E+00  0.00000000E+00
  0.00000000E+00  0.00000000E+00  0.00000000E+00
  0.00000000E+00  0.00000000E+00  0.00000000E+00
  0.00000000E+00  0.00000000E+00  0.00000000E+00
  0.00000000E+00  0.00000000E+00  0.00000000E+00
  0.00000000E+00  0.00000000E+00  0.00000000E+00
