B2 Br6                                  
   1.00000000000000     
     3.4547207612674975   -5.9837520493561511    0.0000000000000000
     3.4547206955353671    5.9837520873066161    0.0000000000000000
     0.0000000000000000    0.0000000000000000    8.1649344094318792
   B    Br
     2     6
Direct
  0.3333330000000032  0.6666669999999968  0.2500000000000000
  0.6666669999999968  0.3333330000000032  0.7500000000000000
  0.0668170830267698  0.3815731557735944  0.2500000000000000
  0.6852439272532536  0.0668170830263506  0.7500000000000000
  0.3815731557735162  0.3147560727472509  0.7500000000000000
  0.6184268442264838  0.6852439272527491  0.2500000000000000
  0.3147560727467464  0.9331829169736494  0.2500000000000000
  0.9331829169732302  0.6184268442264056  0.7500000000000000
 
  0.00000000E+00  0.00000000E+00  0.00000000E+00
  0.00000000E+00  0.00000000E+00  0.00000000E+00
  0.00000000E+00  0.00000000E+00  0.00000000E+00
  0.00000000E+00  0.00000000E+00  0.00000000E+00
  0.00000000E+00  0.00000000E+00  0.00000000E+00
  0.00000000E+00  0.00000000E+00  0.00000000E+00
  0.00000000E+00  0.00000000E+00  0.00000000E+00
  0.00000000E+00  0.00000000E+00  0.00000000E+00
