Ca5 Al2                                 
   1.00000000000000     
     2.7154664609757502    1.5675172916333311    8.8096149932122856
    -2.7154664609757502    1.5675172916333311    8.8096149932122856
     0.0000000000000000   -3.1372332955491116    8.8100085252210754
   Ca   Al
     5     2
Direct
  0.2187440627411021  0.2187440627411021  0.2187630315859508
  0.3679945561113698  0.3679945561113698  0.3680303421434061
  0.5000017760613105  0.5000017760613105  0.4999993585990126
  0.6319878077406429  0.6319878077406429  0.6319515292391742
  0.7812409558881868  0.7812409558881868  0.7812284138103820
  0.0888109738556935  0.0888109738556935  0.0888095994395925
  0.9111198676016983  0.9111198676016983  0.9111177251824856
 
  0.00000000E+00  0.00000000E+00  0.00000000E+00
  0.00000000E+00  0.00000000E+00  0.00000000E+00
  0.00000000E+00  0.00000000E+00  0.00000000E+00
  0.00000000E+00  0.00000000E+00  0.00000000E+00
  0.00000000E+00  0.00000000E+00  0.00000000E+00
  0.00000000E+00  0.00000000E+00  0.00000000E+00
  0.00000000E+00  0.00000000E+00  0.00000000E+00
