MgTl3F6                                 
   1.0000000000000000     
     6.1484764855715452    0.0014746172272564   -0.0009755808419031
     0.0014746172272564    6.1484764855715452   -0.0009755808419031
     3.0742855245423164    3.0742855245423164    4.3440575757033493
   F    Mg   Tl
     6     1     3
Direct
  0.7713469777338560  0.2286530222661440  0.0000000000000000
  0.2287000622186710  0.2287000622186710  0.9998133943261251
  0.2286530222661440  0.7713469777338560  0.0000000000000000
  0.7712999377813361  0.7712999377813361  0.0001866056738749
  0.7717289019164824  0.7717289019164824  0.4573903911219261
  0.2282710980835176  0.2282710980835176  0.5426096088780739
  0.0000000000000000  0.0000000000000000  0.0000000000000000
  0.5000000000000000  0.5000000000000000  0.0000000000000000
  0.2499625008250419  0.7500374991749581  0.5000000000000000
  0.7500374991749581  0.2499625008250419  0.5000000000000000

  0.00000000E+00  0.00000000E+00  0.00000000E+00
  0.00000000E+00  0.00000000E+00  0.00000000E+00
  0.00000000E+00  0.00000000E+00  0.00000000E+00
  0.00000000E+00  0.00000000E+00  0.00000000E+00
  0.00000000E+00  0.00000000E+00  0.00000000E+00
  0.00000000E+00  0.00000000E+00  0.00000000E+00
  0.00000000E+00  0.00000000E+00  0.00000000E+00
  0.00000000E+00  0.00000000E+00  0.00000000E+00
  0.00000000E+00  0.00000000E+00  0.00000000E+00
  0.00000000E+00  0.00000000E+00  0.00000000E+00
