Be4 In4 F20                             
   1.0000000000000000     
     5.2807328153377755   -0.0000000000000000    0.0000000000000003
    -0.0000000000000003    5.5375999669132518    0.0000000000000003
    -0.0000000000000001   -0.0000000000000000   11.4969438406499442
   Be   In   F 
     4     4    20
Direct
  0.8908193819083863  0.6752673953316233  0.6171694767794733
  0.3908193819083863  0.8247326046683767  0.3828305232205267
  0.1091806180916137  0.1752673953316233  0.8828305232205267
  0.6091806180916137  0.3247326046683767  0.1171694767794733
  0.2620634941162621  0.1606797028500750  0.6109082947084161
  0.7620634941162621  0.3393202971499250  0.3890917052915839
  0.7379365058837379  0.6606797028500750  0.8890917052915839
  0.2379365058837379  0.8393202971499250  0.1109082947084161
  0.8488358340185087  0.6560956665566948  0.4840631888476281
  0.3488358340185016  0.8439043334433052  0.5159368111523790
  0.1511641659814984  0.1560956665566948  0.0159368111523719
  0.6511641659814913  0.3439043334433052  0.9840631888476352
  0.4466658209423073  0.5534366540767621  0.3592519387721040
  0.9466658209423073  0.9465633459232379  0.6407480612278889
  0.5533341790576927  0.0534366540767621  0.1407480612278889
  0.0533341790576927  0.4465633459232379  0.8592519387721040
  0.1172927632730847  0.5037361482384100  0.6460653601943562
  0.6172927632730847  0.9962638517615900  0.3539346398056438
  0.8827072367269153  0.0037361482384100  0.8539346398056438
  0.3827072367269153  0.4962638517615900  0.1460653601943562
  0.3308662190985530  0.1230389619739398  0.7903789691336272
  0.8308662190985530  0.3769610380260531  0.2096210308663657
  0.6691337809014470  0.6230389619739398  0.7096210308663728
  0.1691337809014470  0.8769610380260602  0.2903789691336343
  0.6175371032733565  0.2663765825683697  0.5594022768671465
  0.1175371032733565  0.2336234174316303  0.4405977231328535
  0.3824628967266435  0.7663765825683697  0.9405977231328535
  0.8824628967266435  0.7336234174316303  0.0594022768671465

  0.00000000E+00  0.00000000E+00  0.00000000E+00
  0.00000000E+00  0.00000000E+00  0.00000000E+00
  0.00000000E+00  0.00000000E+00  0.00000000E+00
  0.00000000E+00  0.00000000E+00  0.00000000E+00
  0.00000000E+00  0.00000000E+00  0.00000000E+00
  0.00000000E+00  0.00000000E+00  0.00000000E+00
  0.00000000E+00  0.00000000E+00  0.00000000E+00
  0.00000000E+00  0.00000000E+00  0.00000000E+00
  0.00000000E+00  0.00000000E+00  0.00000000E+00
  0.00000000E+00  0.00000000E+00  0.00000000E+00
  0.00000000E+00  0.00000000E+00  0.00000000E+00
  0.00000000E+00  0.00000000E+00  0.00000000E+00
  0.00000000E+00  0.00000000E+00  0.00000000E+00
  0.00000000E+00  0.00000000E+00  0.00000000E+00
  0.00000000E+00  0.00000000E+00  0.00000000E+00
  0.00000000E+00  0.00000000E+00  0.00000000E+00
  0.00000000E+00  0.00000000E+00  0.00000000E+00
  0.00000000E+00  0.00000000E+00  0.00000000E+00
  0.00000000E+00  0.00000000E+00  0.00000000E+00
  0.00000000E+00  0.00000000E+00  0.00000000E+00
  0.00000000E+00  0.00000000E+00  0.00000000E+00
  0.00000000E+00  0.00000000E+00  0.00000000E+00
  0.00000000E+00  0.00000000E+00  0.00000000E+00
  0.00000000E+00  0.00000000E+00  0.00000000E+00
  0.00000000E+00  0.00000000E+00  0.00000000E+00
  0.00000000E+00  0.00000000E+00  0.00000000E+00
  0.00000000E+00  0.00000000E+00  0.00000000E+00
  0.00000000E+00  0.00000000E+00  0.00000000E+00
