Sr17 Al11 Cl1                           
   1.00000000000000     
     8.5184715030338296   -5.4302885870522175    3.2980742266634975
     0.1855897681691710   11.7910818991067696    4.2774250918059806
    -8.4880814185651570   -5.5704118916477805    2.9630979078682964
   Al   Cl   Sr
    11     1    17
Direct
  0.6146449271583094  0.9294744792117200  0.9996962761973336
  0.3936015780693936  0.3597186805285020  0.2916120464065912
  0.8701047971023712  0.1810350177002675  0.2543619291707984
  0.1903424963961626  0.9006536454798422  0.1729967051543397
  0.1985453993692587  0.3402903273074642  0.4109319406379086
  0.3645761873769473  0.1933286991998742  0.3938495160910378
  0.9706720329727645  0.7994725307874049  0.6058397131854321
  0.7889348960154550  0.9300685189383131  0.5899050643869472
  0.0176825500335482  0.7278550033437057  0.8266413488682929
  0.6167953662675032  0.9277765017397215  0.7461754618828493
  0.1031419852786257  0.0687195854861073  0.7087823375491382
  0.7043586122037553  0.6208573671096715  0.0000613359842845
  0.1030076136304174  0.3134655621550095  0.0004220486547837
  0.3473251322946425  0.0562380531878759  0.9996788262750798
  0.7235324945566148  0.2439638059398348  0.0006483974854063
  0.9850158735287806  0.0108311846687954  0.0009227092803101
  0.2906122917809313  0.6758202780484339  0.9992844114735107
  0.6232421769155394  0.5799309038751090  0.2333653763581438
  0.5944914382792206  0.0359662435875734  0.3498819565055271
  0.0038282972514594  0.6495762750425627  0.2300222926213991
  0.9236421121428293  0.9479254772842793  0.3090676545125604
  0.4010604704934622  0.6756883420815427  0.3778142031206357
  0.7799003991149647  0.4381800622872376  0.4354028208244785
  0.3449101552499059  0.0036997908212442  0.5651861862411138
  0.0217438423980383  0.2955683762008832  0.6220245440977834
  0.6160215534357292  0.6400001276408531  0.6900408267908062
  0.7747973708653078  0.4205379398157163  0.7713995843134640
  0.2448656367900313  0.6851988235154849  0.6491666275234493
  0.3895583130280400  0.3474983970149665  0.7648188584065991
 
  0.00000000E+00  0.00000000E+00  0.00000000E+00
  0.00000000E+00  0.00000000E+00  0.00000000E+00
  0.00000000E+00  0.00000000E+00  0.00000000E+00
  0.00000000E+00  0.00000000E+00  0.00000000E+00
  0.00000000E+00  0.00000000E+00  0.00000000E+00
  0.00000000E+00  0.00000000E+00  0.00000000E+00
  0.00000000E+00  0.00000000E+00  0.00000000E+00
  0.00000000E+00  0.00000000E+00  0.00000000E+00
  0.00000000E+00  0.00000000E+00  0.00000000E+00
  0.00000000E+00  0.00000000E+00  0.00000000E+00
  0.00000000E+00  0.00000000E+00  0.00000000E+00
  0.00000000E+00  0.00000000E+00  0.00000000E+00
  0.00000000E+00  0.00000000E+00  0.00000000E+00
  0.00000000E+00  0.00000000E+00  0.00000000E+00
  0.00000000E+00  0.00000000E+00  0.00000000E+00
  0.00000000E+00  0.00000000E+00  0.00000000E+00
  0.00000000E+00  0.00000000E+00  0.00000000E+00
  0.00000000E+00  0.00000000E+00  0.00000000E+00
  0.00000000E+00  0.00000000E+00  0.00000000E+00
  0.00000000E+00  0.00000000E+00  0.00000000E+00
  0.00000000E+00  0.00000000E+00  0.00000000E+00
  0.00000000E+00  0.00000000E+00  0.00000000E+00
  0.00000000E+00  0.00000000E+00  0.00000000E+00
  0.00000000E+00  0.00000000E+00  0.00000000E+00
  0.00000000E+00  0.00000000E+00  0.00000000E+00
  0.00000000E+00  0.00000000E+00  0.00000000E+00
  0.00000000E+00  0.00000000E+00  0.00000000E+00
  0.00000000E+00  0.00000000E+00  0.00000000E+00
  0.00000000E+00  0.00000000E+00  0.00000000E+00
