Be6 Al33                                
   1.00000000000000     
     8.7579113926128045   -0.0000000000000003    0.0000000000000021
     0.0000000000000001    8.7579113926128027   -0.0000000000000006
     0.0000000000000006   -0.0000000000000007    8.7579113926127974
   Be   Al
     6    33
Direct
  0.1267418131830311  0.5000000000000000  0.0000000000000000
  0.8732581868169760  0.5000000000000000  0.0000000000000000
  0.5000000000000000  0.0000000000000000  0.1267418131830311
  0.0000000000000000  0.1267418131830311  0.5000000000000000
  0.0000000000000000  0.8732581868169689  0.5000000000000000
  0.5000000000000000  0.0000000000000000  0.8732581868169689
  0.0000000000000000  0.0000000000000000  0.0000000000000000
  0.2709482410676856  0.1530974119743007  0.0000000000000000
  0.7290517589323144  0.1530974119743007  0.0000000000000000
  0.5000000000000000  0.3450293682027521  0.0000000000000000
  0.5000000000000000  0.6549706317972479  0.0000000000000000
  0.2709482410676856  0.8469025880256993  0.0000000000000000
  0.7290517589323144  0.8469025880256993  0.0000000000000000
  0.0000000000000000  0.2709482410676856  0.1530974119743007
  0.0000000000000000  0.7290517589323144  0.1530974119743007
  0.5000000000000000  0.5000000000000000  0.2704236402159808
  0.1530974119743007  0.0000000000000000  0.2709482410676856
  0.8469025880256993  0.0000000000000000  0.2709482410676856
  0.2796836876540780  0.2796836876540780  0.2796836876540780
  0.7203163123459220  0.2796836876540780  0.2796836876540780
  0.2796836876540780  0.7203163123459220  0.2796836876540780
  0.7203163123459220  0.7203163123459220  0.2796836876540780
  0.0000000000000000  0.5000000000000000  0.3450293682027521
  0.3450293682027521  0.0000000000000000  0.5000000000000000
  0.6549706317972479  0.0000000000000000  0.5000000000000000
  0.5000000000000000  0.2704236402159808  0.5000000000000000
  0.2704236402159808  0.5000000000000000  0.5000000000000000
  0.7295763597840192  0.5000000000000000  0.5000000000000000
  0.5000000000000000  0.7295763597840192  0.5000000000000000
  0.0000000000000000  0.5000000000000000  0.6549706317972479
  0.2796836876540780  0.2796836876540780  0.7203163123459220
  0.7203163123459220  0.2796836876540780  0.7203163123459220
  0.2796836876540780  0.7203163123459220  0.7203163123459220
  0.7203163123459220  0.7203163123459220  0.7203163123459220
  0.1530974119743007  0.0000000000000000  0.7290517589323144
  0.8469025880256993  0.0000000000000000  0.7290517589323144
  0.5000000000000000  0.5000000000000000  0.7295763597840192
  0.0000000000000000  0.2709482410676856  0.8469025880256993
  0.0000000000000000  0.7290517589323144  0.8469025880256993
 
  0.00000000E+00  0.00000000E+00  0.00000000E+00
  0.00000000E+00  0.00000000E+00  0.00000000E+00
  0.00000000E+00  0.00000000E+00  0.00000000E+00
  0.00000000E+00  0.00000000E+00  0.00000000E+00
  0.00000000E+00  0.00000000E+00  0.00000000E+00
  0.00000000E+00  0.00000000E+00  0.00000000E+00
  0.00000000E+00  0.00000000E+00  0.00000000E+00
  0.00000000E+00  0.00000000E+00  0.00000000E+00
  0.00000000E+00  0.00000000E+00  0.00000000E+00
  0.00000000E+00  0.00000000E+00  0.00000000E+00
  0.00000000E+00  0.00000000E+00  0.00000000E+00
  0.00000000E+00  0.00000000E+00  0.00000000E+00
  0.00000000E+00  0.00000000E+00  0.00000000E+00
  0.00000000E+00  0.00000000E+00  0.00000000E+00
  0.00000000E+00  0.00000000E+00  0.00000000E+00
  0.00000000E+00  0.00000000E+00  0.00000000E+00
  0.00000000E+00  0.00000000E+00  0.00000000E+00
  0.00000000E+00  0.00000000E+00  0.00000000E+00
  0.00000000E+00  0.00000000E+00  0.00000000E+00
  0.00000000E+00  0.00000000E+00  0.00000000E+00
  0.00000000E+00  0.00000000E+00  0.00000000E+00
  0.00000000E+00  0.00000000E+00  0.00000000E+00
  0.00000000E+00  0.00000000E+00  0.00000000E+00
  0.00000000E+00  0.00000000E+00  0.00000000E+00
  0.00000000E+00  0.00000000E+00  0.00000000E+00
  0.00000000E+00  0.00000000E+00  0.00000000E+00
  0.00000000E+00  0.00000000E+00  0.00000000E+00
  0.00000000E+00  0.00000000E+00  0.00000000E+00
  0.00000000E+00  0.00000000E+00  0.00000000E+00
  0.00000000E+00  0.00000000E+00  0.00000000E+00
  0.00000000E+00  0.00000000E+00  0.00000000E+00
  0.00000000E+00  0.00000000E+00  0.00000000E+00
  0.00000000E+00  0.00000000E+00  0.00000000E+00
  0.00000000E+00  0.00000000E+00  0.00000000E+00
  0.00000000E+00  0.00000000E+00  0.00000000E+00
  0.00000000E+00  0.00000000E+00  0.00000000E+00
  0.00000000E+00  0.00000000E+00  0.00000000E+00
  0.00000000E+00  0.00000000E+00  0.00000000E+00
  0.00000000E+00  0.00000000E+00  0.00000000E+00
