Be1 In3 Cl6                             
   1.00000000000000     
     7.1084889173394030   -0.0004225101374182    0.0013368330568767
    -0.0004225101374182    7.1084889173394030    0.0013368330568767
     3.5549828799670133    3.5549828799670133    5.0462826133623917
   Cl   Be   In
     6     1     3
Direct
  0.7707591555688964  0.2292408444311036  0.0000000000000000
  0.2296462395703003  0.2296462395703003  0.9991853227002494
  0.2292408444311036  0.7707591555688964  0.0000000000000000
  0.7703537604296997  0.7703537604296997  0.0008146772997506
  0.7701987795282434  0.7701987795282434  0.4596525133991705
  0.2298012204717566  0.2298012204717566  0.5403474866008295
  0.0000000000000000  0.0000000000000000  0.0000000000000000
  0.5000000000000000  0.5000000000000000  0.0000000000000000
  0.2500191661073430  0.7499808338926570  0.5000000000000000
  0.7499808338926570  0.2500191661073430  0.5000000000000000
 
  0.00000000E+00  0.00000000E+00  0.00000000E+00
  0.00000000E+00  0.00000000E+00  0.00000000E+00
  0.00000000E+00  0.00000000E+00  0.00000000E+00
  0.00000000E+00  0.00000000E+00  0.00000000E+00
  0.00000000E+00  0.00000000E+00  0.00000000E+00
  0.00000000E+00  0.00000000E+00  0.00000000E+00
  0.00000000E+00  0.00000000E+00  0.00000000E+00
  0.00000000E+00  0.00000000E+00  0.00000000E+00
  0.00000000E+00  0.00000000E+00  0.00000000E+00
  0.00000000E+00  0.00000000E+00  0.00000000E+00
