BaGa                                    
   1.00000000000000     
     5.7927783163362854   -0.0006550735421051    0.0000000000000000
    -2.8974629039618023    5.0163001639596860    0.0000000000000000
     0.0000000000000000    0.0000000000000000    5.0254362808903368
   Ba   Ga
     2     2
Direct
  0.3332691870502771  0.6667224256980262  0.2500000000000000
  0.6667308129497229  0.3332775743019738  0.7500000000000000
  0.0000000000000000  0.0000000000000000  0.0000000000000000
  0.0000000000000000  0.0000000000000000  0.5000000000000000
 
  0.00000000E+00  0.00000000E+00  0.00000000E+00
  0.00000000E+00  0.00000000E+00  0.00000000E+00
  0.00000000E+00  0.00000000E+00  0.00000000E+00
  0.00000000E+00  0.00000000E+00  0.00000000E+00
