Mg5 In9                                 
   1.00000000000000     
     5.5261875623971752    0.6328536972615336   -0.1107986961073241
    -2.3489317097940301    5.0706348193392508   -0.2763213341858077
    -2.7204016055954146    0.4397864309581083   11.6949984636226354
   In   Mg
     9     5
Direct
  0.7118318139428297  0.8549894583403841  0.8944559806999663
  0.3541745196452339  0.3518378970081670  0.1816162584163834
  0.4284189766119013  0.8539536939074353  0.3230648841616173
  0.8503601653870092  0.8525185161055475  0.1719073404221731
  0.9992420067724765  0.8612673602134038  0.4613609607708611
  0.0735068291349563  0.3625717080077067  0.6010268792161071
  0.2171565483159981  0.3541866952806885  0.8983524419754048
  0.5768334210212700  0.8635132454418013  0.6107941886074428
  0.6499328924944052  0.3643121340918327  0.7499265440418341
  0.7808898333151788  0.3506812171821565  0.0380065086492820
  0.9254277425721966  0.3561905539856483  0.3179618656845875
  0.5026823309903747  0.3601936094612839  0.4646441128315217
  0.1474652565180037  0.8607332870819846  0.7515635038759925
  0.2820776632781161  0.8530506238919386  0.0348185306468878
 
  0.00000000E+00  0.00000000E+00  0.00000000E+00
  0.00000000E+00  0.00000000E+00  0.00000000E+00
  0.00000000E+00  0.00000000E+00  0.00000000E+00
  0.00000000E+00  0.00000000E+00  0.00000000E+00
  0.00000000E+00  0.00000000E+00  0.00000000E+00
  0.00000000E+00  0.00000000E+00  0.00000000E+00
  0.00000000E+00  0.00000000E+00  0.00000000E+00
  0.00000000E+00  0.00000000E+00  0.00000000E+00
  0.00000000E+00  0.00000000E+00  0.00000000E+00
  0.00000000E+00  0.00000000E+00  0.00000000E+00
  0.00000000E+00  0.00000000E+00  0.00000000E+00
  0.00000000E+00  0.00000000E+00  0.00000000E+00
  0.00000000E+00  0.00000000E+00  0.00000000E+00
  0.00000000E+00  0.00000000E+00  0.00000000E+00
