Mg2 B2 Br6                              
   1.00000000000000     
     7.8454168245371774    0.2300364833713483    0.0000000000000000
    -3.7114438245972843    6.9592960371646155    0.0000000000000000
     0.0000000000000000    0.0000000000000000    6.8169579635206166
   Br   Mg   B 
     6     2     2
Direct
  0.1094414212963386  0.3080676053661335  0.2500000000000000
  0.1420395841903854  0.8523502886403875  0.2500000000000000
  0.6929664769510495  0.9018804604251471  0.2500000000000000
  0.3070335230489505  0.0981195395748529  0.7500000000000000
  0.8579604158096146  0.1476497113596125  0.7500000000000000
  0.8905585787036614  0.6919323946338665  0.7500000000000000
  0.0000000000000000  0.0000000000000000  0.0000000000000000
  0.0000000000000000  0.0000000000000000  0.5000000000000000
  0.7916174660490896  0.2213800762813136  0.2500000000000000
  0.2083825339509175  0.7786199237186864  0.7500000000000000
 
  0.00000000E+00  0.00000000E+00  0.00000000E+00
  0.00000000E+00  0.00000000E+00  0.00000000E+00
  0.00000000E+00  0.00000000E+00  0.00000000E+00
  0.00000000E+00  0.00000000E+00  0.00000000E+00
  0.00000000E+00  0.00000000E+00  0.00000000E+00
  0.00000000E+00  0.00000000E+00  0.00000000E+00
  0.00000000E+00  0.00000000E+00  0.00000000E+00
  0.00000000E+00  0.00000000E+00  0.00000000E+00
  0.00000000E+00  0.00000000E+00  0.00000000E+00
  0.00000000E+00  0.00000000E+00  0.00000000E+00
