Ca22 Tl14                               
   1.0000000000000000     
     0.0000000000000000    8.4636699231908512    8.4636699231908512
     8.4636699231908512    0.0000000000000000    8.4636699231908512
     8.4636699231908512    8.4636699231908512    0.0000000000000000
   Ca   Tl
    22    14
Direct
  0.6673824941439008  0.3326175058560992  0.0000000000000000
  0.6673824941439008  0.0000000000000000  0.0000000000000000
  0.1134226954660917  0.6288591015113099  0.6288591015113099
  0.0000000000000000  0.6673824941439008  0.3326175058560992
  0.0000000000000000  0.3326175058560992  0.6673824941439008
  0.3711408984886901  0.3711408984886901  0.3711408984886901
  0.0000000000000000  0.6673824941439008  0.0000000000000000
  0.6288591015113099  0.6288591015113099  0.1134226954660917
  0.0000000000000000  0.0000000000000000  0.6673824941439008
  0.6288591015113099  0.1134226954660917  0.6288591015113099
  0.0000000000000000  0.0000000000000000  0.3326175058560992
  0.3326175058560992  0.0000000000000000  0.0000000000000000
  0.0000000000000000  0.3326175058560992  0.0000000000000000
  0.6673824941439008  0.0000000000000000  0.3326175058560992
  0.5000000000000000  0.5000000000000000  0.5000000000000000
  0.3711408984886901  0.8865773045339083  0.3711408984886901
  0.3711408984886901  0.3711408984886901  0.8865773045339083
  0.3326175058560992  0.6673824941439008  0.0000000000000000
  0.3326175058560992  0.0000000000000000  0.6673824941439008
  0.6288591015113099  0.6288591015113099  0.6288591015113099
  0.0000000000000000  0.0000000000000000  0.0000000000000000
  0.8865773045339083  0.3711408984886901  0.3711408984886901
  0.2816801841948262  0.2816801841948262  0.7183198158051738
  0.7183198158051738  0.7183198158051738  0.2816801841948262
  0.8154356161979450  0.5536931514061649  0.8154356161979450
  0.7183198158051738  0.2816801841948262  0.2816801841948262
  0.4463068485938280  0.1845643838020550  0.1845643838020550
  0.2816801841948262  0.7183198158051738  0.7183198158051738
  0.1845643838020550  0.1845643838020550  0.1845643838020550
  0.1845643838020550  0.4463068485938280  0.1845643838020550
  0.5536931514061649  0.8154356161979450  0.8154356161979450
  0.8154356161979450  0.8154356161979450  0.8154356161979450
  0.7183198158051738  0.2816801841948262  0.7183198158051738
  0.1845643838020550  0.1845643838020550  0.4463068485938280
  0.2816801841948262  0.7183198158051738  0.2816801841948262
  0.8154356161979450  0.8154356161979450  0.5536931514061649

  0.00000000E+00  0.00000000E+00  0.00000000E+00
  0.00000000E+00  0.00000000E+00  0.00000000E+00
  0.00000000E+00  0.00000000E+00  0.00000000E+00
  0.00000000E+00  0.00000000E+00  0.00000000E+00
  0.00000000E+00  0.00000000E+00  0.00000000E+00
  0.00000000E+00  0.00000000E+00  0.00000000E+00
  0.00000000E+00  0.00000000E+00  0.00000000E+00
  0.00000000E+00  0.00000000E+00  0.00000000E+00
  0.00000000E+00  0.00000000E+00  0.00000000E+00
  0.00000000E+00  0.00000000E+00  0.00000000E+00
  0.00000000E+00  0.00000000E+00  0.00000000E+00
  0.00000000E+00  0.00000000E+00  0.00000000E+00
  0.00000000E+00  0.00000000E+00  0.00000000E+00
  0.00000000E+00  0.00000000E+00  0.00000000E+00
  0.00000000E+00  0.00000000E+00  0.00000000E+00
  0.00000000E+00  0.00000000E+00  0.00000000E+00
  0.00000000E+00  0.00000000E+00  0.00000000E+00
  0.00000000E+00  0.00000000E+00  0.00000000E+00
  0.00000000E+00  0.00000000E+00  0.00000000E+00
  0.00000000E+00  0.00000000E+00  0.00000000E+00
  0.00000000E+00  0.00000000E+00  0.00000000E+00
  0.00000000E+00  0.00000000E+00  0.00000000E+00
  0.00000000E+00  0.00000000E+00  0.00000000E+00
  0.00000000E+00  0.00000000E+00  0.00000000E+00
  0.00000000E+00  0.00000000E+00  0.00000000E+00
  0.00000000E+00  0.00000000E+00  0.00000000E+00
  0.00000000E+00  0.00000000E+00  0.00000000E+00
  0.00000000E+00  0.00000000E+00  0.00000000E+00
  0.00000000E+00  0.00000000E+00  0.00000000E+00
  0.00000000E+00  0.00000000E+00  0.00000000E+00
  0.00000000E+00  0.00000000E+00  0.00000000E+00
  0.00000000E+00  0.00000000E+00  0.00000000E+00
  0.00000000E+00  0.00000000E+00  0.00000000E+00
  0.00000000E+00  0.00000000E+00  0.00000000E+00
  0.00000000E+00  0.00000000E+00  0.00000000E+00
  0.00000000E+00  0.00000000E+00  0.00000000E+00
