Mg4 Ga4 F20                             
   1.0000000000000000     
     4.6922757574468790    0.0000000000000000    0.0000000000000003
    -0.0000000000000003    5.3402448118913659    0.0000000000000003
     0.0000000000000000    0.0000000000000000   12.2668601171467024
   Mg   Ga   F 
     4     4    20
Direct
  0.7613585499110371  0.3436851939449355  0.3897166495871929
  0.2613585499110371  0.1563148060550645  0.6102833504128071
  0.2386414500889558  0.8436851939449355  0.1102833504128071
  0.7386414500889558  0.6563148060550645  0.8897166495871929
  0.2576418828586355  0.8467625316716010  0.3891391345348580
  0.7576418828586355  0.6532374683283990  0.6108608654651349
  0.7423581171413645  0.3467625316716010  0.1108608654651349
  0.2423581171413645  0.1532374683283990  0.8891391345348580
  0.9314956839837834  0.6639198687156593  0.4532477023069319
  0.4314956839837762  0.8360801312843407  0.5467522976930681
  0.0685043160162166  0.1639198687156593  0.0467522976930681
  0.5685043160162166  0.3360801312843407  0.9532477023069319
  0.0855269595800578  0.8906027406271093  0.2552842042780696
  0.5855269595800578  0.6093972593728907  0.7447157957219233
  0.9144730404199422  0.3906027406271093  0.2447157957219304
  0.4144730404199422  0.1093972593728907  0.7552842042780767
  0.9055376150243717  0.6474836184257455  0.0477725311330843
  0.4055376150243717  0.8525163815742545  0.9522274688669157
  0.0944623849756283  0.1474836184257384  0.4522274688669157
  0.5944623849756283  0.3525163815742687  0.5477725311330843
  0.4187784786886297  0.5306100754222669  0.1413615891688167
  0.9187784786886368  0.9693899245777331  0.8586384108311833
  0.5812215213113632  0.0306100754222669  0.3586384108311833
  0.0812215213113703  0.4693899245777331  0.6413615891688167
  0.0816722624700645  0.4598262306095506  0.8608166374747483
  0.5816722624700645  0.0401737693904494  0.1391833625252517
  0.9183277375299355  0.9598262306095506  0.6391833625252517
  0.4183277375299355  0.5401737693904494  0.3608166374747483

  0.00000000E+00  0.00000000E+00  0.00000000E+00
  0.00000000E+00  0.00000000E+00  0.00000000E+00
  0.00000000E+00  0.00000000E+00  0.00000000E+00
  0.00000000E+00  0.00000000E+00  0.00000000E+00
  0.00000000E+00  0.00000000E+00  0.00000000E+00
  0.00000000E+00  0.00000000E+00  0.00000000E+00
  0.00000000E+00  0.00000000E+00  0.00000000E+00
  0.00000000E+00  0.00000000E+00  0.00000000E+00
  0.00000000E+00  0.00000000E+00  0.00000000E+00
  0.00000000E+00  0.00000000E+00  0.00000000E+00
  0.00000000E+00  0.00000000E+00  0.00000000E+00
  0.00000000E+00  0.00000000E+00  0.00000000E+00
  0.00000000E+00  0.00000000E+00  0.00000000E+00
  0.00000000E+00  0.00000000E+00  0.00000000E+00
  0.00000000E+00  0.00000000E+00  0.00000000E+00
  0.00000000E+00  0.00000000E+00  0.00000000E+00
  0.00000000E+00  0.00000000E+00  0.00000000E+00
  0.00000000E+00  0.00000000E+00  0.00000000E+00
  0.00000000E+00  0.00000000E+00  0.00000000E+00
  0.00000000E+00  0.00000000E+00  0.00000000E+00
  0.00000000E+00  0.00000000E+00  0.00000000E+00
  0.00000000E+00  0.00000000E+00  0.00000000E+00
  0.00000000E+00  0.00000000E+00  0.00000000E+00
  0.00000000E+00  0.00000000E+00  0.00000000E+00
  0.00000000E+00  0.00000000E+00  0.00000000E+00
  0.00000000E+00  0.00000000E+00  0.00000000E+00
  0.00000000E+00  0.00000000E+00  0.00000000E+00
  0.00000000E+00  0.00000000E+00  0.00000000E+00
