Mg2 Tl2 I10                             
   1.0000000000000000     
     5.7217559574272130   -0.0000000000000003    0.0000000000000003
    -0.0000000000000014   13.4497776563976750    0.0000000000000009
     0.0000000000000002    0.0000000000000006   10.3394665305182176
   Mg   Tl   I 
     2     2    10
Direct
  0.0000000000000000  0.0000000000000000  0.5000000000000000
  0.5000000000000000  0.5000000000000000  0.0000000000000000
  0.5000000000000000  0.0000000000000000  0.0000000000000000
  0.0000000000000000  0.5000000000000000  0.5000000000000000
  0.5000000000000000  0.7185105154797711  0.5000000000000000
  0.5000000000000000  0.2814894845202289  0.5000000000000000
  0.5000000000000000  0.0000000000000000  0.6739773205267880
  0.5000000000000000  0.0000000000000000  0.3260226794732120
  0.0000000000000000  0.0000000000000000  0.0000000000000000
  0.0000000000000000  0.2185105154797711  0.0000000000000000
  0.0000000000000000  0.7814894845202289  0.0000000000000000
  0.0000000000000000  0.5000000000000000  0.1739773205267880
  0.0000000000000000  0.5000000000000000  0.8260226794732120
  0.5000000000000000  0.5000000000000000  0.5000000000000000

  0.00000000E+00  0.00000000E+00  0.00000000E+00
  0.00000000E+00  0.00000000E+00  0.00000000E+00
  0.00000000E+00  0.00000000E+00  0.00000000E+00
  0.00000000E+00  0.00000000E+00  0.00000000E+00
  0.00000000E+00  0.00000000E+00  0.00000000E+00
  0.00000000E+00  0.00000000E+00  0.00000000E+00
  0.00000000E+00  0.00000000E+00  0.00000000E+00
  0.00000000E+00  0.00000000E+00  0.00000000E+00
  0.00000000E+00  0.00000000E+00  0.00000000E+00
  0.00000000E+00  0.00000000E+00  0.00000000E+00
  0.00000000E+00  0.00000000E+00  0.00000000E+00
  0.00000000E+00  0.00000000E+00  0.00000000E+00
  0.00000000E+00  0.00000000E+00  0.00000000E+00
  0.00000000E+00  0.00000000E+00  0.00000000E+00
