Ga6 I4                                  
   1.00000000000000     
    -4.9184637900006987   -0.6754771732887448   -0.1446586342772868
     1.8448097984737959   -4.8847386921566081   -0.1052668072075799
    -1.6324532446308535    1.9042343661928891   15.7596935065821384
   I    Ga
     4     6
Direct
  0.7194545534523797  0.2956633598350464  0.8888028122730134
  0.2778952290667789  0.7074242275706553  0.1111830086587773
  0.1740808547637940  0.7126064625270132  0.3890932562699447
  0.8233459784387094  0.2923020597612336  0.6107005247060400
  0.2955988808122996  0.1612876872070643  0.2543637478634295
  0.8770088422517262  0.3904220891964130  0.2380316025173883
  0.6575147079978265  0.8249677595425879  0.2595614032150522
  0.3435438582373536  0.1710462150806578  0.7394017407684927
  0.1247121571741019  0.6063908705689300  0.7621144357186225
  0.7068449378050374  0.8378892687103559  0.7466474680092716
 
  0.00000000E+00  0.00000000E+00  0.00000000E+00
  0.00000000E+00  0.00000000E+00  0.00000000E+00
  0.00000000E+00  0.00000000E+00  0.00000000E+00
  0.00000000E+00  0.00000000E+00  0.00000000E+00
  0.00000000E+00  0.00000000E+00  0.00000000E+00
  0.00000000E+00  0.00000000E+00  0.00000000E+00
  0.00000000E+00  0.00000000E+00  0.00000000E+00
  0.00000000E+00  0.00000000E+00  0.00000000E+00
  0.00000000E+00  0.00000000E+00  0.00000000E+00
  0.00000000E+00  0.00000000E+00  0.00000000E+00
