Mg3 In4                                 
   1.00000000000000     
     2.3217237884425854    2.7129781620419036    7.7564210815142118
    -2.3217237884425854    2.7129781620419036    7.7564210815142118
     0.0000000000000000   -2.2087647649249447    7.1118382795107840
   In   Mg
     4     3
Direct
  0.1422457172139460  0.1422457172139460  0.1464039677290430
  0.2889884720061318  0.2889884720061318  0.2922588563047555
  0.7158679986275303  0.7158679986275303  0.7126470327426802
  0.8626514520258723  0.8626514520258723  0.8584195088527906
  0.0024243509745929  0.0024243509745929  0.0024712096512829
  0.4293056569371245  0.4293056569371245  0.4347250519358354
  0.5755763522148172  0.5755763522148172  0.5701343727836061
 
  0.00000000E+00  0.00000000E+00  0.00000000E+00
  0.00000000E+00  0.00000000E+00  0.00000000E+00
  0.00000000E+00  0.00000000E+00  0.00000000E+00
  0.00000000E+00  0.00000000E+00  0.00000000E+00
  0.00000000E+00  0.00000000E+00  0.00000000E+00
  0.00000000E+00  0.00000000E+00  0.00000000E+00
  0.00000000E+00  0.00000000E+00  0.00000000E+00
