Be6 I4                                  
   1.00000000000000     
    -4.1210035690334639   -0.0060259469466663    0.0243666149137194
     2.0661309834421218   -3.5661138857600809   -0.0139861079775221
    -2.2424696822651962    1.4261073981884105   16.1265669404454393
   I    Be
     4     6
Direct
  0.2882321488733908  0.6920626244958186  0.1219476892891223
  0.1954519468394125  0.7945175320281592  0.3768941264696437
  0.8048118407254066  0.2052547302751435  0.6231241284742026
  0.7115638897116128  0.3081478392229258  0.8779973654067561
  0.2416231995526559  0.1172926083577792  0.2493936362581763
  0.8670551204573229  0.3681851021306244  0.2494079086635210
  0.6161379570443160  0.7426213679208900  0.2494046442381261
  0.3838616371125028  0.2573417973801853  0.7505244197781380
  0.1329156176967814  0.6318583913793390  0.7505743846711184
  0.7583466419866056  0.8827180068091494  0.7506316967511921
 
  0.00000000E+00  0.00000000E+00  0.00000000E+00
  0.00000000E+00  0.00000000E+00  0.00000000E+00
  0.00000000E+00  0.00000000E+00  0.00000000E+00
  0.00000000E+00  0.00000000E+00  0.00000000E+00
  0.00000000E+00  0.00000000E+00  0.00000000E+00
  0.00000000E+00  0.00000000E+00  0.00000000E+00
  0.00000000E+00  0.00000000E+00  0.00000000E+00
  0.00000000E+00  0.00000000E+00  0.00000000E+00
  0.00000000E+00  0.00000000E+00  0.00000000E+00
  0.00000000E+00  0.00000000E+00  0.00000000E+00
