Ca1 In2 Cl6                             
   1.0000000000000000     
     3.5066760396097822    2.0243049837506870    5.7250840169570196
    -3.5066760396097822    2.0243049837506870    5.7250840169570196
     0.0000000000000000   -4.0478098789931707    5.7248011506900180
   Ca   Cl   In
     1     6     2
Direct
  0.0000000000000000  0.0000000000000000  0.0000000000000000
  0.7348961573766530  0.7348961573766530  0.2651031546744917
  0.7349110643183394  0.2650896085122483  0.2650883640346109
  0.2650896085122483  0.7349110643183394  0.2650883640346109
  0.2651038426233470  0.2651038426233470  0.7348968453255083
  0.7349103914877517  0.2650889356816606  0.7349116359653891
  0.2650889356816606  0.7349103914877517  0.7349116359653891
  0.2500089663711904  0.2500089663711904  0.2499883531330980
  0.7499910336288096  0.7499910336288096  0.7500116468669020

  0.00000000E+00  0.00000000E+00  0.00000000E+00
  0.00000000E+00  0.00000000E+00  0.00000000E+00
  0.00000000E+00  0.00000000E+00  0.00000000E+00
  0.00000000E+00  0.00000000E+00  0.00000000E+00
  0.00000000E+00  0.00000000E+00  0.00000000E+00
  0.00000000E+00  0.00000000E+00  0.00000000E+00
  0.00000000E+00  0.00000000E+00  0.00000000E+00
  0.00000000E+00  0.00000000E+00  0.00000000E+00
  0.00000000E+00  0.00000000E+00  0.00000000E+00
