B2I3                                    
   1.00000000000000     
    -7.7787808664503606    0.0150247370303586    0.8132835273769430
     3.9474218194629653   -6.6591521741738111   -1.3719894155919459
    -4.4959748768521672    3.2206414040391094    8.6056197248138275
   B    I 
     4     6
Direct
  0.5587411893413403  0.4401691722106733  0.3877031427992605
  0.8858701931997430  0.9255599783259001  0.5149525583358141
  0.1141298068002570  0.0744400216740999  0.4850474416641859
  0.4412588106586597  0.5598308277893267  0.6122968572007395
  0.8182445704102932  0.2939262602394734  0.2633194964620813
  0.2907403645866111  0.1517911039445963  0.2631193269157137
  0.6894397132190306  0.7482342885211111  0.3438507909731143
  0.3105602867809694  0.2517657114788889  0.6561492090268857
  0.7092596354133889  0.8482088960554037  0.7368806730842863
  0.1817554295897139  0.7060737397605337  0.7366805035379187
 
  0.00000000E+00  0.00000000E+00  0.00000000E+00
  0.00000000E+00  0.00000000E+00  0.00000000E+00
  0.00000000E+00  0.00000000E+00  0.00000000E+00
  0.00000000E+00  0.00000000E+00  0.00000000E+00
  0.00000000E+00  0.00000000E+00  0.00000000E+00
  0.00000000E+00  0.00000000E+00  0.00000000E+00
  0.00000000E+00  0.00000000E+00  0.00000000E+00
  0.00000000E+00  0.00000000E+00  0.00000000E+00
  0.00000000E+00  0.00000000E+00  0.00000000E+00
  0.00000000E+00  0.00000000E+00  0.00000000E+00
