Be17 B12                                
   1.00000000000000     
    -3.7104086319953842   -3.7104086319953846    3.7105220752370967
    -3.7104086319953842    3.7105220752370971   -3.7104086319953846
     3.7105220752370967   -3.7104086319953842   -3.7104086319953837
   B    Be
    12    17
Direct
  0.3556678842498116  0.1798977954433880  0.0000185161878079
  0.1798977954433880  0.3556678842498116  0.0000185161878079
  0.8201246091655179  0.8201246091655179  0.1757634006766438
  0.3556678842498116  0.0000185161878079  0.1798977954433880
  0.0000185161878079  0.3556678842498116  0.1798977954433880
  0.1798977954433880  0.0000185161878079  0.3556678842498116
  0.0000185161878079  0.1798977954433880  0.3556678842498116
  0.8241950567931866  0.6443292228889916  0.6443292228889916
  0.6443292228889916  0.8241950567931866  0.6443292228889916
  0.8201246091655179  0.1757634006766438  0.8201246091655179
  0.1757634006766438  0.8201246091655179  0.8201246091655179
  0.6443292228889916  0.6443292228889916  0.8241950567931866
  0.9999962011959909  0.9999962011959909  0.9999962011959909
  0.6755057215737565  0.9999890087659935  0.9999890087659935
  0.6812487305398989  0.3592361694266941  0.9999999871037204
  0.9999890087659935  0.6755057215737565  0.9999890087659935
  0.3592361694266941  0.6812487305398989  0.9999999871037204
  0.6407289170288450  0.6407289170288450  0.3219522623456896
  0.6780416965905758  0.3187711647067815  0.3187711647067815
  0.3187711647067815  0.6780416965905758  0.3187711647067815
  0.3245216498092489  0.3245216498092489  0.3245216498092489
  0.6812487305398989  0.9999999871037204  0.3592361694266941
  0.9999999871037204  0.6812487305398989  0.3592361694266941
  0.6407289170288450  0.3219522623456896  0.6407289170288450
  0.3219522623456896  0.6407289170288450  0.6407289170288450
  0.9999890087659935  0.9999890087659935  0.6755057215737565
  0.3592361694266941  0.9999999871037204  0.6812487305398989
  0.9999999871037204  0.3592361694266941  0.6812487305398989
  0.3187711647067815  0.3187711647067815  0.6780416965905758
 
  0.00000000E+00  0.00000000E+00  0.00000000E+00
  0.00000000E+00  0.00000000E+00  0.00000000E+00
  0.00000000E+00  0.00000000E+00  0.00000000E+00
  0.00000000E+00  0.00000000E+00  0.00000000E+00
  0.00000000E+00  0.00000000E+00  0.00000000E+00
  0.00000000E+00  0.00000000E+00  0.00000000E+00
  0.00000000E+00  0.00000000E+00  0.00000000E+00
  0.00000000E+00  0.00000000E+00  0.00000000E+00
  0.00000000E+00  0.00000000E+00  0.00000000E+00
  0.00000000E+00  0.00000000E+00  0.00000000E+00
  0.00000000E+00  0.00000000E+00  0.00000000E+00
  0.00000000E+00  0.00000000E+00  0.00000000E+00
  0.00000000E+00  0.00000000E+00  0.00000000E+00
  0.00000000E+00  0.00000000E+00  0.00000000E+00
  0.00000000E+00  0.00000000E+00  0.00000000E+00
  0.00000000E+00  0.00000000E+00  0.00000000E+00
  0.00000000E+00  0.00000000E+00  0.00000000E+00
  0.00000000E+00  0.00000000E+00  0.00000000E+00
  0.00000000E+00  0.00000000E+00  0.00000000E+00
  0.00000000E+00  0.00000000E+00  0.00000000E+00
  0.00000000E+00  0.00000000E+00  0.00000000E+00
  0.00000000E+00  0.00000000E+00  0.00000000E+00
  0.00000000E+00  0.00000000E+00  0.00000000E+00
  0.00000000E+00  0.00000000E+00  0.00000000E+00
  0.00000000E+00  0.00000000E+00  0.00000000E+00
  0.00000000E+00  0.00000000E+00  0.00000000E+00
  0.00000000E+00  0.00000000E+00  0.00000000E+00
  0.00000000E+00  0.00000000E+00  0.00000000E+00
  0.00000000E+00  0.00000000E+00  0.00000000E+00
