B3F                                     
   1.00000000000000     
     3.7465166687232681   -0.6802477870217205    0.0000000000000000
    -2.0474320152904428    7.4270412978966247    0.0000000000000000
     0.0000000000000000    0.0000000000000000    2.6473334652436109
   B    F 
     6     2
Direct
  0.0833891321931119  0.2410664024496896  0.2500000000000000
  0.6605996091005863  0.0262393327048898  0.2500000000000000
  0.3740151568709251  0.1330019123312738  0.2500000000000000
  0.9166108678068881  0.7589335975503104  0.7500000000000000
  0.3394003908994208  0.9737606672951173  0.7500000000000000
  0.6259848431290749  0.8669980876687262  0.7500000000000000
  0.1235504214823706  0.3664132347606142  0.7500000000000000
  0.8764495785176294  0.6335867652393858  0.2500000000000000
 
  0.00000000E+00  0.00000000E+00  0.00000000E+00
  0.00000000E+00  0.00000000E+00  0.00000000E+00
  0.00000000E+00  0.00000000E+00  0.00000000E+00
  0.00000000E+00  0.00000000E+00  0.00000000E+00
  0.00000000E+00  0.00000000E+00  0.00000000E+00
  0.00000000E+00  0.00000000E+00  0.00000000E+00
  0.00000000E+00  0.00000000E+00  0.00000000E+00
  0.00000000E+00  0.00000000E+00  0.00000000E+00
