Sr10 B18                                
   1.00000000000000     
     1.6675610376661694   -8.2588479964786714   -0.0003385759743260
     1.5687159153607499    8.2383397750035012   -0.0204234631893404
    -0.1330585186731728    0.0248936536725315   19.3302914695510566
   Sr   B 
    10    18
Direct
  0.8638873666051694  0.1171484511030982  0.0434754919735312
  0.6279264925232724  0.3238299603837049  0.1557516420790250
  0.3500456665675600  0.5663297374248728  0.2499362122451032
  0.6552304142512000  0.3508865861615575  0.3450269489428663
  0.9105747740181513  0.1656050478587474  0.4561409243325016
  0.1592962744917799  0.9034484307830368  0.5427258607924514
  0.3877120023335081  0.6910817119085806  0.6552577950686427
  0.5916578565511585  0.3836528302169668  0.7504681805142042
  0.3494143183899538  0.6519789423805875  0.8437364677643586
  0.1211057434039091  0.8644644098210037  0.9575111260636859
  0.5535956387583241  0.5130535446522870  0.0436674121778822
  0.0659627055948420  0.9921968324582124  0.0829577625317128
  0.4063475168311257  0.4372081707857092  0.1290983199398781
  0.9189733762401460  0.9107052295785323  0.1685946499922792
  0.9892282083457857  0.9189084277462953  0.2502433539761313
  0.9391566688103268  0.9314866248058138  0.3318230509257134
  0.4346986311945713  0.4646152085028135  0.3709240247994998
  0.1051516498969747  0.0333667881657576  0.4177194727002416
  0.5986432482103226  0.5594799987757071  0.4569363164293136
  0.5697187917927238  0.6063975960852090  0.5413758997219773
  0.0500689836507604  0.1207013195576323  0.5810799435983256
  0.4891801502586191  0.4595423361403377  0.6273058287280051
  0.9619511573007884  0.9718390086352571  0.6671690579624823
  0.9591428244015248  0.0355442623118520  0.7488054229821017
  0.9867129327096222  0.0019334473592068  0.8302264060341216
  0.5183429819775398  0.4826898400403579  0.8759894460260256
  0.9571782812528298  0.0309969902010749  0.9154038930246529
  0.4795953436375058  0.5114082661557973  0.9602490886732724
 
  0.00000000E+00  0.00000000E+00  0.00000000E+00
  0.00000000E+00  0.00000000E+00  0.00000000E+00
  0.00000000E+00  0.00000000E+00  0.00000000E+00
  0.00000000E+00  0.00000000E+00  0.00000000E+00
  0.00000000E+00  0.00000000E+00  0.00000000E+00
  0.00000000E+00  0.00000000E+00  0.00000000E+00
  0.00000000E+00  0.00000000E+00  0.00000000E+00
  0.00000000E+00  0.00000000E+00  0.00000000E+00
  0.00000000E+00  0.00000000E+00  0.00000000E+00
  0.00000000E+00  0.00000000E+00  0.00000000E+00
  0.00000000E+00  0.00000000E+00  0.00000000E+00
  0.00000000E+00  0.00000000E+00  0.00000000E+00
  0.00000000E+00  0.00000000E+00  0.00000000E+00
  0.00000000E+00  0.00000000E+00  0.00000000E+00
  0.00000000E+00  0.00000000E+00  0.00000000E+00
  0.00000000E+00  0.00000000E+00  0.00000000E+00
  0.00000000E+00  0.00000000E+00  0.00000000E+00
  0.00000000E+00  0.00000000E+00  0.00000000E+00
  0.00000000E+00  0.00000000E+00  0.00000000E+00
  0.00000000E+00  0.00000000E+00  0.00000000E+00
  0.00000000E+00  0.00000000E+00  0.00000000E+00
  0.00000000E+00  0.00000000E+00  0.00000000E+00
  0.00000000E+00  0.00000000E+00  0.00000000E+00
  0.00000000E+00  0.00000000E+00  0.00000000E+00
  0.00000000E+00  0.00000000E+00  0.00000000E+00
  0.00000000E+00  0.00000000E+00  0.00000000E+00
  0.00000000E+00  0.00000000E+00  0.00000000E+00
  0.00000000E+00  0.00000000E+00  0.00000000E+00
