Ba4 In4 Cl20                            
   1.0000000000000000     
    13.4848238187734051    0.0000000000000000    0.0000000000000000
     0.0000000000000000    6.9642410261834593    0.0276824371959240
     0.0000000000000000    3.2812783413148741    9.7224154512004670
   Ba   In   Cl
     4     4    20
Direct
  0.9813383277254388  0.4687750703915441  0.2626660486963601
  0.4813383277254388  0.5312249296084559  0.2373339513036399
  0.0186616722745612  0.5312249296084559  0.7373339513036399
  0.5186616722745612  0.4687750703915441  0.7626660486963601
  0.7586329326964432  0.1240959810374278  0.5943747937134063
  0.2586329326964432  0.8759040189625722  0.9056252062865937
  0.2413670673035568  0.8759040189625722  0.4056252062865937
  0.7413670673035568  0.1240959810374278  0.0943747937134063
  0.6064989856530190  0.3450145075410589  0.5077797109774451
  0.1064989856530119  0.6549854924589411  0.9922202890225549
  0.3935010143469810  0.6549854924589411  0.4922202890225478
  0.8935010143469810  0.3450145075410589  0.0077797109774451
  0.8053249105333151  0.1487373239505771  0.3363374668732249
  0.3053249105333080  0.8512626760494229  0.1636625331267751
  0.1946750894666920  0.8512626760494229  0.6636625331267751
  0.6946750894666849  0.1487373239505771  0.8363374668732249
  0.4156638483913184  0.0443259214363039  0.8060282412769126
  0.9156638483913113  0.9556740785636961  0.6939717587230874
  0.5843361516086887  0.9556740785636961  0.1939717587230874
  0.0843361516086816  0.0443259214363039  0.3060282412769126
  0.6651529225911972  0.8112539211732610  0.6208526577579931
  0.1651529225911972  0.1887460788267319  0.8791473422420069
  0.3348470774088028  0.1887460788267319  0.3791473422420069
  0.8348470774088028  0.8112539211732610  0.1208526577579931
  0.3593894921288339  0.5405933920223731  0.9658895290442047
  0.8593894921288339  0.4594066079776269  0.5341104709557953
  0.6406105078711661  0.4594066079776269  0.0341104709557953
  0.1406105078711661  0.5405933920223731  0.4658895290442047

  0.00000000E+00  0.00000000E+00  0.00000000E+00
  0.00000000E+00  0.00000000E+00  0.00000000E+00
  0.00000000E+00  0.00000000E+00  0.00000000E+00
  0.00000000E+00  0.00000000E+00  0.00000000E+00
  0.00000000E+00  0.00000000E+00  0.00000000E+00
  0.00000000E+00  0.00000000E+00  0.00000000E+00
  0.00000000E+00  0.00000000E+00  0.00000000E+00
  0.00000000E+00  0.00000000E+00  0.00000000E+00
  0.00000000E+00  0.00000000E+00  0.00000000E+00
  0.00000000E+00  0.00000000E+00  0.00000000E+00
  0.00000000E+00  0.00000000E+00  0.00000000E+00
  0.00000000E+00  0.00000000E+00  0.00000000E+00
  0.00000000E+00  0.00000000E+00  0.00000000E+00
  0.00000000E+00  0.00000000E+00  0.00000000E+00
  0.00000000E+00  0.00000000E+00  0.00000000E+00
  0.00000000E+00  0.00000000E+00  0.00000000E+00
  0.00000000E+00  0.00000000E+00  0.00000000E+00
  0.00000000E+00  0.00000000E+00  0.00000000E+00
  0.00000000E+00  0.00000000E+00  0.00000000E+00
  0.00000000E+00  0.00000000E+00  0.00000000E+00
  0.00000000E+00  0.00000000E+00  0.00000000E+00
  0.00000000E+00  0.00000000E+00  0.00000000E+00
  0.00000000E+00  0.00000000E+00  0.00000000E+00
  0.00000000E+00  0.00000000E+00  0.00000000E+00
  0.00000000E+00  0.00000000E+00  0.00000000E+00
  0.00000000E+00  0.00000000E+00  0.00000000E+00
  0.00000000E+00  0.00000000E+00  0.00000000E+00
  0.00000000E+00  0.00000000E+00  0.00000000E+00
