Be4 In4 Cl12                            
   1.00000000000000     
    10.0559658741421512    0.0000000000000000    0.0002335627860457
     0.0000000000000000    3.2895721351438607    0.0000000000000000
    -0.0015328988280670    0.0000000000000000   14.8950534133534855
   Cl   In   Be
    12     4     4
Direct
  0.1824431755713718  0.2500000000000000  0.9787184645077787
  0.5563116007235962  0.7500000000000000  0.1165460984654700
  0.8007955045134239  0.2500000000000000  0.2208248214601127
  0.3007593985282568  0.2500000000000000  0.2792205699162196
  0.0562879236772318  0.7500000000000000  0.3834999469985902
  0.6822168475747787  0.2500000000000000  0.5213202996981536
  0.3174823323670637  0.7500000000000000  0.4787189895246513
  0.9435582725277030  0.2500000000000000  0.6163917039495388
  0.6992289977969648  0.7500000000000000  0.7208233043252292
  0.1992598420709442  0.7500000000000000  0.7792304891877180
  0.4437144005094282  0.2500000000000000  0.8835818171033054
  0.8175072215361325  0.7500000000000000  0.0213178710811732
  0.0422500305770797  0.7500000000000000  0.1605145396922509
  0.5422232643658162  0.7500000000000000  0.3395019612919867
  0.4577469617911945  0.2500000000000000  0.6605019734502022
  0.9577863837791014  0.2500000000000000  0.8395289627061402
  0.6977503142133088  0.2500000000000000  0.1045150669474708
  0.1977352677766788  0.2500000000000000  0.3955396298203979
  0.8021521607289301  0.7500000000000000  0.6044784980656388
  0.3022900993709854  0.7500000000000000  0.8955549918079697
 
  0.00000000E+00  0.00000000E+00  0.00000000E+00
  0.00000000E+00  0.00000000E+00  0.00000000E+00
  0.00000000E+00  0.00000000E+00  0.00000000E+00
  0.00000000E+00  0.00000000E+00  0.00000000E+00
  0.00000000E+00  0.00000000E+00  0.00000000E+00
  0.00000000E+00  0.00000000E+00  0.00000000E+00
  0.00000000E+00  0.00000000E+00  0.00000000E+00
  0.00000000E+00  0.00000000E+00  0.00000000E+00
  0.00000000E+00  0.00000000E+00  0.00000000E+00
  0.00000000E+00  0.00000000E+00  0.00000000E+00
  0.00000000E+00  0.00000000E+00  0.00000000E+00
  0.00000000E+00  0.00000000E+00  0.00000000E+00
  0.00000000E+00  0.00000000E+00  0.00000000E+00
  0.00000000E+00  0.00000000E+00  0.00000000E+00
  0.00000000E+00  0.00000000E+00  0.00000000E+00
  0.00000000E+00  0.00000000E+00  0.00000000E+00
  0.00000000E+00  0.00000000E+00  0.00000000E+00
  0.00000000E+00  0.00000000E+00  0.00000000E+00
  0.00000000E+00  0.00000000E+00  0.00000000E+00
  0.00000000E+00  0.00000000E+00  0.00000000E+00
