Ca2 B2 Br10                             
   1.0000000000000000     
     4.7284065376754558   -0.0000000000000002    0.0000000000000003
    -0.0000000000000011   12.3996546060544546    0.0000000000000010
     0.0000000000000002    0.0000000000000004   10.3441990555198036
   Ca   B    Br
     2     2    10
Direct
  0.0000000000000000  0.0000000000000000  0.5000000000000000
  0.5000000000000000  0.5000000000000000  0.0000000000000000
  0.5000000000000000  0.0000000000000000  0.0000000000000000
  0.0000000000000000  0.5000000000000000  0.5000000000000000
  0.5000000000000000  0.8562615864950800  0.5000000000000000
  0.5000000000000000  0.1437384135049200  0.5000000000000000
  0.5000000000000000  0.0000000000000000  0.1875226687416358
  0.5000000000000000  0.0000000000000000  0.8124773312583642
  0.0000000000000000  0.0000000000000000  0.0000000000000000
  0.0000000000000000  0.3562615864950800  0.0000000000000000
  0.0000000000000000  0.6437384135049200  0.0000000000000000
  0.0000000000000000  0.5000000000000000  0.6875226687416358
  0.0000000000000000  0.5000000000000000  0.3124773312583642
  0.5000000000000000  0.5000000000000000  0.5000000000000000

  0.00000000E+00  0.00000000E+00  0.00000000E+00
  0.00000000E+00  0.00000000E+00  0.00000000E+00
  0.00000000E+00  0.00000000E+00  0.00000000E+00
  0.00000000E+00  0.00000000E+00  0.00000000E+00
  0.00000000E+00  0.00000000E+00  0.00000000E+00
  0.00000000E+00  0.00000000E+00  0.00000000E+00
  0.00000000E+00  0.00000000E+00  0.00000000E+00
  0.00000000E+00  0.00000000E+00  0.00000000E+00
  0.00000000E+00  0.00000000E+00  0.00000000E+00
  0.00000000E+00  0.00000000E+00  0.00000000E+00
  0.00000000E+00  0.00000000E+00  0.00000000E+00
  0.00000000E+00  0.00000000E+00  0.00000000E+00
  0.00000000E+00  0.00000000E+00  0.00000000E+00
  0.00000000E+00  0.00000000E+00  0.00000000E+00
