Ba2 Ga2 I10                             
   1.00000000000000     
     7.4641778340044951   -0.0833884454744001    2.6781865914174063
     1.5543551663686110    7.3010203382532026    2.6781858589304628
    -0.2974133167535777   -0.2380224005217857   11.6120391173899904
   Ba   Ga   I 
     2     2    10
Direct
  0.4327967904842538  0.5672032102341262  0.2499999996052154
  0.5672032095157462  0.4327967897658809  0.7500000003947846
  0.0000000000000000  0.0000000000000000  0.5000000000000000
  0.0000000000000000  0.0000000000000000  0.0000000000000000
  0.7064431840798520  0.8462469910228307  0.5854871019770940
  0.1537530098057900  0.2935558155437619  0.9145128976764170
  0.2935558159201506  0.1537530089771693  0.4145138980229106
  0.8462469901942100  0.7064431844562407  0.0854871023235830
  0.9339964356369634  0.0660035635441076  0.7500000003942802
  0.0660035643630366  0.9339964364558924  0.2499999996057198
  0.6517352751517222  0.2417070993368284  0.0538245060186995
  0.7582929008210897  0.3482647248333421  0.4461754938921842
  0.3482647248482778  0.7582929006631716  0.9461754939813147
  0.2417070991789103  0.6517352751666579  0.5538245061078158
 
  0.00000000E+00  0.00000000E+00  0.00000000E+00
  0.00000000E+00  0.00000000E+00  0.00000000E+00
  0.00000000E+00  0.00000000E+00  0.00000000E+00
  0.00000000E+00  0.00000000E+00  0.00000000E+00
  0.00000000E+00  0.00000000E+00  0.00000000E+00
  0.00000000E+00  0.00000000E+00  0.00000000E+00
  0.00000000E+00  0.00000000E+00  0.00000000E+00
  0.00000000E+00  0.00000000E+00  0.00000000E+00
  0.00000000E+00  0.00000000E+00  0.00000000E+00
  0.00000000E+00  0.00000000E+00  0.00000000E+00
  0.00000000E+00  0.00000000E+00  0.00000000E+00
  0.00000000E+00  0.00000000E+00  0.00000000E+00
  0.00000000E+00  0.00000000E+00  0.00000000E+00
  0.00000000E+00  0.00000000E+00  0.00000000E+00
