Ca2 B2 I6                               
   1.00000000000000     
     2.1352045908402149   -7.2778888893338936    0.0000000000000000
     2.1352045908402149    7.2778888893338936    0.0000000000000000
     0.0000000000000000    0.0000000000000000   11.7091731689333383
   Ca   B    I 
     2     2     6
Direct
  0.0000000000000000  0.0000000000000000  0.0000000000000000
  0.0000000000000000  0.0000000000000000  0.5000000000000000
  0.2769404375829154  0.7230595624170846  0.2500000000000000
  0.7230595624170846  0.2769404375829154  0.7500000000000000
  0.6389014736236760  0.3610985263763240  0.0719424410076002
  0.3610985263763240  0.6389014736236760  0.9280575589923998
  0.3610985263763240  0.6389014736236760  0.5719424410076002
  0.6389014736236760  0.3610985263763240  0.4280575589923998
  0.8898442053521265  0.1101557946478735  0.2500000000000000
  0.1101557946478735  0.8898442053521265  0.7500000000000000
 
  0.00000000E+00  0.00000000E+00  0.00000000E+00
  0.00000000E+00  0.00000000E+00  0.00000000E+00
  0.00000000E+00  0.00000000E+00  0.00000000E+00
  0.00000000E+00  0.00000000E+00  0.00000000E+00
  0.00000000E+00  0.00000000E+00  0.00000000E+00
  0.00000000E+00  0.00000000E+00  0.00000000E+00
  0.00000000E+00  0.00000000E+00  0.00000000E+00
  0.00000000E+00  0.00000000E+00  0.00000000E+00
  0.00000000E+00  0.00000000E+00  0.00000000E+00
  0.00000000E+00  0.00000000E+00  0.00000000E+00
