Ba1 B2 I10                              
   1.00000000000000     
     5.8009132496221474    5.8232819259622524    0.8754081891281960
    -5.8009132496221474    5.8232819259622524    0.8754081891281958
     0.0000000000000000    5.4860834447835085    9.9059005230924626
   Ba   B    I 
     1     2    10
Direct
  0.6538366424147384  0.3461633575852616  0.0000000000000000
  0.0293627305544888  0.8690869862885577  0.7087420646735154
  0.1309130137114423  0.9706372694455041  0.2912579353264846
  0.1774944179152840  0.1376794840263571  0.6595768003700755
  0.8623205159736429  0.8225055820847160  0.3404231996299245
  0.7343894116557479  0.8592741211257149  0.7762497079046966
  0.1407258788742851  0.2656105883442521  0.2237502920953034
  0.9722794465969997  0.0277205534030003  0.0000000000000000
  0.1789715445503290  0.8210284554496710  0.5000000000000000
  0.6340943349869050  0.4274689886872594  0.6908498668345615
  0.5725310113127406  0.3659056650130950  0.3091501331654385
  0.0874853018587203  0.6304052504053388  0.8684088712007068
  0.3695947495946612  0.9125146981412797  0.1315911287992932
 
  0.00000000E+00  0.00000000E+00  0.00000000E+00
  0.00000000E+00  0.00000000E+00  0.00000000E+00
  0.00000000E+00  0.00000000E+00  0.00000000E+00
  0.00000000E+00  0.00000000E+00  0.00000000E+00
  0.00000000E+00  0.00000000E+00  0.00000000E+00
  0.00000000E+00  0.00000000E+00  0.00000000E+00
  0.00000000E+00  0.00000000E+00  0.00000000E+00
  0.00000000E+00  0.00000000E+00  0.00000000E+00
  0.00000000E+00  0.00000000E+00  0.00000000E+00
  0.00000000E+00  0.00000000E+00  0.00000000E+00
  0.00000000E+00  0.00000000E+00  0.00000000E+00
  0.00000000E+00  0.00000000E+00  0.00000000E+00
  0.00000000E+00  0.00000000E+00  0.00000000E+00
