Sr4 Ga2 I10                             
   1.00000000000000     
     6.5996620222791051   -6.5492342609437353    0.2382048929701898
     6.5996620222791051    6.5492342609437362    0.2382048929701900
    -6.3227692958387225    0.0000000000000000    7.7339680411140659
   I    Sr   Ga
    10     4     2
Direct
  0.5132589396018972  0.0248292264423569  0.0238344839907683
  0.0248292264423569  0.5132589396018972  0.0238344839907683
  0.9917297904029994  0.9917297904029994  0.2684952670143659
  0.7972433673619079  0.4905642663957508  0.2792575870297611
  0.4905642663957508  0.7972433673619079  0.2792575870297611
  0.3035316426291246  0.3035316426291246  0.2910459699537640
  0.7361128226166613  0.7361128226166613  0.7452196454038855
  0.5434668165364016  0.2488656895527157  0.7483886835698144
  0.2488656895527157  0.5434668165364016  0.7483886835698144
  0.0345564035458636  0.0345564035458636  0.7548898619461326
  0.8423785138535962  0.1536683763293283  0.9974487148205355
  0.3450091773879223  0.3450091773879223  0.9901964201402507
  0.6743394096698978  0.6743394096698978  0.0132029220391985
  0.1536683763293283  0.8423785138535962  0.9974487148205355
  0.6309928029041174  0.1693527547694700  0.4195454873403150
  0.1693527547694700  0.6309928029041174  0.4195454873403150
 
  0.00000000E+00  0.00000000E+00  0.00000000E+00
  0.00000000E+00  0.00000000E+00  0.00000000E+00
  0.00000000E+00  0.00000000E+00  0.00000000E+00
  0.00000000E+00  0.00000000E+00  0.00000000E+00
  0.00000000E+00  0.00000000E+00  0.00000000E+00
  0.00000000E+00  0.00000000E+00  0.00000000E+00
  0.00000000E+00  0.00000000E+00  0.00000000E+00
  0.00000000E+00  0.00000000E+00  0.00000000E+00
  0.00000000E+00  0.00000000E+00  0.00000000E+00
  0.00000000E+00  0.00000000E+00  0.00000000E+00
  0.00000000E+00  0.00000000E+00  0.00000000E+00
  0.00000000E+00  0.00000000E+00  0.00000000E+00
  0.00000000E+00  0.00000000E+00  0.00000000E+00
  0.00000000E+00  0.00000000E+00  0.00000000E+00
  0.00000000E+00  0.00000000E+00  0.00000000E+00
  0.00000000E+00  0.00000000E+00  0.00000000E+00
