Ba6 Al4 Cl24                            
   1.00000000000000     
     0.0000000000000000    0.0000000000000000    6.8958106153222225
    12.0358613764841458    0.0001465869527639    0.0000000000000000
     0.0001465194439401   12.0359342001715373    0.0000000000000000
   Ba   Cl   Al
     6    24     4
Direct
  0.0000000000000000  0.0000715302019785  0.0000183099648581
  0.5000000000000000  0.3593378938063196  0.1408083941537015
  0.5000000000000000  0.8591672977241771  0.3592392625732472
  0.0000000000000000  0.4999740393252452  0.4999763902835070
  0.5000000000000000  0.1407017818049070  0.6408464144818424
  0.5000000000000000  0.6408735513224713  0.8591920405147349
  0.2547360309478179  0.5000610749232806  0.9999689003940304
  0.7452639690521821  0.5000610749232806  0.9999689003940304
  0.2366848761559766  0.7891335506005746  0.0984529255584619
  0.7633151238440234  0.7891335506005746  0.0984529255584619
  0.0000000000000000  0.3387328354767547  0.1613326119800718
  0.2366771404044243  0.0984759611864021  0.2109103707952968
  0.7633228595955757  0.0984759611864021  0.2109103707952968
  0.2367086458292533  0.5984368067921864  0.2890861326669025
  0.7632913541707467  0.5984368067921864  0.2890861326669025
  0.0000000000000000  0.8386793205452463  0.3387007542633782
  0.2366930624524812  0.2891033149237643  0.4015857916567924
  0.7633069375475188  0.2891033149237643  0.4015857916567924
  0.2547390214945082  0.9999967732074495  0.4999839359922404
  0.7452609785054918  0.9999967732074495  0.4999839359922404
  0.2367008708209681  0.7109096879058114  0.5984132761815815
  0.7632991291790319  0.7109096879058114  0.5984132761815815
  0.0000000000000000  0.1611472642546588  0.6614622056026249
  0.2366663684315213  0.4014886188888553  0.7108758361900414
  0.7633336315684787  0.4014886188888553  0.7108758361900414
  0.2367050769036538  0.9015641555360787  0.7890947333827398
  0.7632949230963462  0.9015641555360787  0.7890947333827398
  0.0000000000000000  0.6613188070888114  0.8386434363251070
  0.2367169323040983  0.2109196172239578  0.9016140581521412
  0.7632830676959017  0.2109196172239578  0.9016140581521412
  0.0000000000000000  0.7115329404731341  0.2115198153176934
  0.0000000000000000  0.2115439397462993  0.2884917097403559
  0.0000000000000000  0.7884977328583531  0.7114922814842828
  0.0000000000000000  0.2884419429949432  0.7885044513741164
 
  0.00000000E+00  0.00000000E+00  0.00000000E+00
  0.00000000E+00  0.00000000E+00  0.00000000E+00
  0.00000000E+00  0.00000000E+00  0.00000000E+00
  0.00000000E+00  0.00000000E+00  0.00000000E+00
  0.00000000E+00  0.00000000E+00  0.00000000E+00
  0.00000000E+00  0.00000000E+00  0.00000000E+00
  0.00000000E+00  0.00000000E+00  0.00000000E+00
  0.00000000E+00  0.00000000E+00  0.00000000E+00
  0.00000000E+00  0.00000000E+00  0.00000000E+00
  0.00000000E+00  0.00000000E+00  0.00000000E+00
  0.00000000E+00  0.00000000E+00  0.00000000E+00
  0.00000000E+00  0.00000000E+00  0.00000000E+00
  0.00000000E+00  0.00000000E+00  0.00000000E+00
  0.00000000E+00  0.00000000E+00  0.00000000E+00
  0.00000000E+00  0.00000000E+00  0.00000000E+00
  0.00000000E+00  0.00000000E+00  0.00000000E+00
  0.00000000E+00  0.00000000E+00  0.00000000E+00
  0.00000000E+00  0.00000000E+00  0.00000000E+00
  0.00000000E+00  0.00000000E+00  0.00000000E+00
  0.00000000E+00  0.00000000E+00  0.00000000E+00
  0.00000000E+00  0.00000000E+00  0.00000000E+00
  0.00000000E+00  0.00000000E+00  0.00000000E+00
  0.00000000E+00  0.00000000E+00  0.00000000E+00
  0.00000000E+00  0.00000000E+00  0.00000000E+00
  0.00000000E+00  0.00000000E+00  0.00000000E+00
  0.00000000E+00  0.00000000E+00  0.00000000E+00
  0.00000000E+00  0.00000000E+00  0.00000000E+00
  0.00000000E+00  0.00000000E+00  0.00000000E+00
  0.00000000E+00  0.00000000E+00  0.00000000E+00
  0.00000000E+00  0.00000000E+00  0.00000000E+00
  0.00000000E+00  0.00000000E+00  0.00000000E+00
  0.00000000E+00  0.00000000E+00  0.00000000E+00
  0.00000000E+00  0.00000000E+00  0.00000000E+00
  0.00000000E+00  0.00000000E+00  0.00000000E+00
