Be2 Al2 I10                             
   1.00000000000000     
     6.8874303336139784   -1.3513837694521798    2.6476548142386243
     0.1907908484511194    7.0161621016986739    2.6476547832557329
    -0.0280207277208048   -0.0224228230563900   10.6242881545278749
   Be   Al   I 
     2     2    10
Direct
  0.6364980042097557  0.3635019977642031  0.2499999987009502
  0.3635019957902443  0.6364980022357969  0.7500000012990498
  0.0000000000000000  0.0000000000000000  0.5000000000000000
  0.0000000000000000  0.0000000000000000  0.0000000000000000
  0.7207674517885820  0.6691143214877826  0.6594451130944563
  0.3308856771135851  0.2792315486512891  0.8405548871693114
  0.2792315482114205  0.3308856785122174  0.3405558869055483
  0.6691143228864149  0.7207674513487135  0.1594451128306886
  0.9093963085325925  0.0906036902351559  0.7500000004523173
  0.0906036914674146  0.9093963097648441  0.2499999995476827
  0.7634521939623227  0.2738456557445303  0.0437175151378568
  0.7261543432162441  0.2365478067964304  0.4562824851104281
  0.2365478060376702  0.7261543442554768  0.9562824848621432
  0.2738456567837559  0.7634521932035696  0.5437175148895719
 
  0.00000000E+00  0.00000000E+00  0.00000000E+00
  0.00000000E+00  0.00000000E+00  0.00000000E+00
  0.00000000E+00  0.00000000E+00  0.00000000E+00
  0.00000000E+00  0.00000000E+00  0.00000000E+00
  0.00000000E+00  0.00000000E+00  0.00000000E+00
  0.00000000E+00  0.00000000E+00  0.00000000E+00
  0.00000000E+00  0.00000000E+00  0.00000000E+00
  0.00000000E+00  0.00000000E+00  0.00000000E+00
  0.00000000E+00  0.00000000E+00  0.00000000E+00
  0.00000000E+00  0.00000000E+00  0.00000000E+00
  0.00000000E+00  0.00000000E+00  0.00000000E+00
  0.00000000E+00  0.00000000E+00  0.00000000E+00
  0.00000000E+00  0.00000000E+00  0.00000000E+00
  0.00000000E+00  0.00000000E+00  0.00000000E+00
