Be4 Ga4 F20                             
   1.0000000000000000     
     5.1802397744040221    0.0000000000000000    0.0000000000000003
    -0.0000000000000003    5.2690545477398647    0.0000000000000003
     0.0000000000000000    0.0000000000000000   10.9017753560394510
   Be   Ga   F 
     4     4    20
Direct
  0.6226793176511549  0.3260927956710660  0.3775640073479281
  0.1226793176511549  0.1739072043289340  0.6224359926520791
  0.3773206823488451  0.8260927956710660  0.1224359926520791
  0.8773206823488380  0.6739072043289340  0.8775640073479209
  0.2739143878702777  0.8411138171875692  0.3995908347524377
  0.7739143878702777  0.6588861828124308  0.6004091652475623
  0.7260856121297223  0.3411138171875621  0.1004091652475623
  0.2260856121297223  0.1588861828124308  0.8995908347524306
  0.9427761554794216  0.7233769057412331  0.4413952983944824
  0.4427761554794074  0.7766230942587669  0.5586047016055318
  0.0572238445205855  0.2233769057412331  0.0586047016055176
  0.5572238445205784  0.2766230942587669  0.9413952983944682
  0.1787580714470423  0.8869651711531077  0.2304050514749107
  0.6787580714470423  0.6130348288468923  0.7695949485250893
  0.8212419285529577  0.3869651711531077  0.2695949485250893
  0.3212419285529577  0.1130348288468923  0.7304050514749107
  0.8221844281178221  0.6470713179386323  0.0180920215612375
  0.3221844281178292  0.8529286820613677  0.9819079784387554
  0.1778155718821708  0.1470713179386394  0.4819079784387554
  0.6778155718821779  0.3529286820613677  0.5180920215612446
  0.4268626621130167  0.5352799245633619  0.1368816266962654
  0.9268626621130167  0.9647200754366381  0.8631183733037346
  0.5731373378869833  0.0352799245633690  0.3631183733037346
  0.0731373378869833  0.4647200754366310  0.6368816266962654
  0.1098338533584595  0.4874428247274665  0.8584768430322072
  0.6098338533584666  0.0125571752725406  0.1415231569677928
  0.8901661466415334  0.9874428247274665  0.6415231569677928
  0.3901661466415334  0.5125571752725335  0.3584768430322143

  0.00000000E+00  0.00000000E+00  0.00000000E+00
  0.00000000E+00  0.00000000E+00  0.00000000E+00
  0.00000000E+00  0.00000000E+00  0.00000000E+00
  0.00000000E+00  0.00000000E+00  0.00000000E+00
  0.00000000E+00  0.00000000E+00  0.00000000E+00
  0.00000000E+00  0.00000000E+00  0.00000000E+00
  0.00000000E+00  0.00000000E+00  0.00000000E+00
  0.00000000E+00  0.00000000E+00  0.00000000E+00
  0.00000000E+00  0.00000000E+00  0.00000000E+00
  0.00000000E+00  0.00000000E+00  0.00000000E+00
  0.00000000E+00  0.00000000E+00  0.00000000E+00
  0.00000000E+00  0.00000000E+00  0.00000000E+00
  0.00000000E+00  0.00000000E+00  0.00000000E+00
  0.00000000E+00  0.00000000E+00  0.00000000E+00
  0.00000000E+00  0.00000000E+00  0.00000000E+00
  0.00000000E+00  0.00000000E+00  0.00000000E+00
  0.00000000E+00  0.00000000E+00  0.00000000E+00
  0.00000000E+00  0.00000000E+00  0.00000000E+00
  0.00000000E+00  0.00000000E+00  0.00000000E+00
  0.00000000E+00  0.00000000E+00  0.00000000E+00
  0.00000000E+00  0.00000000E+00  0.00000000E+00
  0.00000000E+00  0.00000000E+00  0.00000000E+00
  0.00000000E+00  0.00000000E+00  0.00000000E+00
  0.00000000E+00  0.00000000E+00  0.00000000E+00
  0.00000000E+00  0.00000000E+00  0.00000000E+00
  0.00000000E+00  0.00000000E+00  0.00000000E+00
  0.00000000E+00  0.00000000E+00  0.00000000E+00
  0.00000000E+00  0.00000000E+00  0.00000000E+00
