Be4 Tl4 F2                              
   1.0000000000000000     
     4.9534362058092700    0.6570986938535276    0.0000000000000000
    -1.8323971810833712    4.0949569943011035    0.0000000000000000
     0.0000000000000000    0.0000000000000000    9.2578060152126103
   Tl   F    Be
     4     2     4
Direct
  0.3015487937165204  0.6610508292356414  0.0802410725473806
  0.3015487937165204  0.6610508292356414  0.4197589274526123
  0.6984512062834796  0.3389491707643657  0.5802410725473806
  0.6984512062834796  0.3389491707643657  0.9197589274526194
  0.8787330704901279  0.9955015574255057  0.2500000000000000
  0.1212669295098721  0.0044984425744943  0.7500000000000000
  0.8630597970626894  0.9080499723934139  0.0878114189812464
  0.8630597970626894  0.9080499723934139  0.4121885810187536
  0.1369402029373106  0.0919500276065861  0.5878114189812464
  0.1369402029373106  0.0919500276065861  0.9121885810187536

  0.00000000E+00  0.00000000E+00  0.00000000E+00
  0.00000000E+00  0.00000000E+00  0.00000000E+00
  0.00000000E+00  0.00000000E+00  0.00000000E+00
  0.00000000E+00  0.00000000E+00  0.00000000E+00
  0.00000000E+00  0.00000000E+00  0.00000000E+00
  0.00000000E+00  0.00000000E+00  0.00000000E+00
  0.00000000E+00  0.00000000E+00  0.00000000E+00
  0.00000000E+00  0.00000000E+00  0.00000000E+00
  0.00000000E+00  0.00000000E+00  0.00000000E+00
  0.00000000E+00  0.00000000E+00  0.00000000E+00
