Sr16 In6                                
   1.0000000000000000     
    10.3396930471691615    0.0155232931834872   -0.0122069913521715
    -5.1443302658880281    9.0003458685927598    0.0067826894265684
    -2.0511834284862198   -3.0263812792248990    9.7976264369250110
   In   Sr
     6    16
Direct
  0.9996178593997698  0.4998855577898951  0.9998418117456325
  0.6764962295386070  0.8392449619231144  0.0256772306469131
  0.8288438258258992  0.6649778743751256  0.4981157970367249
  0.5001842849081513  0.9999740219208988  0.4999482836189202
  0.1711538993750850  0.3350430349333848  0.5021224236603388
  0.3238419812909115  0.1610291021210557  0.9744015351681909
  0.0841322411348884  0.2332125329778094  0.1064359939634016
  0.7015890383441103  0.4927361640342269  0.1114433714485870
  0.3293530112491396  0.8810538554998573  0.1126604823933235
  0.5483474492865525  0.7133862429166058  0.2951556336648693
  0.7751928530000072  0.1505303360448522  0.2983014359743805
  0.0379769079518795  0.9389888206628925  0.3308594507210998
  0.4699111991736444  0.3000258399296882  0.3522589563757137
  0.1242187847066205  0.5980455007980581  0.3527367178329044
  0.8757639497079239  0.4018239971242821  0.6471968706827482
  0.5301915974814619  0.7000779783013371  0.6476394185740730
  0.9622739977028942  0.0609989952547565  0.6694737670084550
  0.2248548868076199  0.8493697446241413  0.7018884650616641
  0.4516957866141880  0.2864998258053291  0.7046665300062074
  0.6705510865687785  0.1188575649791446  0.8873221919149756
  0.2984761958819533  0.5073176295341497  0.8886935938794451
  0.9157329340499274  0.7666204184493708  0.8935600386214304

  0.00000000E+00  0.00000000E+00  0.00000000E+00
  0.00000000E+00  0.00000000E+00  0.00000000E+00
  0.00000000E+00  0.00000000E+00  0.00000000E+00
  0.00000000E+00  0.00000000E+00  0.00000000E+00
  0.00000000E+00  0.00000000E+00  0.00000000E+00
  0.00000000E+00  0.00000000E+00  0.00000000E+00
  0.00000000E+00  0.00000000E+00  0.00000000E+00
  0.00000000E+00  0.00000000E+00  0.00000000E+00
  0.00000000E+00  0.00000000E+00  0.00000000E+00
  0.00000000E+00  0.00000000E+00  0.00000000E+00
  0.00000000E+00  0.00000000E+00  0.00000000E+00
  0.00000000E+00  0.00000000E+00  0.00000000E+00
  0.00000000E+00  0.00000000E+00  0.00000000E+00
  0.00000000E+00  0.00000000E+00  0.00000000E+00
  0.00000000E+00  0.00000000E+00  0.00000000E+00
  0.00000000E+00  0.00000000E+00  0.00000000E+00
  0.00000000E+00  0.00000000E+00  0.00000000E+00
  0.00000000E+00  0.00000000E+00  0.00000000E+00
  0.00000000E+00  0.00000000E+00  0.00000000E+00
  0.00000000E+00  0.00000000E+00  0.00000000E+00
  0.00000000E+00  0.00000000E+00  0.00000000E+00
  0.00000000E+00  0.00000000E+00  0.00000000E+00
