Al2Cl                                   
   1.00000000000000     
     7.6089446750704877    0.0000000000000000    0.0000000000000000
     0.0000000000000000    7.6089446750704921    0.0000000000000000
     0.0000000000000000    0.0000000000000000    2.8989852509676148
   Al   Cl
     4     2
Direct
  0.2237716114310331  0.2237716114310331  0.0000000000000000
  0.7762283885689669  0.7762283885689669  0.0000000000000000
  0.7237716114310331  0.2762283885689740  0.5000000000000000
  0.2762283885689669  0.7237716114310331  0.5000000000000000
  0.0000000000000000  0.0000000000000000  0.0000000000000000
  0.5000000000000000  0.5000000000000000  0.5000000000000000
 
  0.00000000E+00  0.00000000E+00  0.00000000E+00
  0.00000000E+00  0.00000000E+00  0.00000000E+00
  0.00000000E+00  0.00000000E+00  0.00000000E+00
  0.00000000E+00  0.00000000E+00  0.00000000E+00
  0.00000000E+00  0.00000000E+00  0.00000000E+00
  0.00000000E+00  0.00000000E+00  0.00000000E+00
