Mg40 Al4                                
   1.00000000000000     
     0.0000000000000000    8.0580366648601327    8.0580366648601327
     8.0580366648601327    0.0000000000000000    8.0580366648601327
     8.0580366648601327    8.0580366648601327    0.0000000000000000
   Mg   Al
    40     4
Direct
  0.6136347692416919  0.6136347692416919  0.8863652307583081
  0.3636347692416919  0.6363652307583081  0.6363652307583081
  0.6363652307583081  0.3636347692416919  0.3636347692416919
  0.3636347692416919  0.3636347692416919  0.6363652307583081
  0.3636347692416919  0.6363652307583081  0.3636347692416919
  0.6363652307583081  0.3636347692416919  0.6363652307583081
  0.8863652307583081  0.6136347692416919  0.8863652307583081
  0.8863652307583081  0.6136347692416919  0.6136347692416919
  0.6136347692416919  0.8863652307583081  0.8863652307583081
  0.6136347692416919  0.8863652307583081  0.6136347692416919
  0.6363652307583081  0.6363652307583081  0.3636347692416919
  0.8863652307583081  0.8863652307583081  0.6136347692416919
  0.8021775033625929  0.0677348012684007  0.3279091920064161
  0.4478224966374071  0.4478224966374071  0.1822651987315993
  0.1822651987315993  0.9220908079935839  0.4478224966374071
  0.4478224966374071  0.9220908079935839  0.4478224966374071
  0.9220908079935839  0.4478224966374071  0.1822651987315993
  0.9220908079935839  0.4478224966374071  0.4478224966374071
  0.1822651987315993  0.4478224966374071  0.4478224966374071
  0.3279091920064161  0.0677348012684007  0.8021775033625929
  0.8021775033625929  0.0677348012684007  0.8021775033625929
  0.0677348012684007  0.8021775033625929  0.3279091920064161
  0.8021775033625929  0.8021775033625929  0.3279091920064161
  0.0677348012684007  0.3279091920064161  0.8021775033625929
  0.3279091920064161  0.8021775033625929  0.0677348012684007
  0.8021775033625929  0.8021775033625929  0.0677348012684007
  0.8021775033625929  0.3279091920064161  0.8021775033625929
  0.1822651987315993  0.4478224966374071  0.9220908079935839
  0.4478224966374071  0.4478224966374071  0.9220908079935839
  0.4478224966374071  0.9220908079935839  0.1822651987315993
  0.4478224966374071  0.1822651987315993  0.9220908079935839
  0.9220908079935839  0.1822651987315993  0.4478224966374071
  0.4478224966374071  0.1822651987315993  0.4478224966374071
  0.3279091920064161  0.8021775033625929  0.8021775033625929
  0.0677348012684007  0.8021775033625929  0.8021775033625929
  0.8021775033625929  0.3279091920064161  0.0677348012684007
  0.1250000000000000  0.1250000000000000  0.1250000000000000
  0.6250000000000000  0.1250000000000000  0.1250000000000000
  0.1250000000000000  0.1250000000000000  0.6250000000000000
  0.1250000000000000  0.6250000000000000  0.1250000000000000
  0.6250000000000000  0.6250000000000000  0.6250000000000000
  0.1250000000000000  0.6250000000000000  0.6250000000000000
  0.6250000000000000  0.6250000000000000  0.1250000000000000
  0.6250000000000000  0.1250000000000000  0.6250000000000000
 
  0.00000000E+00  0.00000000E+00  0.00000000E+00
  0.00000000E+00  0.00000000E+00  0.00000000E+00
  0.00000000E+00  0.00000000E+00  0.00000000E+00
  0.00000000E+00  0.00000000E+00  0.00000000E+00
  0.00000000E+00  0.00000000E+00  0.00000000E+00
  0.00000000E+00  0.00000000E+00  0.00000000E+00
  0.00000000E+00  0.00000000E+00  0.00000000E+00
  0.00000000E+00  0.00000000E+00  0.00000000E+00
  0.00000000E+00  0.00000000E+00  0.00000000E+00
  0.00000000E+00  0.00000000E+00  0.00000000E+00
  0.00000000E+00  0.00000000E+00  0.00000000E+00
  0.00000000E+00  0.00000000E+00  0.00000000E+00
  0.00000000E+00  0.00000000E+00  0.00000000E+00
  0.00000000E+00  0.00000000E+00  0.00000000E+00
  0.00000000E+00  0.00000000E+00  0.00000000E+00
  0.00000000E+00  0.00000000E+00  0.00000000E+00
  0.00000000E+00  0.00000000E+00  0.00000000E+00
  0.00000000E+00  0.00000000E+00  0.00000000E+00
  0.00000000E+00  0.00000000E+00  0.00000000E+00
  0.00000000E+00  0.00000000E+00  0.00000000E+00
  0.00000000E+00  0.00000000E+00  0.00000000E+00
  0.00000000E+00  0.00000000E+00  0.00000000E+00
  0.00000000E+00  0.00000000E+00  0.00000000E+00
  0.00000000E+00  0.00000000E+00  0.00000000E+00
  0.00000000E+00  0.00000000E+00  0.00000000E+00
  0.00000000E+00  0.00000000E+00  0.00000000E+00
  0.00000000E+00  0.00000000E+00  0.00000000E+00
  0.00000000E+00  0.00000000E+00  0.00000000E+00
  0.00000000E+00  0.00000000E+00  0.00000000E+00
  0.00000000E+00  0.00000000E+00  0.00000000E+00
  0.00000000E+00  0.00000000E+00  0.00000000E+00
  0.00000000E+00  0.00000000E+00  0.00000000E+00
  0.00000000E+00  0.00000000E+00  0.00000000E+00
  0.00000000E+00  0.00000000E+00  0.00000000E+00
  0.00000000E+00  0.00000000E+00  0.00000000E+00
  0.00000000E+00  0.00000000E+00  0.00000000E+00
  0.00000000E+00  0.00000000E+00  0.00000000E+00
  0.00000000E+00  0.00000000E+00  0.00000000E+00
  0.00000000E+00  0.00000000E+00  0.00000000E+00
  0.00000000E+00  0.00000000E+00  0.00000000E+00
  0.00000000E+00  0.00000000E+00  0.00000000E+00
  0.00000000E+00  0.00000000E+00  0.00000000E+00
  0.00000000E+00  0.00000000E+00  0.00000000E+00
  0.00000000E+00  0.00000000E+00  0.00000000E+00
