Be17 B11 Cl1                            
   1.00000000000000     
     5.0964629847246909   -2.6198899017372348    2.1944651025130404
     0.7826828725884156    7.0357591486177311    2.9665838843568526
    -5.5802446512531203   -3.7322925482848910    1.7313118575834547
   B    Cl   Be
    11     1    17
Direct
  0.6969334734646253  0.9677338064305161  0.0002879046024589
  0.3806208825052479  0.3258833145516320  0.1775244990441962
  0.8755381737851096  0.2531286597108036  0.1594253685408020
  0.2721026396345536  0.9549704788267093  0.2909953386800055
  0.2045751822349970  0.3713867056494777  0.3405680956303883
  0.3957126213815059  0.2186107843441150  0.3540836794137121
  0.0418601377373591  0.8645821987418429  0.6458270208209598
  0.8637524484051227  0.0305879079718707  0.6591954158003830
  0.9802908041666782  0.6641233579104195  0.7086596709303095
  0.7159086944730646  0.0935165195137699  0.8404309124035905
  0.2029543708456174  0.1483414538125629  0.8222912391325394
  0.6330257691987029  0.5795604182975325  0.9998651180921172
  0.0553852221545128  0.3370701492804073  0.0000252020257960
  0.2612535951281032  0.9451128790285921  0.0000024953983058
  0.5811467073817411  0.2960779954000188  0.9999999697434632
  0.9042133598321698  0.7894367953705412  0.0003373607927273
  0.1680331687268506  0.6466410489395855  0.9993360135718135
  0.6940171889952822  0.6329110002883027  0.3684498872978779
  0.6304002443888166  0.0051232133873640  0.2716874062048049
  0.0189274112907114  0.5613964585223172  0.4088698639763422
  0.0171777589400222  0.1117089502676407  0.3004206969855119
  0.3460149353624473  0.6251725823283110  0.3539822163793218
  0.7262809476271030  0.3683194688192728  0.3958747886844662
  0.3303209844223218  0.9726716837453893  0.6038966924030831
  0.9916773326945503  0.2707850196198009  0.6459219970896584
  0.7173547653635381  0.8113964513100171  0.7001595614063731
  0.6100697308084833  0.1528269911977205  0.5911875227389842
  0.3594742207588055  0.7344717835060521  0.7280817661813970
  0.3259332282919587  0.2657919232274395  0.6326132960286088
 
  0.00000000E+00  0.00000000E+00  0.00000000E+00
  0.00000000E+00  0.00000000E+00  0.00000000E+00
  0.00000000E+00  0.00000000E+00  0.00000000E+00
  0.00000000E+00  0.00000000E+00  0.00000000E+00
  0.00000000E+00  0.00000000E+00  0.00000000E+00
  0.00000000E+00  0.00000000E+00  0.00000000E+00
  0.00000000E+00  0.00000000E+00  0.00000000E+00
  0.00000000E+00  0.00000000E+00  0.00000000E+00
  0.00000000E+00  0.00000000E+00  0.00000000E+00
  0.00000000E+00  0.00000000E+00  0.00000000E+00
  0.00000000E+00  0.00000000E+00  0.00000000E+00
  0.00000000E+00  0.00000000E+00  0.00000000E+00
  0.00000000E+00  0.00000000E+00  0.00000000E+00
  0.00000000E+00  0.00000000E+00  0.00000000E+00
  0.00000000E+00  0.00000000E+00  0.00000000E+00
  0.00000000E+00  0.00000000E+00  0.00000000E+00
  0.00000000E+00  0.00000000E+00  0.00000000E+00
  0.00000000E+00  0.00000000E+00  0.00000000E+00
  0.00000000E+00  0.00000000E+00  0.00000000E+00
  0.00000000E+00  0.00000000E+00  0.00000000E+00
  0.00000000E+00  0.00000000E+00  0.00000000E+00
  0.00000000E+00  0.00000000E+00  0.00000000E+00
  0.00000000E+00  0.00000000E+00  0.00000000E+00
  0.00000000E+00  0.00000000E+00  0.00000000E+00
  0.00000000E+00  0.00000000E+00  0.00000000E+00
  0.00000000E+00  0.00000000E+00  0.00000000E+00
  0.00000000E+00  0.00000000E+00  0.00000000E+00
  0.00000000E+00  0.00000000E+00  0.00000000E+00
  0.00000000E+00  0.00000000E+00  0.00000000E+00
