Ca4 B4 Cl20                             
   1.0000000000000000     
     7.5593946384359185    0.0000000000000000    0.0000000000000006
    -0.0000000000000005    6.8417092270031716    0.0000000000000005
     0.0000000000000006    0.0000000000000002   17.9800565362514426
   Ca   B    Cl
     4     4    20
Direct
  0.7219130749436857  0.4874989619207710  0.2527820850105158
  0.2219130749436857  0.0125010380792290  0.7472179149894842
  0.2780869250563072  0.9874989619207710  0.2472179149894842
  0.7780869250563072  0.5125010380792290  0.7527820850105158
  0.9727838297555707  0.8024999304029166  0.3760864567425699
  0.4727838297555707  0.6975000695970834  0.6239135432574230
  0.0272161702444293  0.3024999304029166  0.1239135432574230
  0.5272161702444293  0.1975000695970834  0.8760864567425699
  0.8597449075972676  0.5647621467769781  0.3964665094032895
  0.3597449075972605  0.9352378532230219  0.6035334905967105
  0.1402550924027324  0.0647621467769852  0.1035334905967105
  0.6402550924027324  0.4352378532230148  0.8964665094032895
  0.9149049746440099  0.8657763853690241  0.2733431989854509
  0.4149049746440099  0.6342236146309759  0.7266568010145491
  0.0850950253559901  0.3657763853690241  0.2266568010145491
  0.5850950253559901  0.1342236146309759  0.7733431989854509
  0.0983577624270140  0.4953236138245956  0.0633158665139604
  0.5983577624270140  0.0046763861754044  0.9366841334860396
  0.9016422375729860  0.9953236138246027  0.4366841334860396
  0.4016422375729860  0.5046763861753973  0.5633158665139604
  0.4895072593421688  0.7223687255945777  0.1905046904327961
  0.9895072593421688  0.7776312744054223  0.8094953095672039
  0.5104927406578312  0.2223687255945777  0.3094953095672039
  0.0104927406578312  0.2776312744054223  0.6905046904327961
  0.2807049968727782  0.2312359447295691  0.8782311839756005
  0.7807049968727782  0.2687640552704309  0.1217688160243995
  0.7192950031272218  0.7312359447295691  0.6217688160243995
  0.2192950031272218  0.7687640552704309  0.3782311839756005

  0.00000000E+00  0.00000000E+00  0.00000000E+00
  0.00000000E+00  0.00000000E+00  0.00000000E+00
  0.00000000E+00  0.00000000E+00  0.00000000E+00
  0.00000000E+00  0.00000000E+00  0.00000000E+00
  0.00000000E+00  0.00000000E+00  0.00000000E+00
  0.00000000E+00  0.00000000E+00  0.00000000E+00
  0.00000000E+00  0.00000000E+00  0.00000000E+00
  0.00000000E+00  0.00000000E+00  0.00000000E+00
  0.00000000E+00  0.00000000E+00  0.00000000E+00
  0.00000000E+00  0.00000000E+00  0.00000000E+00
  0.00000000E+00  0.00000000E+00  0.00000000E+00
  0.00000000E+00  0.00000000E+00  0.00000000E+00
  0.00000000E+00  0.00000000E+00  0.00000000E+00
  0.00000000E+00  0.00000000E+00  0.00000000E+00
  0.00000000E+00  0.00000000E+00  0.00000000E+00
  0.00000000E+00  0.00000000E+00  0.00000000E+00
  0.00000000E+00  0.00000000E+00  0.00000000E+00
  0.00000000E+00  0.00000000E+00  0.00000000E+00
  0.00000000E+00  0.00000000E+00  0.00000000E+00
  0.00000000E+00  0.00000000E+00  0.00000000E+00
  0.00000000E+00  0.00000000E+00  0.00000000E+00
  0.00000000E+00  0.00000000E+00  0.00000000E+00
  0.00000000E+00  0.00000000E+00  0.00000000E+00
  0.00000000E+00  0.00000000E+00  0.00000000E+00
  0.00000000E+00  0.00000000E+00  0.00000000E+00
  0.00000000E+00  0.00000000E+00  0.00000000E+00
  0.00000000E+00  0.00000000E+00  0.00000000E+00
  0.00000000E+00  0.00000000E+00  0.00000000E+00
