Be2 In2 I10                             
   1.00000000000000     
     5.4272767845614780   -5.5140833783050871   -0.4964982655588001
     5.4242356078874030    5.5130846813444334   -0.4975748293307037
    -4.6522462436414296   -0.0003405634321550    9.9969700176036191
   In   Be   I 
     2     2    10
Direct
  0.0000119166315713  0.0000659639983738  0.0000679343515557
  0.0000501058827780  0.0000607618559698  0.5000589760263807
  0.3691624228232371  0.6307031741915523  0.2500097004397333
  0.6309139115714828  0.3693551036397764  0.7500802470911765
  0.2415952105327861  0.7101724156421625  0.0482290986387355
  0.3413255140922118  0.2855081214423834  0.1665913907871115
  0.8955945220927575  0.1042212355749683  0.2499710613599149
  0.7143914821433981  0.6588514772111580  0.3336031524141561
  0.2891993335466481  0.7577939714868194  0.4516023800541049
  0.7108887724230897  0.2422181235988958  0.5485267807000653
  0.2855846525130090  0.3412083894205296  0.6662214260109565
  0.1046098843994585  0.8959799911171729  0.7501617891357810
  0.6589207592228092  0.7145697256888468  0.8335139920393786
  0.7579515121247482  0.2894915451313906  0.9516620709509453
 
  0.00000000E+00  0.00000000E+00  0.00000000E+00
  0.00000000E+00  0.00000000E+00  0.00000000E+00
  0.00000000E+00  0.00000000E+00  0.00000000E+00
  0.00000000E+00  0.00000000E+00  0.00000000E+00
  0.00000000E+00  0.00000000E+00  0.00000000E+00
  0.00000000E+00  0.00000000E+00  0.00000000E+00
  0.00000000E+00  0.00000000E+00  0.00000000E+00
  0.00000000E+00  0.00000000E+00  0.00000000E+00
  0.00000000E+00  0.00000000E+00  0.00000000E+00
  0.00000000E+00  0.00000000E+00  0.00000000E+00
  0.00000000E+00  0.00000000E+00  0.00000000E+00
  0.00000000E+00  0.00000000E+00  0.00000000E+00
  0.00000000E+00  0.00000000E+00  0.00000000E+00
  0.00000000E+00  0.00000000E+00  0.00000000E+00
