Be22 In14                               
   1.00000000000000     
    -5.8922285401286993    7.0364302585728797    0.5403858137212968
     6.5077412529838776    0.0000000000000000   -7.6866612751403034
    -5.8922285401286993   -7.0364302585728797    0.5403858137212968
   Be   In
    22    14
Direct
  0.0023375643069414  0.9981936361006447  0.0023375643069414
  0.1975537518565460  0.2492225876057361  0.0431623236538954
  0.9304174992391054  0.3423927569478522  0.3780722987272043
  0.6194472013700008  0.6555955564620319  0.0694601453359880
  0.4742352338070006  0.0616638174257673  0.3122363220753996
  0.2401698112583048  0.7883607834958966  0.2401698112583048
  0.5126486918897299  0.8350903692183280  0.2440369636715474
  0.0431623236538954  0.2492225876057361  0.1975537518565460
  0.3122363220753996  0.0616638174257673  0.4742352338070006
  0.5001700478936186  0.0006275065705523  0.5001700478936186
  0.6879367338487654  0.9394942170807710  0.5258238165304192
  0.6171581655925635  0.2791606458939242  0.6171581655925635
  0.7562029620778929  0.1660481110029863  0.4874453132857042
  0.2440369636715474  0.8350903692183280  0.5126486918897299
  0.3835897296346502  0.7228047405536699  0.3835897296346502
  0.9504156061735927  0.7443416876858180  0.7956441216469585
  0.5258238165304192  0.9394942170807710  0.6879367338487654
  0.4874453132857042  0.1660481110029863  0.7562029620778929
  0.7601226081798274  0.2129547387120425  0.7601226081798274
  0.3780722987272043  0.3423927569478522  0.9304174992391054
  0.0694601453359880  0.6555955564620319  0.6194472013700008
  0.7956441216469585  0.7443416876858180  0.9504156061735927
  0.6806928731871906  0.1948501042761279  0.0434353906569811
  0.2894566083449206  0.1819971493276569  0.2894566083449206
  0.7983948528990013  0.9993975124499883  0.2048096701846163
  0.0833909500362040  0.4414730363016730  0.0833909500362040
  0.7193417847935919  0.4319941908597329  0.4463393100229283
  0.5503004661457425  0.5670368607014211  0.2816597304115973
  0.9556189908698514  0.8035163456196557  0.3188392120308023
  0.0434353906569811  0.1948501042761279  0.6806928731871906
  0.4463393100229283  0.4319941908597329  0.7193417847935919
  0.2816597304115973  0.5670368607014211  0.5503004661457425
  0.2048096701846163  0.9993975124499883  0.7983948528990013
  0.7207506187819419  0.8330277946351572  0.7207506187819419
  0.9182826295789681  0.5601117337363561  0.9182826295789681
  0.3188392120308023  0.8035163456196557  0.9556189908698514
 
  0.00000000E+00  0.00000000E+00  0.00000000E+00
  0.00000000E+00  0.00000000E+00  0.00000000E+00
  0.00000000E+00  0.00000000E+00  0.00000000E+00
  0.00000000E+00  0.00000000E+00  0.00000000E+00
  0.00000000E+00  0.00000000E+00  0.00000000E+00
  0.00000000E+00  0.00000000E+00  0.00000000E+00
  0.00000000E+00  0.00000000E+00  0.00000000E+00
  0.00000000E+00  0.00000000E+00  0.00000000E+00
  0.00000000E+00  0.00000000E+00  0.00000000E+00
  0.00000000E+00  0.00000000E+00  0.00000000E+00
  0.00000000E+00  0.00000000E+00  0.00000000E+00
  0.00000000E+00  0.00000000E+00  0.00000000E+00
  0.00000000E+00  0.00000000E+00  0.00000000E+00
  0.00000000E+00  0.00000000E+00  0.00000000E+00
  0.00000000E+00  0.00000000E+00  0.00000000E+00
  0.00000000E+00  0.00000000E+00  0.00000000E+00
  0.00000000E+00  0.00000000E+00  0.00000000E+00
  0.00000000E+00  0.00000000E+00  0.00000000E+00
  0.00000000E+00  0.00000000E+00  0.00000000E+00
  0.00000000E+00  0.00000000E+00  0.00000000E+00
  0.00000000E+00  0.00000000E+00  0.00000000E+00
  0.00000000E+00  0.00000000E+00  0.00000000E+00
  0.00000000E+00  0.00000000E+00  0.00000000E+00
  0.00000000E+00  0.00000000E+00  0.00000000E+00
  0.00000000E+00  0.00000000E+00  0.00000000E+00
  0.00000000E+00  0.00000000E+00  0.00000000E+00
  0.00000000E+00  0.00000000E+00  0.00000000E+00
  0.00000000E+00  0.00000000E+00  0.00000000E+00
  0.00000000E+00  0.00000000E+00  0.00000000E+00
  0.00000000E+00  0.00000000E+00  0.00000000E+00
  0.00000000E+00  0.00000000E+00  0.00000000E+00
  0.00000000E+00  0.00000000E+00  0.00000000E+00
  0.00000000E+00  0.00000000E+00  0.00000000E+00
  0.00000000E+00  0.00000000E+00  0.00000000E+00
  0.00000000E+00  0.00000000E+00  0.00000000E+00
  0.00000000E+00  0.00000000E+00  0.00000000E+00
