Ca8 B2                                  
   1.00000000000000     
     4.8951599575171478    0.0000000000000000    0.0000000000000000
     0.0000000000000000    4.8951599575171478    0.0000000000000000
     0.0000000000000000    0.0000000000000000   12.7187715331585167
   Ca   B 
     8     2
Direct
  0.0000000000000000  0.0000000000000000  0.0000000000000000
  0.5000000000000000  0.5000000000000000  0.0000000000000000
  0.5000000000000000  0.0000000000000000  0.4883538921901902
  0.0000000000000000  0.5000000000000000  0.5116461078098098
  0.5000000000000000  0.5000000000000000  0.2528569671219500
  0.0000000000000000  0.0000000000000000  0.2528569671219500
  0.0000000000000000  0.0000000000000000  0.7471430328780500
  0.5000000000000000  0.5000000000000000  0.7471430328780500
  0.0000000000000000  0.5000000000000000  0.8598304749071985
  0.5000000000000000  0.0000000000000000  0.1401695250928015
 
  0.00000000E+00  0.00000000E+00  0.00000000E+00
  0.00000000E+00  0.00000000E+00  0.00000000E+00
  0.00000000E+00  0.00000000E+00  0.00000000E+00
  0.00000000E+00  0.00000000E+00  0.00000000E+00
  0.00000000E+00  0.00000000E+00  0.00000000E+00
  0.00000000E+00  0.00000000E+00  0.00000000E+00
  0.00000000E+00  0.00000000E+00  0.00000000E+00
  0.00000000E+00  0.00000000E+00  0.00000000E+00
  0.00000000E+00  0.00000000E+00  0.00000000E+00
  0.00000000E+00  0.00000000E+00  0.00000000E+00
