Ba6 Al33                                
   1.00000000000000     
     9.4571582653895412    0.0000000000000000    0.0000000000000000
     0.0000000000000000    9.4571582653895430    0.0000000000000000
     0.0000000000000000    0.0000000000000000    9.4571582653895430
   Ba   Al
     6    33
Direct
  0.2244179956282224  0.5000000000000000  0.0000000000000000
  0.7755820043717776  0.5000000000000000  0.0000000000000000
  0.5000000000000000  0.0000000000000000  0.2244179956282224
  0.0000000000000000  0.2244179956282224  0.5000000000000000
  0.0000000000000000  0.7755820043717776  0.5000000000000000
  0.5000000000000000  0.0000000000000000  0.7755820043717776
  0.0000000000000000  0.0000000000000000  0.0000000000000000
  0.2496832359621308  0.1460608522681710  0.0000000000000000
  0.7503167640378692  0.1460608522681710  0.0000000000000000
  0.5000000000000000  0.2959762793832397  0.0000000000000000
  0.5000000000000000  0.7040237206167603  0.0000000000000000
  0.2496832359621308  0.8539391477318290  0.0000000000000000
  0.7503167640378692  0.8539391477318290  0.0000000000000000
  0.0000000000000000  0.2496832359621308  0.1460608522681710
  0.0000000000000000  0.7503167640378692  0.1460608522681710
  0.5000000000000000  0.5000000000000000  0.2646529276788954
  0.1460608522681710  0.0000000000000000  0.2496832359621308
  0.8539391477318290  0.0000000000000000  0.2496832359621308
  0.2863738288110653  0.2863738288110653  0.2863738288110653
  0.7136261711889347  0.2863738288110653  0.2863738288110653
  0.2863738288110653  0.7136261711889347  0.2863738288110653
  0.7136261711889347  0.7136261711889347  0.2863738288110653
  0.0000000000000000  0.5000000000000000  0.2959762793832397
  0.2959762793832397  0.0000000000000000  0.5000000000000000
  0.7040237206167603  0.0000000000000000  0.5000000000000000
  0.5000000000000000  0.2646529276788954  0.5000000000000000
  0.2646529276788954  0.5000000000000000  0.5000000000000000
  0.7353470723211046  0.5000000000000000  0.5000000000000000
  0.5000000000000000  0.7353470723211046  0.5000000000000000
  0.0000000000000000  0.5000000000000000  0.7040237206167603
  0.2863738288110653  0.2863738288110653  0.7136261711889347
  0.7136261711889347  0.2863738288110653  0.7136261711889347
  0.2863738288110653  0.7136261711889347  0.7136261711889347
  0.7136261711889347  0.7136261711889347  0.7136261711889347
  0.1460608522681710  0.0000000000000000  0.7503167640378692
  0.8539391477318290  0.0000000000000000  0.7503167640378692
  0.5000000000000000  0.5000000000000000  0.7353470723211046
  0.0000000000000000  0.2496832359621308  0.8539391477318290
  0.0000000000000000  0.7503167640378692  0.8539391477318290
 
  0.00000000E+00  0.00000000E+00  0.00000000E+00
  0.00000000E+00  0.00000000E+00  0.00000000E+00
  0.00000000E+00  0.00000000E+00  0.00000000E+00
  0.00000000E+00  0.00000000E+00  0.00000000E+00
  0.00000000E+00  0.00000000E+00  0.00000000E+00
  0.00000000E+00  0.00000000E+00  0.00000000E+00
  0.00000000E+00  0.00000000E+00  0.00000000E+00
  0.00000000E+00  0.00000000E+00  0.00000000E+00
  0.00000000E+00  0.00000000E+00  0.00000000E+00
  0.00000000E+00  0.00000000E+00  0.00000000E+00
  0.00000000E+00  0.00000000E+00  0.00000000E+00
  0.00000000E+00  0.00000000E+00  0.00000000E+00
  0.00000000E+00  0.00000000E+00  0.00000000E+00
  0.00000000E+00  0.00000000E+00  0.00000000E+00
  0.00000000E+00  0.00000000E+00  0.00000000E+00
  0.00000000E+00  0.00000000E+00  0.00000000E+00
  0.00000000E+00  0.00000000E+00  0.00000000E+00
  0.00000000E+00  0.00000000E+00  0.00000000E+00
  0.00000000E+00  0.00000000E+00  0.00000000E+00
  0.00000000E+00  0.00000000E+00  0.00000000E+00
  0.00000000E+00  0.00000000E+00  0.00000000E+00
  0.00000000E+00  0.00000000E+00  0.00000000E+00
  0.00000000E+00  0.00000000E+00  0.00000000E+00
  0.00000000E+00  0.00000000E+00  0.00000000E+00
  0.00000000E+00  0.00000000E+00  0.00000000E+00
  0.00000000E+00  0.00000000E+00  0.00000000E+00
  0.00000000E+00  0.00000000E+00  0.00000000E+00
  0.00000000E+00  0.00000000E+00  0.00000000E+00
  0.00000000E+00  0.00000000E+00  0.00000000E+00
  0.00000000E+00  0.00000000E+00  0.00000000E+00
  0.00000000E+00  0.00000000E+00  0.00000000E+00
  0.00000000E+00  0.00000000E+00  0.00000000E+00
  0.00000000E+00  0.00000000E+00  0.00000000E+00
  0.00000000E+00  0.00000000E+00  0.00000000E+00
  0.00000000E+00  0.00000000E+00  0.00000000E+00
  0.00000000E+00  0.00000000E+00  0.00000000E+00
  0.00000000E+00  0.00000000E+00  0.00000000E+00
  0.00000000E+00  0.00000000E+00  0.00000000E+00
  0.00000000E+00  0.00000000E+00  0.00000000E+00
