Ca4 Al4 I20                             
   1.0000000000000000     
    15.5194880561098554    0.0000000000000000    0.0000000000000000
     0.0000000000000000    8.0673168384596146    1.4057664509268528
     0.0000000000000000    6.3581657551792645   13.9403360211481750
   Ca   Al   I 
     4     4    20
Direct
  0.8826120425130881  0.5528508111223545  0.4182091030798247
  0.3826120425130881  0.4471491888776455  0.0817908969201753
  0.1173879574869119  0.4471491888776455  0.5817908969201753
  0.6173879574869119  0.5528508111223545  0.9182091030798247
  0.6956194240476918  0.0814485580355537  0.6678747025281879
  0.1956194240476847  0.9185514419644463  0.8321252974718121
  0.3043805759523224  0.9185514419644463  0.3321252974718121
  0.8043805759523082  0.0814485580355537  0.1678747025281879
  0.7137962348861109  0.8247939278161311  0.3308666499714192
  0.2137962348861109  0.1752060721838689  0.1691333500285808
  0.2862037651138891  0.1752060721838689  0.6691333500285879
  0.7862037651138891  0.8247939278161311  0.8308666499714121
  0.7731528814713684  0.1634161065570936  0.4976579425561454
  0.2731528814713684  0.8365838934429064  0.0023420574438546
  0.2268471185286316  0.8365838934429064  0.5023420574438475
  0.7268471185286316  0.1634161065570936  0.9976579425561525
  0.6669906755936168  0.3916965715768370  0.6607132707998673
  0.1669906755936168  0.6083034284231630  0.8392867292001327
  0.3330093244063832  0.6083034284231630  0.3392867292001398
  0.8330093244063832  0.3916965715768370  0.1607132707998673
  0.5565577922297464  0.8901941922938761  0.6853670629119222
  0.0565577922297464  0.1098058077061239  0.8146329370880778
  0.4434422077702536  0.1098058077061239  0.3146329370880778
  0.9434422077702536  0.8901941922938761  0.1853670629119222
  0.4497083370904775  0.3416807376308881  0.9355206058483319
  0.9497083370904775  0.6583192623691119  0.5644793941516681
  0.5502916629095225  0.6583192623691119  0.0644793941516681
  0.0502916629095225  0.3416807376308881  0.4355206058483319

  0.00000000E+00  0.00000000E+00  0.00000000E+00
  0.00000000E+00  0.00000000E+00  0.00000000E+00
  0.00000000E+00  0.00000000E+00  0.00000000E+00
  0.00000000E+00  0.00000000E+00  0.00000000E+00
  0.00000000E+00  0.00000000E+00  0.00000000E+00
  0.00000000E+00  0.00000000E+00  0.00000000E+00
  0.00000000E+00  0.00000000E+00  0.00000000E+00
  0.00000000E+00  0.00000000E+00  0.00000000E+00
  0.00000000E+00  0.00000000E+00  0.00000000E+00
  0.00000000E+00  0.00000000E+00  0.00000000E+00
  0.00000000E+00  0.00000000E+00  0.00000000E+00
  0.00000000E+00  0.00000000E+00  0.00000000E+00
  0.00000000E+00  0.00000000E+00  0.00000000E+00
  0.00000000E+00  0.00000000E+00  0.00000000E+00
  0.00000000E+00  0.00000000E+00  0.00000000E+00
  0.00000000E+00  0.00000000E+00  0.00000000E+00
  0.00000000E+00  0.00000000E+00  0.00000000E+00
  0.00000000E+00  0.00000000E+00  0.00000000E+00
  0.00000000E+00  0.00000000E+00  0.00000000E+00
  0.00000000E+00  0.00000000E+00  0.00000000E+00
  0.00000000E+00  0.00000000E+00  0.00000000E+00
  0.00000000E+00  0.00000000E+00  0.00000000E+00
  0.00000000E+00  0.00000000E+00  0.00000000E+00
  0.00000000E+00  0.00000000E+00  0.00000000E+00
  0.00000000E+00  0.00000000E+00  0.00000000E+00
  0.00000000E+00  0.00000000E+00  0.00000000E+00
  0.00000000E+00  0.00000000E+00  0.00000000E+00
  0.00000000E+00  0.00000000E+00  0.00000000E+00
