Sr18 Al11                               
   1.00000000000000     
     9.4429644957653025    6.9334495536246772   -0.3448725696752130
    -9.4429644957653025    6.9334495536246772   -0.3448725696752130
     0.0000000000000000    6.3907966438217043    8.2054678165346999
   Sr   Al
    18    11
Direct
  0.9311855547993488  0.9311855547993488  0.1203090075660427
  0.2983805670612085  0.6545630465462438  0.8996597617008888
  0.9355894246524628  0.2760595811147581  0.0619403856333776
  0.2760595811147581  0.9355894246524628  0.0619403856333776
  0.6545630465462438  0.2983805670612085  0.8996597617008888
  0.2728347654185015  0.2728347654185015  0.7500958590931859
  0.7140128084403301  0.7140128084403301  0.7216901464447716
  0.6513148762612673  0.0367512108556198  0.7244568989673539
  0.0367512108556198  0.6513148762612673  0.7244568989673539
  0.0130350215068660  0.0130350215068660  0.6753053152601112
  0.5728018741246359  0.9259697865059593  0.4373475040295531
  0.9259697865059593  0.5728018741246359  0.4373475040295531
  0.0443014758033797  0.3317978604486953  0.3514832413944049
  0.3317978604486953  0.0443014758033797  0.3514832413944049
  0.6161339299346409  0.6161339299346409  0.4053768659008341
  0.3054283722579427  0.6400969185172372  0.3759056447719047
  0.6400969185172372  0.3054283722579427  0.3759056447719047
  0.4554318980896994  0.4554318980896994  0.1676669148221066
  0.6666108206389580  0.8131646378794883  0.0253964620817371
  0.8131646378794883  0.6666108206389580  0.0253964620817371
  0.8174267843358152  0.0950152314135551  0.9074987472097504
  0.0950152314135551  0.8174267843358152  0.9074987472097504
  0.9983402274807673  0.3480521414521647  0.6831263555390663
  0.3480521414521647  0.9983402274807673  0.6831263555390663
  0.8829970711463773  0.0239612591352270  0.4101079291323373
  0.0239612591352270  0.8829970711463773  0.4101079291323373
  0.5546540304912213  0.9662257246733859  0.1180480397551307
  0.9662257246733859  0.5546540304912213  0.1180480397551307
  0.1578630990142358  0.1578630990142358  0.1696149504819218
 
  0.00000000E+00  0.00000000E+00  0.00000000E+00
  0.00000000E+00  0.00000000E+00  0.00000000E+00
  0.00000000E+00  0.00000000E+00  0.00000000E+00
  0.00000000E+00  0.00000000E+00  0.00000000E+00
  0.00000000E+00  0.00000000E+00  0.00000000E+00
  0.00000000E+00  0.00000000E+00  0.00000000E+00
  0.00000000E+00  0.00000000E+00  0.00000000E+00
  0.00000000E+00  0.00000000E+00  0.00000000E+00
  0.00000000E+00  0.00000000E+00  0.00000000E+00
  0.00000000E+00  0.00000000E+00  0.00000000E+00
  0.00000000E+00  0.00000000E+00  0.00000000E+00
  0.00000000E+00  0.00000000E+00  0.00000000E+00
  0.00000000E+00  0.00000000E+00  0.00000000E+00
  0.00000000E+00  0.00000000E+00  0.00000000E+00
  0.00000000E+00  0.00000000E+00  0.00000000E+00
  0.00000000E+00  0.00000000E+00  0.00000000E+00
  0.00000000E+00  0.00000000E+00  0.00000000E+00
  0.00000000E+00  0.00000000E+00  0.00000000E+00
  0.00000000E+00  0.00000000E+00  0.00000000E+00
  0.00000000E+00  0.00000000E+00  0.00000000E+00
  0.00000000E+00  0.00000000E+00  0.00000000E+00
  0.00000000E+00  0.00000000E+00  0.00000000E+00
  0.00000000E+00  0.00000000E+00  0.00000000E+00
  0.00000000E+00  0.00000000E+00  0.00000000E+00
  0.00000000E+00  0.00000000E+00  0.00000000E+00
  0.00000000E+00  0.00000000E+00  0.00000000E+00
  0.00000000E+00  0.00000000E+00  0.00000000E+00
  0.00000000E+00  0.00000000E+00  0.00000000E+00
  0.00000000E+00  0.00000000E+00  0.00000000E+00
