Ca4 Al4 I2                              
   1.00000000000000     
     4.4329940357786226    0.0000332997697313    0.0000000000000000
    -2.2164660725275351    3.8390127605741973    0.0000000000000000
     0.0000000000000000    0.0000000000000000   17.3183556280831397
   Al   Ca   I 
     4     4     2
Direct
  0.6666656448756498  0.3333408848430466  0.9948319305728859
  0.3333343551243502  0.6666591151569534  0.0051680694271141
  0.6666656448756498  0.3333408848430466  0.5051680694271141
  0.3333343551243502  0.6666591151569534  0.4948319305728859
  0.9999901395887534  0.0000493995136637  0.1170914963678840
  0.9999901395887534  0.0000493995136637  0.3829085036321160
  0.0000098604112466  0.9999506004863363  0.6170914963678840
  0.0000098604112466  0.9999506004863363  0.8829085036321160
  0.6666100751125441  0.3333229368820767  0.2500000000000000
  0.3333899248874559  0.6666770631179233  0.7500000000000000
 
  0.00000000E+00  0.00000000E+00  0.00000000E+00
  0.00000000E+00  0.00000000E+00  0.00000000E+00
  0.00000000E+00  0.00000000E+00  0.00000000E+00
  0.00000000E+00  0.00000000E+00  0.00000000E+00
  0.00000000E+00  0.00000000E+00  0.00000000E+00
  0.00000000E+00  0.00000000E+00  0.00000000E+00
  0.00000000E+00  0.00000000E+00  0.00000000E+00
  0.00000000E+00  0.00000000E+00  0.00000000E+00
  0.00000000E+00  0.00000000E+00  0.00000000E+00
  0.00000000E+00  0.00000000E+00  0.00000000E+00
