Be4Al                                   
   1.00000000000000     
     3.6954662114361998    0.0000000000000000    0.0000000000000000
     0.0000000000000000    3.6954662114361998    0.0000000000000000
     0.0000000000000000    0.0000000000000000    8.2002248473701957
   Al   Be
     2     8
Direct
  0.0000000000000000  0.5000000000000000  0.1768922858573490
  0.5000000000000000  0.0000000000000000  0.8231077141426510
  0.0000000000000000  0.0000000000000000  0.0000000000000000
  0.5000000000000000  0.5000000000000000  0.0000000000000000
  0.0000000000000000  0.0000000000000000  0.3547201250115393
  0.5000000000000000  0.5000000000000000  0.3547201250115393
  0.0000000000000000  0.5000000000000000  0.4881461971961727
  0.5000000000000000  0.0000000000000000  0.5118538028038273
  0.0000000000000000  0.0000000000000000  0.6452798749884607
  0.5000000000000000  0.5000000000000000  0.6452798749884607
 
  0.00000000E+00  0.00000000E+00  0.00000000E+00
  0.00000000E+00  0.00000000E+00  0.00000000E+00
  0.00000000E+00  0.00000000E+00  0.00000000E+00
  0.00000000E+00  0.00000000E+00  0.00000000E+00
  0.00000000E+00  0.00000000E+00  0.00000000E+00
  0.00000000E+00  0.00000000E+00  0.00000000E+00
  0.00000000E+00  0.00000000E+00  0.00000000E+00
  0.00000000E+00  0.00000000E+00  0.00000000E+00
  0.00000000E+00  0.00000000E+00  0.00000000E+00
  0.00000000E+00  0.00000000E+00  0.00000000E+00
