Mg1 Tl12                                
   1.0000000000000000     
    -5.6949980166661467    5.6949980166661467    3.2821345878320094
     5.6949980166661467   -5.6949980166661467    3.2821345878320094
     5.6949980166661467    5.6949980166661467   -3.2821345878320094
   Tl   Mg
    12     1
Direct
  0.5000000000000000  0.0000000000000000  0.0000000000000000
  0.0000000000000000  0.5000000000000000  0.0000000000000000
  0.7045996158051722  0.5000000000000000  0.2045996158051722
  0.5000000000000000  0.7045996158051722  0.2045996158051722
  0.3521415598791080  0.0000000000000000  0.3521415598791080
  0.0000000000000000  0.3521415598791080  0.3521415598791080
  0.0000000000000000  0.0000000000000000  0.5000000000000000
  0.5000000000000000  0.5000000000000000  0.5000000000000000
  0.6478584401208920  0.0000000000000000  0.6478584401208920
  0.0000000000000000  0.6478584401208920  0.6478584401208920
  0.5000000000000000  0.2954003841948278  0.7954003841948278
  0.2954003841948278  0.5000000000000000  0.7954003841948278
  0.0000000000000000  0.0000000000000000  0.0000000000000000

  0.00000000E+00  0.00000000E+00  0.00000000E+00
  0.00000000E+00  0.00000000E+00  0.00000000E+00
  0.00000000E+00  0.00000000E+00  0.00000000E+00
  0.00000000E+00  0.00000000E+00  0.00000000E+00
  0.00000000E+00  0.00000000E+00  0.00000000E+00
  0.00000000E+00  0.00000000E+00  0.00000000E+00
  0.00000000E+00  0.00000000E+00  0.00000000E+00
  0.00000000E+00  0.00000000E+00  0.00000000E+00
  0.00000000E+00  0.00000000E+00  0.00000000E+00
  0.00000000E+00  0.00000000E+00  0.00000000E+00
  0.00000000E+00  0.00000000E+00  0.00000000E+00
  0.00000000E+00  0.00000000E+00  0.00000000E+00
  0.00000000E+00  0.00000000E+00  0.00000000E+00
