Be3 Al11                                
   1.00000000000000     
     2.7168517688590992   -0.0000000409173479    0.0000000000000000
    -1.3584261545841054   -6.1513064465222778    6.5500522168922526
    -1.3584261545841054   -6.1513064465222778   -6.5500522168922535
   Al   Be
    11     3
Direct
  0.3749668454128212  0.7648884526667885  0.9850452385918160
  0.3362994554828802  0.5216696314118110  0.1509292802025826
  0.6250331545871788  0.0149547614081769  0.2351115473332115
  0.8116246597814438  0.3116246594199623  0.3116246594199623
  0.3362994554828802  0.1509292802025826  0.5216696314118110
  0.5000000000000000  0.5000000000000000  0.5000000000000000
  0.6637005445171198  0.8490707197974174  0.4783303685881890
  0.1883753402185562  0.6883753405800377  0.6883753405800377
  0.3749668454128212  0.9850452385918160  0.7648884526667885
  0.6637005445171198  0.4783303685881890  0.8490707197974174
  0.6250331545871788  0.2351115473332115  0.0149547614081769
  0.0000000000000000  0.0000000000000000  0.0000000000000000
  0.0000000000000000  0.7662532974386309  0.2337467025613691
  0.0000000000000000  0.2337467025613691  0.7662532974386309
 
  0.00000000E+00  0.00000000E+00  0.00000000E+00
  0.00000000E+00  0.00000000E+00  0.00000000E+00
  0.00000000E+00  0.00000000E+00  0.00000000E+00
  0.00000000E+00  0.00000000E+00  0.00000000E+00
  0.00000000E+00  0.00000000E+00  0.00000000E+00
  0.00000000E+00  0.00000000E+00  0.00000000E+00
  0.00000000E+00  0.00000000E+00  0.00000000E+00
  0.00000000E+00  0.00000000E+00  0.00000000E+00
  0.00000000E+00  0.00000000E+00  0.00000000E+00
  0.00000000E+00  0.00000000E+00  0.00000000E+00
  0.00000000E+00  0.00000000E+00  0.00000000E+00
  0.00000000E+00  0.00000000E+00  0.00000000E+00
  0.00000000E+00  0.00000000E+00  0.00000000E+00
  0.00000000E+00  0.00000000E+00  0.00000000E+00
