Be4 Ga4 I2                              
   1.00000000000000     
     4.3541914666255304    0.2531478381470170    0.0000000000000000
    -1.9215083160347306    3.4099261133982210    0.0000000000000000
     0.0000000000000000    0.0000000000000000   13.2611914754862852
   Ga   I    Be
     4     2     4
Direct
  0.2833711805313754  0.6413029037717806  0.0443745511319946
  0.2833711805313754  0.6413029037717806  0.4556254488680054
  0.7166288194686246  0.3586970962282194  0.5443745511319946
  0.7166288194686246  0.3586970962282194  0.9556254488680054
  0.0854622863256438  0.0458957058358322  0.2500000000000000
  0.9145377136743562  0.9541042941641678  0.7500000000000000
  0.8601661542194208  0.9297480886797658  0.0750255853268911
  0.8601661542194208  0.9297480886797658  0.4249744146731089
  0.1398338457805792  0.0702519113202342  0.5750255853268911
  0.1398338457805792  0.0702519113202342  0.9249744146731089
 
  0.00000000E+00  0.00000000E+00  0.00000000E+00
  0.00000000E+00  0.00000000E+00  0.00000000E+00
  0.00000000E+00  0.00000000E+00  0.00000000E+00
  0.00000000E+00  0.00000000E+00  0.00000000E+00
  0.00000000E+00  0.00000000E+00  0.00000000E+00
  0.00000000E+00  0.00000000E+00  0.00000000E+00
  0.00000000E+00  0.00000000E+00  0.00000000E+00
  0.00000000E+00  0.00000000E+00  0.00000000E+00
  0.00000000E+00  0.00000000E+00  0.00000000E+00
  0.00000000E+00  0.00000000E+00  0.00000000E+00
