Be4 Tl4 Cl2                             
   1.0000000000000000     
     3.6174150211380858    0.6332602949842425   -0.3989967439303092
    -1.2333516828650173    7.0357880728680557   -0.0261611625849843
    -0.6413795276405178   -0.1031193487510582    9.0453142728862499
   Tl   Be   Cl
     4     4     2
Direct
  0.5834344243549552  0.7243786219307466  0.0821185598142407
  0.4204669311047837  0.7257111243615597  0.4166921852695680
  0.5792050284377623  0.2750361062225792  0.5829357774945123
  0.4172914025029897  0.2748720957389921  0.9175894681784058
  0.0317987222122085  0.0153071939466685  0.1220572063107781
  0.9693250659594810  0.0158272432392295  0.3784337694796065
  0.0300083452095592  0.9845861832970755  0.6216248184514583
  0.9686302807321141  0.9844145953298806  0.8782684996222727
  0.9989441195259445  0.2475016162550787  0.2501626682469293
  0.0008956799601947  0.7523652196781896  0.7497110471322443

  0.00000000E+00  0.00000000E+00  0.00000000E+00
  0.00000000E+00  0.00000000E+00  0.00000000E+00
  0.00000000E+00  0.00000000E+00  0.00000000E+00
  0.00000000E+00  0.00000000E+00  0.00000000E+00
  0.00000000E+00  0.00000000E+00  0.00000000E+00
  0.00000000E+00  0.00000000E+00  0.00000000E+00
  0.00000000E+00  0.00000000E+00  0.00000000E+00
  0.00000000E+00  0.00000000E+00  0.00000000E+00
  0.00000000E+00  0.00000000E+00  0.00000000E+00
  0.00000000E+00  0.00000000E+00  0.00000000E+00
