Mg4 I6                                  
   1.00000000000000     
    -7.5483109756069551   -0.0474129994901551   -0.1552237466259750
     3.7325464892638940   -6.7541731693617173    1.1249751186547328
    -3.6312824053370809    0.8904142140963123    9.3741564360018170
   Mg   I 
     4     6
Direct
  0.0131530276870180  0.0575221188276984  0.1358452156531129
  0.5709295084396899  0.3355587046108113  0.3616643467956848
  0.4291812778689206  0.6645682533394890  0.6383583092446870
  0.9870141390987897  0.9422434911258009  0.8640521852182630
  0.5993039833562861  0.7049930429498303  0.3399423128064356
  0.3234195021563337  0.0406681690439825  0.2331099000099286
  0.9722257734218402  0.3756676077829795  0.2874134999354467
  0.0280230191206101  0.6245930429086073  0.7118432907737855
  0.6758313973148518  0.9589424841264531  0.7676869653709275
  0.4008183715356495  0.2951430852843302  0.6600839741917142
 
  0.00000000E+00  0.00000000E+00  0.00000000E+00
  0.00000000E+00  0.00000000E+00  0.00000000E+00
  0.00000000E+00  0.00000000E+00  0.00000000E+00
  0.00000000E+00  0.00000000E+00  0.00000000E+00
  0.00000000E+00  0.00000000E+00  0.00000000E+00
  0.00000000E+00  0.00000000E+00  0.00000000E+00
  0.00000000E+00  0.00000000E+00  0.00000000E+00
  0.00000000E+00  0.00000000E+00  0.00000000E+00
  0.00000000E+00  0.00000000E+00  0.00000000E+00
  0.00000000E+00  0.00000000E+00  0.00000000E+00
