In1                                     
   1.00000000000000     
     3.0194247321226602    0.0000000423594802   -1.6760666458215776
    -0.9303742426944375    2.8725121812280014   -1.6760666511886293
    -0.1143688147512813   -0.1572617198932634    3.3517360177995736
   In
     1
Direct
  0.0000000000000000  0.0000000000000000  0.0000000000000000
 
  0.00000000E+00  0.00000000E+00  0.00000000E+00
