Mg4 Al34                                
   1.00000000000000     
     9.4729843787113008   -0.0061732171420069   -0.0000436477885293
    -4.7414195090294626    8.2063616544740299   -0.0000021667939249
    -0.0000410631282159   -0.0000292046173841    8.9603852968259599
   Al   Mg
    34     4
Direct
  0.4998902036438295  0.9997914566991568  0.9999493203348848
  0.0001668226472020  0.5000574153944797  0.9999449280158430
  0.4999100731084454  0.5000588259912391  0.9999480777879057
  0.3292120501420115  0.1644799852181364  0.0296716376903987
  0.8342339886708672  0.1659164751318727  0.0322275274352677
  0.8350962890050155  0.6696920117612279  0.0306622953518456
  0.3334901396703103  0.6665971422068466  0.0981877939242466
  0.0449955400254112  0.3701754163040434  0.2499578769234532
  0.3251707681942975  0.3670526486997119  0.2499582582760240
  0.0436463077122724  0.6752869370371286  0.2499577934816131
  0.6318112378916538  0.6744344131048408  0.2499596318836481
  0.3246170105633368  0.9576326225650149  0.2499578361973605
  0.6298883770445656  0.9553516690082802  0.2499595466138729
  0.3334896554643763  0.6666334380541414  0.4019246016160452
  0.3284635854022966  0.1641282981685492  0.4703568795568600
  0.8345778045693848  0.1655859329763913  0.4678079225155329
  0.8354475031949420  0.6704289771273508  0.4693751829825246
  0.5001587819737523  0.0003768510737530  0.4997873322513655
  0.9996243278014134  0.4998139506172308  0.4998001259299372
  0.5001524895428560  0.4998129885426081  0.4998118019473594
  0.1650025982481651  0.3305344015127005  0.5308417542205461
  0.1658565934926060  0.8339128581771575  0.5323418251026055
  0.6704759846167576  0.8353544493132929  0.5297863241362251
  0.6664793065190864  0.3333553101097095  0.5981601814310054
  0.3701849684898093  0.0446254327422082  0.7499560915864052
  0.6752171025993050  0.0423541157769876  0.7499568486510455
  0.3683747231938597  0.3256043160335906  0.7499552670009990
  0.9561730178855683  0.3247325861182304  0.7499538647077415
  0.6747344160008808  0.6328153037770932  0.7499588816218292
  0.9549193690108879  0.6296500926315218  0.7499558702415499
  0.6664854580446544  0.3333242314649993  0.9019524586882355
  0.1646492488179305  0.3297925562729134  0.9691911554243262
  0.1655122677724776  0.8342435704734470  0.9676961952455585
  0.6712179698711580  0.8357035583470491  0.9702590076864013
  0.9985524322787711  0.0001905261252020  0.2493474084073242
  0.6665405157167754  0.3334648522606116  0.2501171187667808
  0.0014300145400128  0.9998061094267428  0.7494313768426224
  0.3333510566330702  0.6664282737545122  0.7501319995228428
 
  0.00000000E+00  0.00000000E+00  0.00000000E+00
  0.00000000E+00  0.00000000E+00  0.00000000E+00
  0.00000000E+00  0.00000000E+00  0.00000000E+00
  0.00000000E+00  0.00000000E+00  0.00000000E+00
  0.00000000E+00  0.00000000E+00  0.00000000E+00
  0.00000000E+00  0.00000000E+00  0.00000000E+00
  0.00000000E+00  0.00000000E+00  0.00000000E+00
  0.00000000E+00  0.00000000E+00  0.00000000E+00
  0.00000000E+00  0.00000000E+00  0.00000000E+00
  0.00000000E+00  0.00000000E+00  0.00000000E+00
  0.00000000E+00  0.00000000E+00  0.00000000E+00
  0.00000000E+00  0.00000000E+00  0.00000000E+00
  0.00000000E+00  0.00000000E+00  0.00000000E+00
  0.00000000E+00  0.00000000E+00  0.00000000E+00
  0.00000000E+00  0.00000000E+00  0.00000000E+00
  0.00000000E+00  0.00000000E+00  0.00000000E+00
  0.00000000E+00  0.00000000E+00  0.00000000E+00
  0.00000000E+00  0.00000000E+00  0.00000000E+00
  0.00000000E+00  0.00000000E+00  0.00000000E+00
  0.00000000E+00  0.00000000E+00  0.00000000E+00
  0.00000000E+00  0.00000000E+00  0.00000000E+00
  0.00000000E+00  0.00000000E+00  0.00000000E+00
  0.00000000E+00  0.00000000E+00  0.00000000E+00
  0.00000000E+00  0.00000000E+00  0.00000000E+00
  0.00000000E+00  0.00000000E+00  0.00000000E+00
  0.00000000E+00  0.00000000E+00  0.00000000E+00
  0.00000000E+00  0.00000000E+00  0.00000000E+00
  0.00000000E+00  0.00000000E+00  0.00000000E+00
  0.00000000E+00  0.00000000E+00  0.00000000E+00
  0.00000000E+00  0.00000000E+00  0.00000000E+00
  0.00000000E+00  0.00000000E+00  0.00000000E+00
  0.00000000E+00  0.00000000E+00  0.00000000E+00
  0.00000000E+00  0.00000000E+00  0.00000000E+00
  0.00000000E+00  0.00000000E+00  0.00000000E+00
  0.00000000E+00  0.00000000E+00  0.00000000E+00
  0.00000000E+00  0.00000000E+00  0.00000000E+00
  0.00000000E+00  0.00000000E+00  0.00000000E+00
  0.00000000E+00  0.00000000E+00  0.00000000E+00
