Mg17Al12                                
   1.00000000000000     
    -5.2579144514595395   -5.2579144514595395    5.2588215730107821
    -5.2579144514595395    5.2588215730107821   -5.2579144514595395
     5.2588215730107821   -5.2579144514595386   -5.2579144514595395
   Al   Mg
    12    17
Direct
  0.3663231772282032  0.1851743135391288  0.0001548633502040
  0.1851743135391288  0.3663231772282032  0.0001548633502040
  0.8149521242629874  0.8149521242629874  0.1809407046059093
  0.3663231772282032  0.0001548633502040  0.1851743135391288
  0.0001548633502040  0.3663231772282032  0.1851743135391288
  0.1851743135391288  0.0001548633502040  0.3663231772282032
  0.0001548633502040  0.1851743135391288  0.3663231772282032
  0.8185773247090680  0.6335429766909186  0.6335429766909186
  0.6335429766909186  0.8185773247090680  0.6335429766909186
  0.8149521242629874  0.1809407046059093  0.8149521242629874
  0.1809407046059093  0.8149521242629874  0.8149521242629874
  0.6335429766909186  0.6335429766909186  0.8185773247090680
  0.0000388158883524  0.0000388158883524  0.0000388158883524
  0.6561970190058162  0.9999894595188650  0.9999894595188650
  0.6843208563479521  0.3985065697407606  0.9999666377721184
  0.9999894595188650  0.6561970190058162  0.9999894595188650
  0.3985065697407606  0.6843208563479521  0.9999666377721184
  0.6013894827159163  0.6013894827159163  0.2854726216310297
  0.7144774610303912  0.3157770756593621  0.3157770756593621
  0.3157770756593621  0.7144774610303912  0.3157770756593621
  0.3441009794766288  0.3441009794766288  0.3441009794766288
  0.6843208563479521  0.9999666377721184  0.3985065697407606
  0.9999666377721184  0.6843208563479521  0.3985065697407606
  0.6013894827159163  0.2854726216310297  0.6013894827159163
  0.2854726216310297  0.6013894827159163  0.6013894827159163
  0.9999894595188650  0.9999894595188650  0.6561970190058162
  0.3985065697407606  0.9999666377721184  0.6843208563479521
  0.9999666377721184  0.3985065697407606  0.6843208563479521
  0.3157770756593621  0.3157770756593621  0.7144774610303912
 
  0.00000000E+00  0.00000000E+00  0.00000000E+00
  0.00000000E+00  0.00000000E+00  0.00000000E+00
  0.00000000E+00  0.00000000E+00  0.00000000E+00
  0.00000000E+00  0.00000000E+00  0.00000000E+00
  0.00000000E+00  0.00000000E+00  0.00000000E+00
  0.00000000E+00  0.00000000E+00  0.00000000E+00
  0.00000000E+00  0.00000000E+00  0.00000000E+00
  0.00000000E+00  0.00000000E+00  0.00000000E+00
  0.00000000E+00  0.00000000E+00  0.00000000E+00
  0.00000000E+00  0.00000000E+00  0.00000000E+00
  0.00000000E+00  0.00000000E+00  0.00000000E+00
  0.00000000E+00  0.00000000E+00  0.00000000E+00
  0.00000000E+00  0.00000000E+00  0.00000000E+00
  0.00000000E+00  0.00000000E+00  0.00000000E+00
  0.00000000E+00  0.00000000E+00  0.00000000E+00
  0.00000000E+00  0.00000000E+00  0.00000000E+00
  0.00000000E+00  0.00000000E+00  0.00000000E+00
  0.00000000E+00  0.00000000E+00  0.00000000E+00
  0.00000000E+00  0.00000000E+00  0.00000000E+00
  0.00000000E+00  0.00000000E+00  0.00000000E+00
  0.00000000E+00  0.00000000E+00  0.00000000E+00
  0.00000000E+00  0.00000000E+00  0.00000000E+00
  0.00000000E+00  0.00000000E+00  0.00000000E+00
  0.00000000E+00  0.00000000E+00  0.00000000E+00
  0.00000000E+00  0.00000000E+00  0.00000000E+00
  0.00000000E+00  0.00000000E+00  0.00000000E+00
  0.00000000E+00  0.00000000E+00  0.00000000E+00
  0.00000000E+00  0.00000000E+00  0.00000000E+00
  0.00000000E+00  0.00000000E+00  0.00000000E+00
