Mg17 B11 Cl1                            
   1.00000000000000     
     7.7897351971012885   -3.4521412261740561    3.3479963094374843
     0.3595961303699908    6.8235871537258852    3.1262409776725057
    -7.8131444833043444   -3.4346281588493919    2.8910634405990487
   B    Cl   Mg
    11     1    17
Direct
  0.7201959728938050  0.0553460370963137  0.0509651206772475
  0.3144681652904211  0.3035411879620042  0.2700503640167256
  0.9216682334360655  0.1836705674288197  0.1407171045554207
  0.3323198325433907  0.8873973821889649  0.2390399940497687
  0.1283571606851197  0.3093600010284305  0.2673910112581410
  0.3920865533904987  0.1192719247430958  0.2921252413560183
  0.0220075750939088  0.7953214406984515  0.7283473819575406
  0.8537795644728305  0.0449421466470952  0.7713098814732930
  0.9123967378530580  0.5673065720556636  0.6144737858278191
  0.7707362249316319  0.0448946725197530  0.8952562074579973
  0.0357410200946120  0.0228624886062860  0.7742935868770360
  0.8113315895554010  0.5933971987240838  0.0253618144452474
  0.9885378469443040  0.3811667047915321  0.9929908034771202
  0.2980393312976304  0.3087297393284061  0.9910633410110279
  0.5848571543310328  0.2763338459058318  0.9387981648929724
  0.1006527374819868  0.0012034284790232  0.0529724126120144
  0.2079040870281972  0.6566233740273475  0.9277245683227946
  0.7907478264213879  0.8103488105352668  0.4664088610025559
  0.5648769926022865  0.9698002110154320  0.1838633574437480
  0.0548946409189526  0.5356448692070828  0.4514508800095669
  0.9387897645053229  0.9674126449370064  0.2838514930049598
  0.3548296188945130  0.6339217949510143  0.3436746087838074
  0.6197777256525541  0.3892023696961999  0.3670533138404650
  0.2079435367048390  0.0008781134266087  0.6457536939221598
  0.9423171542994240  0.2559744899908338  0.6275221777069575
  0.7352283523981384  0.6778778757796715  0.7290227349679839
  0.5613452213846273  0.0534332095282579  0.5649186807615507
  0.4707126300753544  0.7989393110681249  0.7933343690946799
  0.3644127488187223  0.3545375876334163  0.5702660451933355
 
  0.00000000E+00  0.00000000E+00  0.00000000E+00
  0.00000000E+00  0.00000000E+00  0.00000000E+00
  0.00000000E+00  0.00000000E+00  0.00000000E+00
  0.00000000E+00  0.00000000E+00  0.00000000E+00
  0.00000000E+00  0.00000000E+00  0.00000000E+00
  0.00000000E+00  0.00000000E+00  0.00000000E+00
  0.00000000E+00  0.00000000E+00  0.00000000E+00
  0.00000000E+00  0.00000000E+00  0.00000000E+00
  0.00000000E+00  0.00000000E+00  0.00000000E+00
  0.00000000E+00  0.00000000E+00  0.00000000E+00
  0.00000000E+00  0.00000000E+00  0.00000000E+00
  0.00000000E+00  0.00000000E+00  0.00000000E+00
  0.00000000E+00  0.00000000E+00  0.00000000E+00
  0.00000000E+00  0.00000000E+00  0.00000000E+00
  0.00000000E+00  0.00000000E+00  0.00000000E+00
  0.00000000E+00  0.00000000E+00  0.00000000E+00
  0.00000000E+00  0.00000000E+00  0.00000000E+00
  0.00000000E+00  0.00000000E+00  0.00000000E+00
  0.00000000E+00  0.00000000E+00  0.00000000E+00
  0.00000000E+00  0.00000000E+00  0.00000000E+00
  0.00000000E+00  0.00000000E+00  0.00000000E+00
  0.00000000E+00  0.00000000E+00  0.00000000E+00
  0.00000000E+00  0.00000000E+00  0.00000000E+00
  0.00000000E+00  0.00000000E+00  0.00000000E+00
  0.00000000E+00  0.00000000E+00  0.00000000E+00
  0.00000000E+00  0.00000000E+00  0.00000000E+00
  0.00000000E+00  0.00000000E+00  0.00000000E+00
  0.00000000E+00  0.00000000E+00  0.00000000E+00
  0.00000000E+00  0.00000000E+00  0.00000000E+00
