Mg9 Tl4                                 
   1.0000000000000000     
    -5.7977845399726382    5.6807506492208741    2.3141068397295816
     5.8252317543943759   -5.6599672670031707    2.3420093812818594
     5.8077955505547445    5.6737808854926630   -2.2681119271822809
   Tl   Mg
     4     9
Direct
  0.3688288952115499  0.7306325010836829  0.1013352045768414
  0.7345791979380678  0.6298311397175596  0.3649047927347553
  0.2654206029811519  0.3701681098079987  0.6351539845898770
  0.6311708802610383  0.2693642813092509  0.8987251103257137
  0.4999999877454187  0.5000120300395778  0.0000376892234968
  0.1886549770250525  0.9400316487987794  0.1282105202109349
  0.8905953975296939  0.4082107204066077  0.3020866030496521
  0.0609442536725240  0.1865912409198103  0.2489599166511098
  0.5899975457120377  0.8933423477408198  0.4801534894248149
  0.4100024712390891  0.1066570780700502  0.5199077401099288
  0.9390571656161129  0.8134067649055510  0.7511002545026670
  0.1094030181879972  0.5917861216809328  0.6979733119628619
  0.8113456068802662  0.0599660155193718  0.8718513826373524

  0.00000000E+00  0.00000000E+00  0.00000000E+00
  0.00000000E+00  0.00000000E+00  0.00000000E+00
  0.00000000E+00  0.00000000E+00  0.00000000E+00
  0.00000000E+00  0.00000000E+00  0.00000000E+00
  0.00000000E+00  0.00000000E+00  0.00000000E+00
  0.00000000E+00  0.00000000E+00  0.00000000E+00
  0.00000000E+00  0.00000000E+00  0.00000000E+00
  0.00000000E+00  0.00000000E+00  0.00000000E+00
  0.00000000E+00  0.00000000E+00  0.00000000E+00
  0.00000000E+00  0.00000000E+00  0.00000000E+00
  0.00000000E+00  0.00000000E+00  0.00000000E+00
  0.00000000E+00  0.00000000E+00  0.00000000E+00
  0.00000000E+00  0.00000000E+00  0.00000000E+00
