Be3 Tl11                                
   1.0000000000000000     
    -5.1379559729841757    7.0083492688309681    9.4336500801627068
     3.2456789178026568   -5.8317052423754481    7.1712260381069006
     0.9334368286046980    4.9349738780241230   -7.2053522839041548
   Tl   Be
    11     3
Direct
  0.8696895677739462  0.6068799147406878  0.4918407709381043
  0.3649130387310819  0.3519316256463867  0.3924204791971775
  0.0670431524157280  0.9061551137999047  0.4364145585315242
  0.6442904942479473  0.2697431823539915  0.4601535488793118
  0.1033501439175311  0.4578806942531912  0.3526633696015864
  0.5340970411101722  0.1056014576285733  0.6122291634716177
  0.8950455453981050  0.1521894306918128  0.3446158229607406
  0.3421084676045609  0.8092640245368372  0.5451905784189819
  0.8139197393642092  0.0342752400721196  0.5799413868983052
  0.6083923028749041  0.7112064669597373  0.5438059658765084
  0.2138215479318148  0.6227270684594615  0.9383160949257672
  0.1382041418361126  0.0060227491389782  0.1481880768718256
  0.3502476339618283  0.3314352943695269  0.6667665527288165
  0.5553771828320535  0.6346877373487914  0.9874536306997683

  0.00000000E+00  0.00000000E+00  0.00000000E+00
  0.00000000E+00  0.00000000E+00  0.00000000E+00
  0.00000000E+00  0.00000000E+00  0.00000000E+00
  0.00000000E+00  0.00000000E+00  0.00000000E+00
  0.00000000E+00  0.00000000E+00  0.00000000E+00
  0.00000000E+00  0.00000000E+00  0.00000000E+00
  0.00000000E+00  0.00000000E+00  0.00000000E+00
  0.00000000E+00  0.00000000E+00  0.00000000E+00
  0.00000000E+00  0.00000000E+00  0.00000000E+00
  0.00000000E+00  0.00000000E+00  0.00000000E+00
  0.00000000E+00  0.00000000E+00  0.00000000E+00
  0.00000000E+00  0.00000000E+00  0.00000000E+00
  0.00000000E+00  0.00000000E+00  0.00000000E+00
  0.00000000E+00  0.00000000E+00  0.00000000E+00
