Al10 Cl18                               
   1.00000000000000     
     1.0252973719262932   -4.1987606841550171    6.7265369557195749
     5.2909769286477051   -3.4355484164058665   -7.5794913941564994
    11.6201531449864994    6.2755396551868889   10.4656618233070375
   Cl   Al
    18    10
Direct
  0.3285980467918677  0.0187451808965946  0.0325380779274340
  0.7957777834965256  0.2292829487091268  0.9552346122005062
  0.2764602702476608  0.6662855025613226  0.9975358339166860
  0.0885390566483082  0.5904947961278211  0.3944935317619311
  0.0410107320864626  0.7454369116698203  0.2030149326213575
  0.8729573541658198  0.9573233950260160  0.1542314977393602
  0.4575923792156047  0.9478884930547764  0.3884504062297012
  0.9845510203936314  0.4083957026720810  0.5662129965130376
  0.4920408658280522  0.6409783786535002  0.4521829248689926
  0.5510733675923731  0.1521018638937903  0.6118590816798530
  0.0960754262032921  0.7810403215789492  0.5837968167981487
  0.9022987257943598  0.1113287238766318  0.6537293490604839
  0.1687901927295670  0.1959999088050211  0.7754790852418125
  0.9477163438962251  0.4174947398138684  0.7757886267898684
  0.6059453110075026  0.4705194176108733  0.7389618920470724
  0.5460989763331909  0.1618461939003026  0.8168119247746901
  0.8736316084168720  0.6917181497478353  0.0059405662754699
  0.7278467168042937  0.9215207626679458  0.8330238361601161
  0.6179406464808039  0.8107749021647450  0.1002844177151871
  0.0788859878441954  0.8082069482996985  0.0788055794569544
  0.6377439751193208  0.9758583934676679  0.9863432447757887
  0.3073607550029109  0.7512165473216470  0.4511372789579227
  0.4016714048544259  0.3389450799388811  0.6484673654491644
  0.8355921725220199  0.5574590449761558  0.5447139861444654
  0.7514682273456614  0.2889954895505724  0.6905462044127049
  0.4953352748905360  0.6221735230804910  0.6186062737621398
  0.8527736585277594  0.1712193882972386  0.8060431389417460
  0.2643237197608030  0.5668492916366361  0.1358665177773801
 
  0.00000000E+00  0.00000000E+00  0.00000000E+00
  0.00000000E+00  0.00000000E+00  0.00000000E+00
  0.00000000E+00  0.00000000E+00  0.00000000E+00
  0.00000000E+00  0.00000000E+00  0.00000000E+00
  0.00000000E+00  0.00000000E+00  0.00000000E+00
  0.00000000E+00  0.00000000E+00  0.00000000E+00
  0.00000000E+00  0.00000000E+00  0.00000000E+00
  0.00000000E+00  0.00000000E+00  0.00000000E+00
  0.00000000E+00  0.00000000E+00  0.00000000E+00
  0.00000000E+00  0.00000000E+00  0.00000000E+00
  0.00000000E+00  0.00000000E+00  0.00000000E+00
  0.00000000E+00  0.00000000E+00  0.00000000E+00
  0.00000000E+00  0.00000000E+00  0.00000000E+00
  0.00000000E+00  0.00000000E+00  0.00000000E+00
  0.00000000E+00  0.00000000E+00  0.00000000E+00
  0.00000000E+00  0.00000000E+00  0.00000000E+00
  0.00000000E+00  0.00000000E+00  0.00000000E+00
  0.00000000E+00  0.00000000E+00  0.00000000E+00
  0.00000000E+00  0.00000000E+00  0.00000000E+00
  0.00000000E+00  0.00000000E+00  0.00000000E+00
  0.00000000E+00  0.00000000E+00  0.00000000E+00
  0.00000000E+00  0.00000000E+00  0.00000000E+00
  0.00000000E+00  0.00000000E+00  0.00000000E+00
  0.00000000E+00  0.00000000E+00  0.00000000E+00
  0.00000000E+00  0.00000000E+00  0.00000000E+00
  0.00000000E+00  0.00000000E+00  0.00000000E+00
  0.00000000E+00  0.00000000E+00  0.00000000E+00
  0.00000000E+00  0.00000000E+00  0.00000000E+00
