Sr2Tl                                   
   1.0000000000000000     
     8.1209443759016668    0.0000000000000000    0.0002958913198768
     0.0000000000000000    5.5540223085151545    0.0000000000000000
     0.0003912220415756    0.0000000000000000   10.6718299424069034
   Sr   Tl
     8     4
Direct
  0.3448800542063211  0.2500000000000000  0.0696947929401972
  0.0280723864110684  0.7500000000000000  0.1843610481548197
  0.5280805100198691  0.7500000000000000  0.3156235382517281
  0.8449045399696686  0.2500000000000000  0.4302985693116241
  0.1551362635459199  0.7500000000000000  0.5697022490465926
  0.4719588913796002  0.2500000000000000  0.6843799144030811
  0.9719554141208206  0.2500000000000000  0.8156320642441841
  0.6551457257715967  0.7500000000000000  0.9303031099471966
  0.7657964797824874  0.2500000000000000  0.1122444766967874
  0.2658290492379791  0.2500000000000000  0.3877676880056029
  0.7342125571208271  0.7500000000000000  0.6122374622277107
  0.2342281284338483  0.7500000000000000  0.8877550867704826

  0.00000000E+00  0.00000000E+00  0.00000000E+00
  0.00000000E+00  0.00000000E+00  0.00000000E+00
  0.00000000E+00  0.00000000E+00  0.00000000E+00
  0.00000000E+00  0.00000000E+00  0.00000000E+00
  0.00000000E+00  0.00000000E+00  0.00000000E+00
  0.00000000E+00  0.00000000E+00  0.00000000E+00
  0.00000000E+00  0.00000000E+00  0.00000000E+00
  0.00000000E+00  0.00000000E+00  0.00000000E+00
  0.00000000E+00  0.00000000E+00  0.00000000E+00
  0.00000000E+00  0.00000000E+00  0.00000000E+00
  0.00000000E+00  0.00000000E+00  0.00000000E+00
  0.00000000E+00  0.00000000E+00  0.00000000E+00
