Ca4 Tl10                                
   1.0000000000000000     
     5.1529739783971618    5.1529739783971618   -4.1514137776496671
     5.1529739783971618   -5.1529739783971618    4.1514137776496671
    -5.1529739783971618   -5.1529739783971618   -4.1514137776496671
   Tl   Ca
    10     4
Direct
  0.8111165606300617  0.2962378065652018  0.1073543671952635
  0.4851212459351331  0.2962378065652018  0.1888834393699383
  0.8926456328047365  0.7037621934347982  0.1888834393699383
  0.3059996808151979  0.0000000000000000  0.3059996808151979
  0.1888834393699383  0.2962378065652018  0.4851212459351331
  0.8111165606300617  0.7037621934347982  0.5148787540648669
  0.6940003191848092  0.0000000000000000  0.6940003191848092
  0.1073543671952635  0.2962378065652018  0.8111165606300617
  0.5148787540648669  0.7037621934347982  0.8111165606300617
  0.1888834393699383  0.7037621934347982  0.8926456328047365
  0.7109352347550413  0.0000000000000000  0.2890647652449587
  0.2890647652449587  0.5781295304899388  0.2890647652449587
  0.2890647652449587  0.0000000000000000  0.7109352347550413
  0.7109352347550413  0.4218704695100612  0.7109352347550413

  0.00000000E+00  0.00000000E+00  0.00000000E+00
  0.00000000E+00  0.00000000E+00  0.00000000E+00
  0.00000000E+00  0.00000000E+00  0.00000000E+00
  0.00000000E+00  0.00000000E+00  0.00000000E+00
  0.00000000E+00  0.00000000E+00  0.00000000E+00
  0.00000000E+00  0.00000000E+00  0.00000000E+00
  0.00000000E+00  0.00000000E+00  0.00000000E+00
  0.00000000E+00  0.00000000E+00  0.00000000E+00
  0.00000000E+00  0.00000000E+00  0.00000000E+00
  0.00000000E+00  0.00000000E+00  0.00000000E+00
  0.00000000E+00  0.00000000E+00  0.00000000E+00
  0.00000000E+00  0.00000000E+00  0.00000000E+00
  0.00000000E+00  0.00000000E+00  0.00000000E+00
  0.00000000E+00  0.00000000E+00  0.00000000E+00
