Ca4                                     
   1.00000000000000     
     0.0000000000000000    0.0000000000000000   -3.9390923132844877
     0.0000000000000000   -6.4370391794167272    0.0000000000000001
    -6.7200292214884589    0.0000000000000000    0.0000000000000000
   Ca
     4
Direct
  0.0001060829507438  0.7500000000000000  0.1703737516087287
  0.4998939170492562  0.7500000000000000  0.6703737516087287
  0.9998939170492562  0.2500000000000000  0.8296262483912713
  0.5001060829507438  0.2500000000000000  0.3296262483912713
 
  0.00000000E+00  0.00000000E+00  0.00000000E+00
  0.00000000E+00  0.00000000E+00  0.00000000E+00
  0.00000000E+00  0.00000000E+00  0.00000000E+00
  0.00000000E+00  0.00000000E+00  0.00000000E+00
