Ba2 Al2 I10                             
   1.00000000000000     
     7.4160316747438193   -0.0969426163613113    2.6924709454854989
     1.5305789426154051    7.2570147013619382    2.6924706803628853
    -0.4108713683015649   -0.3288237235574417   11.4930095864851030
   Ba   Al   I 
     2     2    10
Direct
  0.4328145259631029  0.5671854741187872  0.2499999999228208
  0.5671854740368971  0.4328145258812128  0.7500000000771792
  0.0000000000000000  0.0000000000000000  0.5000000000000000
  0.0000000000000000  0.0000000000000000  0.0000000000000000
  0.7128682123428973  0.8407091412305405  0.5842128419111319
  0.1592908588284132  0.2871307877691649  0.9157871589355508
  0.2871307876570981  0.1592908587694595  0.4157881580888727
  0.8407091411715868  0.7128682122308376  0.0842128410644492
  0.9360185988081469  0.0639814011408717  0.7499999991307646
  0.0639814011918531  0.9360185988591283  0.2500000008692282
  0.6609339165264743  0.2385027760672287  0.0535388266675909
  0.7614972242560825  0.3390660830289320  0.4464611735836783
  0.3390660834735257  0.7614972239327713  0.9464611733324091
  0.2385027757439175  0.6609339169710680  0.5535388264163217
 
  0.00000000E+00  0.00000000E+00  0.00000000E+00
  0.00000000E+00  0.00000000E+00  0.00000000E+00
  0.00000000E+00  0.00000000E+00  0.00000000E+00
  0.00000000E+00  0.00000000E+00  0.00000000E+00
  0.00000000E+00  0.00000000E+00  0.00000000E+00
  0.00000000E+00  0.00000000E+00  0.00000000E+00
  0.00000000E+00  0.00000000E+00  0.00000000E+00
  0.00000000E+00  0.00000000E+00  0.00000000E+00
  0.00000000E+00  0.00000000E+00  0.00000000E+00
  0.00000000E+00  0.00000000E+00  0.00000000E+00
  0.00000000E+00  0.00000000E+00  0.00000000E+00
  0.00000000E+00  0.00000000E+00  0.00000000E+00
  0.00000000E+00  0.00000000E+00  0.00000000E+00
  0.00000000E+00  0.00000000E+00  0.00000000E+00
