Al2I                                    
   1.00000000000000     
     8.2058137888802758    0.0000000000000000    0.0000000000000000
     0.0000000000000000    8.2058137888802758    0.0000000000000000
     0.0000000000000000    0.0000000000000000    3.6182872816476936
   Al   I 
     4     2
Direct
  0.2820801264603574  0.2820801264603574  0.0000000000000000
  0.7179198735396426  0.7179198735396426  0.0000000000000000
  0.7820801264603574  0.2179198735396426  0.5000000000000000
  0.2179198735396426  0.7820801264603574  0.5000000000000000
  0.0000000000000000  0.0000000000000000  0.0000000000000000
  0.5000000000000000  0.5000000000000000  0.5000000000000000
 
  0.00000000E+00  0.00000000E+00  0.00000000E+00
  0.00000000E+00  0.00000000E+00  0.00000000E+00
  0.00000000E+00  0.00000000E+00  0.00000000E+00
  0.00000000E+00  0.00000000E+00  0.00000000E+00
  0.00000000E+00  0.00000000E+00  0.00000000E+00
  0.00000000E+00  0.00000000E+00  0.00000000E+00
