Mg2 Br8                                 
   1.00000000000000     
     6.6920846897355846   -0.7371763409826037   -0.0808663297338264
    -4.1602514966374269    7.2798212537108116   -0.2047096280323020
    -0.7628348595614715   -2.9182154778430283    7.4149397582747749
   Mg   Br
     2     8
Direct
  0.2120600304455991  0.1702458533471685  0.3988840610056528
  0.7878280992192543  0.8296389856774553  0.6009860722952567
  0.1567509066856019  0.8334643404553645  0.1168055569256055
  0.2368732060009577  0.3140288504782092  0.1091747664198834
  0.6666863107892311  0.4497135239361754  0.3564701266409713
  0.7268516500779754  0.9584308852316710  0.3608997558835654
  0.2730437045023564  0.0415551618842045  0.6391404807544063
  0.3333671159182003  0.5501725468626972  0.6435335870909711
  0.7632354219852573  0.6859049651955686  0.8909110639238662
  0.8433035543755665  0.1664448869314938  0.8832945290598317
 
  0.00000000E+00  0.00000000E+00  0.00000000E+00
  0.00000000E+00  0.00000000E+00  0.00000000E+00
  0.00000000E+00  0.00000000E+00  0.00000000E+00
  0.00000000E+00  0.00000000E+00  0.00000000E+00
  0.00000000E+00  0.00000000E+00  0.00000000E+00
  0.00000000E+00  0.00000000E+00  0.00000000E+00
  0.00000000E+00  0.00000000E+00  0.00000000E+00
  0.00000000E+00  0.00000000E+00  0.00000000E+00
  0.00000000E+00  0.00000000E+00  0.00000000E+00
  0.00000000E+00  0.00000000E+00  0.00000000E+00
