Be1 Ga2 Cl10                            
   1.00000000000000     
     6.5162607984959049    5.2464088035705307    1.0915767342471980
    -6.5162607984959084    5.2464088035705307    1.0915767342471985
    -0.0000000000000011    5.6746906104603463    8.8741827383475034
   Be   Ga   Cl
     1     2    10
Direct
  0.4055710906439671  0.5944289093560400  0.0000000000000000
  0.8149262726706255  0.9850252299210354  0.7520740810627231
  0.0149747700789646  0.1850737273293745  0.2479259189372769
  0.1221865446472634  0.0486130055645546  0.7304080762682332
  0.9513869944354383  0.8778134553527366  0.2695919237317668
  0.6508906043270670  0.6605642318101772  0.0058517918671868
  0.3394357681898228  0.3491093956729330  0.9941482081328132
  0.0315231798362205  0.9684768201637795  0.0000000000000000
  0.0055343324302086  0.9944656675697985  0.5000000000000000
  0.7952063794259630  0.2410959556179435  0.7383758484826899
  0.7589040443820565  0.2047936205740299  0.2616241515173030
  0.5065345020075895  0.8530754830751661  0.7752362806535729
  0.1469245169248268  0.4934654979924105  0.2247637193464271
 
  0.00000000E+00  0.00000000E+00  0.00000000E+00
  0.00000000E+00  0.00000000E+00  0.00000000E+00
  0.00000000E+00  0.00000000E+00  0.00000000E+00
  0.00000000E+00  0.00000000E+00  0.00000000E+00
  0.00000000E+00  0.00000000E+00  0.00000000E+00
  0.00000000E+00  0.00000000E+00  0.00000000E+00
  0.00000000E+00  0.00000000E+00  0.00000000E+00
  0.00000000E+00  0.00000000E+00  0.00000000E+00
  0.00000000E+00  0.00000000E+00  0.00000000E+00
  0.00000000E+00  0.00000000E+00  0.00000000E+00
  0.00000000E+00  0.00000000E+00  0.00000000E+00
  0.00000000E+00  0.00000000E+00  0.00000000E+00
  0.00000000E+00  0.00000000E+00  0.00000000E+00
