Sr1 In12                                
   1.0000000000000000     
    -0.0000000000000000    6.2279870802944286    6.2279870802944286
     6.2279870802944286   -0.0000000000000000    6.2279870802944286
     6.2279870802944286    6.2279870802944286    0.0000000000000000
   In   Sr
    12     1
Direct
  0.8390810450109711  0.5000000000000000  0.1609189549890289
  0.5000000000000000  0.8390810450109711  0.1609189549890289
  0.5000000000000000  0.5000000000000000  0.1609189549890289
  0.5000000000000000  0.1609189549890289  0.5000000000000000
  0.8390810450109711  0.1609189549890289  0.5000000000000000
  0.1609189549890289  0.5000000000000000  0.5000000000000000
  0.8390810450109711  0.5000000000000000  0.5000000000000000
  0.5000000000000000  0.8390810450109711  0.5000000000000000
  0.1609189549890289  0.8390810450109711  0.5000000000000000
  0.5000000000000000  0.1609189549890289  0.8390810450109711
  0.5000000000000000  0.5000000000000000  0.8390810450109711
  0.1609189549890289  0.5000000000000000  0.8390810450109711
  0.0000000000000000  0.0000000000000000  0.0000000000000000

  0.00000000E+00  0.00000000E+00  0.00000000E+00
  0.00000000E+00  0.00000000E+00  0.00000000E+00
  0.00000000E+00  0.00000000E+00  0.00000000E+00
  0.00000000E+00  0.00000000E+00  0.00000000E+00
  0.00000000E+00  0.00000000E+00  0.00000000E+00
  0.00000000E+00  0.00000000E+00  0.00000000E+00
  0.00000000E+00  0.00000000E+00  0.00000000E+00
  0.00000000E+00  0.00000000E+00  0.00000000E+00
  0.00000000E+00  0.00000000E+00  0.00000000E+00
  0.00000000E+00  0.00000000E+00  0.00000000E+00
  0.00000000E+00  0.00000000E+00  0.00000000E+00
  0.00000000E+00  0.00000000E+00  0.00000000E+00
  0.00000000E+00  0.00000000E+00  0.00000000E+00
