Ca4 Tl4 F20                             
   1.0000000000000000     
    11.6472025468243849    0.0000000000000000    0.0000000000000000
     0.0000000000000000    4.2474364485082470   -0.0003945386952660
     0.0000000000000000    1.9564697761624756    7.7241940907873774
   Ca   Tl   F 
     4     4    20
Direct
  0.9816515749250883  0.5216667358539482  0.2430437848663587
  0.4816515749250811  0.4783332641460518  0.2569562151336413
  0.0183484250749189  0.4783332641460518  0.7569562151336413
  0.5183484250749117  0.5216667358539482  0.7430437848663587
  0.7675749451219858  0.1849227769390893  0.5930695318248098
  0.2675749451219858  0.8150772230609107  0.9069304681751902
  0.2324250548780142  0.8150772230609107  0.4069304681751902
  0.7324250548780142  0.1849227769390893  0.0930695318248098
  0.5915001517320704  0.3002199065730125  0.4994126163026422
  0.0915001517320704  0.6997800934269875  0.0005873836973507
  0.4084998482679296  0.6997800934269875  0.5005873836973507
  0.9084998482679296  0.3002199065730125  0.9994126163026493
  0.8328640395860987  0.1239535374360869  0.3399115469517398
  0.3328640395860916  0.8760464625639131  0.1600884530482602
  0.1671359604139084  0.8760464625639131  0.6600884530482602
  0.6671359604139013  0.1239535374360869  0.8399115469517398
  0.4251837797923841  0.0204521310560608  0.7615302643901529
  0.9251837797923841  0.9795478689439392  0.7384697356098471
  0.5748162202076159  0.9795478689439392  0.2384697356098400
  0.0748162202076230  0.0204521310560608  0.2615302643901529
  0.7007653687831379  0.6914543573112653  0.6485531395538686
  0.2007653687831450  0.3085456426887347  0.8514468604461314
  0.2992346312168550  0.3085456426887347  0.3514468604461314
  0.7992346312168621  0.6914543573112653  0.1485531395538686
  0.3966114519941755  0.4449411419485898  0.9830403702991006
  0.8966114519941755  0.5550588580514102  0.5169596297008994
  0.6033885480058245  0.5550588580514102  0.0169596297008994
  0.1033885480058316  0.4449411419485898  0.4830403702991006

  0.00000000E+00  0.00000000E+00  0.00000000E+00
  0.00000000E+00  0.00000000E+00  0.00000000E+00
  0.00000000E+00  0.00000000E+00  0.00000000E+00
  0.00000000E+00  0.00000000E+00  0.00000000E+00
  0.00000000E+00  0.00000000E+00  0.00000000E+00
  0.00000000E+00  0.00000000E+00  0.00000000E+00
  0.00000000E+00  0.00000000E+00  0.00000000E+00
  0.00000000E+00  0.00000000E+00  0.00000000E+00
  0.00000000E+00  0.00000000E+00  0.00000000E+00
  0.00000000E+00  0.00000000E+00  0.00000000E+00
  0.00000000E+00  0.00000000E+00  0.00000000E+00
  0.00000000E+00  0.00000000E+00  0.00000000E+00
  0.00000000E+00  0.00000000E+00  0.00000000E+00
  0.00000000E+00  0.00000000E+00  0.00000000E+00
  0.00000000E+00  0.00000000E+00  0.00000000E+00
  0.00000000E+00  0.00000000E+00  0.00000000E+00
  0.00000000E+00  0.00000000E+00  0.00000000E+00
  0.00000000E+00  0.00000000E+00  0.00000000E+00
  0.00000000E+00  0.00000000E+00  0.00000000E+00
  0.00000000E+00  0.00000000E+00  0.00000000E+00
  0.00000000E+00  0.00000000E+00  0.00000000E+00
  0.00000000E+00  0.00000000E+00  0.00000000E+00
  0.00000000E+00  0.00000000E+00  0.00000000E+00
  0.00000000E+00  0.00000000E+00  0.00000000E+00
  0.00000000E+00  0.00000000E+00  0.00000000E+00
  0.00000000E+00  0.00000000E+00  0.00000000E+00
  0.00000000E+00  0.00000000E+00  0.00000000E+00
  0.00000000E+00  0.00000000E+00  0.00000000E+00
