Mg2 Tl8                                 
   1.0000000000000000     
     0.4293602288141075    5.8768258867872776   -0.4248945702658025
     5.5135179350992045   -2.3551367566623997    0.7416082310308445
    -2.8957526551937627   -2.1424338352271506   -8.9173202250829195
   Mg   Tl
     2     8
Direct
  0.5603647067033037  0.7406255218574600  0.2811118764621838
  0.4396140372658337  0.2593261867795533  0.7189056375069285
  0.8454835811826911  0.6938744532538621  0.0265304860722679
  0.7094440384458949  0.2113249004369422  0.1586988433209129
  0.2885506461614327  0.2331592102093580  0.3396396692367318
  0.8770202043996775  0.2538179482501590  0.5567283082323300
  0.1229925056066818  0.7460712909461265  0.4433252064069393
  0.7114746401098913  0.7667649742228448  0.6604229686608960
  0.2905565416172635  0.7886420773907332  0.8413366986373632
  0.1544990985073440  0.3060934366529722  0.9735003054634248

  0.00000000E+00  0.00000000E+00  0.00000000E+00
  0.00000000E+00  0.00000000E+00  0.00000000E+00
  0.00000000E+00  0.00000000E+00  0.00000000E+00
  0.00000000E+00  0.00000000E+00  0.00000000E+00
  0.00000000E+00  0.00000000E+00  0.00000000E+00
  0.00000000E+00  0.00000000E+00  0.00000000E+00
  0.00000000E+00  0.00000000E+00  0.00000000E+00
  0.00000000E+00  0.00000000E+00  0.00000000E+00
  0.00000000E+00  0.00000000E+00  0.00000000E+00
  0.00000000E+00  0.00000000E+00  0.00000000E+00
