Ba6 In4 Br24                            
   1.0000000000000000     
    13.2909416218658887   -0.6134077937498006    0.0000000000000000
    -0.6554696839770011   13.9444619400033556    0.0000000000000000
     0.0000000000000000    0.0000000000000000    7.4614612627543320
   Br   In   Ba
    24     4     6
Direct
  0.7299355944353749  0.2336198009835613  0.0000000000000000
  0.1268511367233813  0.3140262663089786  0.0000000000000000
  0.8494157347948246  0.6284918022112578  0.0000000000000000
  0.3857253659185389  0.8572720678774530  0.0000000000000000
  0.4911204049111006  0.0744313865623027  0.2425748356708866
  0.9347902812463786  0.4224717425056923  0.2678026450846360
  0.2168696619813915  0.0823143605644319  0.2408043910537572
  0.9412222949510181  0.1460651691196304  0.2603332094605548
  0.3812331882681477  0.3095220841277779  0.2391845193272957
  0.6419162797546107  0.4443554073410212  0.2551780337286758
  0.2883359619196710  0.6027160593220486  0.2493312598989803
  0.5989520723201167  0.7085796369675705  0.2472986048038521
  0.1265140397311484  0.8057438413274838  0.2508975613947584
  0.8271058815438650  0.8786524408803373  0.2530570263154956
  0.2168696619813915  0.0823143605644319  0.7591956089462428
  0.9412222949510181  0.1460651691196304  0.7396667905394452
  0.3812331882681477  0.3095220841277779  0.7608154806727043
  0.6419162797546107  0.4443554073410212  0.7448219662713242
  0.2883359619196710  0.6027160593220486  0.7506687401010197
  0.5989520723201167  0.7085796369675705  0.7527013951961408
  0.1265140397311484  0.8057438413274838  0.7491024386052416
  0.8271058815438650  0.8786524408803373  0.7469429736845115
  0.4911204049111006  0.0744313865623027  0.7574251643291134
  0.9347902812463786  0.4224717425056923  0.7321973549153640
  0.3661171565604562  0.1574667462184252  0.0000000000000000
  0.9222864838649656  0.2896114619614494  0.0000000000000000
  0.2383501645123403  0.7238563452522015  0.0000000000000000
  0.7382990180415945  0.7695761671374086  0.0000000000000000
  0.0154323912687389  0.9751647416400218  0.0000000000000000
  0.4729188002404570  0.5215910300457196  0.0000000000000000
  0.5791122027837901  0.2618046313292623  0.5000000000000000
  0.0867709051937027  0.2950187586688315  0.5000000000000000
  0.7707000018270946  0.5930619755842059  0.5000000000000000
  0.3215649105798803  0.9293339473445812  0.5000000000000000

  0.00000000E+00  0.00000000E+00  0.00000000E+00
  0.00000000E+00  0.00000000E+00  0.00000000E+00
  0.00000000E+00  0.00000000E+00  0.00000000E+00
  0.00000000E+00  0.00000000E+00  0.00000000E+00
  0.00000000E+00  0.00000000E+00  0.00000000E+00
  0.00000000E+00  0.00000000E+00  0.00000000E+00
  0.00000000E+00  0.00000000E+00  0.00000000E+00
  0.00000000E+00  0.00000000E+00  0.00000000E+00
  0.00000000E+00  0.00000000E+00  0.00000000E+00
  0.00000000E+00  0.00000000E+00  0.00000000E+00
  0.00000000E+00  0.00000000E+00  0.00000000E+00
  0.00000000E+00  0.00000000E+00  0.00000000E+00
  0.00000000E+00  0.00000000E+00  0.00000000E+00
  0.00000000E+00  0.00000000E+00  0.00000000E+00
  0.00000000E+00  0.00000000E+00  0.00000000E+00
  0.00000000E+00  0.00000000E+00  0.00000000E+00
  0.00000000E+00  0.00000000E+00  0.00000000E+00
  0.00000000E+00  0.00000000E+00  0.00000000E+00
  0.00000000E+00  0.00000000E+00  0.00000000E+00
  0.00000000E+00  0.00000000E+00  0.00000000E+00
  0.00000000E+00  0.00000000E+00  0.00000000E+00
  0.00000000E+00  0.00000000E+00  0.00000000E+00
  0.00000000E+00  0.00000000E+00  0.00000000E+00
  0.00000000E+00  0.00000000E+00  0.00000000E+00
  0.00000000E+00  0.00000000E+00  0.00000000E+00
  0.00000000E+00  0.00000000E+00  0.00000000E+00
  0.00000000E+00  0.00000000E+00  0.00000000E+00
  0.00000000E+00  0.00000000E+00  0.00000000E+00
  0.00000000E+00  0.00000000E+00  0.00000000E+00
  0.00000000E+00  0.00000000E+00  0.00000000E+00
  0.00000000E+00  0.00000000E+00  0.00000000E+00
  0.00000000E+00  0.00000000E+00  0.00000000E+00
  0.00000000E+00  0.00000000E+00  0.00000000E+00
  0.00000000E+00  0.00000000E+00  0.00000000E+00
