Mg22 Al14                               
   1.00000000000000     
     0.0000000000000000    7.3126438062126455    7.3126438062126446
     7.3126438062126446    0.0000000000000000    7.3126438062126446
     7.3126438062126446    7.3126438062126455    0.0000000000000000
   Mg   Al
    22    14
Direct
  0.0000000000000000  0.0000000000000000  0.0000000000000000
  0.5000000000000000  0.5000000000000000  0.5000000000000000
  0.1270862644471151  0.1270862644471151  0.1270862644471151
  0.3812577933413408  0.8729137355528778  0.8729137355528778
  0.8729137355528778  0.3812577933413408  0.8729137355528778
  0.8729137355528778  0.8729137355528778  0.3812577933413408
  0.1270862644471151  0.6187422066586592  0.1270862644471151
  0.1270862644471151  0.1270862644471151  0.6187422066586592
  0.6187422066586592  0.1270862644471151  0.1270862644471151
  0.8729137355528778  0.8729137355528778  0.8729137355528778
  0.5000000000000000  0.8193923779207992  0.5000000000000000
  0.8193923779207992  0.5000000000000000  0.5000000000000000
  0.5000000000000000  0.8193923779207992  0.1806076220792008
  0.1806076220792008  0.5000000000000000  0.8193923779207992
  0.8193923779207992  0.5000000000000000  0.1806076220792008
  0.5000000000000000  0.5000000000000000  0.8193923779207992
  0.1806076220792008  0.8193923779207992  0.5000000000000000
  0.5000000000000000  0.1806076220792008  0.8193923779207992
  0.5000000000000000  0.5000000000000000  0.1806076220792008
  0.8193923779207992  0.1806076220792008  0.5000000000000000
  0.1806076220792008  0.5000000000000000  0.5000000000000000
  0.5000000000000000  0.1806076220792008  0.5000000000000000
  0.2157182184475062  0.7842817815524938  0.2157182184475062
  0.2157182184475062  0.7842817815524938  0.7842817815524938
  0.7842817815524938  0.2157182184475062  0.2157182184475062
  0.7842817815524938  0.7842817815524938  0.2157182184475062
  0.2157182184475062  0.2157182184475062  0.7842817815524938
  0.7842817815524938  0.2157182184475062  0.7842817815524938
  0.3135722916694803  0.3135712916694828  0.3135712916694828
  0.9407148750084389  0.6864287083305172  0.6864287083305172
  0.6864287083305172  0.9407148750084389  0.6864287083305172
  0.6864287083305172  0.6864287083305172  0.9407148750084389
  0.3135712916694828  0.0592851249915611  0.3135712916694828
  0.3135712916694828  0.3135712916694828  0.0592851249915611
  0.0592851249915611  0.3135712916694828  0.3135712916694828
  0.6864287083305172  0.6864287083305172  0.6864277083305197
 
  0.00000000E+00  0.00000000E+00  0.00000000E+00
  0.00000000E+00  0.00000000E+00  0.00000000E+00
  0.00000000E+00  0.00000000E+00  0.00000000E+00
  0.00000000E+00  0.00000000E+00  0.00000000E+00
  0.00000000E+00  0.00000000E+00  0.00000000E+00
  0.00000000E+00  0.00000000E+00  0.00000000E+00
  0.00000000E+00  0.00000000E+00  0.00000000E+00
  0.00000000E+00  0.00000000E+00  0.00000000E+00
  0.00000000E+00  0.00000000E+00  0.00000000E+00
  0.00000000E+00  0.00000000E+00  0.00000000E+00
  0.00000000E+00  0.00000000E+00  0.00000000E+00
  0.00000000E+00  0.00000000E+00  0.00000000E+00
  0.00000000E+00  0.00000000E+00  0.00000000E+00
  0.00000000E+00  0.00000000E+00  0.00000000E+00
  0.00000000E+00  0.00000000E+00  0.00000000E+00
  0.00000000E+00  0.00000000E+00  0.00000000E+00
  0.00000000E+00  0.00000000E+00  0.00000000E+00
  0.00000000E+00  0.00000000E+00  0.00000000E+00
  0.00000000E+00  0.00000000E+00  0.00000000E+00
  0.00000000E+00  0.00000000E+00  0.00000000E+00
  0.00000000E+00  0.00000000E+00  0.00000000E+00
  0.00000000E+00  0.00000000E+00  0.00000000E+00
  0.00000000E+00  0.00000000E+00  0.00000000E+00
  0.00000000E+00  0.00000000E+00  0.00000000E+00
  0.00000000E+00  0.00000000E+00  0.00000000E+00
  0.00000000E+00  0.00000000E+00  0.00000000E+00
  0.00000000E+00  0.00000000E+00  0.00000000E+00
  0.00000000E+00  0.00000000E+00  0.00000000E+00
  0.00000000E+00  0.00000000E+00  0.00000000E+00
  0.00000000E+00  0.00000000E+00  0.00000000E+00
  0.00000000E+00  0.00000000E+00  0.00000000E+00
  0.00000000E+00  0.00000000E+00  0.00000000E+00
  0.00000000E+00  0.00000000E+00  0.00000000E+00
  0.00000000E+00  0.00000000E+00  0.00000000E+00
  0.00000000E+00  0.00000000E+00  0.00000000E+00
  0.00000000E+00  0.00000000E+00  0.00000000E+00
