Sr6 Tl4 Cl24                            
   1.0000000000000000     
     0.0000000000000000    0.0000000000000000    6.7891779356784427
    11.5920637410460117    0.0000244708712606    0.0000000000000000
     0.0000293931198363   11.5886880516847963    0.0000000000000000
   Sr   Cl   Tl
     6    24     4
Direct
  0.0000000000000000  0.9993836993335208  0.9998649109531641
  0.5000000000000000  0.3489655797978912  0.1496916264669110
  0.5000000000000000  0.8487423857672525  0.3503822575651014
  0.0000000000000000  0.4994629256885759  0.5002047536828229
  0.5000000000000000  0.1505885062666223  0.6524318490212551
  0.5000000000000000  0.6506919234412223  0.8475226697579146
  0.2456279527125318  0.5000369051309903  0.9993056329273102
  0.7543720472874682  0.5000369051309903  0.9993056329273102
  0.2635850888047315  0.7887779545625193  0.0539624463472066
  0.7364149111952614  0.7887779545625193  0.0539624463472066
  0.0000000000000000  0.3122444166664167  0.1876059370995264
  0.2636720603754625  0.0538101456848707  0.2110758153773773
  0.7363279396245375  0.0538101456848707  0.2110758153773773
  0.2637332486777240  0.5538488498325975  0.2889977196625182
  0.7362667513222760  0.5538488498325975  0.2889977196625182
  0.0000000000000000  0.8120863291256555  0.3124453397794156
  0.2636023419458979  0.2887602854746092  0.4460512098282834
  0.7363976580541021  0.2887602854746092  0.4460512098282834
  0.2456187912304202  0.9999057188371125  0.5007234157700609
  0.7543812087695798  0.9999057188371125  0.5007234157700609
  0.2638234932125911  0.7106248671771596  0.5537087365895701
  0.7361765067874089  0.7106248671771596  0.5537087365895701
  0.0000000000000000  0.1887735378553330  0.6888654615514511
  0.2636944951710021  0.4463011440265774  0.7107431138925264
  0.7363055048289979  0.4463011440265774  0.7107431138925264
  0.2636679781559721  0.9463019233696102  0.7892744148166386
  0.7363320218440279  0.9463019233696102  0.7892744148166386
  0.0000000000000000  0.6887491781698571  0.8109825191570650
  0.2637321729030901  0.2106924552885516  0.9463331535137982
  0.7362678270969099  0.2106924552885516  0.9463331535137982
  0.0000000000000000  0.6525297180706815  0.1526929287177268
  0.0000000000000000  0.1526167242982410  0.3472534968092589
  0.0000000000000000  0.8486487616760954  0.6512137635070374
  0.0000000000000000  0.3485958150734447  0.8486911684807552

  0.00000000E+00  0.00000000E+00  0.00000000E+00
  0.00000000E+00  0.00000000E+00  0.00000000E+00
  0.00000000E+00  0.00000000E+00  0.00000000E+00
  0.00000000E+00  0.00000000E+00  0.00000000E+00
  0.00000000E+00  0.00000000E+00  0.00000000E+00
  0.00000000E+00  0.00000000E+00  0.00000000E+00
  0.00000000E+00  0.00000000E+00  0.00000000E+00
  0.00000000E+00  0.00000000E+00  0.00000000E+00
  0.00000000E+00  0.00000000E+00  0.00000000E+00
  0.00000000E+00  0.00000000E+00  0.00000000E+00
  0.00000000E+00  0.00000000E+00  0.00000000E+00
  0.00000000E+00  0.00000000E+00  0.00000000E+00
  0.00000000E+00  0.00000000E+00  0.00000000E+00
  0.00000000E+00  0.00000000E+00  0.00000000E+00
  0.00000000E+00  0.00000000E+00  0.00000000E+00
  0.00000000E+00  0.00000000E+00  0.00000000E+00
  0.00000000E+00  0.00000000E+00  0.00000000E+00
  0.00000000E+00  0.00000000E+00  0.00000000E+00
  0.00000000E+00  0.00000000E+00  0.00000000E+00
  0.00000000E+00  0.00000000E+00  0.00000000E+00
  0.00000000E+00  0.00000000E+00  0.00000000E+00
  0.00000000E+00  0.00000000E+00  0.00000000E+00
  0.00000000E+00  0.00000000E+00  0.00000000E+00
  0.00000000E+00  0.00000000E+00  0.00000000E+00
  0.00000000E+00  0.00000000E+00  0.00000000E+00
  0.00000000E+00  0.00000000E+00  0.00000000E+00
  0.00000000E+00  0.00000000E+00  0.00000000E+00
  0.00000000E+00  0.00000000E+00  0.00000000E+00
  0.00000000E+00  0.00000000E+00  0.00000000E+00
  0.00000000E+00  0.00000000E+00  0.00000000E+00
  0.00000000E+00  0.00000000E+00  0.00000000E+00
  0.00000000E+00  0.00000000E+00  0.00000000E+00
  0.00000000E+00  0.00000000E+00  0.00000000E+00
  0.00000000E+00  0.00000000E+00  0.00000000E+00
