Sr2 Al2 Br10                            
   1.00000000000000     
    -5.5287152122615577   -4.6844128799772804    0.6695526813982271
     5.4963653297126278   -4.7173725752964737   -0.7134768854513956
    -5.0200957301468225   -0.0324310896461113   10.7269863716283531
   Al   Sr   Br
     2     2    10
Direct
  0.0029359129538591  0.0002142690527620  0.0708280219119999
  0.9969801357678705  0.9999038243373874  0.5719204765699573
  0.5018419439207662  0.5007661169068243  0.1965288796214040
  0.4981497630442746  0.4992269328609353  0.6969984099471205
  0.9262014955496625  0.7239276738417644  0.1347981069454818
  0.7287895121178209  0.0781819406984496  0.0435803118357967
  0.0793266158852219  0.2732225294536192  0.2363781362869659
  0.2714533559748915  0.9219491315664925  0.3686242855960842
  0.5003842130715057  0.4982819031365366  0.4461329717453566
  0.0734559481180952  0.2758716984256822  0.7361344783516870
  0.7223410832245847  0.0749515766052227  0.5438548637951968
  0.9208956801367520  0.7268027492557039  0.6390681362339663
  0.2773388161211443  0.9249612918019210  0.8677222097868693
  0.4998045241135571  0.5016383620567311  0.9471287113721019
 
  0.00000000E+00  0.00000000E+00  0.00000000E+00
  0.00000000E+00  0.00000000E+00  0.00000000E+00
  0.00000000E+00  0.00000000E+00  0.00000000E+00
  0.00000000E+00  0.00000000E+00  0.00000000E+00
  0.00000000E+00  0.00000000E+00  0.00000000E+00
  0.00000000E+00  0.00000000E+00  0.00000000E+00
  0.00000000E+00  0.00000000E+00  0.00000000E+00
  0.00000000E+00  0.00000000E+00  0.00000000E+00
  0.00000000E+00  0.00000000E+00  0.00000000E+00
  0.00000000E+00  0.00000000E+00  0.00000000E+00
  0.00000000E+00  0.00000000E+00  0.00000000E+00
  0.00000000E+00  0.00000000E+00  0.00000000E+00
  0.00000000E+00  0.00000000E+00  0.00000000E+00
  0.00000000E+00  0.00000000E+00  0.00000000E+00
