Sr1 Tl2 I6                              
   1.0000000000000000     
     4.9689298603283456    4.0467720771001616    6.8057967726650768
    -4.9689298603283456    4.0467720771001616    6.8057967726650768
     0.0000000000000000   -3.7647610823674320    5.3377332680661702
   Sr   I    Tl
     1     6     2
Direct
  0.0000000000000000  0.0000000000000000  0.0000000000000000
  0.7765579690677100  0.7765579690677100  0.2278304972006637
  0.7095436672302924  0.2916633979937799  0.2532275338406080
  0.2916633979937799  0.7095436672302924  0.2532275338406080
  0.2234420309322900  0.2234420309322900  0.7721695027993363
  0.7083366020062130  0.2904563327697076  0.7467724661593920
  0.2904563327697076  0.7083366020062130  0.7467724661593920
  0.3215866324903516  0.3215866324903516  0.1713257928534375
  0.6784133675096484  0.6784133675096484  0.8286742071465625

  0.00000000E+00  0.00000000E+00  0.00000000E+00
  0.00000000E+00  0.00000000E+00  0.00000000E+00
  0.00000000E+00  0.00000000E+00  0.00000000E+00
  0.00000000E+00  0.00000000E+00  0.00000000E+00
  0.00000000E+00  0.00000000E+00  0.00000000E+00
  0.00000000E+00  0.00000000E+00  0.00000000E+00
  0.00000000E+00  0.00000000E+00  0.00000000E+00
  0.00000000E+00  0.00000000E+00  0.00000000E+00
  0.00000000E+00  0.00000000E+00  0.00000000E+00
