Be4 Tl4 I2                              
   1.0000000000000000     
     3.4577600572642546    0.7563504249844315    0.0000000000000000
    -1.4825927664168892    6.7320009279934396    0.0000000000000000
     0.0000000000000000    0.0000000000000000   10.5734819640516147
   Tl   I    Be
     4     2     4
Direct
  0.2498408284567546  0.6726883272958091  0.0938506150511600
  0.2498408284567546  0.6726883272958091  0.4061493849488400
  0.7501591715432454  0.3273116727041909  0.5938506150511600
  0.7501591715432454  0.3273116727041909  0.9061493849488400
  0.7520609052251146  0.1838993427474591  0.2500000000000000
  0.2479390947748854  0.8161006572525409  0.7500000000000000
  0.7501893706888794  0.9975538434181814  0.0609171122820555
  0.7501893706888794  0.9975538434181814  0.4390828877179445
  0.2498106293111206  0.0024461565818186  0.5609171122820555
  0.2498106293111206  0.0024461565818186  0.9390828877179445

  0.00000000E+00  0.00000000E+00  0.00000000E+00
  0.00000000E+00  0.00000000E+00  0.00000000E+00
  0.00000000E+00  0.00000000E+00  0.00000000E+00
  0.00000000E+00  0.00000000E+00  0.00000000E+00
  0.00000000E+00  0.00000000E+00  0.00000000E+00
  0.00000000E+00  0.00000000E+00  0.00000000E+00
  0.00000000E+00  0.00000000E+00  0.00000000E+00
  0.00000000E+00  0.00000000E+00  0.00000000E+00
  0.00000000E+00  0.00000000E+00  0.00000000E+00
  0.00000000E+00  0.00000000E+00  0.00000000E+00
