Ca22 Ga14                               
   1.00000000000000     
     0.0000000000000000    8.0586838113651336    8.0586838113651336
     8.0586838113651336    0.0000000000000000    8.0586838113651336
     8.0586838113651336    8.0586838113651336    0.0000000000000000
   Ca   Ga
    22    14
Direct
  0.6646766179914465  0.3353233820085535  0.0000000000000000
  0.6646766179914465  0.0000000000000000  0.0000000000000000
  0.1107695833548945  0.6297434722150328  0.6297434722150328
  0.0000000000000000  0.6646766179914465  0.3353233820085535
  0.0000000000000000  0.3353233820085535  0.6646766179914465
  0.3702565277849672  0.3702565277849672  0.3702565277849672
  0.0000000000000000  0.6646766179914465  0.0000000000000000
  0.6297434722150328  0.6297434722150328  0.1107695833548945
  0.0000000000000000  0.0000000000000000  0.6646766179914465
  0.6297434722150328  0.1107695833548945  0.6297434722150328
  0.0000000000000000  0.0000000000000000  0.3353233820085535
  0.3353233820085535  0.0000000000000000  0.0000000000000000
  0.0000000000000000  0.3353233820085535  0.0000000000000000
  0.6646766179914465  0.0000000000000000  0.3353233820085535
  0.5000000000000000  0.5000000000000000  0.5000000000000000
  0.3702565277849672  0.8892304166451055  0.3702565277849672
  0.3702565277849672  0.3702565277849672  0.8892304166451055
  0.3353233820085535  0.6646766179914465  0.0000000000000000
  0.3353233820085535  0.0000000000000000  0.6646766179914465
  0.6297434722150328  0.6297434722150328  0.6297434722150328
  0.0000000000000000  0.0000000000000000  0.0000000000000000
  0.8892304166451055  0.3702565277849672  0.3702565277849672
  0.2807104851214675  0.2807104851214675  0.7192895148785254
  0.7192895148785254  0.7192895148785254  0.2807104851214675
  0.8093189019952902  0.5720432940141222  0.8093189019952902
  0.7192895148785254  0.2807104851214675  0.2807104851214675
  0.4279567059858707  0.1906810980047098  0.1906810980047098
  0.2807104851214675  0.7192895148785254  0.7192895148785254
  0.1906810980047098  0.1906810980047098  0.1906810980047098
  0.1906810980047098  0.4279567059858707  0.1906810980047098
  0.5720432940141222  0.8093189019952902  0.8093189019952902
  0.8093189019952902  0.8093189019952902  0.8093189019952902
  0.7192895148785254  0.2807104851214675  0.7192895148785254
  0.1906810980047098  0.1906810980047098  0.4279567059858707
  0.2807104851214675  0.7192895148785254  0.2807104851214675
  0.8093189019952902  0.8093189019952902  0.5720432940141222
 
  0.00000000E+00  0.00000000E+00  0.00000000E+00
  0.00000000E+00  0.00000000E+00  0.00000000E+00
  0.00000000E+00  0.00000000E+00  0.00000000E+00
  0.00000000E+00  0.00000000E+00  0.00000000E+00
  0.00000000E+00  0.00000000E+00  0.00000000E+00
  0.00000000E+00  0.00000000E+00  0.00000000E+00
  0.00000000E+00  0.00000000E+00  0.00000000E+00
  0.00000000E+00  0.00000000E+00  0.00000000E+00
  0.00000000E+00  0.00000000E+00  0.00000000E+00
  0.00000000E+00  0.00000000E+00  0.00000000E+00
  0.00000000E+00  0.00000000E+00  0.00000000E+00
  0.00000000E+00  0.00000000E+00  0.00000000E+00
  0.00000000E+00  0.00000000E+00  0.00000000E+00
  0.00000000E+00  0.00000000E+00  0.00000000E+00
  0.00000000E+00  0.00000000E+00  0.00000000E+00
  0.00000000E+00  0.00000000E+00  0.00000000E+00
  0.00000000E+00  0.00000000E+00  0.00000000E+00
  0.00000000E+00  0.00000000E+00  0.00000000E+00
  0.00000000E+00  0.00000000E+00  0.00000000E+00
  0.00000000E+00  0.00000000E+00  0.00000000E+00
  0.00000000E+00  0.00000000E+00  0.00000000E+00
  0.00000000E+00  0.00000000E+00  0.00000000E+00
  0.00000000E+00  0.00000000E+00  0.00000000E+00
  0.00000000E+00  0.00000000E+00  0.00000000E+00
  0.00000000E+00  0.00000000E+00  0.00000000E+00
  0.00000000E+00  0.00000000E+00  0.00000000E+00
  0.00000000E+00  0.00000000E+00  0.00000000E+00
  0.00000000E+00  0.00000000E+00  0.00000000E+00
  0.00000000E+00  0.00000000E+00  0.00000000E+00
  0.00000000E+00  0.00000000E+00  0.00000000E+00
  0.00000000E+00  0.00000000E+00  0.00000000E+00
  0.00000000E+00  0.00000000E+00  0.00000000E+00
  0.00000000E+00  0.00000000E+00  0.00000000E+00
  0.00000000E+00  0.00000000E+00  0.00000000E+00
  0.00000000E+00  0.00000000E+00  0.00000000E+00
  0.00000000E+00  0.00000000E+00  0.00000000E+00
