Sr1 In2 I6                              
   1.0000000000000000     
     4.5458991604100731    2.0391069582103492    5.3159633195521598
    -4.5458991604100731    2.0391069582103492    5.3159633195521598
     0.0000000000000000   -6.5506836198020491    6.6537630735361439
   Sr   I    In
     1     6     2
Direct
  0.0000000000000000  0.0000000000000000  0.0000000000000000
  0.7022483544539782  0.7022483544539782  0.2724173417664346
  0.7162882817058147  0.2101744369535439  0.2731188833610432
  0.2101744369535439  0.7162882817058147  0.2731188833610432
  0.2977516455460218  0.2977516455460218  0.7275826582335654
  0.7898255630464561  0.2837117182941853  0.7268811166389568
  0.2837117182941853  0.7898255630464561  0.7268811166389568
  0.1978498174818100  0.1978498174818100  0.4327021334273908
  0.8021501825181900  0.8021501825181900  0.5672978665726092

  0.00000000E+00  0.00000000E+00  0.00000000E+00
  0.00000000E+00  0.00000000E+00  0.00000000E+00
  0.00000000E+00  0.00000000E+00  0.00000000E+00
  0.00000000E+00  0.00000000E+00  0.00000000E+00
  0.00000000E+00  0.00000000E+00  0.00000000E+00
  0.00000000E+00  0.00000000E+00  0.00000000E+00
  0.00000000E+00  0.00000000E+00  0.00000000E+00
  0.00000000E+00  0.00000000E+00  0.00000000E+00
  0.00000000E+00  0.00000000E+00  0.00000000E+00
