Sr16 B16 F80                            
   1.0000000000000000     
    13.1576503641454732    0.0000007763975081    0.0000000000000008
    -0.0000007763975087   13.1576503641454732    0.0000000000000008
     0.0000000000000000    0.0000000000000000    8.4622487824264532
   Sr   B    F 
    16    16    80
Direct
  0.5832277823441245  0.7319474942729087  0.5879922087994913
  0.2319474942728945  0.9167722176558755  0.0879922087994842
  0.7680525057270913  0.0832277823441103  0.0879922087994842
  0.4167722176558755  0.2680525057270913  0.5879922087994913
  0.2028593723889855  0.0646120650063224  0.4902329096353810
  0.5646120650063366  0.2971406276110002  0.9902329096353810
  0.4353879349936634  0.7028593723889927  0.9902329096353810
  0.7971406276110073  0.9353879349936634  0.4902329096353810
  0.0832277823441103  0.2319474942728945  0.0879922087994842
  0.7319474942729087  0.4167722176558755  0.5879922087994913
  0.2680525057270913  0.5832277823441245  0.5879922087994913
  0.9167722176558755  0.7680525057270913  0.0879922087994842
  0.7028593723889927  0.5646120650063366  0.9902329096353810
  0.0646120650063224  0.7971406276110073  0.4902329096353810
  0.9353879349936634  0.2028593723889855  0.4902329096353810
  0.2971406276110002  0.4353879349936634  0.9902329096353810
  0.0000000000000000  0.0000000000000000  0.7201471009265816
  0.0000000000000000  0.0000000000000000  0.1790045815455343
  0.5000000000000000  0.0000000000000000  0.9262104661991586
  0.5000000000000000  0.0000000000000000  0.4262104661991586
  0.3170269395091267  0.1687670770780372  0.1138443608699831
  0.6687670770780372  0.1829730604908804  0.6138443608699689
  0.3312329229219770  0.8170269395091339  0.6138443608699689
  0.6829730604908661  0.8312329229219628  0.1138443608699831
  0.5000000000000000  0.5000000000000000  0.2201471009265745
  0.5000000000000000  0.5000000000000000  0.6790045815455414
  0.0000000000000000  0.5000000000000000  0.4262104661991586
  0.0000000000000000  0.5000000000000000  0.9262104661991586
  0.8170269395091339  0.6687670770780372  0.6138443608699689
  0.1687670770780372  0.6829730604908661  0.1138443608699831
  0.8312329229219628  0.3170269395091267  0.1138443608699831
  0.1829730604908804  0.3312329229219770  0.6138443608699689
  0.0000000000000000  0.0000000000000000  0.8809429915404934
  0.0000000000000000  0.0000000000000000  0.3461097246251015
  0.1047202475029820  0.9461550647038237  0.6721160394467915
  0.4461550647038095  0.3952797524970251  0.1721160394467915
  0.5538449352961834  0.6047202475029749  0.1721160394467915
  0.8952797524970251  0.0538449352961905  0.6721160394467915
  0.1057014844191144  0.0482586294532297  0.1330873851230550
  0.5482586294532297  0.3942985155808714  0.6330873851230550
  0.4517413705467774  0.6057014844191144  0.6330873851230550
  0.8942985155808856  0.9517413705467703  0.1330873851230550
  0.5000000000000000  0.0000000000000000  0.5817402879247240
  0.5000000000000000  0.0000000000000000  0.0817402879247311
  0.4331169893102711  0.0571291261153348  0.8481656045757120
  0.5571291261153348  0.0668830106897289  0.3481656045757191
  0.4428708738846723  0.9331169893102640  0.3481656045757191
  0.5668830106897360  0.9428708738846652  0.8481656045757120
  0.3679629042373307  0.1219980855264780  0.4749972708972408
  0.6219980855264708  0.1320370957626693  0.9749972708972336
  0.3780019144735292  0.8679629042373165  0.9749972708972336
  0.6320370957626693  0.8780019144735292  0.4749972708972408
  0.4040236582733172  0.3097151733588532  0.8604331556907141
  0.8097151733588461  0.0959763417266686  0.3604331556907212
  0.1902848266411468  0.9040236582733314  0.3604331556907212
  0.5959763417266686  0.6902848266411539  0.8604331556907141
  0.4203075202204971  0.1848644423498627  0.1099220291466381
  0.6848644423498627  0.0796924797794887  0.6099220291466168
  0.3151355576501444  0.9203075202204971  0.6099220291466168
  0.5796924797795029  0.8151355576501373  0.1099220291466381
  0.2676312501969207  0.1519519364409163  0.9679447728913431
  0.6519519364409305  0.2323687498030793  0.4679447728913502
  0.3480480635590837  0.7676312501969136  0.4679447728913502
  0.7323687498030864  0.8480480635590695  0.9679447728913431
  0.2953240402354282  0.0807056711091647  0.2067892448767452
  0.5807056711091647  0.2046759597645860  0.7067892448767452
  0.4192943288908353  0.7953240402354282  0.7067892448767452
  0.7046759597645718  0.9192943288908353  0.2067892448767452
  0.7690793688165485  0.7562807320921010  0.6817922913256069
  0.2562807320921010  0.7309206311834515  0.1817922913256140
  0.7437192679078990  0.2690793688165343  0.1817922913256140
  0.2309206311834586  0.2437192679078990  0.6817922913256069
  0.5000000000000000  0.5000000000000000  0.3809429915405005
  0.5000000000000000  0.5000000000000000  0.8461097246250944
  0.6047202475029749  0.4461550647038095  0.1721160394467915
  0.9461550647038237  0.8952797524970251  0.6721160394467915
  0.0538449352961905  0.1047202475029820  0.6721160394467915
  0.3952797524970251  0.5538449352961834  0.1721160394467915
  0.6057014844191144  0.5482586294532297  0.6330873851230550
  0.0482586294532297  0.8942985155808856  0.1330873851230550
  0.9517413705467703  0.1057014844191144  0.1330873851230550
  0.3942985155808714  0.4517413705467774  0.6330873851230550
  0.0000000000000000  0.5000000000000000  0.0817402879247311
  0.0000000000000000  0.5000000000000000  0.5817402879247240
  0.9331169893102640  0.5571291261153348  0.3481656045757191
  0.0571291261153348  0.5668830106897360  0.8481656045757120
  0.9428708738846652  0.4331169893102711  0.8481656045757120
  0.0668830106897289  0.4428708738846723  0.3481656045757191
  0.8679629042373165  0.6219980855264708  0.9749972708972336
  0.1219980855264780  0.6320370957626693  0.4749972708972408
  0.8780019144735292  0.3679629042373307  0.4749972708972408
  0.1320370957626693  0.3780019144735292  0.9749972708972336
  0.9040236582733314  0.8097151733588461  0.3604331556907212
  0.3097151733588532  0.5959763417266686  0.8604331556907141
  0.6902848266411539  0.4040236582733172  0.8604331556907141
  0.0959763417266686  0.1902848266411468  0.3604331556907212
  0.9203075202204971  0.6848644423498627  0.6099220291466168
  0.1848644423498627  0.5796924797795029  0.1099220291466381
  0.8151355576501373  0.4203075202204971  0.1099220291466381
  0.0796924797794887  0.3151355576501444  0.6099220291466168
  0.7676312501969136  0.6519519364409305  0.4679447728913502
  0.1519519364409163  0.7323687498030864  0.9679447728913431
  0.8480480635590695  0.2676312501969207  0.9679447728913431
  0.2323687498030793  0.3480480635590837  0.4679447728913502
  0.7953240402354282  0.5807056711091647  0.7067892448767452
  0.0807056711091647  0.7046759597645718  0.2067892448767452
  0.9192943288908353  0.2953240402354282  0.2067892448767452
  0.2046759597645860  0.4192943288908353  0.7067892448767452
  0.2690793688165343  0.2562807320921010  0.1817922913256140
  0.7562807320921010  0.2309206311834586  0.6817922913256069
  0.2437192679078990  0.7690793688165485  0.6817922913256069
  0.7309206311834515  0.7437192679078990  0.1817922913256140

  0.00000000E+00  0.00000000E+00  0.00000000E+00
  0.00000000E+00  0.00000000E+00  0.00000000E+00
  0.00000000E+00  0.00000000E+00  0.00000000E+00
  0.00000000E+00  0.00000000E+00  0.00000000E+00
  0.00000000E+00  0.00000000E+00  0.00000000E+00
  0.00000000E+00  0.00000000E+00  0.00000000E+00
  0.00000000E+00  0.00000000E+00  0.00000000E+00
  0.00000000E+00  0.00000000E+00  0.00000000E+00
  0.00000000E+00  0.00000000E+00  0.00000000E+00
  0.00000000E+00  0.00000000E+00  0.00000000E+00
  0.00000000E+00  0.00000000E+00  0.00000000E+00
  0.00000000E+00  0.00000000E+00  0.00000000E+00
  0.00000000E+00  0.00000000E+00  0.00000000E+00
  0.00000000E+00  0.00000000E+00  0.00000000E+00
  0.00000000E+00  0.00000000E+00  0.00000000E+00
  0.00000000E+00  0.00000000E+00  0.00000000E+00
  0.00000000E+00  0.00000000E+00  0.00000000E+00
  0.00000000E+00  0.00000000E+00  0.00000000E+00
  0.00000000E+00  0.00000000E+00  0.00000000E+00
  0.00000000E+00  0.00000000E+00  0.00000000E+00
  0.00000000E+00  0.00000000E+00  0.00000000E+00
  0.00000000E+00  0.00000000E+00  0.00000000E+00
  0.00000000E+00  0.00000000E+00  0.00000000E+00
  0.00000000E+00  0.00000000E+00  0.00000000E+00
  0.00000000E+00  0.00000000E+00  0.00000000E+00
  0.00000000E+00  0.00000000E+00  0.00000000E+00
  0.00000000E+00  0.00000000E+00  0.00000000E+00
  0.00000000E+00  0.00000000E+00  0.00000000E+00
  0.00000000E+00  0.00000000E+00  0.00000000E+00
  0.00000000E+00  0.00000000E+00  0.00000000E+00
  0.00000000E+00  0.00000000E+00  0.00000000E+00
  0.00000000E+00  0.00000000E+00  0.00000000E+00
  0.00000000E+00  0.00000000E+00  0.00000000E+00
  0.00000000E+00  0.00000000E+00  0.00000000E+00
  0.00000000E+00  0.00000000E+00  0.00000000E+00
  0.00000000E+00  0.00000000E+00  0.00000000E+00
  0.00000000E+00  0.00000000E+00  0.00000000E+00
  0.00000000E+00  0.00000000E+00  0.00000000E+00
  0.00000000E+00  0.00000000E+00  0.00000000E+00
  0.00000000E+00  0.00000000E+00  0.00000000E+00
  0.00000000E+00  0.00000000E+00  0.00000000E+00
  0.00000000E+00  0.00000000E+00  0.00000000E+00
  0.00000000E+00  0.00000000E+00  0.00000000E+00
  0.00000000E+00  0.00000000E+00  0.00000000E+00
  0.00000000E+00  0.00000000E+00  0.00000000E+00
  0.00000000E+00  0.00000000E+00  0.00000000E+00
  0.00000000E+00  0.00000000E+00  0.00000000E+00
  0.00000000E+00  0.00000000E+00  0.00000000E+00
  0.00000000E+00  0.00000000E+00  0.00000000E+00
  0.00000000E+00  0.00000000E+00  0.00000000E+00
  0.00000000E+00  0.00000000E+00  0.00000000E+00
  0.00000000E+00  0.00000000E+00  0.00000000E+00
  0.00000000E+00  0.00000000E+00  0.00000000E+00
  0.00000000E+00  0.00000000E+00  0.00000000E+00
  0.00000000E+00  0.00000000E+00  0.00000000E+00
  0.00000000E+00  0.00000000E+00  0.00000000E+00
  0.00000000E+00  0.00000000E+00  0.00000000E+00
  0.00000000E+00  0.00000000E+00  0.00000000E+00
  0.00000000E+00  0.00000000E+00  0.00000000E+00
  0.00000000E+00  0.00000000E+00  0.00000000E+00
  0.00000000E+00  0.00000000E+00  0.00000000E+00
  0.00000000E+00  0.00000000E+00  0.00000000E+00
  0.00000000E+00  0.00000000E+00  0.00000000E+00
  0.00000000E+00  0.00000000E+00  0.00000000E+00
  0.00000000E+00  0.00000000E+00  0.00000000E+00
  0.00000000E+00  0.00000000E+00  0.00000000E+00
  0.00000000E+00  0.00000000E+00  0.00000000E+00
  0.00000000E+00  0.00000000E+00  0.00000000E+00
  0.00000000E+00  0.00000000E+00  0.00000000E+00
  0.00000000E+00  0.00000000E+00  0.00000000E+00
  0.00000000E+00  0.00000000E+00  0.00000000E+00
  0.00000000E+00  0.00000000E+00  0.00000000E+00
  0.00000000E+00  0.00000000E+00  0.00000000E+00
  0.00000000E+00  0.00000000E+00  0.00000000E+00
  0.00000000E+00  0.00000000E+00  0.00000000E+00
  0.00000000E+00  0.00000000E+00  0.00000000E+00
  0.00000000E+00  0.00000000E+00  0.00000000E+00
  0.00000000E+00  0.00000000E+00  0.00000000E+00
  0.00000000E+00  0.00000000E+00  0.00000000E+00
  0.00000000E+00  0.00000000E+00  0.00000000E+00
  0.00000000E+00  0.00000000E+00  0.00000000E+00
  0.00000000E+00  0.00000000E+00  0.00000000E+00
  0.00000000E+00  0.00000000E+00  0.00000000E+00
  0.00000000E+00  0.00000000E+00  0.00000000E+00
  0.00000000E+00  0.00000000E+00  0.00000000E+00
  0.00000000E+00  0.00000000E+00  0.00000000E+00
  0.00000000E+00  0.00000000E+00  0.00000000E+00
  0.00000000E+00  0.00000000E+00  0.00000000E+00
  0.00000000E+00  0.00000000E+00  0.00000000E+00
  0.00000000E+00  0.00000000E+00  0.00000000E+00
  0.00000000E+00  0.00000000E+00  0.00000000E+00
  0.00000000E+00  0.00000000E+00  0.00000000E+00
  0.00000000E+00  0.00000000E+00  0.00000000E+00
  0.00000000E+00  0.00000000E+00  0.00000000E+00
  0.00000000E+00  0.00000000E+00  0.00000000E+00
  0.00000000E+00  0.00000000E+00  0.00000000E+00
  0.00000000E+00  0.00000000E+00  0.00000000E+00
  0.00000000E+00  0.00000000E+00  0.00000000E+00
  0.00000000E+00  0.00000000E+00  0.00000000E+00
  0.00000000E+00  0.00000000E+00  0.00000000E+00
  0.00000000E+00  0.00000000E+00  0.00000000E+00
  0.00000000E+00  0.00000000E+00  0.00000000E+00
  0.00000000E+00  0.00000000E+00  0.00000000E+00
  0.00000000E+00  0.00000000E+00  0.00000000E+00
  0.00000000E+00  0.00000000E+00  0.00000000E+00
  0.00000000E+00  0.00000000E+00  0.00000000E+00
  0.00000000E+00  0.00000000E+00  0.00000000E+00
  0.00000000E+00  0.00000000E+00  0.00000000E+00
  0.00000000E+00  0.00000000E+00  0.00000000E+00
  0.00000000E+00  0.00000000E+00  0.00000000E+00
  0.00000000E+00  0.00000000E+00  0.00000000E+00
  0.00000000E+00  0.00000000E+00  0.00000000E+00
