Be2 Tl4 Cl16                            
   1.0000000000000000     
    15.3011392702773961    0.0000000000000000   -1.0597909238048460
     0.0000000000000000    6.7305944862395073    0.0000000000000000
    -2.3928004743382481    0.0000000000000000    7.3800161785110525
   Tl   Be   Cl
     4     2    16
Direct
  0.5572477224665064  0.2501001844752366  0.1142759852183843
  0.0573404539990321  0.7497625661866536  0.1142619142238530
  0.9427522775334936  0.2501001844752366  0.8857240147816157
  0.4426595460009608  0.7497625661866536  0.8857380857761470
  0.7500000000000000  0.2511084158141443  0.5000000000000000
  0.2500000000000000  0.7489078099979096  0.5000000000000000
  0.7259960890875590  0.0866197246739517  0.2648608879003547
  0.2260578969748224  0.9135704982471680  0.2649375913808356
  0.9799287112289718  0.0601299557522879  0.2059220094339480
  0.4798825687300550  0.9397092282809609  0.2059913513613338
  0.6054293795633185  0.5613486623705981  0.9651203551228420
  0.1055199029420777  0.4385560581403070  0.9651918007799551
  0.8693923096799381  0.4152028197811717  0.5518834897093186
  0.3693382291279690  0.5846921891856454  0.5519833680895161
  0.6306076903200619  0.4152028197811717  0.4481165102906814
  0.1306617708720310  0.5846921891856454  0.4480166319104839
  0.8945706204366815  0.5613486623705981  0.0348796448771580
  0.3944800970579223  0.4385560581403070  0.0348081992200449
  0.5200712887710282  0.0601299557522879  0.7940779905660520
  0.0201174312699450  0.9397092282809609  0.7940086486386662
  0.7740039109124410  0.0866197246739517  0.7351391120996453
  0.2739421030251776  0.9135704982471680  0.7350624086191644

  0.00000000E+00  0.00000000E+00  0.00000000E+00
  0.00000000E+00  0.00000000E+00  0.00000000E+00
  0.00000000E+00  0.00000000E+00  0.00000000E+00
  0.00000000E+00  0.00000000E+00  0.00000000E+00
  0.00000000E+00  0.00000000E+00  0.00000000E+00
  0.00000000E+00  0.00000000E+00  0.00000000E+00
  0.00000000E+00  0.00000000E+00  0.00000000E+00
  0.00000000E+00  0.00000000E+00  0.00000000E+00
  0.00000000E+00  0.00000000E+00  0.00000000E+00
  0.00000000E+00  0.00000000E+00  0.00000000E+00
  0.00000000E+00  0.00000000E+00  0.00000000E+00
  0.00000000E+00  0.00000000E+00  0.00000000E+00
  0.00000000E+00  0.00000000E+00  0.00000000E+00
  0.00000000E+00  0.00000000E+00  0.00000000E+00
  0.00000000E+00  0.00000000E+00  0.00000000E+00
  0.00000000E+00  0.00000000E+00  0.00000000E+00
  0.00000000E+00  0.00000000E+00  0.00000000E+00
  0.00000000E+00  0.00000000E+00  0.00000000E+00
  0.00000000E+00  0.00000000E+00  0.00000000E+00
  0.00000000E+00  0.00000000E+00  0.00000000E+00
  0.00000000E+00  0.00000000E+00  0.00000000E+00
  0.00000000E+00  0.00000000E+00  0.00000000E+00
