MgGa5                                   
   1.00000000000000     
    -4.6417867409569542    3.1466091717892990    0.0799107295076504
     0.4053277425686813   -5.5930524323203388   -0.0798875976974421
    -1.7409532027838621    3.0164316099811432    4.7001210015934802
   Ga   Mg
     5     1
Direct
  0.0396762936786743  0.0362938589231874  0.9732987204076977
  0.3698534544623158  0.7066529213546602  0.0264870989855908
  0.1254502023868937  0.1344229876117495  0.4805613141306253
  0.4674191590625796  0.7925034847693126  0.5202888921820445
  0.7020928478425219  0.3698200669521086  0.0000115988809739
  0.7937270425670064  0.4603069823889712  0.4993523754130678
 
  0.00000000E+00  0.00000000E+00  0.00000000E+00
  0.00000000E+00  0.00000000E+00  0.00000000E+00
  0.00000000E+00  0.00000000E+00  0.00000000E+00
  0.00000000E+00  0.00000000E+00  0.00000000E+00
  0.00000000E+00  0.00000000E+00  0.00000000E+00
  0.00000000E+00  0.00000000E+00  0.00000000E+00
