Mg22 Ga14                               
   1.00000000000000     
    -7.1568413853416795    7.1567146804490260    0.0264534146874494
     7.1819744743264344    0.0000000000000000   -7.3817777004190592
    -7.1568413853416795   -7.1567146804490260    0.0264534146874494
   Mg   Ga
    22    14
Direct
  0.9999907798533911  0.0000032589531500  0.9999907798533911
  0.3792967912828615  0.2502434847081432  0.1265643685716711
  0.8710928909697628  0.2509448764474627  0.1270141144638259
  0.8729382597969888  0.7490353274871921  0.1288683866693034
  0.5009841099267121  0.0017687518936640  0.1739531224007038
  0.1814744841963147  0.6860855757028617  0.1814744841963147
  0.5042074340976370  0.6852348998052875  0.1798515811693591
  0.1265643685716711  0.2502434847081432  0.3792967912828615
  0.1739531224007038  0.0017687518936640  0.5009841099267121
  0.4999877534438042  0.9999966843136647  0.4999877534438042
  0.8260303080494467  0.9982354130318569  0.4989990873289258
  0.4950551774297622  0.3129778354016821  0.4950551774297622
  0.8201271063169315  0.3147619683685221  0.4957729122231243
  0.1798515811693591  0.6852348998052875  0.5042074340976370
  0.5049283713153443  0.6870243423326983  0.5049283713153443
  0.8734141754931386  0.7497655807546124  0.6206810884604224
  0.4989990873289258  0.9982354130318569  0.8260303080494467
  0.4957729122231243  0.3147619683685221  0.8201271063169315
  0.8185041275221323  0.3139038498078293  0.8185041275221323
  0.1270141144638259  0.2509448764474627  0.8710928909697628
  0.1288683866693034  0.7490353274871921  0.8729382597969888
  0.6206810884604224  0.7497655807546124  0.8734141754931386
  0.6862726335798115  0.3707333303749252  0.0556159024602749
  0.2155547975514338  0.9986325991369611  0.2155547975514338
  0.7836673474177402  0.0000028438238360  0.2163145168995655
  0.2160133311218004  0.4320588428928431  0.2160133311218004
  0.6880108555545590  0.3748359480221666  0.3190977853519499
  0.6808846968704998  0.6251802491887020  0.3119902748269112
  0.9443475534542713  0.6292655672762777  0.3137178794115272
  0.0556159024602749  0.3707333303749252  0.6862726335798115
  0.3190977853519499  0.3748359480221666  0.6880108555545590
  0.3119902748269112  0.6251802491887020  0.6808846968704998
  0.2163145168995655  0.0000028438238360  0.7836673474177402
  0.7844149982170450  0.0013637343122355  0.7844149982170450
  0.7839609963010616  0.5679367947807776  0.7839609963010616
  0.3137178794115272  0.6292655672762777  0.9443475534542713
 
  0.00000000E+00  0.00000000E+00  0.00000000E+00
  0.00000000E+00  0.00000000E+00  0.00000000E+00
  0.00000000E+00  0.00000000E+00  0.00000000E+00
  0.00000000E+00  0.00000000E+00  0.00000000E+00
  0.00000000E+00  0.00000000E+00  0.00000000E+00
  0.00000000E+00  0.00000000E+00  0.00000000E+00
  0.00000000E+00  0.00000000E+00  0.00000000E+00
  0.00000000E+00  0.00000000E+00  0.00000000E+00
  0.00000000E+00  0.00000000E+00  0.00000000E+00
  0.00000000E+00  0.00000000E+00  0.00000000E+00
  0.00000000E+00  0.00000000E+00  0.00000000E+00
  0.00000000E+00  0.00000000E+00  0.00000000E+00
  0.00000000E+00  0.00000000E+00  0.00000000E+00
  0.00000000E+00  0.00000000E+00  0.00000000E+00
  0.00000000E+00  0.00000000E+00  0.00000000E+00
  0.00000000E+00  0.00000000E+00  0.00000000E+00
  0.00000000E+00  0.00000000E+00  0.00000000E+00
  0.00000000E+00  0.00000000E+00  0.00000000E+00
  0.00000000E+00  0.00000000E+00  0.00000000E+00
  0.00000000E+00  0.00000000E+00  0.00000000E+00
  0.00000000E+00  0.00000000E+00  0.00000000E+00
  0.00000000E+00  0.00000000E+00  0.00000000E+00
  0.00000000E+00  0.00000000E+00  0.00000000E+00
  0.00000000E+00  0.00000000E+00  0.00000000E+00
  0.00000000E+00  0.00000000E+00  0.00000000E+00
  0.00000000E+00  0.00000000E+00  0.00000000E+00
  0.00000000E+00  0.00000000E+00  0.00000000E+00
  0.00000000E+00  0.00000000E+00  0.00000000E+00
  0.00000000E+00  0.00000000E+00  0.00000000E+00
  0.00000000E+00  0.00000000E+00  0.00000000E+00
  0.00000000E+00  0.00000000E+00  0.00000000E+00
  0.00000000E+00  0.00000000E+00  0.00000000E+00
  0.00000000E+00  0.00000000E+00  0.00000000E+00
  0.00000000E+00  0.00000000E+00  0.00000000E+00
  0.00000000E+00  0.00000000E+00  0.00000000E+00
  0.00000000E+00  0.00000000E+00  0.00000000E+00
