Ca1 In5                                 
   1.00000000000000     
     6.0465383116534488   -0.0035710541476712    0.0000000000000000
    -3.0268996171602716    5.2343571647832219    0.0000000000000000
     0.0000000000000000    0.0000000000000000    5.6727814758707096
   In   Ca
     5     1
Direct
  0.6667219804634641  0.3332780256423575  0.0000000000000000
  0.3332780195365359  0.6667219743576425  0.0000000000000000
  0.5000000000000000  0.0000000000000000  0.5000000000000000
  0.0000000000000000  0.5000000000000000  0.5000000000000000
  0.5000000000000000  0.5000000000000000  0.5000000000000000
  0.0000000000000000  0.0000000000000000  0.0000000000000000
 
  0.00000000E+00  0.00000000E+00  0.00000000E+00
  0.00000000E+00  0.00000000E+00  0.00000000E+00
  0.00000000E+00  0.00000000E+00  0.00000000E+00
  0.00000000E+00  0.00000000E+00  0.00000000E+00
  0.00000000E+00  0.00000000E+00  0.00000000E+00
  0.00000000E+00  0.00000000E+00  0.00000000E+00
