Ca1 In2 Cl8                             
   1.0000000000000000     
     6.0029409120613302   -3.9688653164152896   -0.4852838344808231
     6.0029409120613302    3.9688653164152896   -0.4852838344808231
    -0.5520858434000999    0.0000000000000000    7.5954074701962995
   In   Ca   Cl
     2     1     8
Direct
  0.3722669262784777  0.3722669262784777  0.3127472957751181
  0.6277330737215223  0.6277330737215223  0.6872527042248819
  0.0000000000000000  0.0000000000000000  0.0000000000000000
  0.6451663187790686  0.1046645247046314  0.1633203295789656
  0.1046645247046314  0.6451663187790686  0.1633203295789656
  0.1640024881460320  0.1640024881460320  0.2985323958668644
  0.5972447703631474  0.5972447703631474  0.3597308705407585
  0.4027552296368526  0.4027552296368526  0.6402691294592415
  0.8359975118539680  0.8359975118539680  0.7014676041331356
  0.8953354752953686  0.3548336812209314  0.8366796704210344
  0.3548336812209314  0.8953354752953686  0.8366796704210344

  0.00000000E+00  0.00000000E+00  0.00000000E+00
  0.00000000E+00  0.00000000E+00  0.00000000E+00
  0.00000000E+00  0.00000000E+00  0.00000000E+00
  0.00000000E+00  0.00000000E+00  0.00000000E+00
  0.00000000E+00  0.00000000E+00  0.00000000E+00
  0.00000000E+00  0.00000000E+00  0.00000000E+00
  0.00000000E+00  0.00000000E+00  0.00000000E+00
  0.00000000E+00  0.00000000E+00  0.00000000E+00
  0.00000000E+00  0.00000000E+00  0.00000000E+00
  0.00000000E+00  0.00000000E+00  0.00000000E+00
  0.00000000E+00  0.00000000E+00  0.00000000E+00
