Ca3In2                                  
   1.00000000000000     
     8.9460666014139463    0.0002752409266549    0.0000000000000000
     0.0002752409266549    8.9460666014139463    0.0000000000000000
     0.0000000000000000    0.0000000000000000    7.9287019471992144
   Ca   In
    12     8
Direct
  0.5000000000000000  0.0000000000000000  0.0061207550880340
  0.0000000000000000  0.5000000000000000  0.0061207550880340
  0.3495279509578637  0.3495279509578637  0.2559650544659746
  0.6504720490421363  0.6504720490421363  0.2559650544659746
  0.8085408287299671  0.1914591712700329  0.2560155971341516
  0.1914591712700329  0.8085408287299671  0.2560155971341516
  0.5000000000000000  0.0000000000000000  0.5061168802702625
  0.0000000000000000  0.5000000000000000  0.5061168802702625
  0.8495201035928375  0.1504798964071625  0.7560976609102639
  0.1504798964071625  0.8495201035928375  0.7560976609102639
  0.3085678110502812  0.3085678110502812  0.7560656320826951
  0.6914321889497188  0.6914321889497188  0.7560656320826951
  0.1277470015057460  0.1277470015057460  0.0487338839426386
  0.8722529984942540  0.8722529984942540  0.0487338839426386
  0.1276397924293704  0.1276397924293704  0.4634952376071482
  0.8723602075706296  0.8723602075706296  0.4634952376071482
  0.6276586079799031  0.3723413920200969  0.5490150323595913
  0.3723413920200969  0.6276586079799031  0.5490150323595913
  0.6276877140679602  0.3723122859320398  0.9630542661392454
  0.3723122859320398  0.6276877140679602  0.9630542661392454
 
  0.00000000E+00  0.00000000E+00  0.00000000E+00
  0.00000000E+00  0.00000000E+00  0.00000000E+00
  0.00000000E+00  0.00000000E+00  0.00000000E+00
  0.00000000E+00  0.00000000E+00  0.00000000E+00
  0.00000000E+00  0.00000000E+00  0.00000000E+00
  0.00000000E+00  0.00000000E+00  0.00000000E+00
  0.00000000E+00  0.00000000E+00  0.00000000E+00
  0.00000000E+00  0.00000000E+00  0.00000000E+00
  0.00000000E+00  0.00000000E+00  0.00000000E+00
  0.00000000E+00  0.00000000E+00  0.00000000E+00
  0.00000000E+00  0.00000000E+00  0.00000000E+00
  0.00000000E+00  0.00000000E+00  0.00000000E+00
  0.00000000E+00  0.00000000E+00  0.00000000E+00
  0.00000000E+00  0.00000000E+00  0.00000000E+00
  0.00000000E+00  0.00000000E+00  0.00000000E+00
  0.00000000E+00  0.00000000E+00  0.00000000E+00
  0.00000000E+00  0.00000000E+00  0.00000000E+00
  0.00000000E+00  0.00000000E+00  0.00000000E+00
  0.00000000E+00  0.00000000E+00  0.00000000E+00
  0.00000000E+00  0.00000000E+00  0.00000000E+00
