Cl16                                    
   1.00000000000000     
     8.9747881274136194    0.0000000000000000    0.0000000000000000
     0.0000000000000000   11.4422749077171719    0.0000000000000000
     0.0000000000000000    0.0000000000000000   11.4422749077171719
   Cl
    16
Direct
  0.8959865584083389  0.3492658026793762  0.6059538548037295
  0.6040134415916611  0.6507341973206238  0.1059538548037295
  0.8959865584083389  0.6059538548037295  0.3492658026793762
  0.8959865584083389  0.8940461451962705  0.1507341973206238
  0.1040134415916611  0.8492658026793762  0.1059538548037295
  0.3959865584083389  0.1507341973206238  0.6059538548037295
  0.1040134415916611  0.6507341973206238  0.3940461451962705
  0.3959865584083389  0.3492658026793762  0.8940461451962705
  0.3959865584083389  0.6059538548037295  0.1507341973206238
  0.8959865584083389  0.1507341973206238  0.8940461451962705
  0.1040134415916611  0.3940461451962705  0.6507341973206238
  0.6040134415916611  0.1059538548037295  0.6507341973206238
  0.6040134415916611  0.3940461451962705  0.8492658026793762
  0.1040134415916611  0.1059538548037295  0.8492658026793762
  0.6040134415916611  0.8492658026793762  0.3940461451962705
  0.3959865584083389  0.8940461451962705  0.3492658026793762
 
  0.00000000E+00  0.00000000E+00  0.00000000E+00
  0.00000000E+00  0.00000000E+00  0.00000000E+00
  0.00000000E+00  0.00000000E+00  0.00000000E+00
  0.00000000E+00  0.00000000E+00  0.00000000E+00
  0.00000000E+00  0.00000000E+00  0.00000000E+00
  0.00000000E+00  0.00000000E+00  0.00000000E+00
  0.00000000E+00  0.00000000E+00  0.00000000E+00
  0.00000000E+00  0.00000000E+00  0.00000000E+00
  0.00000000E+00  0.00000000E+00  0.00000000E+00
  0.00000000E+00  0.00000000E+00  0.00000000E+00
  0.00000000E+00  0.00000000E+00  0.00000000E+00
  0.00000000E+00  0.00000000E+00  0.00000000E+00
  0.00000000E+00  0.00000000E+00  0.00000000E+00
  0.00000000E+00  0.00000000E+00  0.00000000E+00
  0.00000000E+00  0.00000000E+00  0.00000000E+00
  0.00000000E+00  0.00000000E+00  0.00000000E+00
