Sr2 Al2 Br10                            
   1.0000000000000000     
     4.8708876990139620   -0.0000000000000002    0.0000000000000003
    -0.0000000000000010   12.0729463171632165    0.0000000000000010
     0.0000000000000002    0.0000000000000005   11.3478917771103376
   Sr   Al   Br
     2     2    10
Direct
  0.0000000000000000  0.0000000000000000  0.5000000000000000
  0.5000000000000000  0.5000000000000000  0.0000000000000000
  0.5000000000000000  0.0000000000000000  0.0000000000000000
  0.0000000000000000  0.5000000000000000  0.5000000000000000
  0.5000000000000000  0.8434906452831470  0.5000000000000000
  0.5000000000000000  0.1565093547168530  0.5000000000000000
  0.5000000000000000  0.0000000000000000  0.2033814484099850
  0.5000000000000000  0.0000000000000000  0.7966185515900150
  0.0000000000000000  0.0000000000000000  0.0000000000000000
  0.0000000000000000  0.3434906452831470  0.0000000000000000
  0.0000000000000000  0.6565093547168530  0.0000000000000000
  0.0000000000000000  0.5000000000000000  0.7033814484099850
  0.0000000000000000  0.5000000000000000  0.2966185515900150
  0.5000000000000000  0.5000000000000000  0.5000000000000000

  0.00000000E+00  0.00000000E+00  0.00000000E+00
  0.00000000E+00  0.00000000E+00  0.00000000E+00
  0.00000000E+00  0.00000000E+00  0.00000000E+00
  0.00000000E+00  0.00000000E+00  0.00000000E+00
  0.00000000E+00  0.00000000E+00  0.00000000E+00
  0.00000000E+00  0.00000000E+00  0.00000000E+00
  0.00000000E+00  0.00000000E+00  0.00000000E+00
  0.00000000E+00  0.00000000E+00  0.00000000E+00
  0.00000000E+00  0.00000000E+00  0.00000000E+00
  0.00000000E+00  0.00000000E+00  0.00000000E+00
  0.00000000E+00  0.00000000E+00  0.00000000E+00
  0.00000000E+00  0.00000000E+00  0.00000000E+00
  0.00000000E+00  0.00000000E+00  0.00000000E+00
  0.00000000E+00  0.00000000E+00  0.00000000E+00
