Mg9 Al4                                 
   1.00000000000000     
     0.0075346211975437    0.0145559727435809    4.3741295078147004
    -5.4778385283931312    5.5987829464523662    2.1829798089193595
    -5.4430848755670658   -5.5637042995054538   -2.2088018759637316
   Mg   Al
     9     4
Direct
  0.5000019148654502  0.9999785739453060  0.9999781183742229
  0.9580150990045979  0.2342162425968084  0.1505532283920061
  0.4221777721959512  0.4585250190334307  0.3016556341003422
  0.1917393805291994  0.8506253967378399  0.2346545094946322
  0.8786686929950207  0.6997931717646537  0.4581277309347485
  0.1213381190073548  0.3001499160683210  0.5418251795931397
  0.8082636427272334  0.1493297694276663  0.7652994126998962
  0.5778227392608031  0.5414255618335702  0.6983006689386144
  0.0419762037845146  0.7657458076564438  0.8493956661987241
  0.7335598576221329  0.6076932022451587  0.0733845343591994
  0.6594500766925933  0.0741315257488750  0.3923824910070550
  0.3405584507099988  0.9258145361929664  0.6075729647881900
  0.2664280506051497  0.3922712767489500  0.9265698611192050
 
  0.00000000E+00  0.00000000E+00  0.00000000E+00
  0.00000000E+00  0.00000000E+00  0.00000000E+00
  0.00000000E+00  0.00000000E+00  0.00000000E+00
  0.00000000E+00  0.00000000E+00  0.00000000E+00
  0.00000000E+00  0.00000000E+00  0.00000000E+00
  0.00000000E+00  0.00000000E+00  0.00000000E+00
  0.00000000E+00  0.00000000E+00  0.00000000E+00
  0.00000000E+00  0.00000000E+00  0.00000000E+00
  0.00000000E+00  0.00000000E+00  0.00000000E+00
  0.00000000E+00  0.00000000E+00  0.00000000E+00
  0.00000000E+00  0.00000000E+00  0.00000000E+00
  0.00000000E+00  0.00000000E+00  0.00000000E+00
  0.00000000E+00  0.00000000E+00  0.00000000E+00
