Mg1 B2 I6                               
   1.00000000000000     
     4.2590349001915300    3.9211928668332399    6.2737907737428653
    -4.2590349001915300    3.9211928668332399    6.2737907737428644
     0.0000000000000000   -4.5676340298198568    5.1254955980321490
   Mg   I    B 
     1     6     2
Direct
  0.0000000000000000  0.0000000000000000  0.0000000000000000
  0.8416152668576444  0.8416152668576444  0.8178767797980413
  0.6947130469900387  0.1241318692045112  0.3260017950413143
  0.1241318692045112  0.6947130469900387  0.3260017950413143
  0.1583847331423556  0.1583847331423556  0.1821232202019658
  0.8758681307954888  0.3052869530099613  0.6739982049586786
  0.3052869530099613  0.8758681307954888  0.6739982049586786
  0.0577492397768395  0.0577492397768395  0.5009080655242713
  0.9422507602231676  0.9422507602231676  0.4990919344757287
 
  0.00000000E+00  0.00000000E+00  0.00000000E+00
  0.00000000E+00  0.00000000E+00  0.00000000E+00
  0.00000000E+00  0.00000000E+00  0.00000000E+00
  0.00000000E+00  0.00000000E+00  0.00000000E+00
  0.00000000E+00  0.00000000E+00  0.00000000E+00
  0.00000000E+00  0.00000000E+00  0.00000000E+00
  0.00000000E+00  0.00000000E+00  0.00000000E+00
  0.00000000E+00  0.00000000E+00  0.00000000E+00
  0.00000000E+00  0.00000000E+00  0.00000000E+00
