Ba1 In3 F6                              
   1.0000000000000000     
    -3.3088832784967632    4.6697783093684286    3.2932649309722337
     3.3083681725486511   -4.6807874674487939    3.3083681725486516
     3.2932649309722337    4.6697783093684286   -3.3088832784967623
   F    Ba   In
     6     1     3
Direct
  0.2711771167368084  0.5440395166493914  0.2711771167368084
  0.7280056991103265  0.0000000000000000  0.2719943008896735
  0.2722817625060259  0.0005293464503637  0.2722817625060259
  0.7277182374939741  0.9994706535496363  0.7277182374939741
  0.7288228832631916  0.4559604833506086  0.7288228832631916
  0.2719943008896735  0.0000000000000000  0.7280056991103265
  0.0000000000000000  0.0000000000000000  0.0000000000000000
  0.7505963934600928  0.5000000000000000  0.2494036065399072
  0.5000000000000000  0.0000000000000000  0.5000000000000000
  0.2494036065399072  0.5000000000000000  0.7505963934600928

  0.00000000E+00  0.00000000E+00  0.00000000E+00
  0.00000000E+00  0.00000000E+00  0.00000000E+00
  0.00000000E+00  0.00000000E+00  0.00000000E+00
  0.00000000E+00  0.00000000E+00  0.00000000E+00
  0.00000000E+00  0.00000000E+00  0.00000000E+00
  0.00000000E+00  0.00000000E+00  0.00000000E+00
  0.00000000E+00  0.00000000E+00  0.00000000E+00
  0.00000000E+00  0.00000000E+00  0.00000000E+00
  0.00000000E+00  0.00000000E+00  0.00000000E+00
  0.00000000E+00  0.00000000E+00  0.00000000E+00
