CaB2Cl8                                 
   1.00000000000000     
     5.6235709942282783   -3.3778920551327363    0.3467406785033392
     5.6235709942282783    3.3778920551327363    0.3467406785033392
     0.3391553881422837    0.0000000000000000    8.8751692523204646
   B    Ca   Cl
     2     1     8
Direct
  0.2926949842995015  0.2926949842995015  0.2564122871275032
  0.7073050157004985  0.7073050157004985  0.7435877128724968
  0.0000000000000000  0.0000000000000000  0.0000000000000000
  0.5742197171145023  0.1175501698469077  0.1434926756648096
  0.1175501698469077  0.5742197171145023  0.1434926756648096
  0.1242123436828066  0.1242123436828066  0.2637822360521440
  0.6581889894483339  0.6581889894483339  0.5594226320205138
  0.3418110105516661  0.3418110105516661  0.4405773679794862
  0.8757876563171934  0.8757876563171934  0.7362177639478560
  0.8824498301530923  0.4257802828854977  0.8565073243351904
  0.4257802828854977  0.8824498301530923  0.8565073243351904
 
  0.00000000E+00  0.00000000E+00  0.00000000E+00
  0.00000000E+00  0.00000000E+00  0.00000000E+00
  0.00000000E+00  0.00000000E+00  0.00000000E+00
  0.00000000E+00  0.00000000E+00  0.00000000E+00
  0.00000000E+00  0.00000000E+00  0.00000000E+00
  0.00000000E+00  0.00000000E+00  0.00000000E+00
  0.00000000E+00  0.00000000E+00  0.00000000E+00
  0.00000000E+00  0.00000000E+00  0.00000000E+00
  0.00000000E+00  0.00000000E+00  0.00000000E+00
  0.00000000E+00  0.00000000E+00  0.00000000E+00
  0.00000000E+00  0.00000000E+00  0.00000000E+00
