Ga20                                    
   1.00000000000000     
     5.2568761249398674    0.0000000000000000    0.0000000000000000
     0.0000000000000000    8.4441988418272089   -2.0481176938067738
     0.0000000000000000    0.0334951716297615    8.6889665146670776
   Ga
    20
Direct
  0.2500000000000000  0.2239365979688799  0.3275536607481371
  0.5021809255104301  0.3942535932544686  0.6057464067464196
  0.7500000000000000  0.7760634020311201  0.6724463392518629
  0.7500000000000000  0.6368265213189801  0.9130312335976427
  0.2500000000000000  0.9168046306523578  0.3336442041221304
  0.7500000000000000  0.0831953693476422  0.6663557958778696
  0.2500000000000000  0.6663557958807473  0.0831953693495606
  0.2500000000000000  0.9951369834647892  0.0048630165336689
  0.2500000000000000  0.3631734786810199  0.0869687664023573
  0.7500000000000000  0.0869687664038423  0.3631734786835210
  0.9978190744895699  0.3942535932544686  0.6057464067464196
  0.7500000000000000  0.7870358337361836  0.2129641662621964
  0.7500000000000000  0.3275536607488547  0.2239365979678780
  0.2500000000000000  0.2129641662638164  0.7870358337378036
  0.0021809255104301  0.6057464067455314  0.3942535932535804
  0.7500000000000000  0.3336442041192527  0.9168046306504394
  0.7500000000000000  0.0048630165352108  0.9951369834663311
  0.2500000000000000  0.6724463392511453  0.7760634020321220
  0.4978190744895699  0.6057464067455314  0.3942535932535804
  0.2500000000000000  0.9130312335961577  0.6368265213164790
 
  0.00000000E+00  0.00000000E+00  0.00000000E+00
  0.00000000E+00  0.00000000E+00  0.00000000E+00
  0.00000000E+00  0.00000000E+00  0.00000000E+00
  0.00000000E+00  0.00000000E+00  0.00000000E+00
  0.00000000E+00  0.00000000E+00  0.00000000E+00
  0.00000000E+00  0.00000000E+00  0.00000000E+00
  0.00000000E+00  0.00000000E+00  0.00000000E+00
  0.00000000E+00  0.00000000E+00  0.00000000E+00
  0.00000000E+00  0.00000000E+00  0.00000000E+00
  0.00000000E+00  0.00000000E+00  0.00000000E+00
  0.00000000E+00  0.00000000E+00  0.00000000E+00
  0.00000000E+00  0.00000000E+00  0.00000000E+00
  0.00000000E+00  0.00000000E+00  0.00000000E+00
  0.00000000E+00  0.00000000E+00  0.00000000E+00
  0.00000000E+00  0.00000000E+00  0.00000000E+00
  0.00000000E+00  0.00000000E+00  0.00000000E+00
  0.00000000E+00  0.00000000E+00  0.00000000E+00
  0.00000000E+00  0.00000000E+00  0.00000000E+00
  0.00000000E+00  0.00000000E+00  0.00000000E+00
  0.00000000E+00  0.00000000E+00  0.00000000E+00
