Sr3 Tl8                                 
   1.0000000000000000     
    -4.2497112315644419    0.0046549394497600   -0.0626038566456115
     0.0136059715240849   -5.3623521814871280    0.0361196425260058
     2.3884225433024269    2.5985481442601892   16.2111330088610970
   Sr   Tl
     3     8
Direct
  0.0001140358049483  0.9997488091766442  0.9999383516112843
  0.1395896263650585  0.6437181477399818  0.2861784853956308
  0.8610754325865884  0.3562597121796500  0.7137309510941279
  0.4355684042132992  0.5476155525840980  0.0946502897468662
  0.7209788572536269  0.0901929078653225  0.1812550636849792
  0.6491577957664632  0.1842744402952050  0.3667687568982032
  0.7536257263998678  0.7404556983319281  0.4825545718861406
  0.2460899265187848  0.2596365557233966  0.5174111074780612
  0.3507320969728625  0.8157108923646206  0.6331596011871454
  0.2790622258739219  0.9098022083850594  0.8186684223418936
  0.5640058722445929  0.4521850753541301  0.9052843986756614

  0.00000000E+00  0.00000000E+00  0.00000000E+00
  0.00000000E+00  0.00000000E+00  0.00000000E+00
  0.00000000E+00  0.00000000E+00  0.00000000E+00
  0.00000000E+00  0.00000000E+00  0.00000000E+00
  0.00000000E+00  0.00000000E+00  0.00000000E+00
  0.00000000E+00  0.00000000E+00  0.00000000E+00
  0.00000000E+00  0.00000000E+00  0.00000000E+00
  0.00000000E+00  0.00000000E+00  0.00000000E+00
  0.00000000E+00  0.00000000E+00  0.00000000E+00
  0.00000000E+00  0.00000000E+00  0.00000000E+00
  0.00000000E+00  0.00000000E+00  0.00000000E+00
