Sr2 Tl4 I16                             
   1.0000000000000000     
     8.8661157004520561    0.8553550226665816    0.0749255707124357
    -0.9286694443460281    8.8611916844176193    0.0691755412495390
    -3.8100852929365590   -4.6685626890054825   15.6422084976329003
   Tl   I    Sr
     4    16     2
Direct
  0.8755562492857578  0.1247697270298715  0.2499479378011458
  0.3754268270662848  0.6244804442637317  0.2499448096548704
  0.6245448925604578  0.3753502123111403  0.7499760836505800
  0.1244126232990581  0.8753004361283558  0.7500798647570335
  0.6199545916940394  0.9259638660608047  0.1335910398831857
  0.0231293455912294  0.2147063191176244  0.1336177018003184
  0.4684383615657097  0.3720149690330103  0.1344563341465417
  0.1755385127297870  0.7685999135041399  0.1341584904626458
  0.7316349282613928  0.3248547283267342  0.3659196981325721
  0.1279196786911854  0.0318279755875466  0.3652449288321549
  0.5740103669236873  0.8805161018858740  0.3661846766819750
  0.2852988767332008  0.4772289999024366  0.3663389791390230
  0.7148462993787774  0.5231289585952084  0.6338339765740102
  0.4256669725599096  0.1195888633412565  0.6338153713184980
  0.8722946733273247  0.9681197811205493  0.6345464345295966
  0.2684758808589436  0.6751579861266634  0.6341742345809038
  0.8245253418379903  0.2316064202529944  0.8659868712747141
  0.5316429898004387  0.6279432405827876  0.8655055099514328
  0.9768799166969870  0.7850622410295003  0.8662858459429756
  0.3800089194094411  0.0741606795056100  0.8663224393373241
  0.3756632551783383  0.1249023657976593  0.2499259585183751
  0.6244304965500405  0.8754157704965095  0.7501428130301235

  0.00000000E+00  0.00000000E+00  0.00000000E+00
  0.00000000E+00  0.00000000E+00  0.00000000E+00
  0.00000000E+00  0.00000000E+00  0.00000000E+00
  0.00000000E+00  0.00000000E+00  0.00000000E+00
  0.00000000E+00  0.00000000E+00  0.00000000E+00
  0.00000000E+00  0.00000000E+00  0.00000000E+00
  0.00000000E+00  0.00000000E+00  0.00000000E+00
  0.00000000E+00  0.00000000E+00  0.00000000E+00
  0.00000000E+00  0.00000000E+00  0.00000000E+00
  0.00000000E+00  0.00000000E+00  0.00000000E+00
  0.00000000E+00  0.00000000E+00  0.00000000E+00
  0.00000000E+00  0.00000000E+00  0.00000000E+00
  0.00000000E+00  0.00000000E+00  0.00000000E+00
  0.00000000E+00  0.00000000E+00  0.00000000E+00
  0.00000000E+00  0.00000000E+00  0.00000000E+00
  0.00000000E+00  0.00000000E+00  0.00000000E+00
  0.00000000E+00  0.00000000E+00  0.00000000E+00
  0.00000000E+00  0.00000000E+00  0.00000000E+00
  0.00000000E+00  0.00000000E+00  0.00000000E+00
  0.00000000E+00  0.00000000E+00  0.00000000E+00
  0.00000000E+00  0.00000000E+00  0.00000000E+00
  0.00000000E+00  0.00000000E+00  0.00000000E+00
