TlI4                                    
   1.0000000000000000     
    11.4675945560331218   -0.0218813712128578    1.2340671696339227
     0.0135138940422780    9.5816545862789191   -0.0056894218900745
    -0.4041931345981762   -0.0050776545943361    9.8285491285575208
   I    Tl
    16     4
Direct
  0.2081604219442212  0.1344471274090751  0.0354685337994738
  0.6129784029216694  0.3863187473167571  0.1333305035250305
  0.5959737790230264  0.9027088368213896  0.1733814021524651
  0.9902015038130045  0.5593415737043941  0.2287973476628480
  0.0087532692492900  0.0593861439398111  0.2710312127998336
  0.4066279636960815  0.4019940453904454  0.3279327868172572
  0.3873621932534306  0.8878142502177084  0.3655840188546193
  0.7915641227561068  0.6326643721221643  0.4654932969626842
  0.2107587220404881  0.3670314014275320  0.5336062833377895
  0.6098918020056345  0.1091710691896992  0.6338697288145028
  0.5984256546588895  0.5958503352757631  0.6751055167516071
  0.9899706845581875  0.9430526089009348  0.7296265357024012
  0.0103444098799201  0.4431263885950472  0.7695237099480181
  0.4015214657498092  0.0962738091466235  0.8266029182349186
  0.3901941537566955  0.6094169109964227  0.8683019982739069
  0.7905991216461246  0.8682547513362451  0.9657063205149115
  0.1860610283378250  0.4709593608979645  0.0217434098558300
  0.8120974332704947  0.9696724990853482  0.4770077488312268
  0.1875519108313242  0.0306649398979104  0.5237966487723895
  0.8115619566077612  0.5316508283287575  0.9741900783883040

  0.00000000E+00  0.00000000E+00  0.00000000E+00
  0.00000000E+00  0.00000000E+00  0.00000000E+00
  0.00000000E+00  0.00000000E+00  0.00000000E+00
  0.00000000E+00  0.00000000E+00  0.00000000E+00
  0.00000000E+00  0.00000000E+00  0.00000000E+00
  0.00000000E+00  0.00000000E+00  0.00000000E+00
  0.00000000E+00  0.00000000E+00  0.00000000E+00
  0.00000000E+00  0.00000000E+00  0.00000000E+00
  0.00000000E+00  0.00000000E+00  0.00000000E+00
  0.00000000E+00  0.00000000E+00  0.00000000E+00
  0.00000000E+00  0.00000000E+00  0.00000000E+00
  0.00000000E+00  0.00000000E+00  0.00000000E+00
  0.00000000E+00  0.00000000E+00  0.00000000E+00
  0.00000000E+00  0.00000000E+00  0.00000000E+00
  0.00000000E+00  0.00000000E+00  0.00000000E+00
  0.00000000E+00  0.00000000E+00  0.00000000E+00
  0.00000000E+00  0.00000000E+00  0.00000000E+00
  0.00000000E+00  0.00000000E+00  0.00000000E+00
  0.00000000E+00  0.00000000E+00  0.00000000E+00
  0.00000000E+00  0.00000000E+00  0.00000000E+00
