Sr1                                     
   1.00000000000000     
     3.6769934955884471   -0.0000000016060703    2.1229127555098928
     1.2256648367861032    3.4667001421651724    2.1229127555346023
    -0.0000000035879241   -0.0000000054054424    4.2458265293447077
   Sr
     1
Direct
  0.0000000000000000  0.0000000000000000  0.0000000000000000
 
  0.00000000E+00  0.00000000E+00  0.00000000E+00
