Be4 Al4 I2                              
   1.00000000000000     
     3.8556483568110171    0.0323913773977034    0.0026717496291825
    -1.9422917383766072    4.0407588731349575   -0.0129077132993624
    -0.0071723602735095    0.0366092954232102   12.8255816848144732
   Al   I    Be
     4     2     4
Direct
  0.3585786537806470  0.7067751985002673  0.0373589735032098
  0.3477263448465990  0.7070302170267766  0.4626004876859824
  0.6418529843699048  0.2932636896814103  0.5372899142587571
  0.6527206874576450  0.2930248983955366  0.9626937228669021
  0.9363831335264905  0.8739776946469391  0.2499968028466242
  0.0615821535749603  0.1258797175777673  0.7500080771956945
  0.0715835176449104  0.1322437262341509  0.0742251720702640
  0.0610765697887103  0.1325092557905947  0.4257543357485929
  0.9288627853390778  0.8677722980347014  0.5742586110524996
  0.9396331696710689  0.8675233041118560  0.9257439027714582
 
  0.00000000E+00  0.00000000E+00  0.00000000E+00
  0.00000000E+00  0.00000000E+00  0.00000000E+00
  0.00000000E+00  0.00000000E+00  0.00000000E+00
  0.00000000E+00  0.00000000E+00  0.00000000E+00
  0.00000000E+00  0.00000000E+00  0.00000000E+00
  0.00000000E+00  0.00000000E+00  0.00000000E+00
  0.00000000E+00  0.00000000E+00  0.00000000E+00
  0.00000000E+00  0.00000000E+00  0.00000000E+00
  0.00000000E+00  0.00000000E+00  0.00000000E+00
  0.00000000E+00  0.00000000E+00  0.00000000E+00
