B20 Br4                                 
   1.00000000000000     
     5.8162337279285978    2.9644491569047005    0.0562991892309395
    -5.8162337279285978    2.9644491569047005    0.0562991892309395
     0.0000000000000000    2.0837865053948104   10.5839704957375531
   B    Br
    20     4
Direct
  0.7126092615401305  0.5764377284586928  0.7230361917855817
  0.4235622715413072  0.2873907384598695  0.7769638082144183
  0.2873907384598695  0.4235622715413072  0.2769638082144183
  0.5764377284586928  0.7126092615401305  0.2230361917855817
  0.0912946095292497  0.5058580592734003  0.6855769926610336
  0.4941419407265997  0.9087053904707574  0.8144230073389664
  0.9087053904707574  0.4941419407265997  0.3144230073389664
  0.5058580592734003  0.0912946095292497  0.1855769926610336
  0.0694129414076698  0.4571568858266843  0.5437378660182475
  0.5428431141733157  0.9305870585923302  0.9562621339817525
  0.9305870585923302  0.5428431141733157  0.4562621339817525
  0.4571568858266843  0.0694129414076698  0.0437378660182475
  0.9038278547338763  0.5537435658108407  0.6109363664042533
  0.4462564341891593  0.0961721452661237  0.8890636335957467
  0.0961721452661237  0.4462564341891593  0.3890636335957467
  0.5537435658108407  0.9038278547338763  0.1109363664042533
  0.0264530147132334  0.7197768439236398  0.7291813777970120
  0.2802231560763602  0.9735469852867666  0.7708186222029880
  0.9735469852867666  0.2802231560763602  0.2708186222029880
  0.7197768439236398  0.0264530147132334  0.2291813777970120
  0.6655612644028608  0.8732871842656849  0.6614036843696098
  0.1267128157343151  0.3344387355971392  0.8385963156303902
  0.3344387355971392  0.1267128157343151  0.3385963156303902
  0.8732871842656849  0.6655612644028608  0.1614036843696098
 
  0.00000000E+00  0.00000000E+00  0.00000000E+00
  0.00000000E+00  0.00000000E+00  0.00000000E+00
  0.00000000E+00  0.00000000E+00  0.00000000E+00
  0.00000000E+00  0.00000000E+00  0.00000000E+00
  0.00000000E+00  0.00000000E+00  0.00000000E+00
  0.00000000E+00  0.00000000E+00  0.00000000E+00
  0.00000000E+00  0.00000000E+00  0.00000000E+00
  0.00000000E+00  0.00000000E+00  0.00000000E+00
  0.00000000E+00  0.00000000E+00  0.00000000E+00
  0.00000000E+00  0.00000000E+00  0.00000000E+00
  0.00000000E+00  0.00000000E+00  0.00000000E+00
  0.00000000E+00  0.00000000E+00  0.00000000E+00
  0.00000000E+00  0.00000000E+00  0.00000000E+00
  0.00000000E+00  0.00000000E+00  0.00000000E+00
  0.00000000E+00  0.00000000E+00  0.00000000E+00
  0.00000000E+00  0.00000000E+00  0.00000000E+00
  0.00000000E+00  0.00000000E+00  0.00000000E+00
  0.00000000E+00  0.00000000E+00  0.00000000E+00
  0.00000000E+00  0.00000000E+00  0.00000000E+00
  0.00000000E+00  0.00000000E+00  0.00000000E+00
  0.00000000E+00  0.00000000E+00  0.00000000E+00
  0.00000000E+00  0.00000000E+00  0.00000000E+00
  0.00000000E+00  0.00000000E+00  0.00000000E+00
  0.00000000E+00  0.00000000E+00  0.00000000E+00
