Ba4 Tl4 F20                             
   1.0000000000000000     
     0.0000000000000000    5.7438053449718023   -0.0520533728818945
     9.2208999694401594    0.0000000000000000    0.0000000000000000
     0.0000000000000000   -0.0708341532674734   -7.7635503975373492
   Ba   Tl   F 
     4     4    20
Direct
  0.5000818829287041  0.3115185289614431  0.3868549044556957
  0.4999181170712887  0.8115185289614359  0.6131450955443043
  0.9999620740882804  0.9739188782031647  0.1133967706766441
  0.0000379259117196  0.4739188782031647  0.8866032293233559
  0.5000169287154748  0.6751421488507887  0.0949111871830226
  0.4999830712845252  0.1751421488507887  0.9050888128169774
  0.9999461813871662  0.6098976459844252  0.4049306783310840
  0.0000538186128267  0.1098976459844181  0.5950693216689160
  0.2707170228833604  0.0528586390907435  0.4166415443091935
  0.2702869947705366  0.5529437024803912  0.5836410273172774
  0.7297130052294634  0.0529437024803912  0.4163589726827155
  0.7706717565831909  0.7327770609592577  0.9167370416537111
  0.7604435092803357  0.5087941324421479  0.2095461428060972
  0.4998967100257161  0.9732811100568313  0.0741641821119501
  0.7397026102124897  0.2760150434046338  0.7097320554330722
  0.7395040800304074  0.7760133300130079  0.2902938244096873
  0.2395564907196643  0.0087941324421479  0.7904538571939028
  0.9997841378256638  0.8129118129573101  0.5733494631161875
  0.5001032899742839  0.4732811100568313  0.9258358178880499
  0.7292829771166396  0.5528586390907577  0.5833584556908065
  0.7602245253420818  0.0088031147277263  0.7903378823215093
  0.7705494431807764  0.2327238318681282  0.0833519835481624
  0.0002158621743362  0.3129118129573101  0.4266505368838125
  0.2602973897875103  0.7760150434046338  0.2902679445669278
  0.2293282434168020  0.2327770609592577  0.0832629583462818
  0.2294505568192236  0.7327238318681353  0.9166480164518376
  0.2604959199695926  0.2760133300130079  0.7097061755903127
  0.2397754746579182  0.5088031147277192  0.2096621176784907

  0.00000000E+00  0.00000000E+00  0.00000000E+00
  0.00000000E+00  0.00000000E+00  0.00000000E+00
  0.00000000E+00  0.00000000E+00  0.00000000E+00
  0.00000000E+00  0.00000000E+00  0.00000000E+00
  0.00000000E+00  0.00000000E+00  0.00000000E+00
  0.00000000E+00  0.00000000E+00  0.00000000E+00
  0.00000000E+00  0.00000000E+00  0.00000000E+00
  0.00000000E+00  0.00000000E+00  0.00000000E+00
  0.00000000E+00  0.00000000E+00  0.00000000E+00
  0.00000000E+00  0.00000000E+00  0.00000000E+00
  0.00000000E+00  0.00000000E+00  0.00000000E+00
  0.00000000E+00  0.00000000E+00  0.00000000E+00
  0.00000000E+00  0.00000000E+00  0.00000000E+00
  0.00000000E+00  0.00000000E+00  0.00000000E+00
  0.00000000E+00  0.00000000E+00  0.00000000E+00
  0.00000000E+00  0.00000000E+00  0.00000000E+00
  0.00000000E+00  0.00000000E+00  0.00000000E+00
  0.00000000E+00  0.00000000E+00  0.00000000E+00
  0.00000000E+00  0.00000000E+00  0.00000000E+00
  0.00000000E+00  0.00000000E+00  0.00000000E+00
  0.00000000E+00  0.00000000E+00  0.00000000E+00
  0.00000000E+00  0.00000000E+00  0.00000000E+00
  0.00000000E+00  0.00000000E+00  0.00000000E+00
  0.00000000E+00  0.00000000E+00  0.00000000E+00
  0.00000000E+00  0.00000000E+00  0.00000000E+00
  0.00000000E+00  0.00000000E+00  0.00000000E+00
  0.00000000E+00  0.00000000E+00  0.00000000E+00
  0.00000000E+00  0.00000000E+00  0.00000000E+00
