Ba6 Ga4 F24                             
   1.00000000000000     
     0.0000000000000000    0.0000000000000000    5.4355256660082567
     9.3482803033174839   -0.0006621051289938    0.0000000000000000
    -0.0006620407478789    9.3483400859264130    0.0000000000000000
   Ba   F    Ga
     6    24     4
Direct
  0.0000000000000000  0.0000004834953842  0.9999734747534745
  0.5000000000000000  0.3205855420669010  0.1794250331033780
  0.5000000000000000  0.8205790844821976  0.3205927125493417
  0.0000000000000000  0.4999706950736638  0.5000127090997140
  0.5000000000000000  0.1794332822540810  0.6794167063546723
  0.5000000000000000  0.6794405079789101  0.8205992938540376
  0.2129534464396272  0.5000150057269437  0.0000264060739852
  0.7870465535603728  0.5000150057269437  0.0000264060739852
  0.2491913034723297  0.7640788146696167  0.0556208441418136
  0.7508086965276632  0.7640788146696167  0.0556208441418136
  0.0000000000000000  0.2838984175200068  0.2161219854328849
  0.2491943158198637  0.0555929311173387  0.2359070988801193
  0.7508056841801363  0.0555929311173387  0.2359070988801193
  0.2491914685696415  0.5556032069261647  0.2640922696060670
  0.7508085314303585  0.5556032069261647  0.2640922696060670
  0.0000000000000000  0.7838952300427948  0.2839134674042683
  0.2491977837750170  0.2640421562046100  0.4444052757187507
  0.7508022162249830  0.2640421562046100  0.4444052757187507
  0.2129516201857413  0.9999783080065754  0.4999750185538545
  0.7870483798142587  0.9999783080065754  0.4999750185538545
  0.2491880786322440  0.7359123315582465  0.5556122925781679
  0.7508119213677560  0.7359123315582465  0.5556122925781679
  0.0000000000000000  0.2161504978749562  0.7161059707569208
  0.2491915826120277  0.4444327303130748  0.7359577480798833
  0.7508084173879652  0.4444327303130748  0.7359577480798833
  0.2492009554341408  0.9444321443892747  0.7640418890259539
  0.7507990445658592  0.9444321443892747  0.7640418890259539
  0.0000000000000000  0.7161606093029249  0.7839302961025041
  0.2491859763258546  0.2359486674292057  0.9444072167448923
  0.7508140236741454  0.2359486674292057  0.9444072167448923
  0.0000000000000000  0.6326411234587326  0.1326513190481791
  0.0000000000000000  0.1326121101267645  0.3673545228047246
  0.0000000000000000  0.8673650125707510  0.6326143479464221
  0.0000000000000000  0.3673948110697722  0.8673960419824596
 
  0.00000000E+00  0.00000000E+00  0.00000000E+00
  0.00000000E+00  0.00000000E+00  0.00000000E+00
  0.00000000E+00  0.00000000E+00  0.00000000E+00
  0.00000000E+00  0.00000000E+00  0.00000000E+00
  0.00000000E+00  0.00000000E+00  0.00000000E+00
  0.00000000E+00  0.00000000E+00  0.00000000E+00
  0.00000000E+00  0.00000000E+00  0.00000000E+00
  0.00000000E+00  0.00000000E+00  0.00000000E+00
  0.00000000E+00  0.00000000E+00  0.00000000E+00
  0.00000000E+00  0.00000000E+00  0.00000000E+00
  0.00000000E+00  0.00000000E+00  0.00000000E+00
  0.00000000E+00  0.00000000E+00  0.00000000E+00
  0.00000000E+00  0.00000000E+00  0.00000000E+00
  0.00000000E+00  0.00000000E+00  0.00000000E+00
  0.00000000E+00  0.00000000E+00  0.00000000E+00
  0.00000000E+00  0.00000000E+00  0.00000000E+00
  0.00000000E+00  0.00000000E+00  0.00000000E+00
  0.00000000E+00  0.00000000E+00  0.00000000E+00
  0.00000000E+00  0.00000000E+00  0.00000000E+00
  0.00000000E+00  0.00000000E+00  0.00000000E+00
  0.00000000E+00  0.00000000E+00  0.00000000E+00
  0.00000000E+00  0.00000000E+00  0.00000000E+00
  0.00000000E+00  0.00000000E+00  0.00000000E+00
  0.00000000E+00  0.00000000E+00  0.00000000E+00
  0.00000000E+00  0.00000000E+00  0.00000000E+00
  0.00000000E+00  0.00000000E+00  0.00000000E+00
  0.00000000E+00  0.00000000E+00  0.00000000E+00
  0.00000000E+00  0.00000000E+00  0.00000000E+00
  0.00000000E+00  0.00000000E+00  0.00000000E+00
  0.00000000E+00  0.00000000E+00  0.00000000E+00
  0.00000000E+00  0.00000000E+00  0.00000000E+00
  0.00000000E+00  0.00000000E+00  0.00000000E+00
  0.00000000E+00  0.00000000E+00  0.00000000E+00
  0.00000000E+00  0.00000000E+00  0.00000000E+00
