Be4 Ga4 F20                             
   1.0000000000000000     
     8.9604829020043919    0.0000000000000000    0.0000000000000000
     0.0000000000000000    4.9155122361386612    0.0914692531781628
     0.0000000000000000    2.4045994691519064    6.7572256054737849
   Be   Ga   F 
     4     4    20
Direct
  0.0411196485060188  0.6071984104100068  0.2095138416793816
  0.5411196485060188  0.3928015895899932  0.2904861583206184
  0.9588803514939812  0.3928015895899932  0.7904861583206184
  0.4588803514939812  0.6071984104100068  0.7095138416793816
  0.7587831027318401  0.9702296427079276  0.6397884463832852
  0.2587831027318330  0.0297703572920724  0.8602115536167148
  0.2412168972681528  0.0297703572920724  0.3602115536167148
  0.7412168972681599  0.9702296427079276  0.1397884463832852
  0.6048903822573664  0.2193772789250943  0.5012558665514746
  0.1048903822573664  0.7806227210749057  0.9987441334485254
  0.3951096177426336  0.7806227210749057  0.4987441334485254
  0.8951096177426336  0.2193772789250943  0.0012558665514746
  0.8192014954876328  0.9726635150859195  0.3855524957589580
  0.3192014954876328  0.0273364849140805  0.1144475042410420
  0.1807985045123672  0.0273364849140805  0.6144475042410420
  0.6807985045123672  0.9726635150859195  0.8855524957589580
  0.4178137608753261  0.2847476100501609  0.7548439442081616
  0.9178137608753261  0.7152523899498391  0.7451560557918384
  0.5821862391246739  0.7152523899498391  0.2451560557918384
  0.0821862391246739  0.2847476100501609  0.2548439442081616
  0.6315953168330211  0.6365907255015770  0.6909871520400728
  0.1315953168330211  0.3634092744984230  0.8090128479599272
  0.3684046831669789  0.3634092744984230  0.3090128479599201
  0.8684046831669789  0.6365907255015770  0.1909871520400728
  0.3899107515392330  0.7160774569217025  0.8711868678320016
  0.8899107515392330  0.2839225430782975  0.6288131321679984
  0.6100892484607670  0.2839225430782975  0.1288131321679984
  0.1100892484607670  0.7160774569217025  0.3711868678320016

  0.00000000E+00  0.00000000E+00  0.00000000E+00
  0.00000000E+00  0.00000000E+00  0.00000000E+00
  0.00000000E+00  0.00000000E+00  0.00000000E+00
  0.00000000E+00  0.00000000E+00  0.00000000E+00
  0.00000000E+00  0.00000000E+00  0.00000000E+00
  0.00000000E+00  0.00000000E+00  0.00000000E+00
  0.00000000E+00  0.00000000E+00  0.00000000E+00
  0.00000000E+00  0.00000000E+00  0.00000000E+00
  0.00000000E+00  0.00000000E+00  0.00000000E+00
  0.00000000E+00  0.00000000E+00  0.00000000E+00
  0.00000000E+00  0.00000000E+00  0.00000000E+00
  0.00000000E+00  0.00000000E+00  0.00000000E+00
  0.00000000E+00  0.00000000E+00  0.00000000E+00
  0.00000000E+00  0.00000000E+00  0.00000000E+00
  0.00000000E+00  0.00000000E+00  0.00000000E+00
  0.00000000E+00  0.00000000E+00  0.00000000E+00
  0.00000000E+00  0.00000000E+00  0.00000000E+00
  0.00000000E+00  0.00000000E+00  0.00000000E+00
  0.00000000E+00  0.00000000E+00  0.00000000E+00
  0.00000000E+00  0.00000000E+00  0.00000000E+00
  0.00000000E+00  0.00000000E+00  0.00000000E+00
  0.00000000E+00  0.00000000E+00  0.00000000E+00
  0.00000000E+00  0.00000000E+00  0.00000000E+00
  0.00000000E+00  0.00000000E+00  0.00000000E+00
  0.00000000E+00  0.00000000E+00  0.00000000E+00
  0.00000000E+00  0.00000000E+00  0.00000000E+00
  0.00000000E+00  0.00000000E+00  0.00000000E+00
  0.00000000E+00  0.00000000E+00  0.00000000E+00
