Mg4 Tl4 Br20                            
   1.0000000000000000     
     4.1879440553221139   -0.0000000000000001    0.0000000000000004
    -0.0000000000000002   11.9598973299673634    0.0000000000000009
    -0.0000000000000007    0.0000000000000012   23.4690437228993360
   Mg   Tl   Br
     4     4    20
Direct
  0.6609166625697114  0.3002350589603395  0.3449133077455429
  0.1609166625697114  0.1997649410396605  0.6550866922544571
  0.3390833374302815  0.8002350589603395  0.1550866922544571
  0.8390833374302815  0.6997649410396605  0.8449133077455429
  0.6680676458257508  0.9480581666804824  0.4146339174590494
  0.1680676458257508  0.5519418333195176  0.5853660825409364
  0.3319323541742492  0.4480581666804824  0.0853660825409435
  0.8319323541742492  0.0519418333195176  0.9146339174590565
  0.6534579938668443  0.5947106086711784  0.5084246533112164
  0.1534579938668372  0.9052893913288216  0.4915753466887836
  0.3465420061331557  0.0947106086711784  0.9915753466887836
  0.8465420061331557  0.4052893913288216  0.0084246533112164
  0.5356662786147908  0.8256169237140796  0.3262998680552087
  0.0356662786147908  0.6743830762859204  0.6737001319447913
  0.4643337213852092  0.3256169237140796  0.1737001319447913
  0.9643337213852092  0.1743830762859204  0.8262998680552087
  0.8115505268620922  0.8258758561346013  0.9344504302204939
  0.3115505268620922  0.6741241438653987  0.0655495697795061
  0.1884494731379078  0.3258758561346013  0.5655495697795061
  0.6884494731379078  0.1741241438653987  0.4344504302204939
  0.3617560190182161  0.6735373417864281  0.2385695612605261
  0.8617560190182232  0.8264626582135719  0.7614304387394739
  0.6382439809817768  0.1735373417864281  0.2614304387394739
  0.1382439809817839  0.3264626582135719  0.7385695612605261
  0.3389722167576963  0.5799784170474069  0.8555743512475544
  0.8389722167576963  0.9200215829525931  0.1444256487524456
  0.6610277832423037  0.0799784170474069  0.6444256487524456
  0.1610277832423108  0.4200215829525931  0.3555743512475544

  0.00000000E+00  0.00000000E+00  0.00000000E+00
  0.00000000E+00  0.00000000E+00  0.00000000E+00
  0.00000000E+00  0.00000000E+00  0.00000000E+00
  0.00000000E+00  0.00000000E+00  0.00000000E+00
  0.00000000E+00  0.00000000E+00  0.00000000E+00
  0.00000000E+00  0.00000000E+00  0.00000000E+00
  0.00000000E+00  0.00000000E+00  0.00000000E+00
  0.00000000E+00  0.00000000E+00  0.00000000E+00
  0.00000000E+00  0.00000000E+00  0.00000000E+00
  0.00000000E+00  0.00000000E+00  0.00000000E+00
  0.00000000E+00  0.00000000E+00  0.00000000E+00
  0.00000000E+00  0.00000000E+00  0.00000000E+00
  0.00000000E+00  0.00000000E+00  0.00000000E+00
  0.00000000E+00  0.00000000E+00  0.00000000E+00
  0.00000000E+00  0.00000000E+00  0.00000000E+00
  0.00000000E+00  0.00000000E+00  0.00000000E+00
  0.00000000E+00  0.00000000E+00  0.00000000E+00
  0.00000000E+00  0.00000000E+00  0.00000000E+00
  0.00000000E+00  0.00000000E+00  0.00000000E+00
  0.00000000E+00  0.00000000E+00  0.00000000E+00
  0.00000000E+00  0.00000000E+00  0.00000000E+00
  0.00000000E+00  0.00000000E+00  0.00000000E+00
  0.00000000E+00  0.00000000E+00  0.00000000E+00
  0.00000000E+00  0.00000000E+00  0.00000000E+00
  0.00000000E+00  0.00000000E+00  0.00000000E+00
  0.00000000E+00  0.00000000E+00  0.00000000E+00
  0.00000000E+00  0.00000000E+00  0.00000000E+00
  0.00000000E+00  0.00000000E+00  0.00000000E+00
