Sr2 In3                                 
   1.0000000000000000     
    -2.4092539857936073    3.3240669407182204    5.2244124494600142
     2.4092539857936073   -3.3240669407182204    5.2244124494600142
     2.4092539857936073    3.3240669407182204   -5.2244124494600142
   In   Sr
     3     2
Direct
  0.2757582023479515  0.0000000000000000  0.2757582023479515
  0.0000000000000000  0.5000000000000000  0.5000000000000000
  0.7242417976520485  0.0000000000000000  0.7242417976520485
  0.2908119696262048  0.2908119696262048  0.0000000000000000
  0.7091880303737952  0.7091880303737952  0.0000000000000000

  0.00000000E+00  0.00000000E+00  0.00000000E+00
  0.00000000E+00  0.00000000E+00  0.00000000E+00
  0.00000000E+00  0.00000000E+00  0.00000000E+00
  0.00000000E+00  0.00000000E+00  0.00000000E+00
  0.00000000E+00  0.00000000E+00  0.00000000E+00
