GaI3                                    
   1.00000000000000     
    10.2431384953429792   -0.0021095785751150   -0.0319189235147061
    -0.0013563455205435    6.7882696948075996   -0.0015708231489485
    -3.9013408651793173   -0.0022158711669497   12.0642950639425397
   Ga   I 
     4    12
Direct
  0.1892449029944672  0.9945266469401446  0.0465452671010027
  0.8108736391510760  0.4936980794725727  0.4534684747255895
  0.1892774135015074  0.5055146770623935  0.5465562006784239
  0.8107837248182861  0.0062177818663613  0.9533591625739604
  0.6869374724049209  0.2325589063869486  0.0473498599543660
  0.9976111016815921  0.7898593801715279  0.1089800463566633
  0.3234280924028070  0.2126854533776736  0.2032405035682672
  0.6772329569693341  0.7121815091270065  0.2968535187268913
  0.0023295896005564  0.2886433839506921  0.3911361353416964
  0.3128856671093274  0.7320405986985534  0.4524066540043563
  0.6869477002002995  0.2673136424404774  0.5474273989891429
  0.9978309360098123  0.7102520751767045  0.6090609352231198
  0.3232802999134350  0.2873063586112821  0.7031886115102282
  0.6771107363719153  0.7876258559995719  0.7966752900412217
  0.0024190891801723  0.2113721552699204  0.8911796785246224
  0.3125666776904836  0.7679034954481736  0.9522722626804594
 
  0.00000000E+00  0.00000000E+00  0.00000000E+00
  0.00000000E+00  0.00000000E+00  0.00000000E+00
  0.00000000E+00  0.00000000E+00  0.00000000E+00
  0.00000000E+00  0.00000000E+00  0.00000000E+00
  0.00000000E+00  0.00000000E+00  0.00000000E+00
  0.00000000E+00  0.00000000E+00  0.00000000E+00
  0.00000000E+00  0.00000000E+00  0.00000000E+00
  0.00000000E+00  0.00000000E+00  0.00000000E+00
  0.00000000E+00  0.00000000E+00  0.00000000E+00
  0.00000000E+00  0.00000000E+00  0.00000000E+00
  0.00000000E+00  0.00000000E+00  0.00000000E+00
  0.00000000E+00  0.00000000E+00  0.00000000E+00
  0.00000000E+00  0.00000000E+00  0.00000000E+00
  0.00000000E+00  0.00000000E+00  0.00000000E+00
  0.00000000E+00  0.00000000E+00  0.00000000E+00
  0.00000000E+00  0.00000000E+00  0.00000000E+00
