Be4 Ga4 F2                              
   1.00000000000000     
     3.9634911104582056    0.8943856207336058    0.0000000000000000
    -1.2001202888993669    3.9460314689503666    0.0000000000000000
     0.0000000000000000    0.0000000000000000    8.2072912997084160
   Ga   F    Be
     4     2     4
Direct
  0.4713549939084416  0.7509387380034198  0.0972241347089664
  0.4713549939084416  0.7509387380034198  0.4027758652910336
  0.5286450060915584  0.2490612619965802  0.5972241347089664
  0.5286450060915584  0.2490612619965802  0.9027758652910336
  0.9838594559531018  0.2496451142280449  0.2500000000000000
  0.0161405440468982  0.7503548857719551  0.7500000000000000
  0.0257369424991296  0.2492418188843999  0.0628893982589247
  0.0257369424991296  0.2492418188843999  0.4371106017410753
  0.9742630575008704  0.7507581811156001  0.5628893982589247
  0.9742630575008704  0.7507581811156001  0.9371106017410753
 
  0.00000000E+00  0.00000000E+00  0.00000000E+00
  0.00000000E+00  0.00000000E+00  0.00000000E+00
  0.00000000E+00  0.00000000E+00  0.00000000E+00
  0.00000000E+00  0.00000000E+00  0.00000000E+00
  0.00000000E+00  0.00000000E+00  0.00000000E+00
  0.00000000E+00  0.00000000E+00  0.00000000E+00
  0.00000000E+00  0.00000000E+00  0.00000000E+00
  0.00000000E+00  0.00000000E+00  0.00000000E+00
  0.00000000E+00  0.00000000E+00  0.00000000E+00
  0.00000000E+00  0.00000000E+00  0.00000000E+00
