Ba22 Tl14                               
   1.0000000000000000     
    -9.3718854252003130    9.3890738218143266    0.0076888546321270
     9.3795424972412320    0.0000000000000000   -9.4607555868080926
    -9.3718854252003130   -9.3890738218143266    0.0076888546321270
   Ba   Tl
    22    14
Direct
  0.0000071677189908  0.0000286553446713  0.0000071677189908
  0.3894489567608090  0.2620125272453251  0.1309641751505524
  0.8722061047633005  0.2621649073173913  0.1316261480694720
  0.8683593996123662  0.7378070813948909  0.1277771145000770
  0.5008658334025995  0.0007914114090752  0.1653938354808915
  0.1659933188347438  0.6657938745711505  0.1659933188347438
  0.5002708982915891  0.6659811442329087  0.1656017465935733
  0.1309641751505524  0.2620125272453251  0.3894489567608090
  0.1653938354808915  0.0007914114090752  0.5008658334025995
  0.4999180625764552  0.9999489443048191  0.4999180625764552
  0.8344332111187569  0.9991696904591478  0.4990350133211692
  0.5003421190889838  0.3343192774771211  0.5003421190889838
  0.8343653918633365  0.3340050408662592  0.4997555231022517
  0.1656017465935733  0.6659811442329087  0.5002708982915891
  0.4996662559001379  0.6657120825461433  0.4996662559001379
  0.8690078079267423  0.7380155596050813  0.6105785256764733
  0.4990350133211692  0.9991696904591478  0.8344332111187569
  0.4997555231022517  0.3340050408662592  0.8343653918633365
  0.8339324534780559  0.3340660612002395  0.8339324534780559
  0.1316261480694720  0.2621649073173913  0.8722061047633005
  0.1277771145000770  0.7378070813948909  0.8683593996123662
  0.6105785256764733  0.7380155596050813  0.8690078079267423
  0.6893296070229695  0.3783591176626544  0.0685509366485064
  0.2219937670616545  0.0000588787583808  0.2219937670616545
  0.7794992216866845  0.0000615114158222  0.2204018719648246
  0.2212846109263324  0.4430110014792348  0.2212846109263324
  0.6897261962127885  0.3792452979272198  0.3101896172473673
  0.6898672218501147  0.6207929888057961  0.3102538321591766
  0.9314467468360093  0.6215602137302767  0.3106751537324612
  0.0685509366485064  0.3783591176626544  0.6893296070229695
  0.3101896172473673  0.3792452979272198  0.6897261962127885
  0.3102538321591766  0.6207929888057961  0.6898672218501147
  0.2204018719648246  0.0000615114158222  0.7794992216866845
  0.7779744708710510  0.0000039749470560  0.7779744708710510
  0.7788576825487254  0.5571242652275217  0.7788576825487254
  0.3106751537324612  0.6215602137302767  0.9314467468360093

  0.00000000E+00  0.00000000E+00  0.00000000E+00
  0.00000000E+00  0.00000000E+00  0.00000000E+00
  0.00000000E+00  0.00000000E+00  0.00000000E+00
  0.00000000E+00  0.00000000E+00  0.00000000E+00
  0.00000000E+00  0.00000000E+00  0.00000000E+00
  0.00000000E+00  0.00000000E+00  0.00000000E+00
  0.00000000E+00  0.00000000E+00  0.00000000E+00
  0.00000000E+00  0.00000000E+00  0.00000000E+00
  0.00000000E+00  0.00000000E+00  0.00000000E+00
  0.00000000E+00  0.00000000E+00  0.00000000E+00
  0.00000000E+00  0.00000000E+00  0.00000000E+00
  0.00000000E+00  0.00000000E+00  0.00000000E+00
  0.00000000E+00  0.00000000E+00  0.00000000E+00
  0.00000000E+00  0.00000000E+00  0.00000000E+00
  0.00000000E+00  0.00000000E+00  0.00000000E+00
  0.00000000E+00  0.00000000E+00  0.00000000E+00
  0.00000000E+00  0.00000000E+00  0.00000000E+00
  0.00000000E+00  0.00000000E+00  0.00000000E+00
  0.00000000E+00  0.00000000E+00  0.00000000E+00
  0.00000000E+00  0.00000000E+00  0.00000000E+00
  0.00000000E+00  0.00000000E+00  0.00000000E+00
  0.00000000E+00  0.00000000E+00  0.00000000E+00
  0.00000000E+00  0.00000000E+00  0.00000000E+00
  0.00000000E+00  0.00000000E+00  0.00000000E+00
  0.00000000E+00  0.00000000E+00  0.00000000E+00
  0.00000000E+00  0.00000000E+00  0.00000000E+00
  0.00000000E+00  0.00000000E+00  0.00000000E+00
  0.00000000E+00  0.00000000E+00  0.00000000E+00
  0.00000000E+00  0.00000000E+00  0.00000000E+00
  0.00000000E+00  0.00000000E+00  0.00000000E+00
  0.00000000E+00  0.00000000E+00  0.00000000E+00
  0.00000000E+00  0.00000000E+00  0.00000000E+00
  0.00000000E+00  0.00000000E+00  0.00000000E+00
  0.00000000E+00  0.00000000E+00  0.00000000E+00
  0.00000000E+00  0.00000000E+00  0.00000000E+00
  0.00000000E+00  0.00000000E+00  0.00000000E+00
