Sr4 Tl10 F2                             
   1.0000000000000000     
     6.7599416155906278    2.0436320404509902    2.1939371093851117
    -1.6119183819890510    8.6255378365121871   -1.1307584365013150
    -2.4928458170543202   -4.1100618781874037    7.3396200704417334
   F    Sr   Tl
     2     4    10
Direct
  0.8722359968496463  0.5187874336244604  0.5964342860851701
  0.6512783303299443  0.5672769023180990  0.3514511039454220
  0.6776355431404184  0.6486815158685459  0.1414017705510844
  0.7379140358356864  0.2822834978530935  0.3027139959502136
  0.6859740508926038  0.7769964981301953  0.6662302108306761
  0.1400482317249896  0.4651682167555080  0.7425585761112288
  0.0046059283042013  0.9016594842851688  0.0851464042066183
  0.4131447199045155  0.8899558062892012  0.0014260155107593
  0.1726162668736819  0.5885289904660098  0.2044876259075963
  0.2507654358355396  0.2750630952145130  0.2995740612586957
  0.9039000718078825  0.0263267690303692  0.4945967120564774
  0.1708095972565573  0.8246542808903001  0.6377925176262025
  0.3717736260507323  0.9840444317874812  0.4294752791334275
  0.6097265875172511  0.3364369227497619  0.7048132807080094
  0.9402437440839719  0.2025728565262028  0.9263539156119336
  0.3973278335924135  0.2113632982110829  0.9153442445064712

  0.00000000E+00  0.00000000E+00  0.00000000E+00
  0.00000000E+00  0.00000000E+00  0.00000000E+00
  0.00000000E+00  0.00000000E+00  0.00000000E+00
  0.00000000E+00  0.00000000E+00  0.00000000E+00
  0.00000000E+00  0.00000000E+00  0.00000000E+00
  0.00000000E+00  0.00000000E+00  0.00000000E+00
  0.00000000E+00  0.00000000E+00  0.00000000E+00
  0.00000000E+00  0.00000000E+00  0.00000000E+00
  0.00000000E+00  0.00000000E+00  0.00000000E+00
  0.00000000E+00  0.00000000E+00  0.00000000E+00
  0.00000000E+00  0.00000000E+00  0.00000000E+00
  0.00000000E+00  0.00000000E+00  0.00000000E+00
  0.00000000E+00  0.00000000E+00  0.00000000E+00
  0.00000000E+00  0.00000000E+00  0.00000000E+00
  0.00000000E+00  0.00000000E+00  0.00000000E+00
  0.00000000E+00  0.00000000E+00  0.00000000E+00
