Be1 B2 Br10                             
   1.00000000000000     
     6.2251125059152486    5.1685655128076098   -0.7675596820228952
    -6.2251125059152486    5.1685655128076098   -0.7675596820228952
     0.0000000000000000    2.5974392885279429    7.3919486253922084
   Be   B    Br
     1     2    10
Direct
  0.5985905607372857  0.4014094392627143  0.0000000000000000
  0.1722873838972134  0.9612202765455606  0.7806693818641506
  0.0387797234544394  0.8277126161027866  0.2193306181358494
  0.1867605364830212  0.1459660664274551  0.6090243548725454
  0.8540339335725449  0.8132394635169788  0.3909756451274546
  0.6723790257964524  0.6443987712180288  0.8521522688104568
  0.3556012287819712  0.3276209742035476  0.1478477311895432
  0.0167567827453254  0.9832432172546746  0.0000000000000000
  0.7126905957767491  0.2873094042232509  0.5000000000000000
  0.6284731127613696  0.1896938298552087  0.8308648738388129
  0.8103061701447913  0.3715268872386304  0.1691351261611871
  0.2688563226849894  0.7715163768361535  0.7673059386973833
  0.2284836231638465  0.7311436773150106  0.2326940613026167
 
  0.00000000E+00  0.00000000E+00  0.00000000E+00
  0.00000000E+00  0.00000000E+00  0.00000000E+00
  0.00000000E+00  0.00000000E+00  0.00000000E+00
  0.00000000E+00  0.00000000E+00  0.00000000E+00
  0.00000000E+00  0.00000000E+00  0.00000000E+00
  0.00000000E+00  0.00000000E+00  0.00000000E+00
  0.00000000E+00  0.00000000E+00  0.00000000E+00
  0.00000000E+00  0.00000000E+00  0.00000000E+00
  0.00000000E+00  0.00000000E+00  0.00000000E+00
  0.00000000E+00  0.00000000E+00  0.00000000E+00
  0.00000000E+00  0.00000000E+00  0.00000000E+00
  0.00000000E+00  0.00000000E+00  0.00000000E+00
  0.00000000E+00  0.00000000E+00  0.00000000E+00
