Ca1 Ga2 I8                              
   1.00000000000000     
     6.9706657364265974   -4.1953123546491780    0.4679636030070875
     6.9706657364265956    4.1953123546491771    0.4679636030070872
     0.5256371320210973   -0.0000000000000002   10.3029059837094170
   Ga   Ca   I 
     2     1     8
Direct
  0.2908480559346600  0.2908480559346600  0.2652350738592943
  0.7091519440653400  0.7091519440653400  0.7347649261407057
  0.0000000000000000  0.0000000000000000  0.0000000000000000
  0.6063604996193348  0.0859778695404572  0.1354221469890504
  0.0859778695404572  0.6063604996193348  0.1354221469890504
  0.1023616325666552  0.1023616325666552  0.2651353225009174
  0.6606530493326801  0.6606530493326801  0.5084209603309588
  0.3393469506673199  0.3393469506673199  0.4915790396690412
  0.8976383674333448  0.8976383674333448  0.7348646774990897
  0.9140221304595428  0.3936395003806581  0.8645778530109567
  0.3936395003806581  0.9140221304595428  0.8645778530109567
 
  0.00000000E+00  0.00000000E+00  0.00000000E+00
  0.00000000E+00  0.00000000E+00  0.00000000E+00
  0.00000000E+00  0.00000000E+00  0.00000000E+00
  0.00000000E+00  0.00000000E+00  0.00000000E+00
  0.00000000E+00  0.00000000E+00  0.00000000E+00
  0.00000000E+00  0.00000000E+00  0.00000000E+00
  0.00000000E+00  0.00000000E+00  0.00000000E+00
  0.00000000E+00  0.00000000E+00  0.00000000E+00
  0.00000000E+00  0.00000000E+00  0.00000000E+00
  0.00000000E+00  0.00000000E+00  0.00000000E+00
  0.00000000E+00  0.00000000E+00  0.00000000E+00
