Sr3 Ga11                                
   1.00000000000000     
     4.4707639461613224    0.0000000000000000    0.0000000000000000
    -2.2353819730806612   -5.1749250807434723    6.6801473889554677
    -2.2353819730806612   -5.1749250807434723   -6.6801473889554677
   Ga   Sr
    11     3
Direct
  0.3721787709304678  0.7095863649266292  0.0347711769343135
  0.2701386035896576  0.4195836517964935  0.1206935553828004
  0.6278212290695322  0.9652288230656865  0.2904136350733708
  0.7856364211215379  0.2856364211215379  0.2856364211215379
  0.2701386035896576  0.1206935553828004  0.4195836517964935
  0.5000000000000000  0.5000000000000000  0.5000000000000000
  0.7298613964103424  0.8793064446171996  0.5804163482035065
  0.2143635788784621  0.7143635788784621  0.7143635788784621
  0.3721787709304678  0.0347711769343135  0.7095863649266292
  0.7298613964103424  0.5804163482035065  0.8793064446171996
  0.6278212290695322  0.2904136350733708  0.9652288230656865
  0.0000000000000000  0.0000000000000000  0.0000000000000000
  0.0000000000000000  0.6825977905636975  0.3174022094363025
  0.0000000000000000  0.3174022094363025  0.6825977905636975
 
  0.00000000E+00  0.00000000E+00  0.00000000E+00
  0.00000000E+00  0.00000000E+00  0.00000000E+00
  0.00000000E+00  0.00000000E+00  0.00000000E+00
  0.00000000E+00  0.00000000E+00  0.00000000E+00
  0.00000000E+00  0.00000000E+00  0.00000000E+00
  0.00000000E+00  0.00000000E+00  0.00000000E+00
  0.00000000E+00  0.00000000E+00  0.00000000E+00
  0.00000000E+00  0.00000000E+00  0.00000000E+00
  0.00000000E+00  0.00000000E+00  0.00000000E+00
  0.00000000E+00  0.00000000E+00  0.00000000E+00
  0.00000000E+00  0.00000000E+00  0.00000000E+00
  0.00000000E+00  0.00000000E+00  0.00000000E+00
  0.00000000E+00  0.00000000E+00  0.00000000E+00
  0.00000000E+00  0.00000000E+00  0.00000000E+00
