Ba4 Ga4 Br20                            
   1.0000000000000000     
     6.5525649946349365   -0.0000000000000004    0.0000000000000005
    -0.0000000000000008   11.1460651820124763    0.0000000000000004
     0.0000000000000002    0.0000000000000004   15.3681864186876975
   Ba   Ga   Br
     4     4    20
Direct
  0.7056029838632583  0.2799567067546462  0.3807825935099132
  0.2056029838632583  0.2200432932453538  0.6192174064900868
  0.2943970161367346  0.7799567067546462  0.1192174064900868
  0.7943970161367346  0.7200432932453538  0.8807825935099132
  0.1562784478340333  0.9246800919773008  0.3671913628413961
  0.6562784478340333  0.5753199080226992  0.6328086371585897
  0.8437215521659667  0.4246800919773079  0.1328086371585897
  0.3437215521659667  0.0753199080226921  0.8671913628414032
  0.8062629771419978  0.5439100702562385  0.4954204897086285
  0.3062629771419765  0.9560899297437615  0.5045795102913715
  0.1937370228580164  0.0439100702562385  0.0045795102913715
  0.6937370228580093  0.4560899297437615  0.9954204897086285
  0.8077294108711897  0.9770305689322498  0.3697057425701047
  0.3077294108711897  0.5229694310677502  0.6302942574298953
  0.1922705891288103  0.4770305689322498  0.1302942574299024
  0.6922705891288103  0.0229694310677502  0.8697057425701047
  0.7923978695331328  0.7964575234399263  0.0840523377637226
  0.2923978695331328  0.7035424765600737  0.9159476622362774
  0.2076021304668672  0.2964575234399263  0.4159476622362845
  0.7076021304668672  0.2035424765600737  0.5840523377637226
  0.6818026658492329  0.5285534171639554  0.2500699082068962
  0.1818026658492329  0.9714465828360375  0.7499300917931038
  0.3181973341507671  0.0285534171639625  0.2499300917931109
  0.8181973341507671  0.4714465828360375  0.7500699082068962
  0.3081542032388640  0.2808336353183591  0.8292778459020695
  0.8081542032388640  0.2191663646816338  0.1707221540979305
  0.6918457967611360  0.7808336353183591  0.6707221540979305
  0.1918457967611360  0.7191663646816409  0.3292778459020695

  0.00000000E+00  0.00000000E+00  0.00000000E+00
  0.00000000E+00  0.00000000E+00  0.00000000E+00
  0.00000000E+00  0.00000000E+00  0.00000000E+00
  0.00000000E+00  0.00000000E+00  0.00000000E+00
  0.00000000E+00  0.00000000E+00  0.00000000E+00
  0.00000000E+00  0.00000000E+00  0.00000000E+00
  0.00000000E+00  0.00000000E+00  0.00000000E+00
  0.00000000E+00  0.00000000E+00  0.00000000E+00
  0.00000000E+00  0.00000000E+00  0.00000000E+00
  0.00000000E+00  0.00000000E+00  0.00000000E+00
  0.00000000E+00  0.00000000E+00  0.00000000E+00
  0.00000000E+00  0.00000000E+00  0.00000000E+00
  0.00000000E+00  0.00000000E+00  0.00000000E+00
  0.00000000E+00  0.00000000E+00  0.00000000E+00
  0.00000000E+00  0.00000000E+00  0.00000000E+00
  0.00000000E+00  0.00000000E+00  0.00000000E+00
  0.00000000E+00  0.00000000E+00  0.00000000E+00
  0.00000000E+00  0.00000000E+00  0.00000000E+00
  0.00000000E+00  0.00000000E+00  0.00000000E+00
  0.00000000E+00  0.00000000E+00  0.00000000E+00
  0.00000000E+00  0.00000000E+00  0.00000000E+00
  0.00000000E+00  0.00000000E+00  0.00000000E+00
  0.00000000E+00  0.00000000E+00  0.00000000E+00
  0.00000000E+00  0.00000000E+00  0.00000000E+00
  0.00000000E+00  0.00000000E+00  0.00000000E+00
  0.00000000E+00  0.00000000E+00  0.00000000E+00
  0.00000000E+00  0.00000000E+00  0.00000000E+00
  0.00000000E+00  0.00000000E+00  0.00000000E+00
