Ba16 Tl12 Br1                           
   1.0000000000000000     
     9.5324966663414745   -5.4939747307190450    3.8932025450117198
     0.0584609422145516   11.1541026499114881    3.9782958909250294
    -9.6529454079806474   -5.6350820219786470    3.9949076950612001
   Tl   Br   Ba
    12     1    16
Direct
  0.8043607931498116  0.6049959129667073  0.9999839240369823
  0.5999771661833648  0.7974752817262782  0.9999519089672546
  0.3712169656969024  0.3866864354616197  0.2161066433016074
  0.1544995534141407  0.7825139633208096  0.1700101129976090
  0.8017991527993829  0.2015081244506334  0.2016012054672842
  0.3713652270568772  0.2163887192687710  0.3865458002870099
  0.1979021337598255  0.3928463942722544  0.3930424289274228
  0.8047813708175724  0.9998095228504198  0.6067476341805218
  0.9848508707538954  0.8299046328158681  0.6133906697479361
  0.6001408869363019  0.9998414825697637  0.7982633811836592
  0.9845217860049829  0.6125064026214631  0.8300116445103072
  0.1550959145917403  0.1705642191166703  0.7838359905068231
  0.4413936764058519  0.9999507067227000  0.9998971027134544
  0.5282739752813441  0.2854921448416476  0.0000293664452684
  0.2602341131087940  0.5369858243440930  0.0000096971236445
  0.1764974271750290  0.0004498248815352  0.0000367486711994
  0.9789156331452133  0.2238778616176660  0.9999678518354074
  0.7191693517545303  0.7297811825610481  0.2788179146502401
  0.5270575959587376  0.9999764076409505  0.2848036477058855
  0.9899551725907472  0.5498498833737173  0.2725630902616061
  0.9789448494810529  0.9997808053620929  0.2210888160039985
  0.4400814464371194  0.7212853504538757  0.4508129022325065
  0.7220181737347744  0.4639146451428502  0.4636920925766717
  0.2585173434285082  0.0002473509654095  0.5363777244461616
  0.9893597408446411  0.2706830029222900  0.5492194786386619
  0.7581612956276587  0.7789749102372809  0.7791737309825777
  0.7174300545468668  0.2773432922185535  0.7274941993767357
  0.2423408078405913  0.7153873126821395  0.7154493913489688
  0.4403375214737082  0.4509794025909031  0.7210769008725606

  0.00000000E+00  0.00000000E+00  0.00000000E+00
  0.00000000E+00  0.00000000E+00  0.00000000E+00
  0.00000000E+00  0.00000000E+00  0.00000000E+00
  0.00000000E+00  0.00000000E+00  0.00000000E+00
  0.00000000E+00  0.00000000E+00  0.00000000E+00
  0.00000000E+00  0.00000000E+00  0.00000000E+00
  0.00000000E+00  0.00000000E+00  0.00000000E+00
  0.00000000E+00  0.00000000E+00  0.00000000E+00
  0.00000000E+00  0.00000000E+00  0.00000000E+00
  0.00000000E+00  0.00000000E+00  0.00000000E+00
  0.00000000E+00  0.00000000E+00  0.00000000E+00
  0.00000000E+00  0.00000000E+00  0.00000000E+00
  0.00000000E+00  0.00000000E+00  0.00000000E+00
  0.00000000E+00  0.00000000E+00  0.00000000E+00
  0.00000000E+00  0.00000000E+00  0.00000000E+00
  0.00000000E+00  0.00000000E+00  0.00000000E+00
  0.00000000E+00  0.00000000E+00  0.00000000E+00
  0.00000000E+00  0.00000000E+00  0.00000000E+00
  0.00000000E+00  0.00000000E+00  0.00000000E+00
  0.00000000E+00  0.00000000E+00  0.00000000E+00
  0.00000000E+00  0.00000000E+00  0.00000000E+00
  0.00000000E+00  0.00000000E+00  0.00000000E+00
  0.00000000E+00  0.00000000E+00  0.00000000E+00
  0.00000000E+00  0.00000000E+00  0.00000000E+00
  0.00000000E+00  0.00000000E+00  0.00000000E+00
  0.00000000E+00  0.00000000E+00  0.00000000E+00
  0.00000000E+00  0.00000000E+00  0.00000000E+00
  0.00000000E+00  0.00000000E+00  0.00000000E+00
  0.00000000E+00  0.00000000E+00  0.00000000E+00
