Sr4 Al4 F20                             
   1.0000000000000000     
     0.0000000000000000    5.0895873018558317   -0.0014426962455748
     9.1712508145557958    0.0000000000000000    0.0000000000000000
     0.0000000000000000   -0.1286545689806198   -7.1279060802465253
   Sr   Al   F 
     4     4    20
Direct
  0.5240027710359740  0.3474321839317156  0.3607969503694690
  0.4759972289640260  0.8474321839317156  0.6392030496305310
  0.9830923995174032  0.0019629123086702  0.1103786110865812
  0.0169076004825968  0.5019629123086702  0.8896213889134188
  0.4621818089021943  0.7333830512929893  0.1244839485495746
  0.5378181910978057  0.2333830512929893  0.8755160514504254
  0.9673915350513340  0.6310569129734915  0.4239757720893422
  0.0326084649486660  0.1310569129734915  0.5760242279106578
  0.2297805595357687  0.0209175924287237  0.4288092571985729
  0.2583369251134826  0.5548904054396715  0.5256814930262976
  0.7416630748865174  0.0548904054396715  0.4743185069737024
  0.7403238847930780  0.7272117112318739  0.9747661370345497
  0.9081948895290637  0.5115677695437597  0.2312337849097830
  0.4815661006565293  0.9259300268094179  0.1420212994463625
  0.8476112259173902  0.2576615056384952  0.7276901799288069
  0.6588942991276170  0.7311857383603382  0.3427978275653984
  0.0918051104709363  0.0115677695437597  0.7687662150902170
  0.9701535382984616  0.7681347879338887  0.6027205195424159
  0.5184338993434707  0.4259300268094179  0.8579787005536375
  0.7702194404642313  0.5209175924287308  0.5711907428014271
  0.6022117435657677  0.0453433047585960  0.8501204869143280
  0.7448906750197608  0.2409210773483821  0.0812590020604915
  0.0298464617015384  0.2681347879338887  0.3972794804575841
  0.1523887740826098  0.7576615056384952  0.2723098200711931
  0.2596761152069149  0.2272117112318668  0.0252338629654432
  0.2551093249802392  0.7409210773483892  0.9187409979395085
  0.3411057008723830  0.2311857383603382  0.6572021724346016
  0.3977882564342323  0.5453433047585889  0.1498795130856720

  0.00000000E+00  0.00000000E+00  0.00000000E+00
  0.00000000E+00  0.00000000E+00  0.00000000E+00
  0.00000000E+00  0.00000000E+00  0.00000000E+00
  0.00000000E+00  0.00000000E+00  0.00000000E+00
  0.00000000E+00  0.00000000E+00  0.00000000E+00
  0.00000000E+00  0.00000000E+00  0.00000000E+00
  0.00000000E+00  0.00000000E+00  0.00000000E+00
  0.00000000E+00  0.00000000E+00  0.00000000E+00
  0.00000000E+00  0.00000000E+00  0.00000000E+00
  0.00000000E+00  0.00000000E+00  0.00000000E+00
  0.00000000E+00  0.00000000E+00  0.00000000E+00
  0.00000000E+00  0.00000000E+00  0.00000000E+00
  0.00000000E+00  0.00000000E+00  0.00000000E+00
  0.00000000E+00  0.00000000E+00  0.00000000E+00
  0.00000000E+00  0.00000000E+00  0.00000000E+00
  0.00000000E+00  0.00000000E+00  0.00000000E+00
  0.00000000E+00  0.00000000E+00  0.00000000E+00
  0.00000000E+00  0.00000000E+00  0.00000000E+00
  0.00000000E+00  0.00000000E+00  0.00000000E+00
  0.00000000E+00  0.00000000E+00  0.00000000E+00
  0.00000000E+00  0.00000000E+00  0.00000000E+00
  0.00000000E+00  0.00000000E+00  0.00000000E+00
  0.00000000E+00  0.00000000E+00  0.00000000E+00
  0.00000000E+00  0.00000000E+00  0.00000000E+00
  0.00000000E+00  0.00000000E+00  0.00000000E+00
  0.00000000E+00  0.00000000E+00  0.00000000E+00
  0.00000000E+00  0.00000000E+00  0.00000000E+00
  0.00000000E+00  0.00000000E+00  0.00000000E+00
