Ca7 Tl10                                
   1.0000000000000000     
     2.6250788408489103   -4.3870039521708843   -0.4997626669951523
    -6.3520920967501411   -0.6732370527853545   -0.1409261861714153
     2.4824700792292616   -2.4962044390515432  -17.7442608505309529
   Tl   Ca
    10     7
Direct
  0.5934327814850562  0.7594813671050744  0.0306728912871250
  0.7538446928250266  0.6292317815104980  0.3145390962610151
  0.4965422206710954  0.0250178911340484  0.2640023778482856
  0.3106387582664354  0.4924283439798458  0.1923684759852975
  0.2399981411281331  0.8700726235115184  0.4434308016105177
  0.7599720932521379  0.1299403596441877  0.5566349476366170
  0.6894201020581860  0.5076757962110108  0.8076465038506271
  0.5032697296848241  0.9746311504652851  0.7360427148351576
  0.2461759314954790  0.3704897872632316  0.6853810969924794
  0.4067631059501196  0.2409868928279693  0.9693599191291824
  0.8249721014750264  0.3125403636967405  0.0859178619812369
  0.0581777503113088  0.9104685618006982  0.1457237321576699
  0.9989280178330162  0.2317845504051093  0.3656153840680716
  0.5000821230988137  0.5000352109747013  0.4999583520221051
  0.0010276031999936  0.7679728739544842  0.6344079012226373
  0.9419714334407558  0.0898241522437004  0.8543085514468629
  0.1751834138245698  0.6878182932719596  0.9141893916651043

  0.00000000E+00 -0.00000000E+00 -0.00000000E+00
  0.00000000E+00 -0.00000000E+00 -0.00000000E+00
  0.00000000E+00 -0.00000000E+00 -0.00000000E+00
  0.00000000E+00 -0.00000000E+00 -0.00000000E+00
  0.00000000E+00 -0.00000000E+00 -0.00000000E+00
  0.00000000E+00 -0.00000000E+00 -0.00000000E+00
  0.00000000E+00 -0.00000000E+00 -0.00000000E+00
  0.00000000E+00 -0.00000000E+00 -0.00000000E+00
  0.00000000E+00 -0.00000000E+00 -0.00000000E+00
  0.00000000E+00 -0.00000000E+00 -0.00000000E+00
  0.00000000E+00 -0.00000000E+00 -0.00000000E+00
  0.00000000E+00 -0.00000000E+00 -0.00000000E+00
  0.00000000E+00 -0.00000000E+00 -0.00000000E+00
  0.00000000E+00 -0.00000000E+00 -0.00000000E+00
  0.00000000E+00 -0.00000000E+00 -0.00000000E+00
  0.00000000E+00 -0.00000000E+00 -0.00000000E+00
  0.00000000E+00 -0.00000000E+00 -0.00000000E+00
