Tl1 F6                                  
   1.0000000000000000     
     2.3219851848780584    2.0224633575617323    5.0657920390334192
    -3.3771390828420387    1.4654505469608097    5.6078374414385639
    -0.9965385050503778   -1.2761096243520456    4.9957051835308741
   F    Tl
     6     1
Direct
  0.4633101644100321  0.7883680092246976  0.0220712042231810
  0.9119305326953864  0.5446854730062327  0.2796634700526539
  0.7269566976543445  0.1111641008218314  0.4434034559156643
  0.2732405459571154  0.8890220409254042  0.5565564670733565
  0.0881815797972081  0.4554321700815080  0.7204389098294897
  0.5367178873069705  0.2116724595540518  0.9781965297394279
  0.0000625921789634  0.0000557463862734  0.0000699631662116

  0.00000000E+00  0.00000000E+00  0.00000000E+00
  0.00000000E+00  0.00000000E+00  0.00000000E+00
  0.00000000E+00  0.00000000E+00  0.00000000E+00
  0.00000000E+00  0.00000000E+00  0.00000000E+00
  0.00000000E+00  0.00000000E+00  0.00000000E+00
  0.00000000E+00  0.00000000E+00  0.00000000E+00
  0.00000000E+00  0.00000000E+00  0.00000000E+00
