Mg2 In2 F10                             
   1.0000000000000000     
     4.9768118771958001   -0.0417813427179614    1.9155874782398616
     1.0498634989025266    4.8649959018136677    1.9155875392402164
    -0.0352973617915416   -0.0282473281798364    7.7321301708087740
   Mg   In   F 
     2     2    10
Direct
  0.4768296945950823  0.5231703055758103  0.2499999999177049
  0.5231703054049177  0.4768296944241897  0.7500000000822951
  0.0000000000000000  0.0000000000000000  0.5000000000000000
  0.0000000000000000  0.0000000000000000  0.0000000000000000
  0.8057009513948472  0.6811465571317754  0.6581523746464697
  0.3188534455134047  0.1942980462792008  0.8418476252008276
  0.1942980486051553  0.3188534428682246  0.3418486253535349
  0.6811465544865953  0.8057009537208017  0.1581523747991724
  0.8570475710054239  0.1429524284188588  0.7500000003496581
  0.1429524289945761  0.8570475715811412  0.2499999996503419
  0.7264637815785377  0.3540288397145801  0.0489706223273814
  0.6459711587149641  0.2735362164510775  0.4510293796231508
  0.2735362184214623  0.6459711602854199  0.9510293776726186
  0.3540288412850288  0.7264637835489225  0.5489706203768492

  0.00000000E+00  0.00000000E+00  0.00000000E+00
  0.00000000E+00  0.00000000E+00  0.00000000E+00
  0.00000000E+00  0.00000000E+00  0.00000000E+00
  0.00000000E+00  0.00000000E+00  0.00000000E+00
  0.00000000E+00  0.00000000E+00  0.00000000E+00
  0.00000000E+00  0.00000000E+00  0.00000000E+00
  0.00000000E+00  0.00000000E+00  0.00000000E+00
  0.00000000E+00  0.00000000E+00  0.00000000E+00
  0.00000000E+00  0.00000000E+00  0.00000000E+00
  0.00000000E+00  0.00000000E+00  0.00000000E+00
  0.00000000E+00  0.00000000E+00  0.00000000E+00
  0.00000000E+00  0.00000000E+00  0.00000000E+00
  0.00000000E+00  0.00000000E+00  0.00000000E+00
  0.00000000E+00  0.00000000E+00  0.00000000E+00
