Mg32 Ga28                               
   1.00000000000000     
    10.7707533083140756    0.0001494111475227    0.0001494318633194
     0.0001494318633194   10.7707533083140756    0.0001494111475227
     0.0001494111475227    0.0001494318633194   10.7707533083140756
   Mg   Ga
    32    28
Direct
  0.8024157820310975  0.5570983197762800  0.0078059437427953
  0.7937233699287134  0.0637514362504277  0.0301483273575585
  0.4921726886270079  0.1975957562333193  0.0571144988975405
  0.0301483273575585  0.7937233699287134  0.0637514362504277
  0.3086992474479331  0.6913141915113812  0.1913022781684219
  0.1867462515581977  0.1867462515581977  0.1867462515581977
  0.0571144988975405  0.4921726886270079  0.1975957562333193
  0.5637477139648794  0.4699044416317548  0.2063258239294612
  0.4362649869781734  0.9698703743046977  0.2937120843820367
  0.9429342084329804  0.9922011510647053  0.3024543278192908
  0.8132703930472545  0.6867374866787799  0.3132546961862701
  0.6913141915113812  0.1913022781684219  0.3086992474479331
  0.9698703743046977  0.2937120843820367  0.4362649869781734
  0.5078281168428944  0.6975750206412812  0.4429026055195351
  0.2063258239294612  0.5637477139648794  0.4699044416317548
  0.1975957562333193  0.0571144988975405  0.4921726886270079
  0.6975750206412812  0.4429026055195351  0.5078281168428944
  0.7063281071254650  0.9362529941504079  0.5301207017111480
  0.0078059437427953  0.8024157820310975  0.5570983197762800
  0.4699044416317548  0.2063258239294612  0.5637477139648794
  0.1913022781684219  0.3086992474479331  0.6913141915113812
  0.3132546961862701  0.8132703930472545  0.6867374866787799
  0.4429026055195351  0.5078281168428944  0.6975750206412812
  0.9362529941504079  0.5301207017111480  0.7063281071254650
  0.0637514362504277  0.0301483273575585  0.7937233699287134
  0.5570983197762800  0.0078059437427953  0.8024157820310975
  0.6867374866787799  0.3132546961862701  0.8132703930472545
  0.8086733946392926  0.8086733946392926  0.8086733946392926
  0.5301207017111480  0.7063281071254650  0.9362529941504079
  0.9922011510647053  0.3024543278192908  0.9429342084329804
  0.2937120843820367  0.4362649869781734  0.9698703743046977
  0.3024543278192908  0.9429342084329804  0.9922011510647053
  0.5588643247276579  0.9412055758250233  0.0588094513640556
  0.7701533768821633  0.8070106109665289  0.0685343264294005
  0.7313582301866930  0.3162942769764001  0.0673465747534863
  0.9326607412422021  0.2313925351613051  0.1837385817401938
  0.5685280329184081  0.7298949062685196  0.1929826540271833
  0.6930177947663765  0.9314685642876697  0.2701308261775566
  0.8162836394605151  0.4327108020678949  0.2685422316133668
  0.1837385817401938  0.9326607412422021  0.2313925351613051
  0.3070298757953935  0.4314615325553035  0.2298664004097475
  0.4314615325553035  0.2298664004097475  0.3070298757953935
  0.0673465747534863  0.7313582301866930  0.3162942769764001
  0.2685422316133668  0.8162836394605151  0.4327108020678949
  0.2298664004097475  0.3070298757953935  0.4314615325553035
  0.4411893090692445  0.4411893090692445  0.4411893090692445
  0.9412055758250233  0.0588094513640556  0.5588643247276579
  0.7298949062685196  0.1929826540271833  0.5685280329184081
  0.7685673263418167  0.6837288224391642  0.5672949549657389
  0.5672949549657389  0.7685673263418167  0.6837288224391642
  0.9314685642876697  0.2701308261775566  0.6930177947663765
  0.8070106109665289  0.0685343264294005  0.7701533768821633
  0.6837288224391642  0.5672949549657389  0.7685673263418167
  0.3162942769764001  0.0673465747534863  0.7313582301866930
  0.1929826540271833  0.5685280329184081  0.7298949062685196
  0.0685343264294005  0.7701533768821633  0.8070106109665289
  0.4327108020678949  0.2685422316133668  0.8162836394605151
  0.2313925351613051  0.1837385817401938  0.9326607412422021
  0.2701308261775566  0.6930177947663765  0.9314685642876697
  0.0588094513640556  0.5588643247276579  0.9412055758250233
 
  0.00000000E+00  0.00000000E+00  0.00000000E+00
  0.00000000E+00  0.00000000E+00  0.00000000E+00
  0.00000000E+00  0.00000000E+00  0.00000000E+00
  0.00000000E+00  0.00000000E+00  0.00000000E+00
  0.00000000E+00  0.00000000E+00  0.00000000E+00
  0.00000000E+00  0.00000000E+00  0.00000000E+00
  0.00000000E+00  0.00000000E+00  0.00000000E+00
  0.00000000E+00  0.00000000E+00  0.00000000E+00
  0.00000000E+00  0.00000000E+00  0.00000000E+00
  0.00000000E+00  0.00000000E+00  0.00000000E+00
  0.00000000E+00  0.00000000E+00  0.00000000E+00
  0.00000000E+00  0.00000000E+00  0.00000000E+00
  0.00000000E+00  0.00000000E+00  0.00000000E+00
  0.00000000E+00  0.00000000E+00  0.00000000E+00
  0.00000000E+00  0.00000000E+00  0.00000000E+00
  0.00000000E+00  0.00000000E+00  0.00000000E+00
  0.00000000E+00  0.00000000E+00  0.00000000E+00
  0.00000000E+00  0.00000000E+00  0.00000000E+00
  0.00000000E+00  0.00000000E+00  0.00000000E+00
  0.00000000E+00  0.00000000E+00  0.00000000E+00
  0.00000000E+00  0.00000000E+00  0.00000000E+00
  0.00000000E+00  0.00000000E+00  0.00000000E+00
  0.00000000E+00  0.00000000E+00  0.00000000E+00
  0.00000000E+00  0.00000000E+00  0.00000000E+00
  0.00000000E+00  0.00000000E+00  0.00000000E+00
  0.00000000E+00  0.00000000E+00  0.00000000E+00
  0.00000000E+00  0.00000000E+00  0.00000000E+00
  0.00000000E+00  0.00000000E+00  0.00000000E+00
  0.00000000E+00  0.00000000E+00  0.00000000E+00
  0.00000000E+00  0.00000000E+00  0.00000000E+00
  0.00000000E+00  0.00000000E+00  0.00000000E+00
  0.00000000E+00  0.00000000E+00  0.00000000E+00
  0.00000000E+00  0.00000000E+00  0.00000000E+00
  0.00000000E+00  0.00000000E+00  0.00000000E+00
  0.00000000E+00  0.00000000E+00  0.00000000E+00
  0.00000000E+00  0.00000000E+00  0.00000000E+00
  0.00000000E+00  0.00000000E+00  0.00000000E+00
  0.00000000E+00  0.00000000E+00  0.00000000E+00
  0.00000000E+00  0.00000000E+00  0.00000000E+00
  0.00000000E+00  0.00000000E+00  0.00000000E+00
  0.00000000E+00  0.00000000E+00  0.00000000E+00
  0.00000000E+00  0.00000000E+00  0.00000000E+00
  0.00000000E+00  0.00000000E+00  0.00000000E+00
  0.00000000E+00  0.00000000E+00  0.00000000E+00
  0.00000000E+00  0.00000000E+00  0.00000000E+00
  0.00000000E+00  0.00000000E+00  0.00000000E+00
  0.00000000E+00  0.00000000E+00  0.00000000E+00
  0.00000000E+00  0.00000000E+00  0.00000000E+00
  0.00000000E+00  0.00000000E+00  0.00000000E+00
  0.00000000E+00  0.00000000E+00  0.00000000E+00
  0.00000000E+00  0.00000000E+00  0.00000000E+00
  0.00000000E+00  0.00000000E+00  0.00000000E+00
  0.00000000E+00  0.00000000E+00  0.00000000E+00
  0.00000000E+00  0.00000000E+00  0.00000000E+00
  0.00000000E+00  0.00000000E+00  0.00000000E+00
  0.00000000E+00  0.00000000E+00  0.00000000E+00
  0.00000000E+00  0.00000000E+00  0.00000000E+00
  0.00000000E+00  0.00000000E+00  0.00000000E+00
  0.00000000E+00  0.00000000E+00  0.00000000E+00
  0.00000000E+00  0.00000000E+00  0.00000000E+00
