Mg4 B2 F10                              
   1.00000000000000     
     4.8922509380512569    1.2244289344293777    1.0545704286879882
     1.5875705084244607    6.1213096516128793   -1.3974260519717085
     3.5615482506271046    2.1995945979134066    7.0481989387642070
   F    B    Mg
    10     2     4
Direct
  0.0424675501839715  0.9819322261132015  0.0849849042257205
  0.6883154859076939  0.4554355220407516  0.0427489000893431
  0.2716415627163684  0.2447297207200876  0.4041288156286882
  0.8767769986837308  0.3268951396947983  0.3285903411666098
  0.1935426853556237  0.5624483183704498  0.9999805612102790
  0.4373188848696188  0.8576895883539493  0.2213684195514745
  0.6719145815656731  0.1241125431322629  0.8895602205726760
  0.3370678913741401  0.2156451141392921  0.7180409497235303
  0.8093326121728097  0.6960189822172538  0.7013627993494609
  0.3582250956726014  0.8010114025699195  0.6575091926609815
  0.9482265205058411  0.4063176060228741  0.4384922667250564
  0.7253899420348091  0.6486785863988231  0.5748904379618054
  0.1431435625939557  0.2639626609248396  0.0102598130279574
  0.9027691612706903  0.3458041427064344  0.7482413111691031
  0.1938555041698109  0.7138891065175699  0.2111240299008443
  0.9003119609227070  0.8557293400775023  0.9687170370363845
 
  0.00000000E+00  0.00000000E+00  0.00000000E+00
  0.00000000E+00  0.00000000E+00  0.00000000E+00
  0.00000000E+00  0.00000000E+00  0.00000000E+00
  0.00000000E+00  0.00000000E+00  0.00000000E+00
  0.00000000E+00  0.00000000E+00  0.00000000E+00
  0.00000000E+00  0.00000000E+00  0.00000000E+00
  0.00000000E+00  0.00000000E+00  0.00000000E+00
  0.00000000E+00  0.00000000E+00  0.00000000E+00
  0.00000000E+00  0.00000000E+00  0.00000000E+00
  0.00000000E+00  0.00000000E+00  0.00000000E+00
  0.00000000E+00  0.00000000E+00  0.00000000E+00
  0.00000000E+00  0.00000000E+00  0.00000000E+00
  0.00000000E+00  0.00000000E+00  0.00000000E+00
  0.00000000E+00  0.00000000E+00  0.00000000E+00
  0.00000000E+00  0.00000000E+00  0.00000000E+00
  0.00000000E+00  0.00000000E+00  0.00000000E+00
