Ca40 Tl4                                
   1.0000000000000000     
    -0.0000000000000000    9.7666206430966831    9.7666206430966831
     9.7666206430966831    0.0000000000000000    9.7666206430966831
     9.7666206430966831    9.7666206430966831    0.0000000000000000
   Ca   Tl
    40     4
Direct
  0.6177488355565899  0.6177488355565899  0.8822511644434101
  0.3677488355565899  0.6322511644434101  0.6322511644434101
  0.6322511644434101  0.3677488355565899  0.3677488355565899
  0.3677488355565899  0.3677488355565899  0.6322511644434101
  0.3677488355565899  0.6322511644434101  0.3677488355565899
  0.6322511644434101  0.3677488355565899  0.6322511644434101
  0.8822511644434101  0.6177488355565899  0.8822511644434101
  0.8822511644434101  0.6177488355565899  0.6177488355565899
  0.6177488355565899  0.8822511644434101  0.8822511644434101
  0.6177488355565899  0.8822511644434101  0.6177488355565899
  0.6322511644434101  0.6322511644434101  0.3677488355565899
  0.8822511644434101  0.8822511644434101  0.6177488355565899
  0.7939316638907883  0.0691933602982715  0.3429423119201473
  0.4560683361092117  0.4560683361092117  0.1808066397017285
  0.1808066397017285  0.9070576880798527  0.4560683361092117
  0.4560683361092117  0.9070576880798527  0.4560683361092117
  0.9070576880798527  0.4560683361092117  0.1808066397017285
  0.9070576880798527  0.4560683361092117  0.4560683361092117
  0.1808066397017285  0.4560683361092117  0.4560683361092117
  0.3429423119201473  0.0691933602982715  0.7939316638907883
  0.7939316638907883  0.0691933602982715  0.7939316638907883
  0.0691933602982715  0.7939316638907883  0.3429423119201473
  0.7939316638907883  0.7939316638907883  0.3429423119201473
  0.0691933602982715  0.3429423119201473  0.7939316638907883
  0.3429423119201473  0.7939316638907883  0.0691933602982715
  0.7939316638907883  0.7939316638907883  0.0691933602982715
  0.7939316638907883  0.3429423119201473  0.7939316638907883
  0.1808066397017285  0.4560683361092117  0.9070576880798527
  0.4560683361092117  0.4560683361092117  0.9070576880798527
  0.4560683361092117  0.9070576880798527  0.1808066397017285
  0.4560683361092117  0.1808066397017285  0.9070576880798527
  0.9070576880798527  0.1808066397017285  0.4560683361092117
  0.4560683361092117  0.1808066397017285  0.4560683361092117
  0.3429423119201473  0.7939316638907883  0.7939316638907883
  0.0691933602982715  0.7939316638907883  0.7939316638907883
  0.7939316638907883  0.3429423119201473  0.0691933602982715
  0.1250000000000000  0.1250000000000000  0.1250000000000000
  0.6250000000000000  0.1250000000000000  0.1250000000000000
  0.1250000000000000  0.1250000000000000  0.6250000000000000
  0.1250000000000000  0.6250000000000000  0.1250000000000000
  0.6250000000000000  0.6250000000000000  0.6250000000000000
  0.1250000000000000  0.6250000000000000  0.6250000000000000
  0.6250000000000000  0.6250000000000000  0.1250000000000000
  0.6250000000000000  0.1250000000000000  0.6250000000000000

  0.00000000E+00  0.00000000E+00  0.00000000E+00
  0.00000000E+00  0.00000000E+00  0.00000000E+00
  0.00000000E+00  0.00000000E+00  0.00000000E+00
  0.00000000E+00  0.00000000E+00  0.00000000E+00
  0.00000000E+00  0.00000000E+00  0.00000000E+00
  0.00000000E+00  0.00000000E+00  0.00000000E+00
  0.00000000E+00  0.00000000E+00  0.00000000E+00
  0.00000000E+00  0.00000000E+00  0.00000000E+00
  0.00000000E+00  0.00000000E+00  0.00000000E+00
  0.00000000E+00  0.00000000E+00  0.00000000E+00
  0.00000000E+00  0.00000000E+00  0.00000000E+00
  0.00000000E+00  0.00000000E+00  0.00000000E+00
  0.00000000E+00  0.00000000E+00  0.00000000E+00
  0.00000000E+00  0.00000000E+00  0.00000000E+00
  0.00000000E+00  0.00000000E+00  0.00000000E+00
  0.00000000E+00  0.00000000E+00  0.00000000E+00
  0.00000000E+00  0.00000000E+00  0.00000000E+00
  0.00000000E+00  0.00000000E+00  0.00000000E+00
  0.00000000E+00  0.00000000E+00  0.00000000E+00
  0.00000000E+00  0.00000000E+00  0.00000000E+00
  0.00000000E+00  0.00000000E+00  0.00000000E+00
  0.00000000E+00  0.00000000E+00  0.00000000E+00
  0.00000000E+00  0.00000000E+00  0.00000000E+00
  0.00000000E+00  0.00000000E+00  0.00000000E+00
  0.00000000E+00  0.00000000E+00  0.00000000E+00
  0.00000000E+00  0.00000000E+00  0.00000000E+00
  0.00000000E+00  0.00000000E+00  0.00000000E+00
  0.00000000E+00  0.00000000E+00  0.00000000E+00
  0.00000000E+00  0.00000000E+00  0.00000000E+00
  0.00000000E+00  0.00000000E+00  0.00000000E+00
  0.00000000E+00  0.00000000E+00  0.00000000E+00
  0.00000000E+00  0.00000000E+00  0.00000000E+00
  0.00000000E+00  0.00000000E+00  0.00000000E+00
  0.00000000E+00  0.00000000E+00  0.00000000E+00
  0.00000000E+00  0.00000000E+00  0.00000000E+00
  0.00000000E+00  0.00000000E+00  0.00000000E+00
  0.00000000E+00  0.00000000E+00  0.00000000E+00
  0.00000000E+00  0.00000000E+00  0.00000000E+00
  0.00000000E+00  0.00000000E+00  0.00000000E+00
  0.00000000E+00  0.00000000E+00  0.00000000E+00
  0.00000000E+00  0.00000000E+00  0.00000000E+00
  0.00000000E+00  0.00000000E+00  0.00000000E+00
  0.00000000E+00  0.00000000E+00  0.00000000E+00
  0.00000000E+00  0.00000000E+00  0.00000000E+00
