Be4 Tl6                                 
   1.0000000000000000     
     3.2351289018270162   -3.1502372410241404    0.0000000000000000
     3.2351289018270162    3.1502372410241404   -0.0000000000000000
     0.0000000000000000    0.0000000000000000   11.0247157411417636
   Be   Tl
     4     6
Direct
  0.0019932979654129  0.9980067020345871  0.0975865540255043
  0.5019932979654129  0.4980067020345871  0.4024134459744957
  0.4980067020345871  0.5019932979654129  0.5975865540255043
  0.9980067020345871  0.0019932979654129  0.9024134459744957
  0.5000000000000000  0.5000000000000000  0.0000000000000000
  0.0020271246166601  0.4979728753833399  0.2500000000000000
  0.5020271246166601  0.9979728753833399  0.2500000000000000
  0.0000000000000000  0.0000000000000000  0.5000000000000000
  0.4979728753833399  0.0020271246166601  0.7500000000000000
  0.9979728753833399  0.5020271246166601  0.7500000000000000

  0.00000000E+00  0.00000000E+00  0.00000000E+00
  0.00000000E+00  0.00000000E+00  0.00000000E+00
  0.00000000E+00  0.00000000E+00  0.00000000E+00
  0.00000000E+00  0.00000000E+00  0.00000000E+00
  0.00000000E+00  0.00000000E+00  0.00000000E+00
  0.00000000E+00  0.00000000E+00  0.00000000E+00
  0.00000000E+00  0.00000000E+00  0.00000000E+00
  0.00000000E+00  0.00000000E+00  0.00000000E+00
  0.00000000E+00  0.00000000E+00  0.00000000E+00
  0.00000000E+00  0.00000000E+00  0.00000000E+00
