Ba2 B2 Br10                             
   1.0000000000000000     
     5.1680785516701357   -0.0000000000000003    0.0000000000000003
    -0.0000000000000012   13.0134229905945862    0.0000000000000010
     0.0000000000000002    0.0000000000000004    9.9485416823544206
   Ba   B    Br
     2     2    10
Direct
  0.0000000000000000  0.0000000000000000  0.5000000000000000
  0.5000000000000000  0.5000000000000000  0.0000000000000000
  0.5000000000000000  0.0000000000000000  0.0000000000000000
  0.0000000000000000  0.5000000000000000  0.5000000000000000
  0.5000000000000000  0.8513562997633386  0.5000000000000000
  0.5000000000000000  0.1486437002366614  0.5000000000000000
  0.5000000000000000  0.0000000000000000  0.1890223513313529
  0.5000000000000000  0.0000000000000000  0.8109776486686471
  0.0000000000000000  0.0000000000000000  0.0000000000000000
  0.0000000000000000  0.3513562997633386  0.0000000000000000
  0.0000000000000000  0.6486437002366614  0.0000000000000000
  0.0000000000000000  0.5000000000000000  0.6890223513313529
  0.0000000000000000  0.5000000000000000  0.3109776486686471
  0.5000000000000000  0.5000000000000000  0.5000000000000000

  0.00000000E+00  0.00000000E+00  0.00000000E+00
  0.00000000E+00  0.00000000E+00  0.00000000E+00
  0.00000000E+00  0.00000000E+00  0.00000000E+00
  0.00000000E+00  0.00000000E+00  0.00000000E+00
  0.00000000E+00  0.00000000E+00  0.00000000E+00
  0.00000000E+00  0.00000000E+00  0.00000000E+00
  0.00000000E+00  0.00000000E+00  0.00000000E+00
  0.00000000E+00  0.00000000E+00  0.00000000E+00
  0.00000000E+00  0.00000000E+00  0.00000000E+00
  0.00000000E+00  0.00000000E+00  0.00000000E+00
  0.00000000E+00  0.00000000E+00  0.00000000E+00
  0.00000000E+00  0.00000000E+00  0.00000000E+00
  0.00000000E+00  0.00000000E+00  0.00000000E+00
  0.00000000E+00  0.00000000E+00  0.00000000E+00
