MgF6                                    
   1.00000000000000     
     2.9826504717736588   -0.0419307703291868    0.0253077759812735
    -1.2459921311404787    5.1374694873999340   -0.0785014264277970
    -0.3507359288901055   -1.3350061442042953    5.1010679485575618
   F    Mg
     6     1
Direct
  0.8126548923841455  0.6735320009710080  0.1606074373952637
  0.5966379522758771  0.1727011541852903  0.2160877771259280
  0.0840772344476974  0.7423168405524123  0.4305609723207127
  0.9158077960453710  0.2576832585654927  0.5694388458758013
  0.4032506365073303  0.8272986817939554  0.7839118482671950
  0.1872270919771140  0.3264683166756157  0.8393932555415944
  0.9999443963624657  0.9999997472562185  0.9999998634734837
 
  0.00000000E+00  0.00000000E+00  0.00000000E+00
  0.00000000E+00  0.00000000E+00  0.00000000E+00
  0.00000000E+00  0.00000000E+00  0.00000000E+00
  0.00000000E+00  0.00000000E+00  0.00000000E+00
  0.00000000E+00  0.00000000E+00  0.00000000E+00
  0.00000000E+00  0.00000000E+00  0.00000000E+00
  0.00000000E+00  0.00000000E+00  0.00000000E+00
