Mg2 Ga2 Br6                             
   1.00000000000000     
     7.8134731710986030   -0.0226989630202026    0.0000000000000000
    -3.9272338224776751    6.7196941484366537    0.0000000000000000
     0.0000000000000000    0.0000000000000000    6.5568694878970533
   Br   Mg   Ga
     6     2     2
Direct
  0.1529172646435413  0.3180961167959353  0.2500000000000000
  0.1553398491970412  0.8392276997461181  0.2500000000000000
  0.6835439818527362  0.8517836363557478  0.2500000000000000
  0.3164560181472638  0.1482163636442522  0.7500000000000000
  0.8446601508029588  0.1607723002538819  0.7500000000000000
  0.8470827353564587  0.6819038832040647  0.7500000000000000
  0.0000000000000000  0.0000000000000000  0.0000000000000000
  0.0000000000000000  0.0000000000000000  0.5000000000000000
  0.7585428375706584  0.2513857197240128  0.2500000000000000
  0.2414571624293416  0.7486142802759801  0.7500000000000000
 
  0.00000000E+00  0.00000000E+00  0.00000000E+00
  0.00000000E+00  0.00000000E+00  0.00000000E+00
  0.00000000E+00  0.00000000E+00  0.00000000E+00
  0.00000000E+00  0.00000000E+00  0.00000000E+00
  0.00000000E+00  0.00000000E+00  0.00000000E+00
  0.00000000E+00  0.00000000E+00  0.00000000E+00
  0.00000000E+00  0.00000000E+00  0.00000000E+00
  0.00000000E+00  0.00000000E+00  0.00000000E+00
  0.00000000E+00  0.00000000E+00  0.00000000E+00
  0.00000000E+00  0.00000000E+00  0.00000000E+00
