Sr1 Al2 Cl6                             
   1.00000000000000     
     3.5625637563851296    2.0571291666398652    5.8144246037444693
    -3.5625637563851296    2.0571291666398652    5.8144246037444693
     0.0000000000000000   -4.1096683475199027    5.8128021263507472
   Sr   Cl   Al
     1     6     2
Direct
  0.0000000000000000  0.0000000000000000  0.0000000000000000
  0.7272985289145666  0.7272985289145666  0.2727027539405427
  0.7272795195767685  0.2727192281558999  0.2727078377144849
  0.2727192281558999  0.7272795195767685  0.2727078377144849
  0.2727014710854334  0.2727014710854334  0.7272972460594573
  0.7272807718441001  0.2727204804232315  0.7272921622855151
  0.2727204804232315  0.7272807718441001  0.7272921622855151
  0.2500217352552738  0.2500217352552738  0.2499729936630501
  0.7499782647447262  0.7499782647447262  0.7500270063369499
 
  0.00000000E+00  0.00000000E+00  0.00000000E+00
  0.00000000E+00  0.00000000E+00  0.00000000E+00
  0.00000000E+00  0.00000000E+00  0.00000000E+00
  0.00000000E+00  0.00000000E+00  0.00000000E+00
  0.00000000E+00  0.00000000E+00  0.00000000E+00
  0.00000000E+00  0.00000000E+00  0.00000000E+00
  0.00000000E+00  0.00000000E+00  0.00000000E+00
  0.00000000E+00  0.00000000E+00  0.00000000E+00
  0.00000000E+00  0.00000000E+00  0.00000000E+00
