Be6 Tl33                                
   1.0000000000000000     
    10.7258482249858549   -0.0000000000000000   -0.0000000000000000
     0.0000000000000000   10.7258482249858549   -0.0000000000000000
    -0.0000000000000000   -0.0000000000000000   10.7258482249858549
   Be   Tl
     6    33
Direct
  0.1001435038467662  0.5000000000000000  0.0000000000000000
  0.8998564961532338  0.5000000000000000  0.0000000000000000
  0.5000000000000000  0.0000000000000000  0.1001435038467662
  0.0000000000000000  0.1001435038467662  0.5000000000000000
  0.0000000000000000  0.8998564961532338  0.5000000000000000
  0.5000000000000000  0.0000000000000000  0.8998564961532338
  0.0000000000000000  0.0000000000000000  0.0000000000000000
  0.2900464020903613  0.1482229990396178  0.0000000000000000
  0.7099535979096387  0.1482229990396178  0.0000000000000000
  0.5000000000000000  0.3485138257907252  0.0000000000000000
  0.5000000000000000  0.6514861742092819  0.0000000000000000
  0.2900464020903613  0.8517770009603822  0.0000000000000000
  0.7099535979096387  0.8517770009603822  0.0000000000000000
  0.0000000000000000  0.2900464020903613  0.1482229990396178
  0.0000000000000000  0.7099535979096387  0.1482229990396178
  0.5000000000000000  0.5000000000000000  0.2677744132665296
  0.1482229990396178  0.0000000000000000  0.2900464020903613
  0.8517770009603822  0.0000000000000000  0.2900464020903613
  0.2797069066356386  0.2797069066356386  0.2797069066356386
  0.7202930933643614  0.2797069066356386  0.2797069066356386
  0.2797069066356386  0.7202930933643614  0.2797069066356386
  0.7202930933643614  0.7202930933643614  0.2797069066356386
  0.0000000000000000  0.5000000000000000  0.3485138257907252
  0.3485138257907252  0.0000000000000000  0.5000000000000000
  0.6514861742092819  0.0000000000000000  0.5000000000000000
  0.5000000000000000  0.2677744132665296  0.5000000000000000
  0.2677744132665296  0.5000000000000000  0.5000000000000000
  0.7322255867334704  0.5000000000000000  0.5000000000000000
  0.5000000000000000  0.7322255867334704  0.5000000000000000
  0.0000000000000000  0.5000000000000000  0.6514861742092819
  0.2797069066356386  0.2797069066356386  0.7202930933643614
  0.7202930933643614  0.2797069066356386  0.7202930933643614
  0.2797069066356386  0.7202930933643614  0.7202930933643614
  0.7202930933643614  0.7202930933643614  0.7202930933643614
  0.1482229990396178  0.0000000000000000  0.7099535979096387
  0.8517770009603822  0.0000000000000000  0.7099535979096387
  0.5000000000000000  0.5000000000000000  0.7322255867334704
  0.0000000000000000  0.2900464020903613  0.8517770009603822
  0.0000000000000000  0.7099535979096387  0.8517770009603822

  0.00000000E+00  0.00000000E+00  0.00000000E+00
  0.00000000E+00  0.00000000E+00  0.00000000E+00
  0.00000000E+00  0.00000000E+00  0.00000000E+00
  0.00000000E+00  0.00000000E+00  0.00000000E+00
  0.00000000E+00  0.00000000E+00  0.00000000E+00
  0.00000000E+00  0.00000000E+00  0.00000000E+00
  0.00000000E+00  0.00000000E+00  0.00000000E+00
  0.00000000E+00  0.00000000E+00  0.00000000E+00
  0.00000000E+00  0.00000000E+00  0.00000000E+00
  0.00000000E+00  0.00000000E+00  0.00000000E+00
  0.00000000E+00  0.00000000E+00  0.00000000E+00
  0.00000000E+00  0.00000000E+00  0.00000000E+00
  0.00000000E+00  0.00000000E+00  0.00000000E+00
  0.00000000E+00  0.00000000E+00  0.00000000E+00
  0.00000000E+00  0.00000000E+00  0.00000000E+00
  0.00000000E+00  0.00000000E+00  0.00000000E+00
  0.00000000E+00  0.00000000E+00  0.00000000E+00
  0.00000000E+00  0.00000000E+00  0.00000000E+00
  0.00000000E+00  0.00000000E+00  0.00000000E+00
  0.00000000E+00  0.00000000E+00  0.00000000E+00
  0.00000000E+00  0.00000000E+00  0.00000000E+00
  0.00000000E+00  0.00000000E+00  0.00000000E+00
  0.00000000E+00  0.00000000E+00  0.00000000E+00
  0.00000000E+00  0.00000000E+00  0.00000000E+00
  0.00000000E+00  0.00000000E+00  0.00000000E+00
  0.00000000E+00  0.00000000E+00  0.00000000E+00
  0.00000000E+00  0.00000000E+00  0.00000000E+00
  0.00000000E+00  0.00000000E+00  0.00000000E+00
  0.00000000E+00  0.00000000E+00  0.00000000E+00
  0.00000000E+00  0.00000000E+00  0.00000000E+00
  0.00000000E+00  0.00000000E+00  0.00000000E+00
  0.00000000E+00  0.00000000E+00  0.00000000E+00
  0.00000000E+00  0.00000000E+00  0.00000000E+00
  0.00000000E+00  0.00000000E+00  0.00000000E+00
  0.00000000E+00  0.00000000E+00  0.00000000E+00
  0.00000000E+00  0.00000000E+00  0.00000000E+00
  0.00000000E+00  0.00000000E+00  0.00000000E+00
  0.00000000E+00  0.00000000E+00  0.00000000E+00
  0.00000000E+00  0.00000000E+00  0.00000000E+00
