Be2 Al2 Cl6                             
   1.00000000000000     
     7.2047591443990209    0.3305487542525361    0.0000000000000000
    -3.3156937761718193    6.4069529932038991    0.0000000000000000
     0.0000000000000000    0.0000000000000000    5.5707389791945729
   Cl   Be   Al
     6     2     2
Direct
  0.1236899774986782  0.2701618299202408  0.2500000000000000
  0.1527086651479053  0.8473780882878259  0.2500000000000000
  0.7297986397272282  0.8763286849699981  0.2500000000000000
  0.2702013602727718  0.1236713150300019  0.7500000000000000
  0.8472913348520947  0.1526219117121741  0.7500000000000000
  0.8763100225013218  0.7298381700797592  0.7500000000000000
  0.0000000000000000  0.0000000000000000  0.0000000000000000
  0.0000000000000000  0.0000000000000000  0.5000000000000000
  0.7520349246264288  0.2478788999205719  0.2500000000000000
  0.2479650753735712  0.7521211000794281  0.7500000000000000
 
  0.00000000E+00  0.00000000E+00  0.00000000E+00
  0.00000000E+00  0.00000000E+00  0.00000000E+00
  0.00000000E+00  0.00000000E+00  0.00000000E+00
  0.00000000E+00  0.00000000E+00  0.00000000E+00
  0.00000000E+00  0.00000000E+00  0.00000000E+00
  0.00000000E+00  0.00000000E+00  0.00000000E+00
  0.00000000E+00  0.00000000E+00  0.00000000E+00
  0.00000000E+00  0.00000000E+00  0.00000000E+00
  0.00000000E+00  0.00000000E+00  0.00000000E+00
  0.00000000E+00  0.00000000E+00  0.00000000E+00
