Be4 B4 F20                              
   1.0000000000000000     
     4.8173492755692937    0.0000000000000001    0.0000000000000003
    -0.0000000000000002    4.7964870843437737    0.0000000000000002
    -0.0000000000000001   -0.0000000000000001   11.9631690346639168
   Be   B    F 
     4     4    20
Direct
  0.0948510441221018  0.7500669063819174  0.5712448485208483
  0.5948510441221018  0.7499330936180826  0.4287551514791517
  0.9051489558778982  0.2500669063819174  0.9287551514791517
  0.4051489558778982  0.2499330936180826  0.0712448485208483
  0.3131117432097312  0.2500355441644686  0.6660719789835454
  0.8131117432097312  0.2499644558355314  0.3339280210164546
  0.6868882567902688  0.7500355441644686  0.8339280210164546
  0.1868882567902688  0.7499644558355314  0.1660719789835454
  0.8078380726271064  0.7500519928700840  0.5206438787594294
  0.3078380726271064  0.7499480071299160  0.4793561212405635
  0.1921619273728936  0.2500519928700840  0.9793561212405706
  0.6921619273728936  0.2499480071299160  0.0206438787594365
  0.6218606917953977  0.4865589896966185  0.3508544220056109
  0.1218606917954048  0.0134410103033815  0.6491455779943820
  0.3781393082045952  0.9865589896966185  0.1491455779943820
  0.8781393082046023  0.5134410103033815  0.8508544220056109
  0.1216917790761372  0.4865270276742066  0.6490761596332959
  0.6216917790761372  0.0134729723257934  0.3509238403667041
  0.8783082209238628  0.9865270276741995  0.8509238403667041
  0.3783082209238628  0.5134729723258005  0.1490761596332959
  0.3927422707994808  0.2502338868138665  0.7744417465520712
  0.8927422707994808  0.2497661131861335  0.2255582534479359
  0.6072577292005192  0.7502338868138594  0.7255582534479288
  0.1072577292005192  0.7497661131861406  0.2744417465520641
  0.0144219548197739  0.2499506518719059  0.4128108639225445
  0.5144219548197739  0.2500493481280941  0.5871891360774555
  0.9855780451802261  0.7499506518718988  0.0871891360774555
  0.4855780451802261  0.7500493481281012  0.9128108639225445

  0.00000000E+00  0.00000000E+00  0.00000000E+00
  0.00000000E+00  0.00000000E+00  0.00000000E+00
  0.00000000E+00  0.00000000E+00  0.00000000E+00
  0.00000000E+00  0.00000000E+00  0.00000000E+00
  0.00000000E+00  0.00000000E+00  0.00000000E+00
  0.00000000E+00  0.00000000E+00  0.00000000E+00
  0.00000000E+00  0.00000000E+00  0.00000000E+00
  0.00000000E+00  0.00000000E+00  0.00000000E+00
  0.00000000E+00  0.00000000E+00  0.00000000E+00
  0.00000000E+00  0.00000000E+00  0.00000000E+00
  0.00000000E+00  0.00000000E+00  0.00000000E+00
  0.00000000E+00  0.00000000E+00  0.00000000E+00
  0.00000000E+00  0.00000000E+00  0.00000000E+00
  0.00000000E+00  0.00000000E+00  0.00000000E+00
  0.00000000E+00  0.00000000E+00  0.00000000E+00
  0.00000000E+00  0.00000000E+00  0.00000000E+00
  0.00000000E+00  0.00000000E+00  0.00000000E+00
  0.00000000E+00  0.00000000E+00  0.00000000E+00
  0.00000000E+00  0.00000000E+00  0.00000000E+00
  0.00000000E+00  0.00000000E+00  0.00000000E+00
  0.00000000E+00  0.00000000E+00  0.00000000E+00
  0.00000000E+00  0.00000000E+00  0.00000000E+00
  0.00000000E+00  0.00000000E+00  0.00000000E+00
  0.00000000E+00  0.00000000E+00  0.00000000E+00
  0.00000000E+00  0.00000000E+00  0.00000000E+00
  0.00000000E+00  0.00000000E+00  0.00000000E+00
  0.00000000E+00  0.00000000E+00  0.00000000E+00
  0.00000000E+00  0.00000000E+00  0.00000000E+00
