Mg4 Al10 F2                             
   1.00000000000000     
     7.9262311747428305    1.1085809445012871    0.3017342515382379
    -2.9838096583626537    6.1276760655716291    0.5859040916698193
    -3.9568751448150774   -2.1670790670635185    5.2319536598080809
   F    Mg   Al
     2     4    10
Direct
  0.0166302003498018  0.4147859677813202  0.4764692399729853
  0.9557208020445884  0.8905122717183289  0.9420406263073460
  0.8670570137636275  0.6532945024217582  0.0892170266292638
  0.3019829482394272  0.0016996669299232  0.1760815194422065
  0.6520343775475936  0.8781031191314810  0.6476470138752362
  0.1406300171718726  0.2533785157291817  0.7609535375920231
  0.0022525821419492  0.2367705342024706  0.2350178227135800
  0.4419829527681003  0.7218186303542282  0.8918393645734923
  0.2304554782205770  0.5562078280712655  0.1320965064594048
  0.5711902442721453  0.4542188753585990  0.2725503871610471
  0.7852187237122337  0.9029750271987780  0.3397482755152481
  0.0048392217712916  0.6451721902057699  0.6429378591144541
  0.2323279774928224  0.9736280242426716  0.5469513349035893
  0.4408028289766861  0.4214379622330853  0.5945731375890375
  0.7882052834720596  0.3226953930149961  0.7597440702375025
  0.5686693480552663  0.1731014914061504  0.9919322779136124
 
  0.00000000E+00  0.00000000E+00  0.00000000E+00
  0.00000000E+00  0.00000000E+00  0.00000000E+00
  0.00000000E+00  0.00000000E+00  0.00000000E+00
  0.00000000E+00  0.00000000E+00  0.00000000E+00
  0.00000000E+00  0.00000000E+00  0.00000000E+00
  0.00000000E+00  0.00000000E+00  0.00000000E+00
  0.00000000E+00  0.00000000E+00  0.00000000E+00
  0.00000000E+00  0.00000000E+00  0.00000000E+00
  0.00000000E+00  0.00000000E+00  0.00000000E+00
  0.00000000E+00  0.00000000E+00  0.00000000E+00
  0.00000000E+00  0.00000000E+00  0.00000000E+00
  0.00000000E+00  0.00000000E+00  0.00000000E+00
  0.00000000E+00  0.00000000E+00  0.00000000E+00
  0.00000000E+00  0.00000000E+00  0.00000000E+00
  0.00000000E+00  0.00000000E+00  0.00000000E+00
  0.00000000E+00  0.00000000E+00  0.00000000E+00
