BaIn4                                   
   1.0000000000000000     
    -5.0464834251739763    0.0000000000000000   -0.0000000000000000
     0.0000000000000000   -5.0464834251739763   -0.0000000000000000
     2.5232417125869882    2.5232417125869882    6.1749941229055123
   Ba   In
     1     4
Direct
  0.0000000000000000  0.0000000000000000  0.0000000000000000
  0.6169118797295923  0.6169118797295923  0.2338237594591845
  0.7500000000000000  0.2500000000000000  0.5000000000000000
  0.2500000000000000  0.7500000000000000  0.5000000000000000
  0.3830881202704077  0.3830881202704077  0.7661762405408155

  0.00000000E+00  0.00000000E+00  0.00000000E+00
  0.00000000E+00  0.00000000E+00  0.00000000E+00
  0.00000000E+00  0.00000000E+00  0.00000000E+00
  0.00000000E+00  0.00000000E+00  0.00000000E+00
  0.00000000E+00  0.00000000E+00  0.00000000E+00
