Sr6 Al10                                
   1.00000000000000     
     5.1598555569245077   -4.2701620529902362    0.0003646156752617
    -5.1598555569245077   -4.2701620529902362    0.0003646156752617
     0.0000000000000000    0.0008116583630602  -10.3644071808863814
   Sr   Al
     6    10
Direct
  0.7895624948817925  0.2104356001961776  0.9999690872328628
  0.2104356001961776  0.7895624948817925  0.9999690872328628
  0.3650485310004896  0.3650485310004896  0.2499602331293573
  0.7895922446406090  0.2104030218170578  0.4999628621995171
  0.2104030218170578  0.7895922446406090  0.4999628621995171
  0.6349447903402847  0.6349447903402847  0.7499961338214618
  0.7044402966112600  0.7044402966112600  0.0820197871068729
  0.9640237472730675  0.9640237472730675  0.2499781857725338
  0.9244779302126318  0.5384874384985068  0.2499956162160757
  0.5384874384985068  0.9244779302126318  0.2499956162160757
  0.7044496426656579  0.7044496426656579  0.4179483445716343
  0.2955296053956005  0.2955296053956005  0.5818576162966309
  0.4614424468610565  0.0756050099685339  0.7499475607701171
  0.0756050099685339  0.4614424468610565  0.7499475607701171
  0.0359456033727525  0.0359456033727525  0.7499242703956170
  0.2955515962645094  0.2955515962645094  0.9180651760687510
 
  0.00000000E+00  0.00000000E+00  0.00000000E+00
  0.00000000E+00  0.00000000E+00  0.00000000E+00
  0.00000000E+00  0.00000000E+00  0.00000000E+00
  0.00000000E+00  0.00000000E+00  0.00000000E+00
  0.00000000E+00  0.00000000E+00  0.00000000E+00
  0.00000000E+00  0.00000000E+00  0.00000000E+00
  0.00000000E+00  0.00000000E+00  0.00000000E+00
  0.00000000E+00  0.00000000E+00  0.00000000E+00
  0.00000000E+00  0.00000000E+00  0.00000000E+00
  0.00000000E+00  0.00000000E+00  0.00000000E+00
  0.00000000E+00  0.00000000E+00  0.00000000E+00
  0.00000000E+00  0.00000000E+00  0.00000000E+00
  0.00000000E+00  0.00000000E+00  0.00000000E+00
  0.00000000E+00  0.00000000E+00  0.00000000E+00
  0.00000000E+00  0.00000000E+00  0.00000000E+00
  0.00000000E+00  0.00000000E+00  0.00000000E+00
