Be4 Al8 Cl32                            
   1.00000000000000     
    -5.5953012087250773    5.5953012087250773   10.3012448798805174
     5.5953012087250773   -5.5953012087250773   10.3012448798805174
     5.5953012087250773    5.5953012087250773  -10.3012448798805174
   Be   Al   Cl
     4     8    32
Direct
  0.0000000000000000  0.0000000000000000  0.0000000000000000
  0.7500000000000000  0.2500000000000000  0.5000000000000000
  0.2500000000000000  0.7500000000000000  0.5000000000000000
  0.5000000000000000  0.5000000000000000  0.0000000000000000
  0.5593255670627855  0.8750000000000000  0.1843255670627855
  0.1250000000000000  0.8093255670627855  0.1843255670627855
  0.1250000000000000  0.3093255670627855  0.6843255670627855
  0.6906744329372145  0.3750000000000000  0.8156744329372145
  0.6250000000000000  0.9406744329372145  0.8156744329372145
  0.0593255670627855  0.8750000000000000  0.6843255670627855
  0.1906744329372145  0.3750000000000000  0.3156744329372145
  0.6250000000000000  0.4406744329372145  0.3156744329372145
  0.6430018724299202  0.2482732058449741  0.2930704464956406
  0.0999314259342796  0.8930018724299202  0.8947286665849603
  0.7947972406506807  0.9000685740657204  0.7930704464956406
  0.3212293918044935  0.2730076851149690  0.2588831183370601
  0.8212293918044935  0.5623462734674192  0.0482227066895149
  0.8123462734674192  0.5712293918044935  0.5482227066895149
  0.1069981275700798  0.0017267941550259  0.2069295535043594
  0.9982732058449741  0.2052027593493193  0.1052713334150397
  0.4552027593493193  0.7482732058449741  0.6052713334150397
  0.2269923148850310  0.1787706081955065  0.7411168816629399
  0.0141235667779043  0.0623462734674192  0.7411168816629399
  0.9287706081955065  0.6876537265325808  0.4517772933104851
  0.9376537265325808  0.6787706081955065  0.9517772933104851
  0.1500685740657204  0.5447972406506807  0.2930704464956406
  0.2947972406506807  0.5017267941550259  0.8947286665849603
  0.5999314259342796  0.7052027593493193  0.2069295535043594
  0.7358764332220957  0.1876537265325808  0.7588831183370601
  0.2517267941550259  0.8569981275700798  0.7069295535043594
  0.4982732058449741  0.3930018724299202  0.7930704464956406
  0.9552027593493193  0.3499314259342796  0.7069295535043594
  0.3123462734674192  0.7641235667779043  0.2411168816629399
  0.4376537265325808  0.4858764332220957  0.2588831183370601
  0.6500685740657204  0.3569981275700798  0.6052713334150397
  0.6069981275700798  0.4000685740657204  0.1052713334150397
  0.2358764332220957  0.4769923148850310  0.5482227066895149
  0.4287706081955065  0.9769923148850310  0.2411168816629399
  0.1430018724299202  0.8499314259342796  0.3947286665849603
  0.5230076851149690  0.0712293918044935  0.7588831183370601
  0.5141235667779043  0.7730076851149690  0.9517772933104851
  0.0230076851149690  0.2641235667779043  0.4517772933104851
  0.7517267941550259  0.0447972406506807  0.3947286665849603
  0.7269923148850310  0.9858764332220957  0.0482227066895149
 
  0.00000000E+00  0.00000000E+00  0.00000000E+00
  0.00000000E+00  0.00000000E+00  0.00000000E+00
  0.00000000E+00  0.00000000E+00  0.00000000E+00
  0.00000000E+00  0.00000000E+00  0.00000000E+00
  0.00000000E+00  0.00000000E+00  0.00000000E+00
  0.00000000E+00  0.00000000E+00  0.00000000E+00
  0.00000000E+00  0.00000000E+00  0.00000000E+00
  0.00000000E+00  0.00000000E+00  0.00000000E+00
  0.00000000E+00  0.00000000E+00  0.00000000E+00
  0.00000000E+00  0.00000000E+00  0.00000000E+00
  0.00000000E+00  0.00000000E+00  0.00000000E+00
  0.00000000E+00  0.00000000E+00  0.00000000E+00
  0.00000000E+00  0.00000000E+00  0.00000000E+00
  0.00000000E+00  0.00000000E+00  0.00000000E+00
  0.00000000E+00  0.00000000E+00  0.00000000E+00
  0.00000000E+00  0.00000000E+00  0.00000000E+00
  0.00000000E+00  0.00000000E+00  0.00000000E+00
  0.00000000E+00  0.00000000E+00  0.00000000E+00
  0.00000000E+00  0.00000000E+00  0.00000000E+00
  0.00000000E+00  0.00000000E+00  0.00000000E+00
  0.00000000E+00  0.00000000E+00  0.00000000E+00
  0.00000000E+00  0.00000000E+00  0.00000000E+00
  0.00000000E+00  0.00000000E+00  0.00000000E+00
  0.00000000E+00  0.00000000E+00  0.00000000E+00
  0.00000000E+00  0.00000000E+00  0.00000000E+00
  0.00000000E+00  0.00000000E+00  0.00000000E+00
  0.00000000E+00  0.00000000E+00  0.00000000E+00
  0.00000000E+00  0.00000000E+00  0.00000000E+00
  0.00000000E+00  0.00000000E+00  0.00000000E+00
  0.00000000E+00  0.00000000E+00  0.00000000E+00
  0.00000000E+00  0.00000000E+00  0.00000000E+00
  0.00000000E+00  0.00000000E+00  0.00000000E+00
  0.00000000E+00  0.00000000E+00  0.00000000E+00
  0.00000000E+00  0.00000000E+00  0.00000000E+00
  0.00000000E+00  0.00000000E+00  0.00000000E+00
  0.00000000E+00  0.00000000E+00  0.00000000E+00
  0.00000000E+00  0.00000000E+00  0.00000000E+00
  0.00000000E+00  0.00000000E+00  0.00000000E+00
  0.00000000E+00  0.00000000E+00  0.00000000E+00
  0.00000000E+00  0.00000000E+00  0.00000000E+00
  0.00000000E+00  0.00000000E+00  0.00000000E+00
  0.00000000E+00  0.00000000E+00  0.00000000E+00
  0.00000000E+00  0.00000000E+00  0.00000000E+00
  0.00000000E+00  0.00000000E+00  0.00000000E+00
