Mg17 Ga12                               
   1.00000000000000     
    -5.2416274117016162   -5.2416274117016162    5.2418865113157214
    -5.2416274117016162    5.2418865113157214   -5.2416274117016162
     5.2418865113157214   -5.2416274117016162   -5.2416274117016162
   Ga   Mg
    12    17
Direct
  0.3700755680078416  0.1890206091241708  0.0000782097651921
  0.1890206091241708  0.3700755680078416  0.0000782097651921
  0.8109790039052882  0.8109790039052882  0.1809629886565247
  0.3700755680078416  0.0000782097651921  0.1890206091241708
  0.0000782097651921  0.3700755680078416  0.1890206091241708
  0.1890206091241708  0.0000782097651921  0.3700755680078416
  0.0000782097651921  0.1890206091241708  0.3700755680078416
  0.8188876938882004  0.6299056214571479  0.6299056214571479
  0.6299056214571479  0.8188876938882004  0.6299056214571479
  0.8109790039052882  0.1809629886565247  0.8109790039052882
  0.1809629886565247  0.8109790039052882  0.8109790039052882
  0.6299056214571479  0.6299056214571479  0.8188876938882004
  0.0001106106794850  0.0001106106794850  0.0001106106794850
  0.6605393662831460  0.9999802247724148  0.9999802247724148
  0.6846300722177432  0.3945238744363735  0.9999584179535148
  0.9999802247724148  0.6605393662831460  0.9999802247724148
  0.3945238744363735  0.6846300722177432  0.9999584179535148
  0.6053106593683353  0.6053106593683353  0.2898054883469570
  0.7101899547117512  0.3154492067229668  0.3154492067229668
  0.3154492067229668  0.7101899547117512  0.3154492067229668
  0.3396809619719576  0.3396809619719576  0.3396809619719576
  0.6846300722177432  0.9999584179535148  0.3945238744363735
  0.9999584179535148  0.6846300722177432  0.3945238744363735
  0.6053106593683353  0.2898054883469570  0.6053106593683353
  0.2898054883469570  0.6053106593683353  0.6053106593683353
  0.9999802247724148  0.9999802247724148  0.6605393662831460
  0.3945238744363735  0.9999584179535148  0.6846300722177432
  0.9999584179535148  0.3945238744363735  0.6846300722177432
  0.3154492067229668  0.3154492067229668  0.7101899547117512
 
  0.00000000E+00  0.00000000E+00  0.00000000E+00
  0.00000000E+00  0.00000000E+00  0.00000000E+00
  0.00000000E+00  0.00000000E+00  0.00000000E+00
  0.00000000E+00  0.00000000E+00  0.00000000E+00
  0.00000000E+00  0.00000000E+00  0.00000000E+00
  0.00000000E+00  0.00000000E+00  0.00000000E+00
  0.00000000E+00  0.00000000E+00  0.00000000E+00
  0.00000000E+00  0.00000000E+00  0.00000000E+00
  0.00000000E+00  0.00000000E+00  0.00000000E+00
  0.00000000E+00  0.00000000E+00  0.00000000E+00
  0.00000000E+00  0.00000000E+00  0.00000000E+00
  0.00000000E+00  0.00000000E+00  0.00000000E+00
  0.00000000E+00  0.00000000E+00  0.00000000E+00
  0.00000000E+00  0.00000000E+00  0.00000000E+00
  0.00000000E+00  0.00000000E+00  0.00000000E+00
  0.00000000E+00  0.00000000E+00  0.00000000E+00
  0.00000000E+00  0.00000000E+00  0.00000000E+00
  0.00000000E+00  0.00000000E+00  0.00000000E+00
  0.00000000E+00  0.00000000E+00  0.00000000E+00
  0.00000000E+00  0.00000000E+00  0.00000000E+00
  0.00000000E+00  0.00000000E+00  0.00000000E+00
  0.00000000E+00  0.00000000E+00  0.00000000E+00
  0.00000000E+00  0.00000000E+00  0.00000000E+00
  0.00000000E+00  0.00000000E+00  0.00000000E+00
  0.00000000E+00  0.00000000E+00  0.00000000E+00
  0.00000000E+00  0.00000000E+00  0.00000000E+00
  0.00000000E+00  0.00000000E+00  0.00000000E+00
  0.00000000E+00  0.00000000E+00  0.00000000E+00
  0.00000000E+00  0.00000000E+00  0.00000000E+00
