Be1 Ga2 F6                              
   1.00000000000000     
     2.6237198112191704    0.6672462998455261    3.7908596877843648
    -2.6237198112191704    0.6672462998455261    3.7908596877843648
     0.0000000000000000   -4.4609916989171410    4.8688035782858918
   Be   F    Ga
     1     6     2
Direct
  0.0000000000000000  0.0000000000000000  0.0000000000000000
  0.7799799007772066  0.7799799007772066  0.9969083388835074
  0.6352618108122599  0.1086620266593386  0.2420826862149070
  0.1086620266593386  0.6352618108122599  0.2420826862149070
  0.2200200992227934  0.2200200992227934  0.0030916611164926
  0.8913379733406686  0.3647381891877401  0.7579173137851001
  0.3647381891877401  0.8913379733406686  0.7579173137851001
  0.1811252027163235  0.1811252027163235  0.3108553717318969
  0.8188747972836765  0.8188747972836765  0.6891446282681031
 
  0.00000000E+00  0.00000000E+00  0.00000000E+00
  0.00000000E+00  0.00000000E+00  0.00000000E+00
  0.00000000E+00  0.00000000E+00  0.00000000E+00
  0.00000000E+00  0.00000000E+00  0.00000000E+00
  0.00000000E+00  0.00000000E+00  0.00000000E+00
  0.00000000E+00  0.00000000E+00  0.00000000E+00
  0.00000000E+00  0.00000000E+00  0.00000000E+00
  0.00000000E+00  0.00000000E+00  0.00000000E+00
  0.00000000E+00  0.00000000E+00  0.00000000E+00
