Mg1                                     
   1.00000000000000     
     2.9131939131891373    0.0000000000000000   -1.0299696332836832
    -1.4565969565945682    2.5229006138746213   -1.0299696332836832
     0.0000000000000000    0.0000000000000000    3.0899088998510496
   Mg
     1
Direct
  0.0000000000000000  0.0000000000000000  0.0000000000000000
 
  0.00000000E+00  0.00000000E+00  0.00000000E+00
