Ca2 Br8                                 
   1.00000000000000     
     5.7313236872633615   -0.0235444756564936    0.0718275487888125
    -2.8478230852656718    7.5772973226993461    0.0104774411170483
    -1.0073895923613478   -3.1264656113736473    7.8337804086797327
   Br   Ca
     8     2
Direct
  0.7512709728073759  0.4603633541127579  0.1246160712481768
  0.8067190744432367  0.0015773545152626  0.1635828752258988
  0.2790552871504985  0.1706834109510922  0.3886964355825171
  0.2906354740491324  0.6757819915220082  0.4141868757958846
  0.7093755321452164  0.3242226047427366  0.5857735877600234
  0.7209600398302385  0.8293444792854601  0.6112954671812645
  0.1933132565566780  0.9983879236523734  0.8364566131844526
  0.2487244484477102  0.5395990068562568  0.8753687565196060
  0.1877261430709254  0.3289171396258652  0.1085074507828736
  0.8122197714989881  0.6710627347361893  0.8915158667193168
 
  0.00000000E+00  0.00000000E+00  0.00000000E+00
  0.00000000E+00  0.00000000E+00  0.00000000E+00
  0.00000000E+00  0.00000000E+00  0.00000000E+00
  0.00000000E+00  0.00000000E+00  0.00000000E+00
  0.00000000E+00  0.00000000E+00  0.00000000E+00
  0.00000000E+00  0.00000000E+00  0.00000000E+00
  0.00000000E+00  0.00000000E+00  0.00000000E+00
  0.00000000E+00  0.00000000E+00  0.00000000E+00
  0.00000000E+00  0.00000000E+00  0.00000000E+00
  0.00000000E+00  0.00000000E+00  0.00000000E+00
