Mg4 B4 Cl20                             
   1.0000000000000000     
     0.0000000000000000   10.3309321130394629    0.1036240809284031
    10.4930189589587251    0.0000000000000000    0.0000000000000000
     0.0000000000000000    0.3891213215332046   -8.9400555035471196
   Mg   B    Cl
     4     4    20
Direct
  0.9137853773544862  0.4623457546564325  0.2195060668746436
  0.0862146226455209  0.9623457546564325  0.7804939331253493
  0.0126794779419512  0.1051910462551646  0.1028208879434516
  0.9873205220580488  0.6051910462551575  0.8971791120565484
  0.5029884097150230  0.8478126377101347  0.1355090240697834
  0.4970115902849699  0.3478126377101347  0.8644909759302166
  0.8957419296636218  0.5421765738769651  0.5660680774838553
  0.1042580703363640  0.0421765738769651  0.4339319225161447
  0.2383517290169550  0.9707302574448704  0.5387370674738179
  0.9548898782601469  0.4279157607157060  0.7105745613592731
  0.0451101217398602  0.9279157607157060  0.2894254386407198
  0.5157065465613329  0.8489611195353035  0.9406320896257157
  0.1054844359466571  0.4678608990021687  0.0606597149941521
  0.4288621854380921  0.7195248017231535  0.2288877517516639
  0.9679392366475810  0.0741580307954521  0.5730634142571844
  0.5632313493448322  0.9753615978181003  0.2375637454063906
  0.8945155640533287  0.9678608990021758  0.9393402850058479
  0.8434415384563252  0.6891859714282518  0.6652016124844380
  0.5711378145619079  0.2195248017231464  0.7711122482483361
  0.7616482709830521  0.4707302574448775  0.4612629325261750
  0.1914081864196788  0.1174395035844498  0.9282537479578110
  0.8454551701363044  0.2489350254539175  0.1753389150999709
  0.1565584615436606  0.1891859714282518  0.3347983875155620
  0.0320607633524190  0.5741580307954521  0.4269365857428085
  0.4842934534386600  0.3489611195353035  0.0593679103742701
  0.1545448298636884  0.7489350254539175  0.8246610849000291
  0.4367686506551678  0.4753615978180932  0.7624362545936023
  0.8085918135803141  0.6174395035844498  0.0717462520421819

  0.00000000E+00  0.00000000E+00  0.00000000E+00
  0.00000000E+00  0.00000000E+00  0.00000000E+00
  0.00000000E+00  0.00000000E+00  0.00000000E+00
  0.00000000E+00  0.00000000E+00  0.00000000E+00
  0.00000000E+00  0.00000000E+00  0.00000000E+00
  0.00000000E+00  0.00000000E+00  0.00000000E+00
  0.00000000E+00  0.00000000E+00  0.00000000E+00
  0.00000000E+00  0.00000000E+00  0.00000000E+00
  0.00000000E+00  0.00000000E+00  0.00000000E+00
  0.00000000E+00  0.00000000E+00  0.00000000E+00
  0.00000000E+00  0.00000000E+00  0.00000000E+00
  0.00000000E+00  0.00000000E+00  0.00000000E+00
  0.00000000E+00  0.00000000E+00  0.00000000E+00
  0.00000000E+00  0.00000000E+00  0.00000000E+00
  0.00000000E+00  0.00000000E+00  0.00000000E+00
  0.00000000E+00  0.00000000E+00  0.00000000E+00
  0.00000000E+00  0.00000000E+00  0.00000000E+00
  0.00000000E+00  0.00000000E+00  0.00000000E+00
  0.00000000E+00  0.00000000E+00  0.00000000E+00
  0.00000000E+00  0.00000000E+00  0.00000000E+00
  0.00000000E+00  0.00000000E+00  0.00000000E+00
  0.00000000E+00  0.00000000E+00  0.00000000E+00
  0.00000000E+00  0.00000000E+00  0.00000000E+00
  0.00000000E+00  0.00000000E+00  0.00000000E+00
  0.00000000E+00  0.00000000E+00  0.00000000E+00
  0.00000000E+00  0.00000000E+00  0.00000000E+00
  0.00000000E+00  0.00000000E+00  0.00000000E+00
  0.00000000E+00  0.00000000E+00  0.00000000E+00
