Ca4 Al10 F2                             
   1.00000000000000     
     8.1418019798990908   -0.7919030882062744    0.2921720019848677
    -4.5819571770377072    7.1608323686117554   -1.2577465060679567
    -3.4303940262054087   -2.8651277894826550    6.6792400576690554
   F    Ca   Al
     2     4    10
Direct
  0.1961839462409145  0.3954604960924470  0.4972176929798380
  0.0469143108014478  0.9492159458514990  0.8048013387594324
  0.7694377039821489  0.6685415122358336  0.1886543770863653
  0.3703803100820977  0.1318790687813092  0.2057276411703839
  0.6263259657614100  0.7739680158481903  0.7029080221344657
  0.1900800985539490  0.2158850604634992  0.6918695383738509
  0.9210357486344023  0.1176616313308116  0.2166898566494950
  0.3533595563829977  0.7413406138200855  0.9431367476785582
  0.1075671440241805  0.6311399183614341  0.1448054488272561
  0.2291570759368682  0.4051160483098428  0.1062199431556436
  0.6097490308039397  0.9007388033622448  0.3509369658229744
  0.0292967223668867  0.7255233077804988  0.6570240645749195
  0.3411566845370189  0.9659341800005308  0.5374446152205934
  0.7103874325628681  0.4554593067874961  0.7605998867483592
  0.8528704667878486  0.2558397799923853  0.7299938298147310
  0.6460978025410284  0.1660963109818780  0.9617700310031125
 
  0.00000000E+00  0.00000000E+00  0.00000000E+00
  0.00000000E+00  0.00000000E+00  0.00000000E+00
  0.00000000E+00  0.00000000E+00  0.00000000E+00
  0.00000000E+00  0.00000000E+00  0.00000000E+00
  0.00000000E+00  0.00000000E+00  0.00000000E+00
  0.00000000E+00  0.00000000E+00  0.00000000E+00
  0.00000000E+00  0.00000000E+00  0.00000000E+00
  0.00000000E+00  0.00000000E+00  0.00000000E+00
  0.00000000E+00  0.00000000E+00  0.00000000E+00
  0.00000000E+00  0.00000000E+00  0.00000000E+00
  0.00000000E+00  0.00000000E+00  0.00000000E+00
  0.00000000E+00  0.00000000E+00  0.00000000E+00
  0.00000000E+00  0.00000000E+00  0.00000000E+00
  0.00000000E+00  0.00000000E+00  0.00000000E+00
  0.00000000E+00  0.00000000E+00  0.00000000E+00
  0.00000000E+00  0.00000000E+00  0.00000000E+00
