Mg1 B2 F6                               
   1.00000000000000     
     2.6149986221639874    1.2543614175231839    3.6312405064775035
    -2.6149986221639869    1.2543614175231839    3.6312405064775026
     0.0000000000000000   -3.6121214580662109    3.9539942186812098
   Mg   F    B 
     1     6     2
Direct
  0.0000000000000000  0.0000000000000000  0.0000000000000000
  0.7242146986959241  0.7242146986959241  0.0832900404745871
  0.6648812215535003  0.2075096137238930  0.3102364645105311
  0.2075096137238930  0.6648812215535003  0.3102364645105311
  0.2757853013040759  0.2757853013040759  0.9167099595254129
  0.7924903862761070  0.3351187784464997  0.6897635354894689
  0.3351187784464997  0.7924903862761070  0.6897635354894689
  0.4834597358754635  0.4834597358754635  0.8530374448684057
  0.5165402641245365  0.5165402641245365  0.1469625551315943
 
  0.00000000E+00  0.00000000E+00  0.00000000E+00
  0.00000000E+00  0.00000000E+00  0.00000000E+00
  0.00000000E+00  0.00000000E+00  0.00000000E+00
  0.00000000E+00  0.00000000E+00  0.00000000E+00
  0.00000000E+00  0.00000000E+00  0.00000000E+00
  0.00000000E+00  0.00000000E+00  0.00000000E+00
  0.00000000E+00  0.00000000E+00  0.00000000E+00
  0.00000000E+00  0.00000000E+00  0.00000000E+00
  0.00000000E+00  0.00000000E+00  0.00000000E+00
