BaAl4                                   
   1.00000000000000     
    -4.5528464955872234    0.0130929689357636   -0.0036952420301088
     0.0130929689357636   -4.5528464955872234   -0.0036952420301088
     2.2739862985276278    2.2739862985276278    5.7210292902775093
   Al   Ba
     4     1
Direct
  0.6196240742107690  0.6196240742107690  0.2380742366643105
  0.7486476693735469  0.2513523306264531  0.5000000000000000
  0.2513523306264531  0.7486476693735469  0.5000000000000000
  0.3803759257892310  0.3803759257892310  0.7619257633356895
  0.0000000000000000  0.0000000000000000  0.0000000000000000
 
  0.00000000E+00  0.00000000E+00  0.00000000E+00
  0.00000000E+00  0.00000000E+00  0.00000000E+00
  0.00000000E+00  0.00000000E+00  0.00000000E+00
  0.00000000E+00  0.00000000E+00  0.00000000E+00
  0.00000000E+00  0.00000000E+00  0.00000000E+00
