Ba1 Al2 Cl6                             
   1.00000000000000     
     3.5508630406094088    1.0786954228784047    9.3381429083750565
    -3.5508630406094093    1.0786954228784047    9.3381429083750565
    -0.0000000000000001   -3.6280259227694058    7.9798762774621199
   Ba   Cl   Al
     1     6     2
Direct
  0.0000000000000000  0.0000000000000000  0.0000000000000000
  0.6746440886196368  0.6746440886196368  0.6278425625898123
  0.8496327900740397  0.3499591832180187  0.1037676815973896
  0.3499591832180187  0.8496327900740397  0.1037676815973896
  0.3253559113803632  0.3253559113803632  0.3721574374101877
  0.6500408167819813  0.1503672099259603  0.8962323184026104
  0.1503672099259603  0.6500408167819813  0.8962323184026104
  0.2910417997548365  0.2910417997548365  0.1802976794857400
  0.7089582002451635  0.7089582002451635  0.8197023205142600
 
  0.00000000E+00  0.00000000E+00  0.00000000E+00
  0.00000000E+00  0.00000000E+00  0.00000000E+00
  0.00000000E+00  0.00000000E+00  0.00000000E+00
  0.00000000E+00  0.00000000E+00  0.00000000E+00
  0.00000000E+00  0.00000000E+00  0.00000000E+00
  0.00000000E+00  0.00000000E+00  0.00000000E+00
  0.00000000E+00  0.00000000E+00  0.00000000E+00
  0.00000000E+00  0.00000000E+00  0.00000000E+00
  0.00000000E+00  0.00000000E+00  0.00000000E+00
