Ca15 Ga1                                
   1.00000000000000     
     3.8596506293768229   -6.6851111080590870    0.0000000000000000
     3.8596506293768229    6.6851111080590870    0.0000000000000000
     0.0000000000000000    0.0000000000000000   12.3768130123382356
   Ca   Ga
    15     1
Direct
  0.0000000000000000  0.0000000000000000  0.0000000000000000
  0.9940516608204675  0.4970258304099744  0.5000000000000000
  0.0018379054513957  0.5009189527257618  0.0000000000000000
  0.5029741695895211  0.4970258304104789  0.5000000000000000
  0.4990810472743874  0.5009189527256126  0.0000000000000000
  0.5029741695900256  0.0059483391795325  0.5000000000000000
  0.4990810472742382  0.9981620945486043  0.0000000000000000
  0.1612787415830113  0.3225584831672634  0.2641955864378360
  0.1612787415830113  0.3225584831672634  0.7358044135621711
  0.1612787415842547  0.8387212584157453  0.2641955864378360
  0.1612787415842547  0.8387212584157453  0.7358044135621711
  0.6774415168327366  0.8387212584169816  0.2641955864378360
  0.6774415168327366  0.8387212584169816  0.7358044135621711
  0.6666669999999968  0.3333330000000032  0.2439391774797244
  0.6666669999999968  0.3333330000000032  0.7560608225202756
  0.0000000000000000  0.0000000000000000  0.5000000000000000
 
  0.00000000E+00  0.00000000E+00  0.00000000E+00
  0.00000000E+00  0.00000000E+00  0.00000000E+00
  0.00000000E+00  0.00000000E+00  0.00000000E+00
  0.00000000E+00  0.00000000E+00  0.00000000E+00
  0.00000000E+00  0.00000000E+00  0.00000000E+00
  0.00000000E+00  0.00000000E+00  0.00000000E+00
  0.00000000E+00  0.00000000E+00  0.00000000E+00
  0.00000000E+00  0.00000000E+00  0.00000000E+00
  0.00000000E+00  0.00000000E+00  0.00000000E+00
  0.00000000E+00  0.00000000E+00  0.00000000E+00
  0.00000000E+00  0.00000000E+00  0.00000000E+00
  0.00000000E+00  0.00000000E+00  0.00000000E+00
  0.00000000E+00  0.00000000E+00  0.00000000E+00
  0.00000000E+00  0.00000000E+00  0.00000000E+00
  0.00000000E+00  0.00000000E+00  0.00000000E+00
  0.00000000E+00  0.00000000E+00  0.00000000E+00
