Mg3 Tl4                                 
   1.0000000000000000     
     2.5840611755786407    1.5551044282116258    7.8693287029017185
    -2.5840611755786407    1.5551044282116258    7.8693287029017185
     0.0000000000000000   -2.9527282774592605    7.8374702198940902
   Tl   Mg
     4     3
Direct
  0.1379204131160705  0.1379204131160705  0.1403984663480671
  0.2904473125030478  0.2904473125030478  0.2872183559896158
  0.7145235852813840  0.7145235852813840  0.7174800838370174
  0.8668361802773461  0.8668361802773461  0.8647230687727330
  0.0025336489756498  0.0025336489756498  0.0022607751194457
  0.4279097446447295  0.4279097446447295  0.4321174721003160
  0.5768891152017588  0.5768891152017588  0.5728617778327774

  0.00000000E+00  0.00000000E+00  0.00000000E+00
  0.00000000E+00  0.00000000E+00  0.00000000E+00
  0.00000000E+00  0.00000000E+00  0.00000000E+00
  0.00000000E+00  0.00000000E+00  0.00000000E+00
  0.00000000E+00  0.00000000E+00  0.00000000E+00
  0.00000000E+00  0.00000000E+00  0.00000000E+00
  0.00000000E+00  0.00000000E+00  0.00000000E+00
