F4                                      
   1.00000000000000     
     1.4557013386817728   -2.2817499402534769    0.0000000000000000
     1.4557013386817728    2.2817499402534769    0.0000000000000000
     0.0000000000000000    0.0000000000000000    6.3862842834874032
   F 
     4
Direct
  0.0956095954174785  0.0956095954174785  0.1022487810687522
  0.4043904045825215  0.4043904045825215  0.6022487810687451
  0.5956095954174714  0.5956095954174714  0.3977512189312549
  0.9043904045825286  0.9043904045825286  0.8977512189312549
 
  0.00000000E+00  0.00000000E+00  0.00000000E+00
  0.00000000E+00  0.00000000E+00  0.00000000E+00
  0.00000000E+00  0.00000000E+00  0.00000000E+00
  0.00000000E+00  0.00000000E+00  0.00000000E+00
