Ga2I3                                   
   1.00000000000000     
    -7.5630289714897652   -0.0080502120361135   -0.0025569413232878
     3.7745215463578150   -6.5561983339038896    0.0035023357106038
    -3.7767960140904382    2.1799256313936897    7.3317657551933770
   Ga   I 
     4     6
Direct
  0.6620703931474878  0.3391385505937592  0.0123232613289517
  0.8389480022797926  0.1618975456158935  0.4877045957705874
  0.1609355051382266  0.8380727895727418  0.5123242037425229
  0.3378485647135392  0.6608382722808841  0.9877251854503299
  0.2526187721074962  0.0795083513222608  0.2521500205218246
  0.9240066442056758  0.4238251722085238  0.2503562866242035
  0.5796137873859450  0.7529864698495103  0.2479534999961288
  0.4205228344218597  0.2470589678498172  0.7519271695467395
  0.0758799913985015  0.5759179719082397  0.7494679654055716
  0.7472555052014869  0.9204559087983668  0.7478678116131334
 
  0.00000000E+00  0.00000000E+00  0.00000000E+00
  0.00000000E+00  0.00000000E+00  0.00000000E+00
  0.00000000E+00  0.00000000E+00  0.00000000E+00
  0.00000000E+00  0.00000000E+00  0.00000000E+00
  0.00000000E+00  0.00000000E+00  0.00000000E+00
  0.00000000E+00  0.00000000E+00  0.00000000E+00
  0.00000000E+00  0.00000000E+00  0.00000000E+00
  0.00000000E+00  0.00000000E+00  0.00000000E+00
  0.00000000E+00  0.00000000E+00  0.00000000E+00
  0.00000000E+00  0.00000000E+00  0.00000000E+00
