Sr4 In10                                
   1.0000000000000000     
     5.1661678454349751    5.1661678454349751   -4.2003895346768401
     5.1661678454349751   -5.1661678454349751    4.2003895346768401
    -5.1661678454349751   -5.1661678454349751   -4.2003895346768401
   In   Sr
    10     4
Direct
  0.8184477400460750  0.3074145626341789  0.1258623026802610
  0.4889668225880968  0.3074145626341789  0.1815522599539250
  0.8741376973197390  0.6925854373658211  0.1815522599539250
  0.2772962767092579  0.0000000000000000  0.2772962767092579
  0.1815522599539250  0.3074145626341789  0.4889668225880968
  0.8184477400460750  0.6925854373658211  0.5110331774119032
  0.7227037232907421  0.0000000000000000  0.7227037232907421
  0.1258623026802610  0.3074145626341789  0.8184477400460750
  0.5110331774119032  0.6925854373658211  0.8184477400460750
  0.1815522599539250  0.6925854373658211  0.8741376973197390
  0.7046605589259016  0.0000000000000000  0.2953394410740984
  0.2953394410740984  0.5906788821482110  0.2953394410740984
  0.2953394410740984  0.0000000000000000  0.7046605589259016
  0.7046605589259016  0.4093211178517961  0.7046605589259016

  0.00000000E+00  0.00000000E+00  0.00000000E+00
  0.00000000E+00  0.00000000E+00  0.00000000E+00
  0.00000000E+00  0.00000000E+00  0.00000000E+00
  0.00000000E+00  0.00000000E+00  0.00000000E+00
  0.00000000E+00  0.00000000E+00  0.00000000E+00
  0.00000000E+00  0.00000000E+00  0.00000000E+00
  0.00000000E+00  0.00000000E+00  0.00000000E+00
  0.00000000E+00  0.00000000E+00  0.00000000E+00
  0.00000000E+00  0.00000000E+00  0.00000000E+00
  0.00000000E+00  0.00000000E+00  0.00000000E+00
  0.00000000E+00  0.00000000E+00  0.00000000E+00
  0.00000000E+00  0.00000000E+00  0.00000000E+00
  0.00000000E+00  0.00000000E+00  0.00000000E+00
  0.00000000E+00  0.00000000E+00  0.00000000E+00
