Ba16 B6                                 
   1.00000000000000     
    10.8074120874090429   -2.3317106845843001   -1.3660035186446728
     3.0292584776999045    7.8008995728658483    0.4690589801730302
    -0.2800645461651732    3.7530511689630806   10.7988821471395600
   Ba   B 
    16     6
Direct
  0.5369866092559192  0.3237145212547219  0.1675063240182553
  0.1772895765650375  0.6487531752836091  0.0502382257672309
  0.2399603373984505  0.0904793189035829  0.1078372732020654
  0.6154993125424397  0.7829175588125779  0.2032780445730964
  0.9244315201173805  0.3911283042660259  0.3144962024452767
  0.3293691418987450  0.5153062618403013  0.4751498508201308
  0.3301931848562916  0.0484605560252973  0.4664697106767122
  0.9637558285638406  0.8834054928443109  0.2824937843945960
  0.0467166492163429  0.1956056330830762  0.7223915607008919
  0.6863010709187023  0.8857728217918677  0.5252226974438372
  0.6645388808835477  0.4314297052596245  0.5355950512258119
  0.0789164910104034  0.6672258994696847  0.6819664281021502
  0.4373267648560457  0.1725495230070351  0.8379024329382858
  0.7793160662241974  0.8975889784946460  0.8897412009296062
  0.8402466721862609  0.3638408569304445  0.9454126348202720
  0.4666391009101574  0.6821438768099100  0.8200302667484607
  0.0011004978761804  0.0047480278495797  0.0022486611375925
  0.6962750308401695  0.5690733608577005  0.0653965995661565
  0.4609971891007802  0.7965240148209318  0.3765379079521765
  0.8986217847584186  0.5735212878880418  0.4932078843885463
  0.5284933404840757  0.1436091255755159  0.6248523680312701
  0.2973249495365948  0.4325606989315247  0.9119248901175965
 
  0.00000000E+00  0.00000000E+00  0.00000000E+00
  0.00000000E+00  0.00000000E+00  0.00000000E+00
  0.00000000E+00  0.00000000E+00  0.00000000E+00
  0.00000000E+00  0.00000000E+00  0.00000000E+00
  0.00000000E+00  0.00000000E+00  0.00000000E+00
  0.00000000E+00  0.00000000E+00  0.00000000E+00
  0.00000000E+00  0.00000000E+00  0.00000000E+00
  0.00000000E+00  0.00000000E+00  0.00000000E+00
  0.00000000E+00  0.00000000E+00  0.00000000E+00
  0.00000000E+00  0.00000000E+00  0.00000000E+00
  0.00000000E+00  0.00000000E+00  0.00000000E+00
  0.00000000E+00  0.00000000E+00  0.00000000E+00
  0.00000000E+00  0.00000000E+00  0.00000000E+00
  0.00000000E+00  0.00000000E+00  0.00000000E+00
  0.00000000E+00  0.00000000E+00  0.00000000E+00
  0.00000000E+00  0.00000000E+00  0.00000000E+00
  0.00000000E+00  0.00000000E+00  0.00000000E+00
  0.00000000E+00  0.00000000E+00  0.00000000E+00
  0.00000000E+00  0.00000000E+00  0.00000000E+00
  0.00000000E+00  0.00000000E+00  0.00000000E+00
  0.00000000E+00  0.00000000E+00  0.00000000E+00
  0.00000000E+00  0.00000000E+00  0.00000000E+00
