Be8 B2                                  
   1.00000000000000     
     3.3556620541338607    0.0000000000000000    0.0000000000000000
     0.0000000000000000    3.3556620541338607    0.0000000000000000
     0.0000000000000000    0.0000000000000000    6.9868274780907091
   Be   B 
     8     2
Direct
  0.0000000000000000  0.0000000000000000  0.0000000000000000
  0.5000000000000000  0.5000000000000000  0.0000000000000000
  0.5000000000000000  0.0000000000000000  0.4810737188488048
  0.0000000000000000  0.5000000000000000  0.5189262811511952
  0.5000000000000000  0.5000000000000000  0.3049835664678255
  0.0000000000000000  0.0000000000000000  0.3049835664678255
  0.0000000000000000  0.0000000000000000  0.6950164335321745
  0.5000000000000000  0.5000000000000000  0.6950164335321745
  0.0000000000000000  0.5000000000000000  0.8307668062296827
  0.5000000000000000  0.0000000000000000  0.1692331937703173
 
  0.00000000E+00  0.00000000E+00  0.00000000E+00
  0.00000000E+00  0.00000000E+00  0.00000000E+00
  0.00000000E+00  0.00000000E+00  0.00000000E+00
  0.00000000E+00  0.00000000E+00  0.00000000E+00
  0.00000000E+00  0.00000000E+00  0.00000000E+00
  0.00000000E+00  0.00000000E+00  0.00000000E+00
  0.00000000E+00  0.00000000E+00  0.00000000E+00
  0.00000000E+00  0.00000000E+00  0.00000000E+00
  0.00000000E+00  0.00000000E+00  0.00000000E+00
  0.00000000E+00  0.00000000E+00  0.00000000E+00
