Be2 Ga2 Cl10                            
   1.0000000000000000     
     4.2320313877746614   -0.0000000000000001    0.0000000000000003
    -0.0000000000000008   10.8782977875439162    0.0000000000000010
     0.0000000000000001    0.0000000000000004   11.3902986729711060
   Be   Ga   Cl
     2     2    10
Direct
  0.0000000000000000  0.0000000000000000  0.5000000000000000
  0.5000000000000000  0.5000000000000000  0.0000000000000000
  0.5000000000000000  0.0000000000000000  0.0000000000000000
  0.0000000000000000  0.5000000000000000  0.5000000000000000
  0.5000000000000000  0.8647814198383870  0.5000000000000000
  0.5000000000000000  0.1352185801616130  0.5000000000000000
  0.5000000000000000  0.0000000000000000  0.1940358501241946
  0.5000000000000000  0.0000000000000000  0.8059641498758054
  0.0000000000000000  0.0000000000000000  0.0000000000000000
  0.0000000000000000  0.3647814198383870  0.0000000000000000
  0.0000000000000000  0.6352185801616130  0.0000000000000000
  0.0000000000000000  0.5000000000000000  0.6940358501241946
  0.0000000000000000  0.5000000000000000  0.3059641498758054
  0.5000000000000000  0.5000000000000000  0.5000000000000000

  0.00000000E+00  0.00000000E+00  0.00000000E+00
  0.00000000E+00  0.00000000E+00  0.00000000E+00
  0.00000000E+00  0.00000000E+00  0.00000000E+00
  0.00000000E+00  0.00000000E+00  0.00000000E+00
  0.00000000E+00  0.00000000E+00  0.00000000E+00
  0.00000000E+00  0.00000000E+00  0.00000000E+00
  0.00000000E+00  0.00000000E+00  0.00000000E+00
  0.00000000E+00  0.00000000E+00  0.00000000E+00
  0.00000000E+00  0.00000000E+00  0.00000000E+00
  0.00000000E+00  0.00000000E+00  0.00000000E+00
  0.00000000E+00  0.00000000E+00  0.00000000E+00
  0.00000000E+00  0.00000000E+00  0.00000000E+00
  0.00000000E+00  0.00000000E+00  0.00000000E+00
  0.00000000E+00  0.00000000E+00  0.00000000E+00
