Mg4 B34                                 
   1.00000000000000     
     5.8291230758194423   -0.0649587112549641    0.9207342784203130
    -2.9665998002689711    5.0894754066148220   -0.7117207874032023
     1.4121519838357623   -0.5184847222446669   11.3294745059853081
   B    Mg
    34     4
Direct
  0.4646680601110020  0.9650224086936987  0.9954067780638596
  0.9298770194518795  0.4726060880265663  0.0169411462220665
  0.5102024567847536  0.5262807551979378  0.0190025304377954
  0.3024791855169013  0.1568497732196263  0.0144915327362583
  0.7875850595723932  0.1234378262665672  0.9897425323913254
  0.8635376997106690  0.6520497604789881  0.1610721610510168
  0.2839701755348756  0.6302059677571137  0.9745402551442837
  0.1720230718183657  0.4836573435474776  0.2756671531325736
  0.2647157020614301  0.3574345346816017  0.1395717571090742
  0.0244640726246814  0.6876160809550314  0.2838847500630806
  0.5470931897701874  0.6433642784328129  0.1847915713418828
  0.2477818986501603  0.9969042835096928  0.3500367010856991
  0.3949792692501575  0.8146044497752527  0.2905915976659159
  0.1621052107279084  0.6859123085797378  0.5105869870514894
  0.3111641603351103  0.2282935972821463  0.4653838128567926
  0.7279701531751002  0.0891378690782574  0.4823991396426734
  0.8826897136908798  0.6527821023818206  0.4448316032575974
  0.4146443486101461  0.9870527712577868  0.4551965329075642
  0.9889084672851496  0.3915586809507658  0.4263787622057791
  0.5434756551331645  0.5339015813884558  0.5149143335223201
  0.2027620883555272  0.4537297861131862  0.5519497884706439
  0.0812418566292479  0.9360208294032404  0.5437890357278832
  0.7552307478813063  0.8652554695782584  0.5388488601219947
  0.6357794733240425  0.3169622575987887  0.5311909650271929
  0.6801332544449821  0.1847717162960123  0.7662861669549059
  0.8615155897624547  0.9821155086564914  0.6870721342629338
  0.6519620006002569  0.3928098639700011  0.6911938545770511
  0.0149578339300973  0.3298755478524384  0.6907539408274630
  0.7746371216534342  0.7136267557286970  0.7743304523337287
  0.8922210819747391  0.5140558371530801  0.7947726427471338
  0.6721611550626889  0.3058026543416119  0.9275727070201398
  0.1130945461676092  0.2977988334997121  0.0109066481121616
  0.1347364561098416  0.8211226193963341  0.0539794565293903
  0.6315912494335549  0.7777019930060547  0.9256540092844574
  0.9177412810712582  0.0223613661799504  0.2753341364737594
  0.5700063466883520  0.2260637741064926  0.1938061927190020
  0.1855518423468254  0.0915474940679601  0.8069925814534855
  0.3995415047488748  0.6889052315903612  0.7383347894676717
 
  0.00000000E+00  0.00000000E+00  0.00000000E+00
  0.00000000E+00  0.00000000E+00  0.00000000E+00
  0.00000000E+00  0.00000000E+00  0.00000000E+00
  0.00000000E+00  0.00000000E+00  0.00000000E+00
  0.00000000E+00  0.00000000E+00  0.00000000E+00
  0.00000000E+00  0.00000000E+00  0.00000000E+00
  0.00000000E+00  0.00000000E+00  0.00000000E+00
  0.00000000E+00  0.00000000E+00  0.00000000E+00
  0.00000000E+00  0.00000000E+00  0.00000000E+00
  0.00000000E+00  0.00000000E+00  0.00000000E+00
  0.00000000E+00  0.00000000E+00  0.00000000E+00
  0.00000000E+00  0.00000000E+00  0.00000000E+00
  0.00000000E+00  0.00000000E+00  0.00000000E+00
  0.00000000E+00  0.00000000E+00  0.00000000E+00
  0.00000000E+00  0.00000000E+00  0.00000000E+00
  0.00000000E+00  0.00000000E+00  0.00000000E+00
  0.00000000E+00  0.00000000E+00  0.00000000E+00
  0.00000000E+00  0.00000000E+00  0.00000000E+00
  0.00000000E+00  0.00000000E+00  0.00000000E+00
  0.00000000E+00  0.00000000E+00  0.00000000E+00
  0.00000000E+00  0.00000000E+00  0.00000000E+00
  0.00000000E+00  0.00000000E+00  0.00000000E+00
  0.00000000E+00  0.00000000E+00  0.00000000E+00
  0.00000000E+00  0.00000000E+00  0.00000000E+00
  0.00000000E+00  0.00000000E+00  0.00000000E+00
  0.00000000E+00  0.00000000E+00  0.00000000E+00
  0.00000000E+00  0.00000000E+00  0.00000000E+00
  0.00000000E+00  0.00000000E+00  0.00000000E+00
  0.00000000E+00  0.00000000E+00  0.00000000E+00
  0.00000000E+00  0.00000000E+00  0.00000000E+00
  0.00000000E+00  0.00000000E+00  0.00000000E+00
  0.00000000E+00  0.00000000E+00  0.00000000E+00
  0.00000000E+00  0.00000000E+00  0.00000000E+00
  0.00000000E+00  0.00000000E+00  0.00000000E+00
  0.00000000E+00  0.00000000E+00  0.00000000E+00
  0.00000000E+00  0.00000000E+00  0.00000000E+00
  0.00000000E+00  0.00000000E+00  0.00000000E+00
  0.00000000E+00  0.00000000E+00  0.00000000E+00
