Ca1 Tl2 Br8                             
   1.0000000000000000     
     6.6470746975616404   -4.0474115028913529    0.6402317966895975
     6.6470746975616404    4.0474115028913529    0.6402317966895975
     0.7223698807512353    0.0000000000000000    9.7195902478502330
   Tl   Ca   Br
     2     1     8
Direct
  0.2834802520380038  0.2834802520380038  0.2735860004211546
  0.7165197479619962  0.7165197479619962  0.7264139995788454
  0.0000000000000000  0.0000000000000000  0.0000000000000000
  0.6121021622552973  0.0775574662066703  0.1223497780100331
  0.0775574662066703  0.6121021622552973  0.1223497780100331
  0.0848340235813723  0.0848340235813723  0.2649980603547348
  0.6680393421120456  0.6680393421120456  0.4855503852416092
  0.3319606578879544  0.3319606578879544  0.5144496147583908
  0.9151659764186277  0.9151659764186277  0.7350019396452652
  0.9224425337933297  0.3878978377447098  0.8776502219899669
  0.3878978377447098  0.9224425337933297  0.8776502219899669

  0.00000000E+00  0.00000000E+00  0.00000000E+00
  0.00000000E+00  0.00000000E+00  0.00000000E+00
  0.00000000E+00  0.00000000E+00  0.00000000E+00
  0.00000000E+00  0.00000000E+00  0.00000000E+00
  0.00000000E+00  0.00000000E+00  0.00000000E+00
  0.00000000E+00  0.00000000E+00  0.00000000E+00
  0.00000000E+00  0.00000000E+00  0.00000000E+00
  0.00000000E+00  0.00000000E+00  0.00000000E+00
  0.00000000E+00  0.00000000E+00  0.00000000E+00
  0.00000000E+00  0.00000000E+00  0.00000000E+00
  0.00000000E+00  0.00000000E+00  0.00000000E+00
