Ba22 In14                               
   1.0000000000000000     
    -9.3439665812660397    9.3578463042480866    0.0062481123031140
     9.3502076585971654    0.0000000000000000   -9.4176496705254689
    -9.3439665812660397   -9.3578463042480866    0.0062481123031140
   Ba   In
    22    14
Direct
  0.9997313153404903  0.9999841537177332  0.9997313153404903
  0.3879908097592377  0.2604663006681562  0.1303578149790567
  0.8721453386200579  0.2607092567847573  0.1309104966701042
  0.8693438103130049  0.7394480773981371  0.1278399478295356
  0.5008860609387611  0.0010035088968650  0.1652732824787932
  0.1651842327138340  0.6645699660235849  0.1651842327138340
  0.4996639794428219  0.6653551775603077  0.1652270667537294
  0.1303578149790567  0.2604663006681562  0.3879908097592377
  0.1652732824787932  0.0010035088968650  0.5008860609387611
  0.4998361490011050  0.0000923216281024  0.4998361490011050
  0.8345534989599486  0.9989871592708539  0.4992755182540947
  0.5008128891172348  0.3350939986302066  0.5008128891172348
  0.8349749208415531  0.3350069370917481  0.5002971854441611
  0.1652270667537294  0.6653551775603077  0.4996639794428219
  0.4993359233917900  0.6648853603643587  0.4993359233917900
  0.8695882804017430  0.7393128231576185  0.6117872996232236
  0.4992755182540947  0.9989871592708539  0.8345534989599486
  0.5002971854441611  0.3350069370917481  0.8349749208415531
  0.8345928384141033  0.3350004326148408  0.8345928384141033
  0.1309104966701042  0.2607092567847573  0.8721453386200579
  0.1278399478295356  0.7394480773981371  0.8693438103130049
  0.6117872996232236  0.7393128231576185  0.8695882804017430
  0.6916284719258243  0.3827649454353264  0.0750398450545759
  0.2221320363011827  0.9999844702987772  0.2221320363011827
  0.7791050271726476  0.0000456779033655  0.2209504151393702
  0.2198565037901190  0.4406007335360940  0.2198565037901190
  0.6919542272019470  0.3837299805587406  0.3081423538970256
  0.6917473834609140  0.6163018267959899  0.3077075760939536
  0.9247718250937211  0.6171428520014857  0.3082855773515618
  0.0750398450545759  0.3827649454353264  0.6916284719258243
  0.3081423538970256  0.3837299805587406  0.6919542272019470
  0.3077075760939536  0.6163018267959899  0.6917473834609140
  0.2209504151393702  0.0000456779033655  0.7791050271726476
  0.7785425883721686  0.9999471051420130  0.7785425883721686
  0.7801275098565839  0.5592924109975996  0.7801275098565839
  0.3082855773515618  0.6171428520014857  0.9247718250937211

  0.00000000E+00  0.00000000E+00  0.00000000E+00
  0.00000000E+00  0.00000000E+00  0.00000000E+00
  0.00000000E+00  0.00000000E+00  0.00000000E+00
  0.00000000E+00  0.00000000E+00  0.00000000E+00
  0.00000000E+00  0.00000000E+00  0.00000000E+00
  0.00000000E+00  0.00000000E+00  0.00000000E+00
  0.00000000E+00  0.00000000E+00  0.00000000E+00
  0.00000000E+00  0.00000000E+00  0.00000000E+00
  0.00000000E+00  0.00000000E+00  0.00000000E+00
  0.00000000E+00  0.00000000E+00  0.00000000E+00
  0.00000000E+00  0.00000000E+00  0.00000000E+00
  0.00000000E+00  0.00000000E+00  0.00000000E+00
  0.00000000E+00  0.00000000E+00  0.00000000E+00
  0.00000000E+00  0.00000000E+00  0.00000000E+00
  0.00000000E+00  0.00000000E+00  0.00000000E+00
  0.00000000E+00  0.00000000E+00  0.00000000E+00
  0.00000000E+00  0.00000000E+00  0.00000000E+00
  0.00000000E+00  0.00000000E+00  0.00000000E+00
  0.00000000E+00  0.00000000E+00  0.00000000E+00
  0.00000000E+00  0.00000000E+00  0.00000000E+00
  0.00000000E+00  0.00000000E+00  0.00000000E+00
  0.00000000E+00  0.00000000E+00  0.00000000E+00
  0.00000000E+00  0.00000000E+00  0.00000000E+00
  0.00000000E+00  0.00000000E+00  0.00000000E+00
  0.00000000E+00  0.00000000E+00  0.00000000E+00
  0.00000000E+00  0.00000000E+00  0.00000000E+00
  0.00000000E+00  0.00000000E+00  0.00000000E+00
  0.00000000E+00  0.00000000E+00  0.00000000E+00
  0.00000000E+00  0.00000000E+00  0.00000000E+00
  0.00000000E+00  0.00000000E+00  0.00000000E+00
  0.00000000E+00  0.00000000E+00  0.00000000E+00
  0.00000000E+00  0.00000000E+00  0.00000000E+00
  0.00000000E+00  0.00000000E+00  0.00000000E+00
  0.00000000E+00  0.00000000E+00  0.00000000E+00
  0.00000000E+00  0.00000000E+00  0.00000000E+00
  0.00000000E+00  0.00000000E+00  0.00000000E+00
