TlF                                     
   1.0000000000000000     
     3.7345638548197417   -0.0000000000000000    0.0000000000000000
    -0.0000000000000000    3.7345638548197417   -0.0000000000000000
     0.0000000000000000    0.0000000000000000    6.0051225742531500
   F    Tl
     2     2
Direct
  0.7500000000000000  0.7500000000000000  0.1501895958057915
  0.2500000000000000  0.2500000000000000  0.8498104041942085
  0.2500000000000000  0.2500000000000000  0.2628072247418416
  0.7500000000000000  0.7500000000000000  0.7371927752581584

  0.00000000E+00  0.00000000E+00  0.00000000E+00
  0.00000000E+00  0.00000000E+00  0.00000000E+00
  0.00000000E+00  0.00000000E+00  0.00000000E+00
  0.00000000E+00  0.00000000E+00  0.00000000E+00
