Ca6 Ga33                                
   1.00000000000000     
     9.2976774671061690    0.0000000000000000    0.0000000000000000
     0.0000000000000000    9.2976774671061690    0.0000000000000000
     0.0000000000000000    0.0000000000000000    9.2976774671061690
   Ca   Ga
     6    33
Direct
  0.2197883893373742  0.5000000000000000  0.0000000000000000
  0.7802116106626258  0.5000000000000000  0.0000000000000000
  0.5000000000000000  0.0000000000000000  0.2197883893373742
  0.0000000000000000  0.2197883893373742  0.5000000000000000
  0.0000000000000000  0.7802116106626258  0.5000000000000000
  0.5000000000000000  0.0000000000000000  0.7802116106626258
  0.0000000000000000  0.0000000000000000  0.0000000000000000
  0.2636080279040129  0.1473356342740715  0.0000000000000000
  0.7363919720959871  0.1473356342740715  0.0000000000000000
  0.5000000000000000  0.3000179672750534  0.0000000000000000
  0.5000000000000000  0.6999820327249466  0.0000000000000000
  0.2636080279040129  0.8526643657259285  0.0000000000000000
  0.7363919720959871  0.8526643657259285  0.0000000000000000
  0.0000000000000000  0.2636080279040129  0.1473356342740715
  0.0000000000000000  0.7363919720959871  0.1473356342740715
  0.5000000000000000  0.5000000000000000  0.2275511495038529
  0.1473356342740715  0.0000000000000000  0.2636080279040129
  0.8526643657259285  0.0000000000000000  0.2636080279040129
  0.2939467126041890  0.2939467126041890  0.2939467126041890
  0.7060532873958110  0.2939467126041890  0.2939467126041890
  0.2939467126041890  0.7060532873958110  0.2939467126041890
  0.7060532873958110  0.7060532873958110  0.2939467126041890
  0.0000000000000000  0.5000000000000000  0.3000179672750534
  0.3000179672750534  0.0000000000000000  0.5000000000000000
  0.6999820327249466  0.0000000000000000  0.5000000000000000
  0.5000000000000000  0.2275511495038529  0.5000000000000000
  0.2275511495038529  0.5000000000000000  0.5000000000000000
  0.7724488504961471  0.5000000000000000  0.5000000000000000
  0.5000000000000000  0.7724488504961471  0.5000000000000000
  0.0000000000000000  0.5000000000000000  0.6999820327249466
  0.2939467126041890  0.2939467126041890  0.7060532873958110
  0.7060532873958110  0.2939467126041890  0.7060532873958110
  0.2939467126041890  0.7060532873958110  0.7060532873958110
  0.7060532873958110  0.7060532873958110  0.7060532873958110
  0.1473356342740715  0.0000000000000000  0.7363919720959871
  0.8526643657259285  0.0000000000000000  0.7363919720959871
  0.5000000000000000  0.5000000000000000  0.7724488504961471
  0.0000000000000000  0.2636080279040129  0.8526643657259285
  0.0000000000000000  0.7363919720959871  0.8526643657259285
 
  0.00000000E+00  0.00000000E+00  0.00000000E+00
  0.00000000E+00  0.00000000E+00  0.00000000E+00
  0.00000000E+00  0.00000000E+00  0.00000000E+00
  0.00000000E+00  0.00000000E+00  0.00000000E+00
  0.00000000E+00  0.00000000E+00  0.00000000E+00
  0.00000000E+00  0.00000000E+00  0.00000000E+00
  0.00000000E+00  0.00000000E+00  0.00000000E+00
  0.00000000E+00  0.00000000E+00  0.00000000E+00
  0.00000000E+00  0.00000000E+00  0.00000000E+00
  0.00000000E+00  0.00000000E+00  0.00000000E+00
  0.00000000E+00  0.00000000E+00  0.00000000E+00
  0.00000000E+00  0.00000000E+00  0.00000000E+00
  0.00000000E+00  0.00000000E+00  0.00000000E+00
  0.00000000E+00  0.00000000E+00  0.00000000E+00
  0.00000000E+00  0.00000000E+00  0.00000000E+00
  0.00000000E+00  0.00000000E+00  0.00000000E+00
  0.00000000E+00  0.00000000E+00  0.00000000E+00
  0.00000000E+00  0.00000000E+00  0.00000000E+00
  0.00000000E+00  0.00000000E+00  0.00000000E+00
  0.00000000E+00  0.00000000E+00  0.00000000E+00
  0.00000000E+00  0.00000000E+00  0.00000000E+00
  0.00000000E+00  0.00000000E+00  0.00000000E+00
  0.00000000E+00  0.00000000E+00  0.00000000E+00
  0.00000000E+00  0.00000000E+00  0.00000000E+00
  0.00000000E+00  0.00000000E+00  0.00000000E+00
  0.00000000E+00  0.00000000E+00  0.00000000E+00
  0.00000000E+00  0.00000000E+00  0.00000000E+00
  0.00000000E+00  0.00000000E+00  0.00000000E+00
  0.00000000E+00  0.00000000E+00  0.00000000E+00
  0.00000000E+00  0.00000000E+00  0.00000000E+00
  0.00000000E+00  0.00000000E+00  0.00000000E+00
  0.00000000E+00  0.00000000E+00  0.00000000E+00
  0.00000000E+00  0.00000000E+00  0.00000000E+00
  0.00000000E+00  0.00000000E+00  0.00000000E+00
  0.00000000E+00  0.00000000E+00  0.00000000E+00
  0.00000000E+00  0.00000000E+00  0.00000000E+00
  0.00000000E+00  0.00000000E+00  0.00000000E+00
  0.00000000E+00  0.00000000E+00  0.00000000E+00
  0.00000000E+00  0.00000000E+00  0.00000000E+00
