Ca4 Tl4 Br20                            
   1.0000000000000000     
     4.0711130448531483   -0.0000000000000002    0.0000000000000004
    -0.0000000000000003   10.7964492907565432    0.0000000000000010
    -0.0000000000000008    0.0000000000000011   25.4570430634664824
   Ca   Tl   Br
     4     4    20
Direct
  0.6448383063628000  0.6474768584024062  0.6641768368884726
  0.1448383063628000  0.8525231415975938  0.3358231631115274
  0.3551616936372000  0.1474768584024062  0.8358231631115274
  0.8551616936372000  0.3525231415975867  0.1641768368884726
  0.1067353320736757  0.0257812063403264  0.5689053216905933
  0.6067353320736686  0.4742187936596736  0.4310946783094067
  0.8932646679263314  0.5257812063403264  0.9310946783094067
  0.3932646679263243  0.9742187936596736  0.0689053216905933
  0.1341401948562719  0.7744029432659545  0.5869045862444153
  0.6341401948562648  0.7255970567340455  0.4130954137555918
  0.8658598051437352  0.2744029432659545  0.9130954137555847
  0.3658598051437281  0.2255970567340455  0.0869045862444082
  0.6440731408067109  0.7795797665992765  0.2641787960773954
  0.1440731408067109  0.7204202334007235  0.7358212039225975
  0.3559268591932891  0.2795797665992765  0.2358212039225975
  0.8559268591932891  0.2204202334007235  0.7641787960773954
  0.1520320896680403  0.4598207405128392  0.6368847062070344
  0.6520320896680403  0.0401792594871608  0.3631152937929727
  0.8479679103319597  0.9598207405128392  0.8631152937929656
  0.3479679103319597  0.5401792594871608  0.1368847062070273
  0.5741765007134205  0.1048140392478771  0.6351816717051193
  0.0741765007134205  0.3951859607521229  0.3648183282948807
  0.4258234992865795  0.6048140392478700  0.8648183282948807
  0.9258234992865795  0.8951859607521300  0.1351816717051193
  0.3758604802807568  0.4484584110140588  0.5253149737879923
  0.8758604802807568  0.0515415889859483  0.4746850262120077
  0.6241395197192432  0.9484584110140517  0.9746850262120077
  0.1241395197192432  0.5515415889859483  0.0253149737879923

  0.00000000E+00  0.00000000E+00  0.00000000E+00
  0.00000000E+00  0.00000000E+00  0.00000000E+00
  0.00000000E+00  0.00000000E+00  0.00000000E+00
  0.00000000E+00  0.00000000E+00  0.00000000E+00
  0.00000000E+00  0.00000000E+00  0.00000000E+00
  0.00000000E+00  0.00000000E+00  0.00000000E+00
  0.00000000E+00  0.00000000E+00  0.00000000E+00
  0.00000000E+00  0.00000000E+00  0.00000000E+00
  0.00000000E+00  0.00000000E+00  0.00000000E+00
  0.00000000E+00  0.00000000E+00  0.00000000E+00
  0.00000000E+00  0.00000000E+00  0.00000000E+00
  0.00000000E+00  0.00000000E+00  0.00000000E+00
  0.00000000E+00  0.00000000E+00  0.00000000E+00
  0.00000000E+00  0.00000000E+00  0.00000000E+00
  0.00000000E+00  0.00000000E+00  0.00000000E+00
  0.00000000E+00  0.00000000E+00  0.00000000E+00
  0.00000000E+00  0.00000000E+00  0.00000000E+00
  0.00000000E+00  0.00000000E+00  0.00000000E+00
  0.00000000E+00  0.00000000E+00  0.00000000E+00
  0.00000000E+00  0.00000000E+00  0.00000000E+00
  0.00000000E+00  0.00000000E+00  0.00000000E+00
  0.00000000E+00  0.00000000E+00  0.00000000E+00
  0.00000000E+00  0.00000000E+00  0.00000000E+00
  0.00000000E+00  0.00000000E+00  0.00000000E+00
  0.00000000E+00  0.00000000E+00  0.00000000E+00
  0.00000000E+00  0.00000000E+00  0.00000000E+00
  0.00000000E+00  0.00000000E+00  0.00000000E+00
  0.00000000E+00  0.00000000E+00  0.00000000E+00
