Ba4 Al4 F20                             
   1.0000000000000000     
     4.7727212829782983    0.0000000000000000    0.0000000000000003
    -0.0000000000000003    5.5889870581298853    0.0000000000000003
    -0.0000000000000000    0.0000000000000000   13.6202200018667607
   Ba   Al   F 
     4     4    20
Direct
  0.7223085759031278  0.6571897018614123  0.6592388842694064
  0.2223085759031278  0.8428102981385877  0.3407611157305936
  0.2776914240968722  0.1571897018614123  0.8407611157305936
  0.7776914240968722  0.3428102981385877  0.1592388842694064
  0.3269441354256131  0.1448983961702481  0.5834655628657401
  0.8269441354256131  0.3551016038297519  0.4165344371342599
  0.6730558645743869  0.6448983961702481  0.9165344371342599
  0.1730558645743869  0.8551016038297519  0.0834655628657401
  0.9659721817690041  0.5996547088396582  0.4844449460917346
  0.4659721817690041  0.9003452911603418  0.5155550539082654
  0.0340278182309959  0.0996547088396582  0.0155550539082654
  0.5340278182309959  0.4003452911603418  0.9844449460917346
  0.6676079672910120  0.5657066645180535  0.3330402084665849
  0.1676079672910120  0.9342933354819465  0.6669597915334009
  0.3323920327089880  0.0657066645180535  0.1669597915334009
  0.8323920327089880  0.4342933354819465  0.8330402084665849
  0.1982889686636753  0.3954760057390558  0.6525009930424659
  0.6982889686636682  0.1045239942609442  0.3474990069575270
  0.8017110313363318  0.8954760057390558  0.8474990069575341
  0.3017110313363247  0.6045239942609442  0.1525009930424730
  0.6254368393402601  0.1506058077109103  0.6665784362391207
  0.1254368393402601  0.3493941922890897  0.3334215637608793
  0.3745631606597399  0.6506058077109103  0.8334215637608793
  0.8745631606597399  0.8493941922890897  0.1665784362391207
  0.5207842642979941  0.3538976097560322  0.5002120739092177
  0.0207842642979941  0.1461023902439749  0.4997879260907823
  0.4792157357020059  0.8538976097560251  0.9997879260907823
  0.9792157357020059  0.6461023902439749  0.0002120739092177

  0.00000000E+00  0.00000000E+00  0.00000000E+00
  0.00000000E+00  0.00000000E+00  0.00000000E+00
  0.00000000E+00  0.00000000E+00  0.00000000E+00
  0.00000000E+00  0.00000000E+00  0.00000000E+00
  0.00000000E+00  0.00000000E+00  0.00000000E+00
  0.00000000E+00  0.00000000E+00  0.00000000E+00
  0.00000000E+00  0.00000000E+00  0.00000000E+00
  0.00000000E+00  0.00000000E+00  0.00000000E+00
  0.00000000E+00  0.00000000E+00  0.00000000E+00
  0.00000000E+00  0.00000000E+00  0.00000000E+00
  0.00000000E+00  0.00000000E+00  0.00000000E+00
  0.00000000E+00  0.00000000E+00  0.00000000E+00
  0.00000000E+00  0.00000000E+00  0.00000000E+00
  0.00000000E+00  0.00000000E+00  0.00000000E+00
  0.00000000E+00  0.00000000E+00  0.00000000E+00
  0.00000000E+00  0.00000000E+00  0.00000000E+00
  0.00000000E+00  0.00000000E+00  0.00000000E+00
  0.00000000E+00  0.00000000E+00  0.00000000E+00
  0.00000000E+00  0.00000000E+00  0.00000000E+00
  0.00000000E+00  0.00000000E+00  0.00000000E+00
  0.00000000E+00  0.00000000E+00  0.00000000E+00
  0.00000000E+00  0.00000000E+00  0.00000000E+00
  0.00000000E+00  0.00000000E+00  0.00000000E+00
  0.00000000E+00  0.00000000E+00  0.00000000E+00
  0.00000000E+00  0.00000000E+00  0.00000000E+00
  0.00000000E+00  0.00000000E+00  0.00000000E+00
  0.00000000E+00  0.00000000E+00  0.00000000E+00
  0.00000000E+00  0.00000000E+00  0.00000000E+00
