Ba2 B2 I10                              
   1.00000000000000     
    11.1924915306714325    0.1880365432017790    3.2840658597299037
     2.6362130743815655   10.8792263067056290    3.2840650125224546
     2.1595154571915578    1.7282860353691203    9.2895740909372577
   Ba   B    I 
     2     2    10
Direct
  0.4291701404658568  0.5708298604807425  0.2499999985020551
  0.5708298595341432  0.4291701395192575  0.7500000014979449
  0.0000000000000000  0.0000000000000000  0.5000000000000000
  0.0000000000000000  0.0000000000000000  0.0000000000000000
  0.8505578714472364  0.8861864561460280  0.6241039823173651
  0.1138135437870247  0.1494411259717339  0.8758960202668646
  0.1494411285527661  0.1138135438539720  0.3758970176826324
  0.8861864562129753  0.8505578740282687  0.1241039797331354
  0.8135511901361028  0.1864488103200372  0.7500000009117826
  0.1864488098639043  0.8135511896799628  0.2499999990882174
  0.4124888939069109  0.3075372942846428  0.1977002877346621
  0.6924627058434396  0.5875111092330840  0.3022997111013837
  0.5875111060930891  0.6924627057153572  0.8022997122653379
  0.3075372941565604  0.4124888907669089  0.6977002888986163
 
  0.00000000E+00  0.00000000E+00  0.00000000E+00
  0.00000000E+00  0.00000000E+00  0.00000000E+00
  0.00000000E+00  0.00000000E+00  0.00000000E+00
  0.00000000E+00  0.00000000E+00  0.00000000E+00
  0.00000000E+00  0.00000000E+00  0.00000000E+00
  0.00000000E+00  0.00000000E+00  0.00000000E+00
  0.00000000E+00  0.00000000E+00  0.00000000E+00
  0.00000000E+00  0.00000000E+00  0.00000000E+00
  0.00000000E+00  0.00000000E+00  0.00000000E+00
  0.00000000E+00  0.00000000E+00  0.00000000E+00
  0.00000000E+00  0.00000000E+00  0.00000000E+00
  0.00000000E+00  0.00000000E+00  0.00000000E+00
  0.00000000E+00  0.00000000E+00  0.00000000E+00
  0.00000000E+00  0.00000000E+00  0.00000000E+00
