Sr2 In4 Cl16                            
   1.00000000000000     
     7.9818312927944044    0.5390260248163519    0.0289615547431889
    -1.0618857525347603    7.9289838352710529    0.0296169557629404
    -3.3840990557637616   -4.1346669846474855   13.3363155277917329
   In   Cl   Sr
     4    16     2
Direct
  0.8754562880552541  0.1234028941733101  0.2486311903647689
  0.3766125760340699  0.6245907438051148  0.2513315852685380
  0.6234168599139664  0.3754625785633223  0.7486161093085357
  0.1245619512453828  0.8766514009349251  0.7514136025583795
  0.6173450783363208  0.9378466769670553  0.1349222689529768
  0.0240811286834060  0.1986984198525690  0.1348546553319707
  0.4658527433592781  0.3908896921972840  0.1410303112143296
  0.1802905056254929  0.7524590678897880  0.1415861296171315
  0.7476569577468695  0.3196804158321100  0.3583481015905505
  0.1092300874938346  0.0341239255395109  0.3589761679443910
  0.5622226915576860  0.8826288644824984  0.3650710917453708
  0.3012996815887732  0.4759191890837826  0.3650913891733722
  0.6987500993373246  0.5241778001606576  0.6348904599565230
  0.4377869005345474  0.1174012707826506  0.6349169544320077
  0.8908164434386734  0.9659245347283871  0.6410449780786749
  0.2523426117812448  0.6804696699428092  0.6416518112100817
  0.8197488848046248  0.2476095811862535  0.8583599146822394
  0.5341574796076927  0.6091355565883845  0.8589400204572186
  0.9759255222661665  0.8013592672466530  0.8651834710423216
  0.3826992690846396  0.0621722958053965  0.8651052708740536
  0.3760422620503334  0.1240279706335556  0.2500064532200739
  0.6240039774544357  0.8760681836039694  0.7500280629765115
 
  0.00000000E+00  0.00000000E+00  0.00000000E+00
  0.00000000E+00  0.00000000E+00  0.00000000E+00
  0.00000000E+00  0.00000000E+00  0.00000000E+00
  0.00000000E+00  0.00000000E+00  0.00000000E+00
  0.00000000E+00  0.00000000E+00  0.00000000E+00
  0.00000000E+00  0.00000000E+00  0.00000000E+00
  0.00000000E+00  0.00000000E+00  0.00000000E+00
  0.00000000E+00  0.00000000E+00  0.00000000E+00
  0.00000000E+00  0.00000000E+00  0.00000000E+00
  0.00000000E+00  0.00000000E+00  0.00000000E+00
  0.00000000E+00  0.00000000E+00  0.00000000E+00
  0.00000000E+00  0.00000000E+00  0.00000000E+00
  0.00000000E+00  0.00000000E+00  0.00000000E+00
  0.00000000E+00  0.00000000E+00  0.00000000E+00
  0.00000000E+00  0.00000000E+00  0.00000000E+00
  0.00000000E+00  0.00000000E+00  0.00000000E+00
  0.00000000E+00  0.00000000E+00  0.00000000E+00
  0.00000000E+00  0.00000000E+00  0.00000000E+00
  0.00000000E+00  0.00000000E+00  0.00000000E+00
  0.00000000E+00  0.00000000E+00  0.00000000E+00
  0.00000000E+00  0.00000000E+00  0.00000000E+00
  0.00000000E+00  0.00000000E+00  0.00000000E+00
