Mg21 In40                               
   1.0000000000000000     
     4.7432413010735299   -8.2155351828418617   -0.0000000000000000
     4.7432413010735299    8.2155351828418617   -0.0000000000000000
     0.0000000000000001    0.0000000000000000   20.7737536046588751
   Mg   In
    21    40
Direct
  0.9999999999690061  0.3805591178783416  0.4414408764777562
  0.6666669999999968  0.3333330000000032  0.3822630584943525
  0.6851800022293020  0.0000000000039790  0.6517803473993027
  0.3148199977667119  0.3148199977667119  0.6517803473993027
  0.0000000000000000  0.0000000000000000  0.1599113640325669
  0.9999999999849152  0.3328668120931226  0.6298449218132518
  0.3465126066401254  0.9999999999389857  0.0122789733701580
  0.0000000000039790  0.6851800022293020  0.6517803473993027
  0.6194408821526594  0.6194408821526594  0.4414408764777562
  0.3328668120931226  0.9999999999849152  0.6298449218132518
  0.3333330000000032  0.6666669999999968  0.0786694064908602
  0.0000000000457945  0.5285600442937977  0.8631012356403147
  0.6671331879219551  0.6671331879219551  0.6298449218132518
  0.4714399556603865  0.4714399556603865  0.8631012356403147
  0.6666669999999968  0.3333330000000032  0.0786694064908602
  0.3333330000000032  0.6666669999999968  0.3822630584943525
  0.9999999999389857  0.3465126066401254  0.0122789733701580
  0.3805591178783416  0.9999999999690061  0.4414408764777562
  0.6534873934209173  0.6534873934209173  0.0122789733701580
  0.5285600442937977  0.0000000000457945  0.8631012356403147
  0.0000000000000000  0.0000000000000000  0.2968034695562594
  0.2739753699018337  0.4532156368768483  0.5249433049785068
  0.1903541390977210  0.3975227189216426  0.2256379988352961
  0.4132421896768719  0.1981151083550046  0.7704735593421290
  0.7928314202277065  0.6024772810971371  0.2256379988352961
  0.5206971886083736  0.9999999999893703  0.1355699664623486
  0.0000000000000000  0.0000000000000000  0.5549000278113567
  0.3333330000000032  0.6666669999999968  0.9261200955172555
  0.2071685798051135  0.8096458608506367  0.2256379988352961
  0.1880768510501198  0.9999999999663771  0.8875516607158929
  0.0000000000749480  0.5191964952647155  0.3160214959279060
  0.3975227189216426  0.1903541390977210  0.2256379988352961
  0.2024723542823708  0.2024723542823708  0.4094213058215388
  0.8119231489835030  0.8119231489835030  0.8875516607158929
  0.6666669999999968  0.3333330000000032  0.9261200955172413
  0.9999999999140954  0.7975276458035196  0.4094213058215388
  0.4793028114022917  0.4793028114022917  0.1355699664623486
  0.8207597329777911  0.5467843631315503  0.5249433049785068
  0.5867578102514628  0.7848729186020051  0.7704735593421290
  0.9999999999893703  0.5206971886083736  0.1355699664623486
  0.8096458608506367  0.2071685798051135  0.2256379988352961
  0.9999999999984297  0.6720672922044244  0.9991214869152856
  0.4808035046603507  0.4808035046603507  0.3160214959279060
  0.3333330000000032  0.6666669999999968  0.6565091969273951
  0.9999999999663771  0.1880768510501198  0.8875516607158929
  0.6666669999999968  0.3333330000000032  0.6565091969273951
  0.1981151083550046  0.4132421896768719  0.7704735593421290
  0.5467843631315503  0.8207597329777911  0.5249433049785068
  0.1792402669666302  0.7260246301453321  0.5249433049785068
  0.6720672922044244  0.9999999999984297  0.9991214869152856
  0.3279327077971530  0.3279327077971530  0.9991214869152856
  0.8018848917211514  0.2151270813935184  0.7704735593421290
  0.5191964952647155  0.0000000000749480  0.3160214959279060
  0.4532156368768483  0.2739753699018337  0.5249433049785068
  0.6024772810971371  0.7928314202277065  0.2256379988352961
  0.7975276458035196  0.9999999999140954  0.4094213058215388
  0.7260246301453321  0.1792402669666302  0.5249433049785068
  0.2151270813935184  0.8018848917211514  0.7704735593421290
  0.0000000000000000  0.0000000000000000  0.0243269465584035
  0.7848729186020051  0.5867578102514628  0.7704735593421290
  0.0000000000000000  0.0000000000000000  0.7159736866149444

  0.00000000E+00  0.00000000E+00  0.00000000E+00
  0.00000000E+00  0.00000000E+00  0.00000000E+00
  0.00000000E+00  0.00000000E+00  0.00000000E+00
  0.00000000E+00  0.00000000E+00  0.00000000E+00
  0.00000000E+00  0.00000000E+00  0.00000000E+00
  0.00000000E+00  0.00000000E+00  0.00000000E+00
  0.00000000E+00  0.00000000E+00  0.00000000E+00
  0.00000000E+00  0.00000000E+00  0.00000000E+00
  0.00000000E+00  0.00000000E+00  0.00000000E+00
  0.00000000E+00  0.00000000E+00  0.00000000E+00
  0.00000000E+00  0.00000000E+00  0.00000000E+00
  0.00000000E+00  0.00000000E+00  0.00000000E+00
  0.00000000E+00  0.00000000E+00  0.00000000E+00
  0.00000000E+00  0.00000000E+00  0.00000000E+00
  0.00000000E+00  0.00000000E+00  0.00000000E+00
  0.00000000E+00  0.00000000E+00  0.00000000E+00
  0.00000000E+00  0.00000000E+00  0.00000000E+00
  0.00000000E+00  0.00000000E+00  0.00000000E+00
  0.00000000E+00  0.00000000E+00  0.00000000E+00
  0.00000000E+00  0.00000000E+00  0.00000000E+00
  0.00000000E+00  0.00000000E+00  0.00000000E+00
  0.00000000E+00  0.00000000E+00  0.00000000E+00
  0.00000000E+00  0.00000000E+00  0.00000000E+00
  0.00000000E+00  0.00000000E+00  0.00000000E+00
  0.00000000E+00  0.00000000E+00  0.00000000E+00
  0.00000000E+00  0.00000000E+00  0.00000000E+00
  0.00000000E+00  0.00000000E+00  0.00000000E+00
  0.00000000E+00  0.00000000E+00  0.00000000E+00
  0.00000000E+00  0.00000000E+00  0.00000000E+00
  0.00000000E+00  0.00000000E+00  0.00000000E+00
  0.00000000E+00  0.00000000E+00  0.00000000E+00
  0.00000000E+00  0.00000000E+00  0.00000000E+00
  0.00000000E+00  0.00000000E+00  0.00000000E+00
  0.00000000E+00  0.00000000E+00  0.00000000E+00
  0.00000000E+00  0.00000000E+00  0.00000000E+00
  0.00000000E+00  0.00000000E+00  0.00000000E+00
  0.00000000E+00  0.00000000E+00  0.00000000E+00
  0.00000000E+00  0.00000000E+00  0.00000000E+00
  0.00000000E+00  0.00000000E+00  0.00000000E+00
  0.00000000E+00  0.00000000E+00  0.00000000E+00
  0.00000000E+00  0.00000000E+00  0.00000000E+00
  0.00000000E+00  0.00000000E+00  0.00000000E+00
  0.00000000E+00  0.00000000E+00  0.00000000E+00
  0.00000000E+00  0.00000000E+00  0.00000000E+00
  0.00000000E+00  0.00000000E+00  0.00000000E+00
  0.00000000E+00  0.00000000E+00  0.00000000E+00
  0.00000000E+00  0.00000000E+00  0.00000000E+00
  0.00000000E+00  0.00000000E+00  0.00000000E+00
  0.00000000E+00  0.00000000E+00  0.00000000E+00
  0.00000000E+00  0.00000000E+00  0.00000000E+00
  0.00000000E+00  0.00000000E+00  0.00000000E+00
  0.00000000E+00  0.00000000E+00  0.00000000E+00
  0.00000000E+00  0.00000000E+00  0.00000000E+00
  0.00000000E+00  0.00000000E+00  0.00000000E+00
  0.00000000E+00  0.00000000E+00  0.00000000E+00
  0.00000000E+00  0.00000000E+00  0.00000000E+00
  0.00000000E+00  0.00000000E+00  0.00000000E+00
  0.00000000E+00  0.00000000E+00  0.00000000E+00
  0.00000000E+00  0.00000000E+00  0.00000000E+00
  0.00000000E+00  0.00000000E+00  0.00000000E+00
  0.00000000E+00  0.00000000E+00  0.00000000E+00
