Sr4 Al4 F20                             
   1.0000000000000000     
     4.7565035014239179   -0.0000000000000000    0.0000000000000003
    -0.0000000000000003    5.2920245722628847    0.0000000000000003
    -0.0000000000000000   -0.0000000000000000   13.1294391371483155
   Sr   Al   F 
     4     4    20
Direct
  0.7297147612353356  0.6532252350830987  0.6576610475248685
  0.2297147612353356  0.8467747649169013  0.3423389524751315
  0.2702852387646644  0.1532252350831058  0.8423389524751315
  0.7702852387646644  0.3467747649168942  0.1576610475248685
  0.3095347652705058  0.1430572874577436  0.5874349188391292
  0.8095347652704987  0.3569427125422493  0.4125650811608708
  0.6904652347295013  0.6430572874577436  0.9125650811608708
  0.1904652347294942  0.8569427125422564  0.0874349188391292
  0.9528199296889994  0.6201594057654134  0.4784226733842090
  0.4528199296889994  0.8798405942345866  0.5215773266157910
  0.0471800703110006  0.1201594057654134  0.0215773266157910
  0.5471800703110006  0.3798405942345866  0.9784226733842090
  0.6288111217309620  0.5604781680180650  0.3262133400308471
  0.1288111217309620  0.9395218319819350  0.6737866599691529
  0.3711888782690380  0.0604781680180650  0.1737866599691458
  0.8711888782690380  0.4395218319819350  0.8262133400308400
  0.1824777868445153  0.4161223294601726  0.6515452620820668
  0.6824777868445153  0.0838776705398274  0.3484547379179332
  0.8175222131554847  0.9161223294601726  0.8484547379179332
  0.3175222131554847  0.5838776705398274  0.1515452620820668
  0.5986180714481577  0.1462101878006692  0.6774330791235315
  0.0986180714481577  0.3537898121993308  0.3225669208764685
  0.4013819285518423  0.6462101878006692  0.8225669208764685
  0.9013819285518423  0.8537898121993308  0.1774330791235315
  0.5188408949932821  0.3569766053809857  0.5044084457443105
  0.0188408949932821  0.1430233946190143  0.4955915542556895
  0.4811591050067179  0.8569766053809857  0.9955915542556895
  0.9811591050067179  0.6430233946190143  0.0044084457443105

  0.00000000E+00  0.00000000E+00  0.00000000E+00
  0.00000000E+00  0.00000000E+00  0.00000000E+00
  0.00000000E+00  0.00000000E+00  0.00000000E+00
  0.00000000E+00  0.00000000E+00  0.00000000E+00
  0.00000000E+00  0.00000000E+00  0.00000000E+00
  0.00000000E+00  0.00000000E+00  0.00000000E+00
  0.00000000E+00  0.00000000E+00  0.00000000E+00
  0.00000000E+00  0.00000000E+00  0.00000000E+00
  0.00000000E+00  0.00000000E+00  0.00000000E+00
  0.00000000E+00  0.00000000E+00  0.00000000E+00
  0.00000000E+00  0.00000000E+00  0.00000000E+00
  0.00000000E+00  0.00000000E+00  0.00000000E+00
  0.00000000E+00  0.00000000E+00  0.00000000E+00
  0.00000000E+00  0.00000000E+00  0.00000000E+00
  0.00000000E+00  0.00000000E+00  0.00000000E+00
  0.00000000E+00  0.00000000E+00  0.00000000E+00
  0.00000000E+00  0.00000000E+00  0.00000000E+00
  0.00000000E+00  0.00000000E+00  0.00000000E+00
  0.00000000E+00  0.00000000E+00  0.00000000E+00
  0.00000000E+00  0.00000000E+00  0.00000000E+00
  0.00000000E+00  0.00000000E+00  0.00000000E+00
  0.00000000E+00  0.00000000E+00  0.00000000E+00
  0.00000000E+00  0.00000000E+00  0.00000000E+00
  0.00000000E+00  0.00000000E+00  0.00000000E+00
  0.00000000E+00  0.00000000E+00  0.00000000E+00
  0.00000000E+00  0.00000000E+00  0.00000000E+00
  0.00000000E+00  0.00000000E+00  0.00000000E+00
  0.00000000E+00  0.00000000E+00  0.00000000E+00
