Br4                                     
   1.00000000000000     
     4.2768197782561304    0.0000000000000000    0.0000000000000000
    -2.1384098891280652    4.2758614696601223    0.0000000000000000
     0.0000000000000000    0.0000000000000000    8.7057720024704377
   Br
     4
Direct
  0.6417272240928469  0.0000000000000000  0.1183982032030286
  0.3582727759071531  0.0000000000000000  0.8816017967969714
  0.8582727759071531  0.0000000000000000  0.6183982032030286
  0.1417272240928469  0.0000000000000000  0.3816017967969714
 
  0.00000000E+00  0.00000000E+00  0.00000000E+00
  0.00000000E+00  0.00000000E+00  0.00000000E+00
  0.00000000E+00  0.00000000E+00  0.00000000E+00
  0.00000000E+00  0.00000000E+00  0.00000000E+00
