Ba4 Tl4 Br20                            
   1.0000000000000000     
     8.6497117521607105    0.0000000000000000    0.0000000000000000
     0.0000000000000000   14.9432408725798229   -3.5431953774507092
     0.0000000000000000    0.3983759531956422    8.4549094714585866
   Ba   Tl   Br
     4     4    20
Direct
  0.9485008942584869  0.4304658206474272  0.1984112179842157
  0.4485008942584869  0.5695341793525728  0.3015887820157843
  0.0514991057415131  0.5695341793525728  0.8015887820157843
  0.5514991057415131  0.4304658206474272  0.6984112179842157
  0.0077953219186142  0.1513376136686233  0.7306626140407246
  0.5077953219186213  0.8486623863313767  0.7693373859592754
  0.9922046780813858  0.8486623863313767  0.2693373859592683
  0.4922046780813858  0.1513376136686233  0.2306626140407246
  0.6395149026332518  0.7674032312587755  0.3845041176048767
  0.1395149026332518  0.2325967687412316  0.1154958823951233
  0.3604850973667482  0.2325967687412316  0.6154958823951233
  0.8604850973667482  0.7674032312587755  0.8845041176048767
  0.7875601953113218  0.0469702076973704  0.4148844921944601
  0.2875601953113289  0.9530297923026296  0.0851155078055399
  0.2124398046886711  0.9530297923026296  0.5851155078055399
  0.7124398046886782  0.0469702076973704  0.9148844921944601
  0.5340956692890870  0.1403033488192946  0.7740155026210687
  0.0340956692890870  0.8596966511807054  0.7259844973789313
  0.4659043307109201  0.8596966511807054  0.2259844973789313
  0.9659043307109130  0.1403033488192946  0.2740155026210687
  0.3895305037423640  0.6421646581321525  0.7059885004426292
  0.8895305037423498  0.3578353418678404  0.7940114995573708
  0.6104694962576502  0.3578353418678404  0.2940114995573779
  0.1104694962576360  0.6421646581321525  0.2059885004426292
  0.2872843766202209  0.4412441940181395  0.9795439097307295
  0.7872843766202280  0.5587558059818605  0.5204560902692705
  0.7127156233797720  0.5587558059818605  0.0204560902692705
  0.2127156233797720  0.4412441940181395  0.4795439097307295

  0.00000000E+00  0.00000000E+00  0.00000000E+00
  0.00000000E+00  0.00000000E+00  0.00000000E+00
  0.00000000E+00  0.00000000E+00  0.00000000E+00
  0.00000000E+00  0.00000000E+00  0.00000000E+00
  0.00000000E+00  0.00000000E+00  0.00000000E+00
  0.00000000E+00  0.00000000E+00  0.00000000E+00
  0.00000000E+00  0.00000000E+00  0.00000000E+00
  0.00000000E+00  0.00000000E+00  0.00000000E+00
  0.00000000E+00  0.00000000E+00  0.00000000E+00
  0.00000000E+00  0.00000000E+00  0.00000000E+00
  0.00000000E+00  0.00000000E+00  0.00000000E+00
  0.00000000E+00  0.00000000E+00  0.00000000E+00
  0.00000000E+00  0.00000000E+00  0.00000000E+00
  0.00000000E+00  0.00000000E+00  0.00000000E+00
  0.00000000E+00  0.00000000E+00  0.00000000E+00
  0.00000000E+00  0.00000000E+00  0.00000000E+00
  0.00000000E+00  0.00000000E+00  0.00000000E+00
  0.00000000E+00  0.00000000E+00  0.00000000E+00
  0.00000000E+00  0.00000000E+00  0.00000000E+00
  0.00000000E+00  0.00000000E+00  0.00000000E+00
  0.00000000E+00  0.00000000E+00  0.00000000E+00
  0.00000000E+00  0.00000000E+00  0.00000000E+00
  0.00000000E+00  0.00000000E+00  0.00000000E+00
  0.00000000E+00  0.00000000E+00  0.00000000E+00
  0.00000000E+00  0.00000000E+00  0.00000000E+00
  0.00000000E+00  0.00000000E+00  0.00000000E+00
  0.00000000E+00  0.00000000E+00  0.00000000E+00
  0.00000000E+00  0.00000000E+00  0.00000000E+00
