Ca4 Ga2 Cl10                            
   1.00000000000000     
     7.8128540475770532    0.0002784124140416    0.0021871713528007
     0.0002784124140416    7.8128540475770523    0.0021871713528007
     3.9084097304779069    3.9084097304779069    6.6384158074750825
   Cl   Ca   Ga
    10     4     2
Direct
  0.5000094877259045  0.0000043822423237  0.0000039306289352
  0.0000043822423237  0.5000094877259045  0.0000039306289352
  0.7203183859467472  0.0180307480844988  0.2613460940074503
  0.2205182282813354  0.2205182282813354  0.2612556865100686
  0.5180212091714083  0.5180212091714083  0.2615466373004978
  0.0180307480844988  0.7203183859467472  0.2613460940074503
  0.9819885136523325  0.2797033089648124  0.7386586307643555
  0.4819904593038586  0.4819904593038586  0.7384560729818190
  0.7795005564936233  0.7795005564936233  0.7387414212421604
  0.2797033089648124  0.9819885136523325  0.7386586307643555
  0.1604501793756796  0.1604501793756796  0.9999527771816119
  0.6603889301226999  0.3396226254690546  0.0000011543707785
  0.3396226254690546  0.6603889301226999  0.0000011543707785
  0.8395654898992575  0.8395654898992575  0.0000481932058847
  0.7499070925821982  0.2500804026842474  0.4999897960174522
  0.2500804026842474  0.7499070925821982  0.4999897960174522
 
  0.00000000E+00  0.00000000E+00  0.00000000E+00
  0.00000000E+00  0.00000000E+00  0.00000000E+00
  0.00000000E+00  0.00000000E+00  0.00000000E+00
  0.00000000E+00  0.00000000E+00  0.00000000E+00
  0.00000000E+00  0.00000000E+00  0.00000000E+00
  0.00000000E+00  0.00000000E+00  0.00000000E+00
  0.00000000E+00  0.00000000E+00  0.00000000E+00
  0.00000000E+00  0.00000000E+00  0.00000000E+00
  0.00000000E+00  0.00000000E+00  0.00000000E+00
  0.00000000E+00  0.00000000E+00  0.00000000E+00
  0.00000000E+00  0.00000000E+00  0.00000000E+00
  0.00000000E+00  0.00000000E+00  0.00000000E+00
  0.00000000E+00  0.00000000E+00  0.00000000E+00
  0.00000000E+00  0.00000000E+00  0.00000000E+00
  0.00000000E+00  0.00000000E+00  0.00000000E+00
  0.00000000E+00  0.00000000E+00  0.00000000E+00
