B4 I8                                   
   1.00000000000000     
    11.7727928288860078   -0.2749216583774755   -0.7434198759821949
    -0.3387156832190800   10.3412302568519330   -0.3009964349593013
    -1.2041157455823064   -0.0932895543242882    4.8878086349882608
   B    I 
     4     8
Direct
  0.2753786333683408  0.3069522164750751  0.7749971673609011
  0.1452747157897463  0.7423706025846357  0.7640033465984146
  0.8552706005925899  0.2583196284459532  0.2403984683745790
  0.7242650866377716  0.6927225938853923  0.2179853113845454
  0.2802201374323019  0.8701090364081594  0.6959830544767840
  0.4041814210310619  0.3042106462698300  0.5481503755553163
  0.9747823749162734  0.8082293849945827  0.7357689333838735
  0.1788207838056053  0.5432008633435288  0.8567254017486121
  0.8233016510819127  0.4573487825798779  0.1433369373566222
  0.0261573184612018  0.1911700590026584  0.2779163562517795
  0.5938847961152334  0.6935858481516206  0.4404933952473939
  0.7184624807679327  0.1319803378586997  0.3041412522611679
 
  0.00000000E+00  0.00000000E+00  0.00000000E+00
  0.00000000E+00  0.00000000E+00  0.00000000E+00
  0.00000000E+00  0.00000000E+00  0.00000000E+00
  0.00000000E+00  0.00000000E+00  0.00000000E+00
  0.00000000E+00  0.00000000E+00  0.00000000E+00
  0.00000000E+00  0.00000000E+00  0.00000000E+00
  0.00000000E+00  0.00000000E+00  0.00000000E+00
  0.00000000E+00  0.00000000E+00  0.00000000E+00
  0.00000000E+00  0.00000000E+00  0.00000000E+00
  0.00000000E+00  0.00000000E+00  0.00000000E+00
  0.00000000E+00  0.00000000E+00  0.00000000E+00
  0.00000000E+00  0.00000000E+00  0.00000000E+00
