Ba3Br                                   
   1.00000000000000     
    -2.7087129386762636    2.7087129386762636    7.5298208135032567
     2.7087129386762636   -2.7087129386762636    7.5298208135032567
     2.7087129386762636    2.7087129386762636   -7.5298208135032567
   Ba   Br
     3     1
Direct
  0.5000000000000000  0.5000000000000000  0.0000000000000000
  0.7500000000000000  0.2500000000000000  0.5000000000000000
  0.2500000000000000  0.7500000000000000  0.5000000000000000
  0.0000000000000000  0.0000000000000000  0.0000000000000000
 
  0.00000000E+00  0.00000000E+00  0.00000000E+00
  0.00000000E+00  0.00000000E+00  0.00000000E+00
  0.00000000E+00  0.00000000E+00  0.00000000E+00
  0.00000000E+00  0.00000000E+00  0.00000000E+00
