Be4 Ga4 Br2                             
   1.00000000000000     
     3.9612562466927410    0.2217619124882521   -0.0130967024078202
    -1.8096250148488970    3.8896949553932560    0.0201140130648295
     0.0432154275857656   -0.0446026261750307   12.3284598917827992
   Be   Ga   Br
     4     4     2
Direct
  0.0970498962244477  0.1436804863569989  0.0840782463429335
  0.0962761040384308  0.1432623872960050  0.4159652975715673
  0.9029559528823370  0.8563860524346225  0.5840753990527929
  0.9037230159561531  0.8566765483587346  0.9159580079443472
  0.3324512401044757  0.7004347951677801  0.0284276714992799
  0.3315552957478758  0.6999719985315380  0.4715955717071836
  0.6675773593266712  0.2996170709250947  0.5284568986047518
  0.6684071420915529  0.2999683765044807  0.9716158823454180
  0.9396950309306149  0.9398532641763282  0.2499800526863609
  0.0603089626974125  0.0601490202484243  0.7500069722453659
 
  0.00000000E+00  0.00000000E+00  0.00000000E+00
  0.00000000E+00  0.00000000E+00  0.00000000E+00
  0.00000000E+00  0.00000000E+00  0.00000000E+00
  0.00000000E+00  0.00000000E+00  0.00000000E+00
  0.00000000E+00  0.00000000E+00  0.00000000E+00
  0.00000000E+00  0.00000000E+00  0.00000000E+00
  0.00000000E+00  0.00000000E+00  0.00000000E+00
  0.00000000E+00  0.00000000E+00  0.00000000E+00
  0.00000000E+00  0.00000000E+00  0.00000000E+00
  0.00000000E+00  0.00000000E+00  0.00000000E+00
