Tl28 F36                                
   1.0000000000000000     
    10.6924707219483555   -0.0001482834802475   -0.0001482780528506
    -0.0001482780528506   10.6924707219483555   -0.0001482834802475
    -0.0001482834802475   -0.0001482780528506   10.6924707219483572
   F    Tl
    36    28
Direct
  0.0000109439517502  0.0000109439517502  0.0000109439517502
  0.4999445000837923  0.5000085572578925  0.9999284930323000
  0.4466649806872454  0.1945280218505658  0.0429798270747881
  0.0531908148148830  0.6945411017908185  0.0431496916487220
  0.6945411017908185  0.0431496916487220  0.0531908148148830
  0.8053990436807510  0.5430505280042581  0.0532491949189691
  0.1662178106385213  0.1662178106385213  0.1662178106385213
  0.3338197620164109  0.6662097901542126  0.1662247827960570
  0.0429798270747881  0.4466649806872454  0.1945280218505658
  0.4570350239670233  0.9467143605883948  0.1944719672739836
  0.5430093356908046  0.4466525304749567  0.3054447055754466
  0.9569937682980978  0.9466462265040434  0.3054836229889659
  0.6662097901542126  0.1662247827960570  0.3338197620164109
  0.8337325982324444  0.6661171004937003  0.3337381514525930
  0.1945280218505658  0.0429798270747881  0.4466649806872454
  0.3054447055754466  0.5430093356908046  0.4466525304749567
  0.9467143605883948  0.1944719672739836  0.4570350239670233
  0.5533017551705441  0.6944747250316397  0.4569134192229143
  0.5000085572578925  0.9999284930323000  0.4999445000837923
  0.9999284930323000  0.4999445000837923  0.5000085572578925
  0.4466525304749567  0.3054447055754466  0.5430093356908046
  0.0532491949189691  0.8053990436807510  0.5430505280042581
  0.6944747250316397  0.4569134192229143  0.5533017551705441
  0.8054885555012277  0.9569612217018459  0.5533445561359400
  0.1662247827960570  0.3338197620164109  0.6662097901542126
  0.3337381514525930  0.8337325982324444  0.6661171004937003
  0.0431496916487220  0.0531908148148830  0.6945411017908185
  0.4569134192229143  0.5533017551705441  0.6944747250316397
  0.5430505280042581  0.0532491949189691  0.8053990436807510
  0.9569612217018459  0.5533445561359400  0.8054885555012277
  0.6661171004937003  0.3337381514525930  0.8337325982324444
  0.8337897439236244  0.8337897439236244  0.8337897439236244
  0.1944719672739836  0.4570350239670233  0.9467143605883948
  0.3054836229889659  0.9569937682980978  0.9466462265040434
  0.9466462265040434  0.3054836229889659  0.9569937682980978
  0.5533445561359400  0.8054885555012277  0.9569612217018459
  0.5000168886568872  0.0000178232921115  0.9999397911375212
  0.9999397911375212  0.5000168886568872  0.0000178232921115
  0.6643378770712189  0.3163902613693992  0.0708876111927452
  0.8355624413062586  0.8164683122142051  0.0709482810111410
  0.3163787850594204  0.4290421410138734  0.1643478854059168
  0.1836046432097476  0.9290474441479830  0.1643353255514768
  0.9290474441479830  0.1643353255514768  0.1836046432097476
  0.5710319796550465  0.6643169490379321  0.1835966588279447
  0.4290421410138734  0.1643478854059168  0.3163787850594204
  0.0708876111927452  0.6643378770712189  0.3163902613693992
  0.8163632417899294  0.4289239817675110  0.3356588245577115
  0.6835841960058957  0.9290805967459548  0.3356749534761860
  0.1643478854059168  0.3163787850594204  0.4290421410138734
  0.3356588245577115  0.8163632417899294  0.4289239817675110
  0.0000178232921115  0.9999397911375212  0.5000168886568872
  0.4999630144668217  0.4999630144668217  0.4999630144668217
  0.6643169490379321  0.1835966588279447  0.5710319796550465
  0.8355766169146435  0.6835687359435880  0.5709035265408104
  0.3163902613693992  0.0708876111927452  0.6643378770712189
  0.1835966588279447  0.5710319796550465  0.6643169490379321
  0.9290805967459548  0.3356749534761860  0.6835841960058957
  0.5709035265408104  0.8355766169146435  0.6835687359435880
  0.4289239817675110  0.3356588245577115  0.8163632417899294
  0.0709482810111410  0.8355624413062586  0.8164683122142051
  0.8164683122142051  0.0709482810111410  0.8355624413062586
  0.6835687359435880  0.5709035265408104  0.8355766169146435
  0.1643353255514768  0.1836046432097476  0.9290474441479830
  0.3356749534761860  0.6835841960058957  0.9290805967459548

  0.00000000E+00  0.00000000E+00  0.00000000E+00
  0.00000000E+00  0.00000000E+00  0.00000000E+00
  0.00000000E+00  0.00000000E+00  0.00000000E+00
  0.00000000E+00  0.00000000E+00  0.00000000E+00
  0.00000000E+00  0.00000000E+00  0.00000000E+00
  0.00000000E+00  0.00000000E+00  0.00000000E+00
  0.00000000E+00  0.00000000E+00  0.00000000E+00
  0.00000000E+00  0.00000000E+00  0.00000000E+00
  0.00000000E+00  0.00000000E+00  0.00000000E+00
  0.00000000E+00  0.00000000E+00  0.00000000E+00
  0.00000000E+00  0.00000000E+00  0.00000000E+00
  0.00000000E+00  0.00000000E+00  0.00000000E+00
  0.00000000E+00  0.00000000E+00  0.00000000E+00
  0.00000000E+00  0.00000000E+00  0.00000000E+00
  0.00000000E+00  0.00000000E+00  0.00000000E+00
  0.00000000E+00  0.00000000E+00  0.00000000E+00
  0.00000000E+00  0.00000000E+00  0.00000000E+00
  0.00000000E+00  0.00000000E+00  0.00000000E+00
  0.00000000E+00  0.00000000E+00  0.00000000E+00
  0.00000000E+00  0.00000000E+00  0.00000000E+00
  0.00000000E+00  0.00000000E+00  0.00000000E+00
  0.00000000E+00  0.00000000E+00  0.00000000E+00
  0.00000000E+00  0.00000000E+00  0.00000000E+00
  0.00000000E+00  0.00000000E+00  0.00000000E+00
  0.00000000E+00  0.00000000E+00  0.00000000E+00
  0.00000000E+00  0.00000000E+00  0.00000000E+00
  0.00000000E+00  0.00000000E+00  0.00000000E+00
  0.00000000E+00  0.00000000E+00  0.00000000E+00
  0.00000000E+00  0.00000000E+00  0.00000000E+00
  0.00000000E+00  0.00000000E+00  0.00000000E+00
  0.00000000E+00  0.00000000E+00  0.00000000E+00
  0.00000000E+00  0.00000000E+00  0.00000000E+00
  0.00000000E+00  0.00000000E+00  0.00000000E+00
  0.00000000E+00  0.00000000E+00  0.00000000E+00
  0.00000000E+00  0.00000000E+00  0.00000000E+00
  0.00000000E+00  0.00000000E+00  0.00000000E+00
  0.00000000E+00  0.00000000E+00  0.00000000E+00
  0.00000000E+00  0.00000000E+00  0.00000000E+00
  0.00000000E+00  0.00000000E+00  0.00000000E+00
  0.00000000E+00  0.00000000E+00  0.00000000E+00
  0.00000000E+00  0.00000000E+00  0.00000000E+00
  0.00000000E+00  0.00000000E+00  0.00000000E+00
  0.00000000E+00  0.00000000E+00  0.00000000E+00
  0.00000000E+00  0.00000000E+00  0.00000000E+00
  0.00000000E+00  0.00000000E+00  0.00000000E+00
  0.00000000E+00  0.00000000E+00  0.00000000E+00
  0.00000000E+00  0.00000000E+00  0.00000000E+00
  0.00000000E+00  0.00000000E+00  0.00000000E+00
  0.00000000E+00  0.00000000E+00  0.00000000E+00
  0.00000000E+00  0.00000000E+00  0.00000000E+00
  0.00000000E+00  0.00000000E+00  0.00000000E+00
  0.00000000E+00  0.00000000E+00  0.00000000E+00
  0.00000000E+00  0.00000000E+00  0.00000000E+00
  0.00000000E+00  0.00000000E+00  0.00000000E+00
  0.00000000E+00  0.00000000E+00  0.00000000E+00
  0.00000000E+00  0.00000000E+00  0.00000000E+00
  0.00000000E+00  0.00000000E+00  0.00000000E+00
  0.00000000E+00  0.00000000E+00  0.00000000E+00
  0.00000000E+00  0.00000000E+00  0.00000000E+00
  0.00000000E+00  0.00000000E+00  0.00000000E+00
  0.00000000E+00  0.00000000E+00  0.00000000E+00
  0.00000000E+00  0.00000000E+00  0.00000000E+00
  0.00000000E+00  0.00000000E+00  0.00000000E+00
  0.00000000E+00  0.00000000E+00  0.00000000E+00
