Be4 Tl10 I2                             
   1.0000000000000000     
    11.6346380641764373   -3.3722846088490099   -4.4357800903171416
    -8.5954121693222074    8.9531704891196942    4.3792072411403362
    -8.5469021040503996    1.3990322404916256    9.4792160304853166
   I    Be   Tl
     2     4    10
Direct
  0.0283367875766771  0.4132011162638207  0.1055716687569159
  0.0355915650395389  0.9269287748627661  0.6195045910579324
  0.3695457680361542  0.2919991174631491  0.0771212606432172
  0.4684301691407811  0.0894298321842655  0.3792097916361641
  0.4686701969766602  0.8424170530233326  0.6242393489121056
  0.3797621360195151  0.5428549057069176  0.8366319085121319
  0.9151324062102404  0.8904074928806622  0.0236265804647147
  0.5388516886004879  0.8690550107540389  0.0419186195555596
  0.1808080930106186  0.7262013140359969  0.2506434822127517
  0.5419198481026370  0.4131769272958437  0.3837207142760732
  0.9568272780534883  0.1382202913065740  0.6640384565780408
  0.9177372178992158  0.4870159368988780  0.4295219234131125
  0.1714977174843213  0.9052791497600765  0.4673717978442014
  0.5217469391054408  0.5021087043866146  0.6554198838174798
  0.9524359497040820  0.2768092471804806  0.8295118141432312
  0.5527062390401198  0.1846951259965692  0.1117481581763542

  0.00000000E+00  0.00000000E+00  0.00000000E+00
  0.00000000E+00  0.00000000E+00  0.00000000E+00
  0.00000000E+00  0.00000000E+00  0.00000000E+00
  0.00000000E+00  0.00000000E+00  0.00000000E+00
  0.00000000E+00  0.00000000E+00  0.00000000E+00
  0.00000000E+00  0.00000000E+00  0.00000000E+00
  0.00000000E+00  0.00000000E+00  0.00000000E+00
  0.00000000E+00  0.00000000E+00  0.00000000E+00
  0.00000000E+00  0.00000000E+00  0.00000000E+00
  0.00000000E+00  0.00000000E+00  0.00000000E+00
  0.00000000E+00  0.00000000E+00  0.00000000E+00
  0.00000000E+00  0.00000000E+00  0.00000000E+00
  0.00000000E+00  0.00000000E+00  0.00000000E+00
  0.00000000E+00  0.00000000E+00  0.00000000E+00
  0.00000000E+00  0.00000000E+00  0.00000000E+00
  0.00000000E+00  0.00000000E+00  0.00000000E+00
