Mg2 Ga2 F10                             
   1.0000000000000000     
     3.4317778566225199    0.0000000000000000    0.0000000000000002
    -0.0000000000000005    7.4012161127870835    0.0000000000000005
     0.0000000000000000   -0.0000000000000000    8.0708648753777101
   Mg   Ga   F 
     2     2    10
Direct
  0.0000000000000000  0.0000000000000000  0.5000000000000000
  0.5000000000000000  0.5000000000000000  0.0000000000000000
  0.5000000000000000  0.0000000000000000  0.0000000000000000
  0.0000000000000000  0.5000000000000000  0.5000000000000000
  0.5000000000000000  0.8337815854602582  0.5000000000000000
  0.5000000000000000  0.1662184145397418  0.5000000000000000
  0.5000000000000000  0.0000000000000000  0.2216933795062275
  0.5000000000000000  0.0000000000000000  0.7783066204937725
  0.0000000000000000  0.0000000000000000  0.0000000000000000
  0.0000000000000000  0.3337815854602582  0.0000000000000000
  0.0000000000000000  0.6662184145397418  0.0000000000000000
  0.0000000000000000  0.5000000000000000  0.7216933795062275
  0.0000000000000000  0.5000000000000000  0.2783066204937725
  0.5000000000000000  0.5000000000000000  0.5000000000000000

  0.00000000E+00  0.00000000E+00  0.00000000E+00
  0.00000000E+00  0.00000000E+00  0.00000000E+00
  0.00000000E+00  0.00000000E+00  0.00000000E+00
  0.00000000E+00  0.00000000E+00  0.00000000E+00
  0.00000000E+00  0.00000000E+00  0.00000000E+00
  0.00000000E+00  0.00000000E+00  0.00000000E+00
  0.00000000E+00  0.00000000E+00  0.00000000E+00
  0.00000000E+00  0.00000000E+00  0.00000000E+00
  0.00000000E+00  0.00000000E+00  0.00000000E+00
  0.00000000E+00  0.00000000E+00  0.00000000E+00
  0.00000000E+00  0.00000000E+00  0.00000000E+00
  0.00000000E+00  0.00000000E+00  0.00000000E+00
  0.00000000E+00  0.00000000E+00  0.00000000E+00
  0.00000000E+00  0.00000000E+00  0.00000000E+00
