Mg1 B2 I10                              
   1.00000000000000     
     6.5169479367479193    6.8742082879051312    2.5114869651286238
    -6.5169479367479193    6.8742082879051321    2.5114869651286238
     0.0000000000000001    8.6802019990322314   11.9771836969035732
   Mg   B    I 
     1     2    10
Direct
  0.6170276009672975  0.3829723990327025  0.0000000000000000
  0.1033185142134556  0.9688579519040061  0.8595161849671697
  0.0311420480959868  0.8966814857865444  0.1404838150328231
  0.2840516747015656  0.1889817549927528  0.6092365276437590
  0.8110182450072472  0.7159483252984344  0.3907634723562410
  0.7293331861901038  0.7721114147471013  0.8471297968330163
  0.2278885852528987  0.2706668138098962  0.1528702031669837
  0.9491067735725380  0.0508932264274620  0.0000000000000000
  0.9818402213857595  0.0181597786142405  0.5000000000000000
  0.7959945787726781  0.3451334188607476  0.7918904576175052
  0.6548665811392524  0.2040054212273219  0.2081095423824948
  0.0341391705974701  0.6757281798962964  0.9936326341762367
  0.3242718201037107  0.9658608294025299  0.0063673658237633
 
  0.00000000E+00  0.00000000E+00  0.00000000E+00
  0.00000000E+00  0.00000000E+00  0.00000000E+00
  0.00000000E+00  0.00000000E+00  0.00000000E+00
  0.00000000E+00  0.00000000E+00  0.00000000E+00
  0.00000000E+00  0.00000000E+00  0.00000000E+00
  0.00000000E+00  0.00000000E+00  0.00000000E+00
  0.00000000E+00  0.00000000E+00  0.00000000E+00
  0.00000000E+00  0.00000000E+00  0.00000000E+00
  0.00000000E+00  0.00000000E+00  0.00000000E+00
  0.00000000E+00  0.00000000E+00  0.00000000E+00
  0.00000000E+00  0.00000000E+00  0.00000000E+00
  0.00000000E+00  0.00000000E+00  0.00000000E+00
  0.00000000E+00  0.00000000E+00  0.00000000E+00
