Ba4 Tl4 Br20                            
   1.0000000000000000     
    15.4924124328780071   -0.0135261128142705   -0.0086685185663780
     0.0049872353438428    9.0724930549674330    0.0081613037087266
     0.0103437201481807   -0.0051938692533975    8.2616319222117198
   Ba   Br   Tl
     4    20     4
Direct
  0.0836040362669763  0.0198488826927061  0.0143234577740188
  0.9163366560822581  0.5202152943144824  0.4855068369150359
  0.4163266593796848  0.9800955230882309  0.5141578881433801
  0.5838782511091907  0.4797174183088586  0.9854381130804768
  0.3812794463436830  0.5806895431447430  0.0292586936491475
  0.4510091625672601  0.1920740857926404  0.1836218540881944
  0.0489858502772051  0.6988489958598336  0.2119388997604545
  0.7812460910508250  0.4798316483643177  0.1643492233529855
  0.8274719733164915  0.8489348012403752  0.4537530580095464
  0.1727424637656156  0.3484357607567716  0.0471282479405204
  0.2185883821569732  0.9802145244311049  0.3357323729477741
  0.9512332045715084  0.1992322083699563  0.2879482746097892
  0.5491716229248809  0.6928671372926729  0.3154044353196142
  0.6188689418037114  0.0810497706473754  0.4710905135876828
  0.1185372353534930  0.4192413134967978  0.5297098118869030
  0.0490704638461352  0.8081233373620123  0.6837179372499662
  0.4512540342416500  0.3013528494150179  0.7116692874443231
  0.7184736261569427  0.5196025758080864  0.6636423276437853
  0.6728365145027411  0.1505391145344745  0.9532970433714425
  0.3271812602669755  0.6510907833771853  0.5474098105514358
  0.2813654212502996  0.0198350564248955  0.8355910930961841
  0.5488167346659907  0.8009383499154197  0.7878454275449869
  0.9507753888404622  0.3078801369366602  0.8159536297192034
  0.8812537952724355  0.9187958430513561  0.9711180475705419
  0.8348548202177213  0.2042454559350873  0.0346313170247257
  0.1651900252501690  0.7045386671669576  0.4655294972411923
  0.6651511146176290  0.7956617161867570  0.5342243827495565
  0.3348968239011398  0.2954992060852319  0.9654085177271767

  0.00000000E+00  0.00000000E+00  0.00000000E+00
  0.00000000E+00  0.00000000E+00  0.00000000E+00
  0.00000000E+00  0.00000000E+00  0.00000000E+00
  0.00000000E+00  0.00000000E+00  0.00000000E+00
  0.00000000E+00  0.00000000E+00  0.00000000E+00
  0.00000000E+00  0.00000000E+00  0.00000000E+00
  0.00000000E+00  0.00000000E+00  0.00000000E+00
  0.00000000E+00  0.00000000E+00  0.00000000E+00
  0.00000000E+00  0.00000000E+00  0.00000000E+00
  0.00000000E+00  0.00000000E+00  0.00000000E+00
  0.00000000E+00  0.00000000E+00  0.00000000E+00
  0.00000000E+00  0.00000000E+00  0.00000000E+00
  0.00000000E+00  0.00000000E+00  0.00000000E+00
  0.00000000E+00  0.00000000E+00  0.00000000E+00
  0.00000000E+00  0.00000000E+00  0.00000000E+00
  0.00000000E+00  0.00000000E+00  0.00000000E+00
  0.00000000E+00  0.00000000E+00  0.00000000E+00
  0.00000000E+00  0.00000000E+00  0.00000000E+00
  0.00000000E+00  0.00000000E+00  0.00000000E+00
  0.00000000E+00  0.00000000E+00  0.00000000E+00
  0.00000000E+00  0.00000000E+00  0.00000000E+00
  0.00000000E+00  0.00000000E+00  0.00000000E+00
  0.00000000E+00  0.00000000E+00  0.00000000E+00
  0.00000000E+00  0.00000000E+00  0.00000000E+00
  0.00000000E+00  0.00000000E+00  0.00000000E+00
  0.00000000E+00  0.00000000E+00  0.00000000E+00
  0.00000000E+00  0.00000000E+00  0.00000000E+00
  0.00000000E+00  0.00000000E+00  0.00000000E+00
