Mg8 Tl8 F40                             
   1.0000000000000000     
     8.1433110307480323    0.0000000000000000    0.0000000000000000
     0.0000000000000000    6.0466334613762092    1.0092776754662962
     0.0000000000000000    2.6297408352350407   13.4614440803820372
   Mg   Tl   F 
     8     8    40
Direct
  0.0967052518431899  0.0363452136982545  0.0923579386697071
  0.9032947481568172  0.9636547863017455  0.9076420613302929
  0.5967052518431828  0.9636547863017455  0.4076420613302929
  0.4032947481568172  0.0363452136982545  0.5923579386697071
  0.8766006208713080  0.4735535223268315  0.1134787552421770
  0.1233993791286849  0.5264464776731614  0.8865212447578230
  0.3766006208713080  0.5264464776731614  0.3865212447578230
  0.6233993791286920  0.4735535223268315  0.6134787552421770
  0.8748584967373958  0.4947740620904924  0.3758283325885401
  0.1251415032626113  0.5052259379095005  0.6241716674114599
  0.3748584967373958  0.5052259379095005  0.1241716674114528
  0.6251415032626042  0.4947740620904924  0.8758283325885401
  0.6239261055554053  0.9911755923785392  0.1412563557267958
  0.3760738944446160  0.0088244076214536  0.8587436442732113
  0.1239261055553982  0.0088244076214536  0.3587436442732113
  0.8760738944445947  0.9911755923785392  0.6412563557267887
  0.3631289237043873  0.5985703133976230  0.9356201754186060
  0.6368710762956056  0.4014296866023770  0.0643798245814082
  0.8631289237043944  0.4014296866023770  0.5643798245813940
  0.1368710762956127  0.5985703133976230  0.4356201754185918
  0.9369400492504099  0.8022224840793442  0.0578935498069697
  0.0630599507495901  0.1977775159206558  0.9421064501930232
  0.4369400492504099  0.1977775159206558  0.4421064501930303
  0.5630599507495901  0.8022224840793442  0.5578935498069768
  0.6225205329532315  0.1335302917982375  0.6315617341847357
  0.3774794670467685  0.8664697082017625  0.3684382658152643
  0.1225205329532315  0.8664697082017625  0.8684382658152643
  0.8774794670467685  0.1335302917982375  0.1315617341847357
  0.6181410727799914  0.1490278985531717  0.2606857525502377
  0.3818589272200157  0.8509721014468283  0.7393142474497623
  0.1181410727799843  0.8509721014468283  0.2393142474497623
  0.8818589272200086  0.1490278985531717  0.7606857525502377
  0.7627451376416445  0.6444932445499134  0.2164950725703179
  0.2372548623583555  0.3555067554500795  0.7835049274296821
  0.2627451376416445  0.3555067554500795  0.2835049274296821
  0.7372548623583555  0.6444932445499134  0.7164950725703179
  0.7449412785557286  0.1613198685140418  0.9461769333668357
  0.2550587214442643  0.8386801314859511  0.0538230666331643
  0.2449412785557286  0.8386801314859511  0.5538230666331643
  0.7550587214442714  0.1613198685140418  0.4461769333668357
  0.6163034690844569  0.5941201471162074  0.4294609546115993
  0.3836965309155360  0.4058798528837926  0.5705390453884007
  0.1163034690844569  0.4058798528837926  0.0705390453884007
  0.8836965309155431  0.5941201471162074  0.9294609546115993
  0.9582508819522388  0.3264473278509641  0.2610370122451044
  0.0417491180477612  0.6735526721490359  0.7389629877548884
  0.4582508819522388  0.6735526721490359  0.2389629877548956
  0.5417491180477612  0.3264473278509641  0.7610370122451116
  0.3613777435393430  0.1404731640853996  0.1429274768040045
  0.6386222564606570  0.8595268359146004  0.8570725231959955
  0.8613777435393430  0.8595268359146004  0.3570725231959955
  0.1386222564606641  0.1404731640853996  0.6429274768040045
  0.5665821870688177  0.7930588287238578  0.0470355780272058
  0.4334178129311823  0.2069411712761422  0.9529644219728013
  0.0665821870688177  0.2069411712761422  0.4529644219727942
  0.9334178129311823  0.7930588287238578  0.5470355780271987

  0.00000000E+00  0.00000000E+00  0.00000000E+00
  0.00000000E+00  0.00000000E+00  0.00000000E+00
  0.00000000E+00  0.00000000E+00  0.00000000E+00
  0.00000000E+00  0.00000000E+00  0.00000000E+00
  0.00000000E+00  0.00000000E+00  0.00000000E+00
  0.00000000E+00  0.00000000E+00  0.00000000E+00
  0.00000000E+00  0.00000000E+00  0.00000000E+00
  0.00000000E+00  0.00000000E+00  0.00000000E+00
  0.00000000E+00  0.00000000E+00  0.00000000E+00
  0.00000000E+00  0.00000000E+00  0.00000000E+00
  0.00000000E+00  0.00000000E+00  0.00000000E+00
  0.00000000E+00  0.00000000E+00  0.00000000E+00
  0.00000000E+00  0.00000000E+00  0.00000000E+00
  0.00000000E+00  0.00000000E+00  0.00000000E+00
  0.00000000E+00  0.00000000E+00  0.00000000E+00
  0.00000000E+00  0.00000000E+00  0.00000000E+00
  0.00000000E+00  0.00000000E+00  0.00000000E+00
  0.00000000E+00  0.00000000E+00  0.00000000E+00
  0.00000000E+00  0.00000000E+00  0.00000000E+00
  0.00000000E+00  0.00000000E+00  0.00000000E+00
  0.00000000E+00  0.00000000E+00  0.00000000E+00
  0.00000000E+00  0.00000000E+00  0.00000000E+00
  0.00000000E+00  0.00000000E+00  0.00000000E+00
  0.00000000E+00  0.00000000E+00  0.00000000E+00
  0.00000000E+00  0.00000000E+00  0.00000000E+00
  0.00000000E+00  0.00000000E+00  0.00000000E+00
  0.00000000E+00  0.00000000E+00  0.00000000E+00
  0.00000000E+00  0.00000000E+00  0.00000000E+00
  0.00000000E+00  0.00000000E+00  0.00000000E+00
  0.00000000E+00  0.00000000E+00  0.00000000E+00
  0.00000000E+00  0.00000000E+00  0.00000000E+00
  0.00000000E+00  0.00000000E+00  0.00000000E+00
  0.00000000E+00  0.00000000E+00  0.00000000E+00
  0.00000000E+00  0.00000000E+00  0.00000000E+00
  0.00000000E+00  0.00000000E+00  0.00000000E+00
  0.00000000E+00  0.00000000E+00  0.00000000E+00
  0.00000000E+00  0.00000000E+00  0.00000000E+00
  0.00000000E+00  0.00000000E+00  0.00000000E+00
  0.00000000E+00  0.00000000E+00  0.00000000E+00
  0.00000000E+00  0.00000000E+00  0.00000000E+00
  0.00000000E+00  0.00000000E+00  0.00000000E+00
  0.00000000E+00  0.00000000E+00  0.00000000E+00
  0.00000000E+00  0.00000000E+00  0.00000000E+00
  0.00000000E+00  0.00000000E+00  0.00000000E+00
  0.00000000E+00  0.00000000E+00  0.00000000E+00
  0.00000000E+00  0.00000000E+00  0.00000000E+00
  0.00000000E+00  0.00000000E+00  0.00000000E+00
  0.00000000E+00  0.00000000E+00  0.00000000E+00
  0.00000000E+00  0.00000000E+00  0.00000000E+00
  0.00000000E+00  0.00000000E+00  0.00000000E+00
  0.00000000E+00  0.00000000E+00  0.00000000E+00
  0.00000000E+00  0.00000000E+00  0.00000000E+00
  0.00000000E+00  0.00000000E+00  0.00000000E+00
  0.00000000E+00  0.00000000E+00  0.00000000E+00
  0.00000000E+00  0.00000000E+00  0.00000000E+00
  0.00000000E+00  0.00000000E+00  0.00000000E+00
