MgB7                                    
   1.00000000000000     
    -0.0000000856890260   -5.9652382721706081   -0.0003999576728579
     5.2286526366179782    2.9823902244504907    4.0507359451616782
    -5.2286524531072942    2.9823900744535696    4.0507358187843110
   B    Mg
    28     4
Direct
  0.8847341416861454  0.2442864931976914  0.0252415406609003
  0.2086936155977668  0.3774578347988395  0.0331480619849884
  0.7018826399297282  0.3774966991624069  0.0331139432962217
  0.6763215513144587  0.7586699435717605  0.0940755716208628
  0.5244679163987200  0.3583032810015538  0.1906214956545824
  0.5078476677643806  0.5998209876673073  0.2270751298860247
  0.8189917758772296  0.5998559220759461  0.2270481119485979
  0.3236750135182902  0.9059827730945287  0.2413838395765353
  0.8847341644792195  0.0252415524569471  0.2442865081185630
  0.5244679365671843  0.1906214964614747  0.3583032865397868
  0.2086936578783707  0.0331480706327056  0.3774578555099879
  0.7018826392474935  0.0331139336689716  0.3774966949188823
  0.1810044262035220  0.7730126508660788  0.4001985510568176
  0.4921463565368214  0.7729829353337294  0.4002326816798458
  0.5078476563225678  0.2270751212001585  0.5998209900695883
  0.8189918605191266  0.2270481339060026  0.5998559412839484
  0.2981175424532978  0.9669449907283010  0.6225577062716425
  0.7913056098889726  0.9669114739567277  0.6225939769720057
  0.4755316765259678  0.8094359934750628  0.6417509245139783
  0.1152646760643279  0.9748154192323781  0.7557667759625346
  0.6763215575224990  0.0940755707291530  0.7586699470259219
  0.1810044998893758  0.4001985730902007  0.7730126811953895
  0.4921463597261635  0.4002326833998140  0.7729829367621832
  0.4755317079377406  0.6417509351551871  0.8094360113961940
  0.3236750181188555  0.2413838375364179  0.9059827792929340
  0.2981175619255225  0.6225577153559172  0.9669450048963313
  0.7913056650794985  0.6225940112880082  0.9669115073438732
  0.1152646922665639  0.7557667852560286  0.9748154333118819
  0.9999895680296689  0.0000214602121105  0.0000214531383307
  0.4999992778613205  0.0000275955479907  0.0000275860773087
  0.1353127757655130  0.3854212102555010  0.3854211034183521
  0.8647287911037012  0.6146439156850576  0.6146439686149705
 
  0.00000000E+00  0.00000000E+00  0.00000000E+00
  0.00000000E+00  0.00000000E+00  0.00000000E+00
  0.00000000E+00  0.00000000E+00  0.00000000E+00
  0.00000000E+00  0.00000000E+00  0.00000000E+00
  0.00000000E+00  0.00000000E+00  0.00000000E+00
  0.00000000E+00  0.00000000E+00  0.00000000E+00
  0.00000000E+00  0.00000000E+00  0.00000000E+00
  0.00000000E+00  0.00000000E+00  0.00000000E+00
  0.00000000E+00  0.00000000E+00  0.00000000E+00
  0.00000000E+00  0.00000000E+00  0.00000000E+00
  0.00000000E+00  0.00000000E+00  0.00000000E+00
  0.00000000E+00  0.00000000E+00  0.00000000E+00
  0.00000000E+00  0.00000000E+00  0.00000000E+00
  0.00000000E+00  0.00000000E+00  0.00000000E+00
  0.00000000E+00  0.00000000E+00  0.00000000E+00
  0.00000000E+00  0.00000000E+00  0.00000000E+00
  0.00000000E+00  0.00000000E+00  0.00000000E+00
  0.00000000E+00  0.00000000E+00  0.00000000E+00
  0.00000000E+00  0.00000000E+00  0.00000000E+00
  0.00000000E+00  0.00000000E+00  0.00000000E+00
  0.00000000E+00  0.00000000E+00  0.00000000E+00
  0.00000000E+00  0.00000000E+00  0.00000000E+00
  0.00000000E+00  0.00000000E+00  0.00000000E+00
  0.00000000E+00  0.00000000E+00  0.00000000E+00
  0.00000000E+00  0.00000000E+00  0.00000000E+00
  0.00000000E+00  0.00000000E+00  0.00000000E+00
  0.00000000E+00  0.00000000E+00  0.00000000E+00
  0.00000000E+00  0.00000000E+00  0.00000000E+00
  0.00000000E+00  0.00000000E+00  0.00000000E+00
  0.00000000E+00  0.00000000E+00  0.00000000E+00
  0.00000000E+00  0.00000000E+00  0.00000000E+00
  0.00000000E+00  0.00000000E+00  0.00000000E+00
