Be3Cl                                   
   1.00000000000000     
     6.9282356048923130    3.6577703060544882    0.0000000000000000
     0.3238625858970430    4.4030610994727200    0.0000000000000000
     0.0000000000000000    0.0000000000000000    3.5890132943643347
   Be   Cl
     6     2
Direct
  0.9723463247711379  0.4094452916285505  0.2500000000000000
  0.0185053603392760  0.8514589069625131  0.2500000000000000
  0.2878030256545401  0.1845524548978972  0.2500000000000000
  0.0276536752288621  0.5905547083714495  0.7500000000000000
  0.9814946396607240  0.1485410930374869  0.7500000000000000
  0.7121969743454599  0.8154475451021028  0.7500000000000000
  0.4362246473720646  0.8127943106695952  0.7500000000000000
  0.5637753526279354  0.1872056893304048  0.2500000000000000
 
  0.00000000E+00  0.00000000E+00  0.00000000E+00
  0.00000000E+00  0.00000000E+00  0.00000000E+00
  0.00000000E+00  0.00000000E+00  0.00000000E+00
  0.00000000E+00  0.00000000E+00  0.00000000E+00
  0.00000000E+00  0.00000000E+00  0.00000000E+00
  0.00000000E+00  0.00000000E+00  0.00000000E+00
  0.00000000E+00  0.00000000E+00  0.00000000E+00
  0.00000000E+00  0.00000000E+00  0.00000000E+00
