Ba4 B4 Cl20                             
   1.0000000000000000     
     9.7074853408967723    0.0000000000000000    0.0000000000000000
     0.0000000000000000   12.4940688621641716   -2.9310069603866009
     0.0000000000000000    3.1315178103945565    7.8395561700504039
   Ba   B    Cl
     4     4    20
Direct
  0.8745986055694743  0.5078690730023752  0.2479400756748475
  0.3745986055694743  0.4921309269976248  0.2520599243251525
  0.1254013944305257  0.4921309269976248  0.7520599243251596
  0.6254013944305257  0.5078690730023752  0.7479400756748404
  0.7570871486670114  0.9287441271798969  0.6512207888998702
  0.2570871486670043  0.0712558728201031  0.8487792111001298
  0.2429128513329957  0.0712558728201031  0.3487792111001298
  0.7429128513329886  0.9287441271798969  0.1512207888998702
  0.6298422598310793  0.3939571760740748  0.4440378797067694
  0.1298422598310793  0.6060428239259252  0.0559621202932306
  0.3701577401689207  0.6060428239259252  0.5559621202932306
  0.8701577401689207  0.3939571760740748  0.9440378797067694
  0.7393181192679634  0.0574298376055467  0.5516351854946748
  0.2393181192679634  0.9425701623944533  0.9483648145053252
  0.2606818807320366  0.9425701623944533  0.4483648145053252
  0.7606818807320366  0.0574298376055467  0.0516351854946748
  0.4193374696380943  0.1200189756474686  0.7892755013705113
  0.9193374696380943  0.8799810243525314  0.7107244986294887
  0.5806625303619057  0.8799810243525314  0.2107244986294887
  0.0806625303619057  0.1200189756474686  0.2892755013705113
  0.6110255876035851  0.8493527194275217  0.6917564648947803
  0.1110255876035851  0.1506472805724783  0.8082435351052197
  0.3889744123964149  0.1506472805724783  0.3082435351052197
  0.8889744123964149  0.8493527194275217  0.1917564648947803
  0.3806415391045874  0.3924735557764407  0.9381060263420622
  0.8806415391045874  0.6075264442235593  0.5618939736579378
  0.6193584608954126  0.6075264442235593  0.0618939736579378
  0.1193584608954126  0.3924735557764407  0.4381060263420622

  0.00000000E+00  0.00000000E+00  0.00000000E+00
  0.00000000E+00  0.00000000E+00  0.00000000E+00
  0.00000000E+00  0.00000000E+00  0.00000000E+00
  0.00000000E+00  0.00000000E+00  0.00000000E+00
  0.00000000E+00  0.00000000E+00  0.00000000E+00
  0.00000000E+00  0.00000000E+00  0.00000000E+00
  0.00000000E+00  0.00000000E+00  0.00000000E+00
  0.00000000E+00  0.00000000E+00  0.00000000E+00
  0.00000000E+00  0.00000000E+00  0.00000000E+00
  0.00000000E+00  0.00000000E+00  0.00000000E+00
  0.00000000E+00  0.00000000E+00  0.00000000E+00
  0.00000000E+00  0.00000000E+00  0.00000000E+00
  0.00000000E+00  0.00000000E+00  0.00000000E+00
  0.00000000E+00  0.00000000E+00  0.00000000E+00
  0.00000000E+00  0.00000000E+00  0.00000000E+00
  0.00000000E+00  0.00000000E+00  0.00000000E+00
  0.00000000E+00  0.00000000E+00  0.00000000E+00
  0.00000000E+00  0.00000000E+00  0.00000000E+00
  0.00000000E+00  0.00000000E+00  0.00000000E+00
  0.00000000E+00  0.00000000E+00  0.00000000E+00
  0.00000000E+00  0.00000000E+00  0.00000000E+00
  0.00000000E+00  0.00000000E+00  0.00000000E+00
  0.00000000E+00  0.00000000E+00  0.00000000E+00
  0.00000000E+00  0.00000000E+00  0.00000000E+00
  0.00000000E+00  0.00000000E+00  0.00000000E+00
  0.00000000E+00  0.00000000E+00  0.00000000E+00
  0.00000000E+00  0.00000000E+00  0.00000000E+00
  0.00000000E+00  0.00000000E+00  0.00000000E+00
