Mg17 Tl11 F1                            
   1.0000000000000000     
     8.3405236264699649   -4.9284035907139705    3.4328593535053491
     0.1257419260224145    9.4577866595931752    2.6356920255140577
    -8.1942940344571742   -4.9644984490597155    2.9896304944491705
   Tl   F    Mg
    11     1    17
Direct
  0.7104507146613912  0.6932861335885647  0.9612397905190875
  0.4044258050918614  0.3718384173537004  0.2080982972972691
  0.1863153211357584  0.7820593357571397  0.1778248598801824
  0.7199235181651602  0.0383082486588009  0.2184155038720661
  0.0400306928333620  0.3227982744847537  0.2641934229766960
  0.4552067863978593  0.2602667026538370  0.4856170294418618
  0.0066484532024091  0.8778084263251813  0.5951129326131976
  0.7974311508676308  0.0376476188829784  0.6944674853072428
  0.5497261092940349  0.9193437218830098  0.8243742759864929
  0.9800132746229693  0.6586802191897760  0.7893331071071898
  0.3057807918019364  0.3065346980190569  0.7992794329042852
  0.7690326450867602  0.4051408742207983  0.0078373773419571
  0.1240443894473344  0.3906589992154395  0.0020866885605528
  0.3613845217165803  0.6785667719421724  0.9705257182596654
  0.3572226608039486  0.0122309114038259  0.0665700191532324
  0.5622421408409011  0.2703988481787079  0.9981350729925396
  0.0273884791714707  0.0240928591767542  0.9910876093724426
  0.6676619544218454  0.7264295653644766  0.2853259541358142
  0.9588895604940859  0.6081829119000943  0.2599124661240637
  0.5606856439974024  0.0103571191615615  0.4037355203499047
  0.0512454784906424  0.0278828836072265  0.3444050920804003
  0.3769690469407223  0.6839310825853318  0.4143518711315082
  0.7442615334608789  0.3952506892736452  0.3898317599135339
  0.3358097310609622  0.9982891604831252  0.5850537407827119
  0.9941438579588606  0.3120289073416416  0.6159114752414112
  0.6762475281450619  0.6705652680109040  0.6206473121193241
  0.1667898971831079  0.6721071620932477  0.6172060566722593
  0.7677867205117153  0.3583206004028625  0.7935232477086629
  0.3426555921933598  0.4851495888413879  0.6158968801544376

  0.00000000E+00  0.00000000E+00  0.00000000E+00
  0.00000000E+00  0.00000000E+00  0.00000000E+00
  0.00000000E+00  0.00000000E+00  0.00000000E+00
  0.00000000E+00  0.00000000E+00  0.00000000E+00
  0.00000000E+00  0.00000000E+00  0.00000000E+00
  0.00000000E+00  0.00000000E+00  0.00000000E+00
  0.00000000E+00  0.00000000E+00  0.00000000E+00
  0.00000000E+00  0.00000000E+00  0.00000000E+00
  0.00000000E+00  0.00000000E+00  0.00000000E+00
  0.00000000E+00  0.00000000E+00  0.00000000E+00
  0.00000000E+00  0.00000000E+00  0.00000000E+00
  0.00000000E+00  0.00000000E+00  0.00000000E+00
  0.00000000E+00  0.00000000E+00  0.00000000E+00
  0.00000000E+00  0.00000000E+00  0.00000000E+00
  0.00000000E+00  0.00000000E+00  0.00000000E+00
  0.00000000E+00  0.00000000E+00  0.00000000E+00
  0.00000000E+00  0.00000000E+00  0.00000000E+00
  0.00000000E+00  0.00000000E+00  0.00000000E+00
  0.00000000E+00  0.00000000E+00  0.00000000E+00
  0.00000000E+00  0.00000000E+00  0.00000000E+00
  0.00000000E+00  0.00000000E+00  0.00000000E+00
  0.00000000E+00  0.00000000E+00  0.00000000E+00
  0.00000000E+00  0.00000000E+00  0.00000000E+00
  0.00000000E+00  0.00000000E+00  0.00000000E+00
  0.00000000E+00  0.00000000E+00  0.00000000E+00
  0.00000000E+00  0.00000000E+00  0.00000000E+00
  0.00000000E+00  0.00000000E+00  0.00000000E+00
  0.00000000E+00  0.00000000E+00  0.00000000E+00
  0.00000000E+00  0.00000000E+00  0.00000000E+00
