Ba1 B3 F1                               
   1.00000000000000     
     4.4246905569757358    0.0000000000000000    0.0000000000000000
     0.0000000000000000    4.4246905569757358    0.0000000000000000
     0.0000000000000000    0.0000000000000000    4.4246905569757358
   F    B    Ba
     1     3     1
Direct
  0.5000000000000000  0.5000000000000000  0.5000000000000000
  0.5000000000000000  0.5000000000000000  0.0000000000000000
  0.5000000000000000  0.0000000000000000  0.5000000000000000
  0.0000000000000000  0.5000000000000000  0.5000000000000000
  0.0000000000000000  0.0000000000000000  0.0000000000000000
 
  0.00000000E+00  0.00000000E+00  0.00000000E+00
  0.00000000E+00  0.00000000E+00  0.00000000E+00
  0.00000000E+00  0.00000000E+00  0.00000000E+00
  0.00000000E+00  0.00000000E+00  0.00000000E+00
  0.00000000E+00  0.00000000E+00  0.00000000E+00
