Mg2 B22                                 
   1.00000000000000     
    -3.2463707700608144    3.5736152666449654    3.7048230153322130
     4.0392730367814611   -3.2119865700704118    4.0623646733063081
     3.2404996100266299    3.1685011456839014   -3.2993252716116670
   B    Mg
    22     2
Direct
  0.3987697855323873  0.4750677405563266  0.0396852258792890
  0.5371264245584797  0.2725039404199521  0.0590880909222733
  0.5217787456550553  0.7886715023766442  0.1774624704288996
  0.8728481681562528  0.3516762727128082  0.1301470496900947
  0.2395598028941706  0.8461494800742670  0.1580377495908536
  0.5163940836707255  0.6633401060642328  0.4150308240238658
  0.9990620112638808  0.6689292561760922  0.2377044835735447
  0.4300284348368066  0.3689739283956399  0.3235398379265177
  0.8314448328586366  0.8573240215926106  0.3631424579860649
  0.1213521002527003  0.3261837601606743  0.3794004953800467
  0.2646528711355671  0.1204063314537791  0.3666164718369274
  0.3017742396772647  0.7944278569729306  0.4643990474794393
  0.0834117789627626  0.8087884881461065  0.5857540794362066
  0.5677328637787511  0.8146439436229045  0.7422546976183213
  0.0828540535848390  0.1324836727273819  0.5429489964200656
  0.6829524014896293  0.5864679764899776  0.6888958135728487
  0.3458261335732971  0.0706534309217091  0.6887959400930157
  0.4622439640938865  0.6073092207601434  0.8400819063767742
  0.6491474130541803  0.1035349260883507  0.8772775408393727
  0.0153990540362585  0.6535798366332841  0.7891120881368394
  0.1475433444369614  0.4328280834929075  0.7227751869483399
  0.6989779912953011  0.5093511745771337  0.9969226510488056
  0.0130511871006576  0.0358279821146397  0.9191236407989649
  0.7162683141015549  0.2104770674695260  0.4922032539926491
 
  0.00000000E+00  0.00000000E+00  0.00000000E+00
  0.00000000E+00  0.00000000E+00  0.00000000E+00
  0.00000000E+00  0.00000000E+00  0.00000000E+00
  0.00000000E+00  0.00000000E+00  0.00000000E+00
  0.00000000E+00  0.00000000E+00  0.00000000E+00
  0.00000000E+00  0.00000000E+00  0.00000000E+00
  0.00000000E+00  0.00000000E+00  0.00000000E+00
  0.00000000E+00  0.00000000E+00  0.00000000E+00
  0.00000000E+00  0.00000000E+00  0.00000000E+00
  0.00000000E+00  0.00000000E+00  0.00000000E+00
  0.00000000E+00  0.00000000E+00  0.00000000E+00
  0.00000000E+00  0.00000000E+00  0.00000000E+00
  0.00000000E+00  0.00000000E+00  0.00000000E+00
  0.00000000E+00  0.00000000E+00  0.00000000E+00
  0.00000000E+00  0.00000000E+00  0.00000000E+00
  0.00000000E+00  0.00000000E+00  0.00000000E+00
  0.00000000E+00  0.00000000E+00  0.00000000E+00
  0.00000000E+00  0.00000000E+00  0.00000000E+00
  0.00000000E+00  0.00000000E+00  0.00000000E+00
  0.00000000E+00  0.00000000E+00  0.00000000E+00
  0.00000000E+00  0.00000000E+00  0.00000000E+00
  0.00000000E+00  0.00000000E+00  0.00000000E+00
  0.00000000E+00  0.00000000E+00  0.00000000E+00
  0.00000000E+00  0.00000000E+00  0.00000000E+00
