B8 Br14                                 
   1.00000000000000     
     3.6409291756478028   -7.8042109378746050   -0.0290798357813731
    -3.6409291756478024   -7.8042109378746041   -0.0290798357813733
     0.0000000000000002    4.3307320466573476  -17.3841294393598602
   Br   B 
    14     8
Direct
  0.3657307421765879  0.3657307421765879  0.1674945050967835
  0.8813358983308746  0.4324883094441176  0.2155594051202314
  0.4324883094441176  0.8813358983308746  0.2155594051202314
  0.9322037444237878  0.9322037444237878  0.0751825026240667
  0.6537629676175101  0.1050798834247360  0.3508692786662024
  0.1050798834247360  0.6537629676175101  0.3508692786662024
  0.6109680977987182  0.6109680977987182  0.4151335125315327
  0.2749142709794796  0.2749142709794796  0.5982733966309723
  0.8700941938028919  0.3217673641174201  0.6149435881397167
  0.3217673641174201  0.8700941938028919  0.6149435881397167
  0.2247862780383159  0.2247862780383159  0.9365514859127728
  0.5834140878525744  0.1308624014153921  0.8492971945205312
  0.1308624014153921  0.5834140878525744  0.8492971945205312
  0.6116364957474474  0.6116364957474474  0.8462038409629500
  0.0095957201761578  0.0095957201761578  0.0081864488668657
  0.7208599953030728  0.7208599953030728  0.2484572691716096
  0.4320073675845606  0.4320073675845606  0.2681857666930014
  0.1561200420944004  0.1561200420944004  0.6083300341555997
  0.5203374273991415  0.5203374273991415  0.3291694766324866
  0.8186355322325198  0.8186355322325198  0.3098290898605001
  0.5312915260286317  0.5312915260286317  0.7485378049681017
  0.3129076540117239  0.3129076540117239  0.8788259329993977
 
  0.00000000E+00  0.00000000E+00  0.00000000E+00
  0.00000000E+00  0.00000000E+00  0.00000000E+00
  0.00000000E+00  0.00000000E+00  0.00000000E+00
  0.00000000E+00  0.00000000E+00  0.00000000E+00
  0.00000000E+00  0.00000000E+00  0.00000000E+00
  0.00000000E+00  0.00000000E+00  0.00000000E+00
  0.00000000E+00  0.00000000E+00  0.00000000E+00
  0.00000000E+00  0.00000000E+00  0.00000000E+00
  0.00000000E+00  0.00000000E+00  0.00000000E+00
  0.00000000E+00  0.00000000E+00  0.00000000E+00
  0.00000000E+00  0.00000000E+00  0.00000000E+00
  0.00000000E+00  0.00000000E+00  0.00000000E+00
  0.00000000E+00  0.00000000E+00  0.00000000E+00
  0.00000000E+00  0.00000000E+00  0.00000000E+00
  0.00000000E+00  0.00000000E+00  0.00000000E+00
  0.00000000E+00  0.00000000E+00  0.00000000E+00
  0.00000000E+00  0.00000000E+00  0.00000000E+00
  0.00000000E+00  0.00000000E+00  0.00000000E+00
  0.00000000E+00  0.00000000E+00  0.00000000E+00
  0.00000000E+00  0.00000000E+00  0.00000000E+00
  0.00000000E+00  0.00000000E+00  0.00000000E+00
  0.00000000E+00  0.00000000E+00  0.00000000E+00
