Sr5 Al2                                 
   1.00000000000000     
     7.1119876418216652   -2.1132824320132126   -0.0278258254302326
     7.1119876418216652    2.1132824320132122   -0.0278258254302326
    -6.8744480389422753    0.0000000000000001    9.9586590782637483
   Al   Sr
     2     5
Direct
  0.6720006335623339  0.6720006335623339  0.4415668779446591
  0.3279993664376661  0.3279993664376661  0.5584331220553409
  0.4094465351803436  0.4094465351803436  0.1318903513739045
  0.1856091343950297  0.1856091343950297  0.2281288373953814
  0.0000000000000000  0.0000000000000000  0.5000000000000000
  0.8143908656049703  0.8143908656049703  0.7718711626046186
  0.5905534648196564  0.5905534648196564  0.8681096486260955
 
  0.00000000E+00  0.00000000E+00  0.00000000E+00
  0.00000000E+00  0.00000000E+00  0.00000000E+00
  0.00000000E+00  0.00000000E+00  0.00000000E+00
  0.00000000E+00  0.00000000E+00  0.00000000E+00
  0.00000000E+00  0.00000000E+00  0.00000000E+00
  0.00000000E+00  0.00000000E+00  0.00000000E+00
  0.00000000E+00  0.00000000E+00  0.00000000E+00
