I                                       
   1.00000000000000     
    -4.5792094581970773   -2.3087962071084331    0.0000000000000000
    -4.5792094581970773    2.3087962071084331    0.0000000000000000
     0.0000000000000000   -0.0000000000000001   -9.8349968852333820
   I 
     4
Direct
  0.1579260398858935  0.8420739601141065  0.1220102909021534
  0.6579260398858935  0.3420739601141065  0.3779897090978466
  0.3420739601141065  0.6579260398858935  0.6220102909021534
  0.8420739601141065  0.1579260398858935  0.8779897090978466
 
  0.00000000E+00  0.00000000E+00  0.00000000E+00
  0.00000000E+00  0.00000000E+00  0.00000000E+00
  0.00000000E+00  0.00000000E+00  0.00000000E+00
  0.00000000E+00  0.00000000E+00  0.00000000E+00
