Mg17 In11 Cl1                           
   1.00000000000000     
     8.2489947052876769   -4.7475850007830243    3.3472089701396084
    -0.0920599097464576    9.2738303677214962    3.2470226022548050
    -7.8290974663288431   -4.4066516587755293    2.8115781421088260
   In   Cl   Mg
    11     1    17
Direct
  0.6569906758480144  0.7948806486034954  0.9997365113639063
  0.4048596600042274  0.4073200008348010  0.2053825315369835
  0.7819684987360276  0.1859143651944635  0.1968921549780092
  0.2021428352238530  0.8206300094492249  0.1946792664885564
  0.1540712489822411  0.3610635591546156  0.3432561994858645
  0.3967856512214212  0.2027364953429682  0.3902238915069276
  0.0080084071074680  0.8127562496785146  0.6105075923571945
  0.8111038023396446  0.0174919721309763  0.6566515803285142
  0.0081686348134440  0.6237510424220929  0.8050854899114981
  0.5853110421940215  0.9888162363302087  0.8023170206561545
  0.1993585743178983  0.2014300323461811  0.7945535616456709
  0.7662363427128582  0.5065972859774277  0.0004585490637439
  0.0533534418998443  0.3596121106787393  0.9995316224805109
  0.3370476341207436  0.9898617009689801  0.9998806582066919
  0.5585489340522045  0.2881225851648423  0.9997964498071639
  0.0021902535061216  0.0058864056176873  0.0004579652829690
  0.3388821765499301  0.6208570154217909  0.0001724355554984
  0.6918017645860530  0.7201246457086725  0.3047602776188825
  0.5930895997180485  0.0009531641635476  0.3237943454871370
  0.0009186931870957  0.5833915528600642  0.2985030363835506
  0.0069951073084269  0.0148546749875891  0.3443244935928647
  0.3961299737358033  0.7150034558185752  0.4011269832886910
  0.7232631483072325  0.4169277489408287  0.4167559052379488
  0.3064473571278654  0.0007830892847807  0.5830877912688806
  0.9952785835184983  0.3136641558166957  0.5985268181919494
  0.6631937355138078  0.6703071719589531  0.6557491424707322
  0.7029277714315967  0.2847739063539407  0.7021995111129442
  0.2698443870140323  0.6766559878911025  0.6765944127597194
  0.3860380649215429  0.4141727308982652  0.6949948019308181
 
  0.00000000E+00  0.00000000E+00  0.00000000E+00
  0.00000000E+00  0.00000000E+00  0.00000000E+00
  0.00000000E+00  0.00000000E+00  0.00000000E+00
  0.00000000E+00  0.00000000E+00  0.00000000E+00
  0.00000000E+00  0.00000000E+00  0.00000000E+00
  0.00000000E+00  0.00000000E+00  0.00000000E+00
  0.00000000E+00  0.00000000E+00  0.00000000E+00
  0.00000000E+00  0.00000000E+00  0.00000000E+00
  0.00000000E+00  0.00000000E+00  0.00000000E+00
  0.00000000E+00  0.00000000E+00  0.00000000E+00
  0.00000000E+00  0.00000000E+00  0.00000000E+00
  0.00000000E+00  0.00000000E+00  0.00000000E+00
  0.00000000E+00  0.00000000E+00  0.00000000E+00
  0.00000000E+00  0.00000000E+00  0.00000000E+00
  0.00000000E+00  0.00000000E+00  0.00000000E+00
  0.00000000E+00  0.00000000E+00  0.00000000E+00
  0.00000000E+00  0.00000000E+00  0.00000000E+00
  0.00000000E+00  0.00000000E+00  0.00000000E+00
  0.00000000E+00  0.00000000E+00  0.00000000E+00
  0.00000000E+00  0.00000000E+00  0.00000000E+00
  0.00000000E+00  0.00000000E+00  0.00000000E+00
  0.00000000E+00  0.00000000E+00  0.00000000E+00
  0.00000000E+00  0.00000000E+00  0.00000000E+00
  0.00000000E+00  0.00000000E+00  0.00000000E+00
  0.00000000E+00  0.00000000E+00  0.00000000E+00
  0.00000000E+00  0.00000000E+00  0.00000000E+00
  0.00000000E+00  0.00000000E+00  0.00000000E+00
  0.00000000E+00  0.00000000E+00  0.00000000E+00
  0.00000000E+00  0.00000000E+00  0.00000000E+00
