Be4 B34                                 
   1.00000000000000     
     6.5117393786347657   -0.1171876788748025   -0.3077919791270425
    -3.3333099553555416    5.8293580553428566   -0.2568217663691726
    -0.4225122228029151   -0.6254633422678455    8.3803793011528303
   B    Be
    34     4
Direct
  0.4200577228204878  0.9774406983348740  0.0524102510626889
  0.9002137522802940  0.4280604091091433  0.0865653641495641
  0.4052457859323937  0.4066562285997577  0.0624504973973998
  0.3139812998485780  0.1493986762917672  0.1486594151176917
  0.7333263881670078  0.1652334120748691  0.1618897135261079
  0.7283002981441840  0.5503942724119000  0.1523368298515138
  0.4360901342711614  0.9319330332126867  0.8479598134904407
  0.0249048770579634  0.3804812259148065  0.2743477233841958
  0.2713255766355687  0.3656830209067152  0.2434964384946525
  0.0270364878375133  0.6550656030677828  0.2580936365686455
  0.5355808050322892  0.6396382845521487  0.2170810889849690
  0.2749026352892017  0.9063902737196088  0.2290473879889063
  0.5427261947261570  0.8923992618084355  0.2132051489853453
  0.4473025021552957  0.6085389574308309  0.5682854812043061
  0.3482428418474157  0.1780431407571115  0.3755401235332627
  0.7980960096155627  0.1334943227643279  0.3516389549199843
  0.7946823345532721  0.6804848255938722  0.3446424070614142
  0.5175144657156352  0.0274866547346164  0.3958577993438439
  0.1191153832200058  0.6186139665646806  0.4699219472107146
  0.5152316600085385  0.4926439802712395  0.4002082269435761
  0.3225304757023792  0.3834759884867722  0.6886787815401689
  0.4187200271651648  0.8458786555814370  0.5351261692899598
  0.6802088271453570  0.8589612154527018  0.6724463771505498
  0.7644303555146976  0.6982976487614678  0.5461564647803812
  0.5022753153160835  0.0987234484808610  0.6808752160256049
  0.7343004020195991  0.1053997629046677  0.7996870650419083
  0.2732611855954943  0.1395017507997380  0.5845935249637506
  0.9781215220206505  0.3517874136833612  0.9092931752503546
  0.9431811100022998  0.5982250288247641  0.6313179241039251
  0.8198110323839884  0.3640427812978331  0.7243190288013750
  0.5789993616136684  0.2762469082438628  0.0690227912184085
  0.2726757864954124  0.4226331085960169  0.8786932682317428
  0.2176403072371258  0.8720636531109349  0.6684419357559932
  0.4505491733298399  0.6576574752090565  0.7790894104851489
  0.9748645215974392  0.0096596608631998  0.4499111514010892
  0.7342879657693047  0.3650027507523106  0.4572129131989442
  0.0290754818211738  0.1161449529762777  0.7303569114755604
  0.1503899941118050  0.6474175478535642  0.8393396420659514
 
  0.00000000E+00  0.00000000E+00  0.00000000E+00
  0.00000000E+00  0.00000000E+00  0.00000000E+00
  0.00000000E+00  0.00000000E+00  0.00000000E+00
  0.00000000E+00  0.00000000E+00  0.00000000E+00
  0.00000000E+00  0.00000000E+00  0.00000000E+00
  0.00000000E+00  0.00000000E+00  0.00000000E+00
  0.00000000E+00  0.00000000E+00  0.00000000E+00
  0.00000000E+00  0.00000000E+00  0.00000000E+00
  0.00000000E+00  0.00000000E+00  0.00000000E+00
  0.00000000E+00  0.00000000E+00  0.00000000E+00
  0.00000000E+00  0.00000000E+00  0.00000000E+00
  0.00000000E+00  0.00000000E+00  0.00000000E+00
  0.00000000E+00  0.00000000E+00  0.00000000E+00
  0.00000000E+00  0.00000000E+00  0.00000000E+00
  0.00000000E+00  0.00000000E+00  0.00000000E+00
  0.00000000E+00  0.00000000E+00  0.00000000E+00
  0.00000000E+00  0.00000000E+00  0.00000000E+00
  0.00000000E+00  0.00000000E+00  0.00000000E+00
  0.00000000E+00  0.00000000E+00  0.00000000E+00
  0.00000000E+00  0.00000000E+00  0.00000000E+00
  0.00000000E+00  0.00000000E+00  0.00000000E+00
  0.00000000E+00  0.00000000E+00  0.00000000E+00
  0.00000000E+00  0.00000000E+00  0.00000000E+00
  0.00000000E+00  0.00000000E+00  0.00000000E+00
  0.00000000E+00  0.00000000E+00  0.00000000E+00
  0.00000000E+00  0.00000000E+00  0.00000000E+00
  0.00000000E+00  0.00000000E+00  0.00000000E+00
  0.00000000E+00  0.00000000E+00  0.00000000E+00
  0.00000000E+00  0.00000000E+00  0.00000000E+00
  0.00000000E+00  0.00000000E+00  0.00000000E+00
  0.00000000E+00  0.00000000E+00  0.00000000E+00
  0.00000000E+00  0.00000000E+00  0.00000000E+00
  0.00000000E+00  0.00000000E+00  0.00000000E+00
  0.00000000E+00  0.00000000E+00  0.00000000E+00
  0.00000000E+00  0.00000000E+00  0.00000000E+00
  0.00000000E+00  0.00000000E+00  0.00000000E+00
  0.00000000E+00  0.00000000E+00  0.00000000E+00
  0.00000000E+00  0.00000000E+00  0.00000000E+00
