Mg4 B4 F20                              
   1.0000000000000000     
     0.0000000000000000    4.5906558399725563    0.0940765913229899
     8.0012004816132851    0.0000000000000000    0.0000000000000000
     0.0000000000000000   -0.4062822028159560   -8.0603989246164680
   Mg   B    F 
     4     4    20
Direct
  0.5953409442584885  0.4241665189721076  0.3148598837694578
  0.4046590557415115  0.9241665189721004  0.6851401162305351
  0.1294282907057820  0.1157072705205167  0.0664327826388984
  0.8705717092942180  0.6157072705205167  0.9335672173611016
  0.4459039468758803  0.7649555379890671  0.1462524480642102
  0.5540960531241197  0.2649555379890671  0.8537475519357827
  0.1259813232801932  0.5783334137667211  0.5690512125274978
  0.8740186767198068  0.0783334137667211  0.4309487874725022
  0.1531750975104629  0.0626860966960265  0.5106489351838448
  0.3101036461244462  0.4568215091044721  0.5071706927916324
  0.6898963538755538  0.9568215091044721  0.4928293072083605
  0.7326719697798652  0.7898782385101981  0.1013512686212934
  0.8261935336096045  0.4757845135457970  0.1297975060517373
  0.3269283198734385  0.9179241080435858  0.1860961713496252
  0.7784127949430442  0.2431657943510999  0.4578237855462248
  0.6800947621588662  0.7695514140908415  0.7806680847690401
  0.1738064663903955  0.9757845135457970  0.8702024939482627
  0.1248186974158827  0.5565430775694438  0.7410836233030480
  0.6730716801265686  0.4179241080435858  0.8139038286503819
  0.8468249024895371  0.5626860966960336  0.4893510648161552
  0.5623567024754763  0.1581508593872556  0.7181288151143619
  0.7159238365653593  0.1839306274528241  0.9872766377428235
  0.8751813025841173  0.0565430775694438  0.2589163766969662
  0.2215872050569558  0.7431657943511070  0.5421762144537823
  0.2673280302201277  0.2898782385101981  0.8986487313787066
  0.2840761634346478  0.6839306274528241  0.0127233622571765
  0.3199052378411338  0.2695514140908557  0.2193319152309599
  0.4376432975245237  0.6581508593872556  0.2818711848856381

  0.00000000E+00  0.00000000E+00  0.00000000E+00
  0.00000000E+00  0.00000000E+00  0.00000000E+00
  0.00000000E+00  0.00000000E+00  0.00000000E+00
  0.00000000E+00  0.00000000E+00  0.00000000E+00
  0.00000000E+00  0.00000000E+00  0.00000000E+00
  0.00000000E+00  0.00000000E+00  0.00000000E+00
  0.00000000E+00  0.00000000E+00  0.00000000E+00
  0.00000000E+00  0.00000000E+00  0.00000000E+00
  0.00000000E+00  0.00000000E+00  0.00000000E+00
  0.00000000E+00  0.00000000E+00  0.00000000E+00
  0.00000000E+00  0.00000000E+00  0.00000000E+00
  0.00000000E+00  0.00000000E+00  0.00000000E+00
  0.00000000E+00  0.00000000E+00  0.00000000E+00
  0.00000000E+00  0.00000000E+00  0.00000000E+00
  0.00000000E+00  0.00000000E+00  0.00000000E+00
  0.00000000E+00  0.00000000E+00  0.00000000E+00
  0.00000000E+00  0.00000000E+00  0.00000000E+00
  0.00000000E+00  0.00000000E+00  0.00000000E+00
  0.00000000E+00  0.00000000E+00  0.00000000E+00
  0.00000000E+00  0.00000000E+00  0.00000000E+00
  0.00000000E+00  0.00000000E+00  0.00000000E+00
  0.00000000E+00  0.00000000E+00  0.00000000E+00
  0.00000000E+00  0.00000000E+00  0.00000000E+00
  0.00000000E+00  0.00000000E+00  0.00000000E+00
  0.00000000E+00  0.00000000E+00  0.00000000E+00
  0.00000000E+00  0.00000000E+00  0.00000000E+00
  0.00000000E+00  0.00000000E+00  0.00000000E+00
  0.00000000E+00  0.00000000E+00  0.00000000E+00
