Be4 B4 I20                              
   1.0000000000000000     
     6.2442335947386445   -0.0000000000000001    0.0000000000000002
    -0.0000000000000005   14.3151549128208924    0.0000000000000006
    -0.0000000000000006    0.0000000000000005   15.7896041947421661
   Be   B    I 
     4     4    20
Direct
  0.4021122933863097  0.2797965655687946  0.4246545257854919
  0.9021122933863097  0.2202034344312054  0.5753454742145152
  0.5978877066136832  0.7797965655687946  0.0753454742145081
  0.0978877066136832  0.7202034344312054  0.9246545257854848
  0.0748827186310876  0.5438553600973819  0.4492037840891854
  0.5748827186310805  0.9561446399026181  0.5507962159108075
  0.9251172813689195  0.0438553600973748  0.0507962159108075
  0.4251172813689124  0.4561446399026252  0.9492037840891854
  0.1331701259833622  0.5442392268941418  0.5807391332871887
  0.6331701259833622  0.9557607731058582  0.4192608667128042
  0.8668298740166307  0.0442392268941418  0.9192608667128113
  0.3668298740166307  0.4557607731058511  0.0807391332871958
  0.8855536302012439  0.6461113554699622  0.3879566577906672
  0.3855536302012439  0.8538886445300378  0.6120433422093328
  0.1144463697987561  0.1461113554699693  0.1120433422093328
  0.6144463697987490  0.3538886445300307  0.8879566577906672
  0.8859896857074645  0.6715981604480490  0.0437587816781644
  0.3859896857074574  0.8284018395519510  0.9562412183218356
  0.1140103142925426  0.1715981604480561  0.4562412183218427
  0.6140103142925355  0.3284018395519439  0.5437587816781644
  0.4390529928928757  0.7443073023391165  0.2028433885165271
  0.9390529928928757  0.7556926976608835  0.7971566114834800
  0.5609470071071243  0.2443073023391165  0.2971566114834729
  0.0609470071071243  0.2556926976608835  0.7028433885165200
  0.2856996473293805  0.5622606424551932  0.8677566360071438
  0.7856996473293734  0.9377393575448068  0.1322433639928562
  0.7143003526706266  0.0622606424551932  0.6322433639928562
  0.2143003526706195  0.4377393575448139  0.3677566360071438

  0.00000000E+00  0.00000000E+00  0.00000000E+00
  0.00000000E+00  0.00000000E+00  0.00000000E+00
  0.00000000E+00  0.00000000E+00  0.00000000E+00
  0.00000000E+00  0.00000000E+00  0.00000000E+00
  0.00000000E+00  0.00000000E+00  0.00000000E+00
  0.00000000E+00  0.00000000E+00  0.00000000E+00
  0.00000000E+00  0.00000000E+00  0.00000000E+00
  0.00000000E+00  0.00000000E+00  0.00000000E+00
  0.00000000E+00  0.00000000E+00  0.00000000E+00
  0.00000000E+00  0.00000000E+00  0.00000000E+00
  0.00000000E+00  0.00000000E+00  0.00000000E+00
  0.00000000E+00  0.00000000E+00  0.00000000E+00
  0.00000000E+00  0.00000000E+00  0.00000000E+00
  0.00000000E+00  0.00000000E+00  0.00000000E+00
  0.00000000E+00  0.00000000E+00  0.00000000E+00
  0.00000000E+00  0.00000000E+00  0.00000000E+00
  0.00000000E+00  0.00000000E+00  0.00000000E+00
  0.00000000E+00  0.00000000E+00  0.00000000E+00
  0.00000000E+00  0.00000000E+00  0.00000000E+00
  0.00000000E+00  0.00000000E+00  0.00000000E+00
  0.00000000E+00  0.00000000E+00  0.00000000E+00
  0.00000000E+00  0.00000000E+00  0.00000000E+00
  0.00000000E+00  0.00000000E+00  0.00000000E+00
  0.00000000E+00  0.00000000E+00  0.00000000E+00
  0.00000000E+00  0.00000000E+00  0.00000000E+00
  0.00000000E+00  0.00000000E+00  0.00000000E+00
  0.00000000E+00  0.00000000E+00  0.00000000E+00
  0.00000000E+00  0.00000000E+00  0.00000000E+00
