Mg4 B8 Cl16                             
   1.00000000000000     
     9.3934972138852739   -0.0089187020868886   -0.0062606468087213
     0.0086737419151324    5.9729339381191560    0.5654604331305880
     0.0112094241528665    1.1558351273865775   13.2205045918632820
   Mg   Cl   B 
     4    16     8
Direct
  0.8221075168856657  0.2337638615509832  0.0246064950371547
  0.3219884079747217  0.2664662589818505  0.4752515493876430
  0.6780303219926651  0.7413950885504406  0.5242101707334399
  0.1781999455161838  0.7582813223284219  0.9758834350179342
  0.1448215372269388  0.4718282735747792  0.1483734936182515
  0.2935067456955949  0.0421723633656228  0.0564844819684396
  0.8737101477062765  0.8724783428683196  0.1419862246376056
  0.6663120167326753  0.5006127575911066  0.0961008629588491
  0.1662967601377261  0.9998898230218529  0.4036895463113339
  0.3737416689151871  0.6276817746557768  0.3579027370555750
  0.7934351188897892  0.4573435362108498  0.4436409386622557
  0.6448515168460247  0.0279523023076464  0.3516714646076480
  0.3553395887005806  0.9795302604532807  0.6478217026330313
  0.2066505917129291  0.5502299151013901  0.5559848101353992
  0.6257362441959060  0.3802665076455796  0.6414441996808335
  0.8333548232598744  0.0078117472380654  0.5961049030932273
  0.3335861441159338  0.4916344974638847  0.9040761749724098
  0.1259929281868253  0.1195063431210102  0.8586109359370582
  0.7068341354598431  0.9502005239635878  0.9437982365889894
  0.8556409122448017  0.5206342400347239  0.8520694798947659
  0.1904384731413629  0.2734488712867176  0.9648345093204540
  0.5647050749947340  0.0861335226282733  0.4771216102878171
  0.0647946238683943  0.4137527347802390  0.0228917226308383
  0.6902974209462656  0.2262212858453410  0.5352463392072409
  0.3094870262646694  0.7815844055363783  0.4642496014645232
  0.9353617738958349  0.5784818524161182  0.9776663994442814
  0.4352328181401930  0.9216048252709825  0.5222692959264990
  0.8095457163524102  0.7186927622067998  0.0356086787865024
 
  0.00000000E+00  0.00000000E+00  0.00000000E+00
  0.00000000E+00  0.00000000E+00  0.00000000E+00
  0.00000000E+00  0.00000000E+00  0.00000000E+00
  0.00000000E+00  0.00000000E+00  0.00000000E+00
  0.00000000E+00  0.00000000E+00  0.00000000E+00
  0.00000000E+00  0.00000000E+00  0.00000000E+00
  0.00000000E+00  0.00000000E+00  0.00000000E+00
  0.00000000E+00  0.00000000E+00  0.00000000E+00
  0.00000000E+00  0.00000000E+00  0.00000000E+00
  0.00000000E+00  0.00000000E+00  0.00000000E+00
  0.00000000E+00  0.00000000E+00  0.00000000E+00
  0.00000000E+00  0.00000000E+00  0.00000000E+00
  0.00000000E+00  0.00000000E+00  0.00000000E+00
  0.00000000E+00  0.00000000E+00  0.00000000E+00
  0.00000000E+00  0.00000000E+00  0.00000000E+00
  0.00000000E+00  0.00000000E+00  0.00000000E+00
  0.00000000E+00  0.00000000E+00  0.00000000E+00
  0.00000000E+00  0.00000000E+00  0.00000000E+00
  0.00000000E+00  0.00000000E+00  0.00000000E+00
  0.00000000E+00  0.00000000E+00  0.00000000E+00
  0.00000000E+00  0.00000000E+00  0.00000000E+00
  0.00000000E+00  0.00000000E+00  0.00000000E+00
  0.00000000E+00  0.00000000E+00  0.00000000E+00
  0.00000000E+00  0.00000000E+00  0.00000000E+00
  0.00000000E+00  0.00000000E+00  0.00000000E+00
  0.00000000E+00  0.00000000E+00  0.00000000E+00
  0.00000000E+00  0.00000000E+00  0.00000000E+00
  0.00000000E+00  0.00000000E+00  0.00000000E+00
