Ca3Ga2                                  
   1.00000000000000     
     8.2010573159749569    0.0000000000000000    0.0000000000000000
     0.0000000000000000    8.2010573159749569    0.0000000000000000
     0.0000000000000000    0.0000000000000000    4.2674021353815430
   Ca   Ga
     6     4
Direct
  0.0000000000000000  0.0000000000000000  0.0000000000000000
  0.5000000000000000  0.5000000000000000  0.0000000000000000
  0.6729734658862725  0.1729734658862725  0.5000000000000000
  0.1729734658862725  0.3270265341137275  0.5000000000000000
  0.8270265341137275  0.6729734658862725  0.5000000000000000
  0.3270265341137275  0.8270265341137275  0.5000000000000000
  0.3844497568767551  0.1155502431232449  0.0000000000000000
  0.8844497568767551  0.3844497568767551  0.0000000000000000
  0.1155502431232449  0.6155502431232449  0.0000000000000000
  0.6155502431232449  0.8844497568767551  0.0000000000000000
 
  0.00000000E+00  0.00000000E+00  0.00000000E+00
  0.00000000E+00  0.00000000E+00  0.00000000E+00
  0.00000000E+00  0.00000000E+00  0.00000000E+00
  0.00000000E+00  0.00000000E+00  0.00000000E+00
  0.00000000E+00  0.00000000E+00  0.00000000E+00
  0.00000000E+00  0.00000000E+00  0.00000000E+00
  0.00000000E+00  0.00000000E+00  0.00000000E+00
  0.00000000E+00  0.00000000E+00  0.00000000E+00
  0.00000000E+00  0.00000000E+00  0.00000000E+00
  0.00000000E+00  0.00000000E+00  0.00000000E+00
