Sr3Al2                                  
   1.00000000000000     
    -6.6105854001280964   -0.0324381592444877   -0.0355314702649031
     3.3123995153970185   -7.3946800219584903   -0.2143840979081443
    -3.3473273410167756    2.6360165958813004    7.5609358268008089
   Al   Sr
     4     6
Direct
  0.1766577744547391  0.6502286380769249  0.0694368919016242
  0.0974745542280857  0.8502230047843753  0.4297530753443723
  0.9025337397135758  0.1497834556501303  0.5702036173185761
  0.8233456262807692  0.3497663342707966  0.9305236355674680
  0.8155290783671347  0.3842503885487716  0.3307761556211020
  0.2632405552979478  0.1172180247311374  0.1693026108582814
  0.6331232822927646  0.7518723126155891  0.2500371159769230
  0.3668781177304510  0.2481257597615354  0.7499180395136236
  0.7367555902094196  0.8827803060683550  0.8306545843857975
  0.1844616814250983  0.6157517754923916  0.6691942735122325
 
  0.00000000E+00  0.00000000E+00  0.00000000E+00
  0.00000000E+00  0.00000000E+00  0.00000000E+00
  0.00000000E+00  0.00000000E+00  0.00000000E+00
  0.00000000E+00  0.00000000E+00  0.00000000E+00
  0.00000000E+00  0.00000000E+00  0.00000000E+00
  0.00000000E+00  0.00000000E+00  0.00000000E+00
  0.00000000E+00  0.00000000E+00  0.00000000E+00
  0.00000000E+00  0.00000000E+00  0.00000000E+00
  0.00000000E+00  0.00000000E+00  0.00000000E+00
  0.00000000E+00  0.00000000E+00  0.00000000E+00
