Sr1 B4                                  
   1.00000000000000     
    -3.2253569316312807    0.0273722637159882    0.0882504686859496
     0.0273722637159882   -3.2253569316312807    0.0882504686859496
     1.4639687902906338    1.4639687902906338    5.1834319179385107
   B    Sr
     4     1
Direct
  0.6072153309136681  0.6072153309136681  0.3744614333066068
  0.8145601187239464  0.1854398812760465  0.5000000000000000
  0.1854398812760465  0.8145601187239464  0.5000000000000000
  0.3927846690863248  0.3927846690863248  0.6255385666933932
  0.0000000000000000  0.0000000000000000  0.0000000000000000
 
  0.00000000E+00  0.00000000E+00  0.00000000E+00
  0.00000000E+00  0.00000000E+00  0.00000000E+00
  0.00000000E+00  0.00000000E+00  0.00000000E+00
  0.00000000E+00  0.00000000E+00  0.00000000E+00
  0.00000000E+00  0.00000000E+00  0.00000000E+00
