Be1 Al1 Br5                             
   1.00000000000000     
    -2.2308097124385120    5.8657509579796479    6.0773687350015377
     2.2308097124385120   -5.8657509579796479    6.0773687350015377
     2.2308097124385120    5.8657509579796479   -6.0773687350015377
   Be   Al   Br
     1     1     5
Direct
  0.5000000000000000  0.5000000000000000  0.0000000000000000
  0.0000000000000000  0.5000000000000000  0.5000000000000000
  0.3639543553273654  0.0000000000000000  0.3639543553273654
  0.6360456446726346  0.0000000000000000  0.6360456446726346
  0.1926647338346896  0.6926647338346825  0.5000000000000000
  0.8073352661653175  0.3073352661653104  0.5000000000000000
  0.0000000000000000  0.0000000000000000  0.0000000000000000
 
  0.00000000E+00  0.00000000E+00  0.00000000E+00
  0.00000000E+00  0.00000000E+00  0.00000000E+00
  0.00000000E+00  0.00000000E+00  0.00000000E+00
  0.00000000E+00  0.00000000E+00  0.00000000E+00
  0.00000000E+00  0.00000000E+00  0.00000000E+00
  0.00000000E+00  0.00000000E+00  0.00000000E+00
  0.00000000E+00  0.00000000E+00  0.00000000E+00
