Ba2 Tl2 Cl10                            
   1.0000000000000000     
     5.5391461206361896   -0.0000000000000001    0.0000000000000003
    -0.0000000000000010   11.0467456638279344    0.0000000000000007
     0.0000000000000002    0.0000000000000002    9.6370830181828513
   Ba   Tl   Cl
     2     2    10
Direct
  0.0000000000000000  0.0000000000000000  0.5000000000000000
  0.5000000000000000  0.5000000000000000  0.0000000000000000
  0.5000000000000000  0.0000000000000000  0.0000000000000000
  0.0000000000000000  0.5000000000000000  0.5000000000000000
  0.5000000000000000  0.7095437736204246  0.5000000000000000
  0.5000000000000000  0.2904562263795754  0.5000000000000000
  0.5000000000000000  0.0000000000000000  0.3242794375974185
  0.5000000000000000  0.0000000000000000  0.6757205624025815
  0.0000000000000000  0.0000000000000000  0.0000000000000000
  0.0000000000000000  0.2095437736204246  0.0000000000000000
  0.0000000000000000  0.7904562263795754  0.0000000000000000
  0.0000000000000000  0.5000000000000000  0.8242794375974185
  0.0000000000000000  0.5000000000000000  0.1757205624025815
  0.5000000000000000  0.5000000000000000  0.5000000000000000

  0.00000000E+00  0.00000000E+00  0.00000000E+00
  0.00000000E+00  0.00000000E+00  0.00000000E+00
  0.00000000E+00  0.00000000E+00  0.00000000E+00
  0.00000000E+00  0.00000000E+00  0.00000000E+00
  0.00000000E+00  0.00000000E+00  0.00000000E+00
  0.00000000E+00  0.00000000E+00  0.00000000E+00
  0.00000000E+00  0.00000000E+00  0.00000000E+00
  0.00000000E+00  0.00000000E+00  0.00000000E+00
  0.00000000E+00  0.00000000E+00  0.00000000E+00
  0.00000000E+00  0.00000000E+00  0.00000000E+00
  0.00000000E+00  0.00000000E+00  0.00000000E+00
  0.00000000E+00  0.00000000E+00  0.00000000E+00
  0.00000000E+00  0.00000000E+00  0.00000000E+00
  0.00000000E+00  0.00000000E+00  0.00000000E+00
