Ba1 Al3 F6                              
   1.00000000000000     
    -3.5434895039831340    4.4827666486120652    2.7334084900578008
     3.4362892960282361   -5.0759895217194044    3.4362892960282334
     2.7334084900578000    4.4827666486120652   -3.5434895039831331
   F    Ba   Al
     6     1     3
Direct
  0.3262417806528006  0.6040290981610283  0.3262417806528006
  0.7019474320343164  0.0000000000000000  0.2980525679656836
  0.1886481591812341  0.8061377274267301  0.1886481591812341
  0.8113518408187659  0.1938622725732699  0.8113518408187659
  0.6737582193471994  0.3959709018389788  0.6737582193471994
  0.2980525679656836  0.0000000000000000  0.7019474320343164
  0.0000000000000000  0.0000000000000000  0.0000000000000000
  0.7916483299719488  0.5000000000000000  0.2083516700280512
  0.5000000000000000  0.0000000000000000  0.5000000000000000
  0.2083516700280512  0.5000000000000000  0.7916483299719488
 
  0.00000000E+00  0.00000000E+00  0.00000000E+00
  0.00000000E+00  0.00000000E+00  0.00000000E+00
  0.00000000E+00  0.00000000E+00  0.00000000E+00
  0.00000000E+00  0.00000000E+00  0.00000000E+00
  0.00000000E+00  0.00000000E+00  0.00000000E+00
  0.00000000E+00  0.00000000E+00  0.00000000E+00
  0.00000000E+00  0.00000000E+00  0.00000000E+00
  0.00000000E+00  0.00000000E+00  0.00000000E+00
  0.00000000E+00  0.00000000E+00  0.00000000E+00
  0.00000000E+00  0.00000000E+00  0.00000000E+00
