Ba1 Tl2 F10                             
   1.0000000000000000     
     3.8694780036848693    5.4023331878458425    0.7683307904913513
    -3.8694780036848693    5.4023331878458425    0.7683307904913513
     0.0000000000000000    5.0693593593461861    6.4070246259351533
   Ba   Tl   F 
     1     2    10
Direct
  0.5412296843506752  0.4587703156493319  0.0000000000000000
  0.0112214745413013  0.0057607285152130  0.7433771185562108
  0.9942392714847870  0.9887785254586987  0.2566228814437892
  0.3018147096603911  0.2710817276016115  0.4762704588686404
  0.7289182723983814  0.6981852903396089  0.5237295411313667
  0.7253733920297663  0.7410329999742586  0.0093673242014205
  0.2589670000257343  0.2746266079702409  0.9906326757985724
  0.8805887009396045  0.1194112990604026  0.0000000000000000
  0.1055134648294924  0.8944865351705147  0.5000000000000000
  0.7706319565799333  0.2864923316154204  0.6627271610617314
  0.7135076683845796  0.2293680434200667  0.3372728389382686
  0.2654401036795093  0.7534466989041491  0.8203398924752463
  0.2465533010958509  0.7345598963204907  0.1796601075247537

  0.00000000E+00  0.00000000E+00  0.00000000E+00
  0.00000000E+00  0.00000000E+00  0.00000000E+00
  0.00000000E+00  0.00000000E+00  0.00000000E+00
  0.00000000E+00  0.00000000E+00  0.00000000E+00
  0.00000000E+00  0.00000000E+00  0.00000000E+00
  0.00000000E+00  0.00000000E+00  0.00000000E+00
  0.00000000E+00  0.00000000E+00  0.00000000E+00
  0.00000000E+00  0.00000000E+00  0.00000000E+00
  0.00000000E+00  0.00000000E+00  0.00000000E+00
  0.00000000E+00  0.00000000E+00  0.00000000E+00
  0.00000000E+00  0.00000000E+00  0.00000000E+00
  0.00000000E+00  0.00000000E+00  0.00000000E+00
  0.00000000E+00  0.00000000E+00  0.00000000E+00
