TlCl                                    
   1.0000000000000000     
     3.2633338833438565   -3.2633338833438565    0.0000000000000000
    -3.2633338833438565    0.0000000000000000   -3.2633338833438565
     3.2633338833438565    3.2633338833438565    0.0000000000000000
   Cl   Tl
     1     1
Direct
  0.5000000000000000  0.0000000000000000  0.5000000000000000
  0.0000000000000000  0.0000000000000000  0.0000000000000000

  0.00000000E+00  0.00000000E+00  0.00000000E+00
  0.00000000E+00  0.00000000E+00  0.00000000E+00
