Be8 B6                                  
   1.00000000000000     
     4.5315071203377864    4.4113734504884787    0.0000000000000000
    -2.7190134074547583    5.9184594662056806    0.0000000000000000
     0.0000000000000000    0.0000000000000000    2.9121818308204173
   B    Be
     6     8
Direct
  0.1817587955270028  0.2268539273643881  0.0000000000000000
  0.3055192004173364  0.6255875665092248  0.0000000000000000
  0.7085009630494454  0.7496980497808394  0.0000000000000000
  0.3421014857913605  0.1544954767593723  0.5000000000000000
  0.8152472845112939  0.6310872064482496  0.5000000000000000
  0.2185858614194913  0.7556626702019074  0.5000000000000000
  0.4563595771413773  0.3043678609689380  0.0000000000000000
  0.8738559320869399  0.4263055099862711  0.0000000000000000
  0.3795039503198794  0.9110289634571629  0.0000000000000000
  0.9894002357533509  0.8190753246222542  0.0000000000000000
  0.0673948158360815  0.0768388029299771  0.5000000000000000
  0.5346730768801820  0.5614132100909544  0.5000000000000000
  0.1441622587507823  0.4708014330233610  0.5000000000000000
  0.6499965625154829  0.9540839978571114  0.5000000000000000
 
  0.00000000E+00  0.00000000E+00  0.00000000E+00
  0.00000000E+00  0.00000000E+00  0.00000000E+00
  0.00000000E+00  0.00000000E+00  0.00000000E+00
  0.00000000E+00  0.00000000E+00  0.00000000E+00
  0.00000000E+00  0.00000000E+00  0.00000000E+00
  0.00000000E+00  0.00000000E+00  0.00000000E+00
  0.00000000E+00  0.00000000E+00  0.00000000E+00
  0.00000000E+00  0.00000000E+00  0.00000000E+00
  0.00000000E+00  0.00000000E+00  0.00000000E+00
  0.00000000E+00  0.00000000E+00  0.00000000E+00
  0.00000000E+00  0.00000000E+00  0.00000000E+00
  0.00000000E+00  0.00000000E+00  0.00000000E+00
  0.00000000E+00  0.00000000E+00  0.00000000E+00
  0.00000000E+00  0.00000000E+00  0.00000000E+00
