Ca13 B16                                
   1.00000000000000     
    -5.0538272696506077   -5.0538272696506077    5.0538272696506077
    -5.0538272696506077    5.0538272696506077   -5.0538272696506077
     5.0538272696506077   -5.0538272696506077   -5.0538272696506077
   B    Ca
    16    13
Direct
  0.7489339404637221  0.0000000000000000  0.0000000000000000
  0.2800701788793063  0.1299381913385034  0.0000000000000000
  0.1299381913385034  0.2800701788793063  0.0000000000000000
  0.0000000000000000  0.7489339404637221  0.0000000000000000
  0.8700618086614966  0.8700618086614966  0.1501319875408029
  0.2800701788793063  0.0000000000000000  0.1299381913385034
  0.0000000000000000  0.2800701788793063  0.1299381913385034
  0.2510660595362779  0.2510660595362779  0.2510660595362779
  0.1299381913385034  0.0000000000000000  0.2800701788793063
  0.0000000000000000  0.1299381913385034  0.2800701788793063
  0.8498680124591971  0.7199298211207008  0.7199298211207008
  0.7199298211207008  0.8498680124591971  0.7199298211207008
  0.0000000000000000  0.0000000000000000  0.7489339404637221
  0.8700618086614966  0.1501319875408029  0.8700618086614966
  0.1501319875408029  0.8700618086614966  0.8700618086614966
  0.7199298211207008  0.7199298211207008  0.8498680124591971
  0.0000000000000000  0.0000000000000000  0.0000000000000000
  0.7594831767560422  0.4895428690892700  0.0000000000000000
  0.4895428690892700  0.7594831767560422  0.0000000000000000
  0.5104571309107300  0.5104571309107300  0.2699403076667863
  0.7300596923332137  0.2405168232439578  0.2405168232439578
  0.2405168232439578  0.7300596923332137  0.2405168232439578
  0.7594831767560422  0.0000000000000000  0.4895428690892700
  0.0000000000000000  0.7594831767560422  0.4895428690892700
  0.5104571309107300  0.2699403076667863  0.5104571309107300
  0.2699403076667863  0.5104571309107300  0.5104571309107300
  0.4895428690892700  0.0000000000000000  0.7594831767560422
  0.0000000000000000  0.4895428690892700  0.7594831767560422
  0.2405168232439578  0.2405168232439578  0.7300596923332137
 
  0.00000000E+00  0.00000000E+00  0.00000000E+00
  0.00000000E+00  0.00000000E+00  0.00000000E+00
  0.00000000E+00  0.00000000E+00  0.00000000E+00
  0.00000000E+00  0.00000000E+00  0.00000000E+00
  0.00000000E+00  0.00000000E+00  0.00000000E+00
  0.00000000E+00  0.00000000E+00  0.00000000E+00
  0.00000000E+00  0.00000000E+00  0.00000000E+00
  0.00000000E+00  0.00000000E+00  0.00000000E+00
  0.00000000E+00  0.00000000E+00  0.00000000E+00
  0.00000000E+00  0.00000000E+00  0.00000000E+00
  0.00000000E+00  0.00000000E+00  0.00000000E+00
  0.00000000E+00  0.00000000E+00  0.00000000E+00
  0.00000000E+00  0.00000000E+00  0.00000000E+00
  0.00000000E+00  0.00000000E+00  0.00000000E+00
  0.00000000E+00  0.00000000E+00  0.00000000E+00
  0.00000000E+00  0.00000000E+00  0.00000000E+00
  0.00000000E+00  0.00000000E+00  0.00000000E+00
  0.00000000E+00  0.00000000E+00  0.00000000E+00
  0.00000000E+00  0.00000000E+00  0.00000000E+00
  0.00000000E+00  0.00000000E+00  0.00000000E+00
  0.00000000E+00  0.00000000E+00  0.00000000E+00
  0.00000000E+00  0.00000000E+00  0.00000000E+00
  0.00000000E+00  0.00000000E+00  0.00000000E+00
  0.00000000E+00  0.00000000E+00  0.00000000E+00
  0.00000000E+00  0.00000000E+00  0.00000000E+00
  0.00000000E+00  0.00000000E+00  0.00000000E+00
  0.00000000E+00  0.00000000E+00  0.00000000E+00
  0.00000000E+00  0.00000000E+00  0.00000000E+00
  0.00000000E+00  0.00000000E+00  0.00000000E+00
