Ca22 Tl14                               
   1.0000000000000000     
    -8.4598488034766444    8.4598982073219133   -0.0002449367393243
     8.4596449515710006    0.0000000000000000   -8.4614831679578160
    -8.4598488034766444   -8.4598982073219133   -0.0002449367393243
   Ca   Tl
    22    14
Direct
  0.9999909832919229  0.0000379399675552  0.9999909832919229
  0.3863906125343135  0.2582696544972123  0.1291296169190304
  0.8720946134293399  0.2585350398307753  0.1293743732779689
  0.8705803916582866  0.7414488099058971  0.1278153762961622
  0.5001383908332571  0.0004369806051940  0.1672237323551329
  0.1675824469283853  0.6685633517923790  0.1675824469283853
  0.5005284224442690  0.6683558416486477  0.1673958111689586
  0.1291296169190304  0.2582696544972123  0.3863906125343135
  0.1672237323551329  0.0004369806051940  0.5001383908332571
  0.5001308291950437  0.0001392207048525  0.5001308291950437
  0.8328369202944756  0.9995806644433785  0.4998497873671397
  0.4992417995465388  0.3317082775554852  0.4992417995465388
  0.8326271925304738  0.3316870679389794  0.4994182387120816
  0.1673958111689586  0.6683558416486477  0.5005284224442690
  0.5007323264844459  0.6682427862698290  0.5007323264844459
  0.8708271970928507  0.7416818333189852  0.6135822465281393
  0.4998497873671397  0.9995806644433785  0.8328369202944756
  0.4994182387120816  0.3316870679389794  0.8326271925304738
  0.8325690363077882  0.3316341655457364  0.8325690363077882
  0.1293743732779689  0.2585350398307753  0.8720946134293399
  0.1278153762961622  0.7414488099058971  0.8705803916582866
  0.6135822465281393  0.7416818333189852  0.8708271970928507
  0.6845100967472391  0.3685512265898794  0.0536235659417059
  0.2178244811341443  0.0000031013179509  0.2178244811341443
  0.7819022528426487  0.9999340136398303  0.2180074509220660
  0.2197094580696302  0.4394951006128807  0.2197094580696302
  0.6850071167341767  0.3695783457143591  0.3158970963359167
  0.6840753648297238  0.6304268418696211  0.3149355274448240
  0.9463391153597058  0.6314603150819025  0.3154380091204345
  0.0536235659417059  0.3685512265898794  0.6845100967472391
  0.3158970963359167  0.3695783457143591  0.6850071167341767
  0.3149355274448240  0.6304268418696211  0.6840753648297238
  0.2180074509220660  0.9999340136398303  0.7819022528426487
  0.7821089960572536  0.9999754571068351  0.7821089960572536
  0.7801611232645058  0.5603073289572151  0.7801611232645058
  0.3154380091204345  0.6314603150819025  0.9463391153597058

  0.00000000E+00  0.00000000E+00 -0.00000000E+00
  0.00000000E+00  0.00000000E+00 -0.00000000E+00
  0.00000000E+00  0.00000000E+00 -0.00000000E+00
  0.00000000E+00  0.00000000E+00 -0.00000000E+00
  0.00000000E+00  0.00000000E+00 -0.00000000E+00
  0.00000000E+00  0.00000000E+00 -0.00000000E+00
  0.00000000E+00  0.00000000E+00 -0.00000000E+00
  0.00000000E+00  0.00000000E+00 -0.00000000E+00
  0.00000000E+00  0.00000000E+00 -0.00000000E+00
  0.00000000E+00  0.00000000E+00 -0.00000000E+00
  0.00000000E+00  0.00000000E+00 -0.00000000E+00
  0.00000000E+00  0.00000000E+00 -0.00000000E+00
  0.00000000E+00  0.00000000E+00 -0.00000000E+00
  0.00000000E+00  0.00000000E+00 -0.00000000E+00
  0.00000000E+00  0.00000000E+00 -0.00000000E+00
  0.00000000E+00  0.00000000E+00 -0.00000000E+00
  0.00000000E+00  0.00000000E+00 -0.00000000E+00
  0.00000000E+00  0.00000000E+00 -0.00000000E+00
  0.00000000E+00  0.00000000E+00 -0.00000000E+00
  0.00000000E+00  0.00000000E+00 -0.00000000E+00
  0.00000000E+00  0.00000000E+00 -0.00000000E+00
  0.00000000E+00  0.00000000E+00 -0.00000000E+00
  0.00000000E+00  0.00000000E+00 -0.00000000E+00
  0.00000000E+00  0.00000000E+00 -0.00000000E+00
  0.00000000E+00  0.00000000E+00 -0.00000000E+00
  0.00000000E+00  0.00000000E+00 -0.00000000E+00
  0.00000000E+00  0.00000000E+00 -0.00000000E+00
  0.00000000E+00  0.00000000E+00 -0.00000000E+00
  0.00000000E+00  0.00000000E+00 -0.00000000E+00
  0.00000000E+00  0.00000000E+00 -0.00000000E+00
  0.00000000E+00  0.00000000E+00 -0.00000000E+00
  0.00000000E+00  0.00000000E+00 -0.00000000E+00
  0.00000000E+00  0.00000000E+00 -0.00000000E+00
  0.00000000E+00  0.00000000E+00 -0.00000000E+00
  0.00000000E+00  0.00000000E+00 -0.00000000E+00
  0.00000000E+00  0.00000000E+00 -0.00000000E+00
