Sr1 Al8                                 
   1.00000000000000     
     9.4206998628410865   -0.0023896826148574    0.0000000000000000
    -4.7124192317592355    8.1573970470844692    0.0000000000000000
     0.0000000000000000    0.0000000000000000    2.9564991633068405
   Al   Sr
     8     1
Direct
  0.3501420233264483  0.1751297796054061  0.0000000000000000
  0.8250134202623087  0.1749686799942296  0.0000000000000000
  0.6667740093614896  0.3332212084019233  0.0000000000000000
  0.1751239406969773  0.3501425420666777  0.0000000000000000
  0.8248760593030227  0.6498574579333223  0.0000000000000000
  0.3332259906385104  0.6667787915980767  0.0000000000000000
  0.1749865797376913  0.8250313200057704  0.0000000000000000
  0.6498579766735517  0.8248702203945939  0.0000000000000000
  0.0000000000000000  0.0000000000000000  0.5000000000000000
 
  0.00000000E+00  0.00000000E+00  0.00000000E+00
  0.00000000E+00  0.00000000E+00  0.00000000E+00
  0.00000000E+00  0.00000000E+00  0.00000000E+00
  0.00000000E+00  0.00000000E+00  0.00000000E+00
  0.00000000E+00  0.00000000E+00  0.00000000E+00
  0.00000000E+00  0.00000000E+00  0.00000000E+00
  0.00000000E+00  0.00000000E+00  0.00000000E+00
  0.00000000E+00  0.00000000E+00  0.00000000E+00
  0.00000000E+00  0.00000000E+00  0.00000000E+00
