Ba1 Ga2 Cl6                             
   1.00000000000000     
     3.8343881893845246    0.4389217260279416    4.5501662607899735
    -3.8343881893845246    0.4389217260279416    4.5501662607899735
     0.0000000000000000   -7.6221275226723213    6.8164183374843743
   Ba   Cl   Ga
     1     6     2
Direct
  0.0000000000000000  0.0000000000000000  0.0000000000000000
  0.7370146582992305  0.7370146582992305  0.4111190123653046
  0.9157410962897075  0.3596598934078656  0.1953196480488302
  0.3596598934078656  0.9157410962897075  0.1953196480488302
  0.2629853417007695  0.2629853417007695  0.5888809876346954
  0.6403401065921344  0.0842589037102854  0.8046803519511627
  0.0842589037102854  0.6403401065921344  0.8046803519511627
  0.0022321412256545  0.0022321412256545  0.6179041165481465
  0.9977678587743384  0.9977678587743384  0.3820958834518535
 
  0.00000000E+00  0.00000000E+00  0.00000000E+00
  0.00000000E+00  0.00000000E+00  0.00000000E+00
  0.00000000E+00  0.00000000E+00  0.00000000E+00
  0.00000000E+00  0.00000000E+00  0.00000000E+00
  0.00000000E+00  0.00000000E+00  0.00000000E+00
  0.00000000E+00  0.00000000E+00  0.00000000E+00
  0.00000000E+00  0.00000000E+00  0.00000000E+00
  0.00000000E+00  0.00000000E+00  0.00000000E+00
  0.00000000E+00  0.00000000E+00  0.00000000E+00
