Mg1 Ga2 Cl10                            
   1.00000000000000     
     6.6234298100251552    5.0509755862098649    1.4510367357135330
    -6.6234298100251552    5.0509755862098649    1.4510367357135328
     0.0000000000000002    5.7343172633553454    8.2045478770893219
   Mg   Ga   Cl
     1     2    10
Direct
  0.4395500693937251  0.5604499306062749  0.0000000000000000
  0.9889186014411493  0.0874204964595862  0.6564345816757395
  0.9125795035404138  0.0110813985588507  0.3435654183242605
  0.2722660780256589  0.2232411046490128  0.6164723190783832
  0.7767588953509872  0.7277339219743411  0.3835276809216239
  0.7274097809670579  0.7046542594746441  0.9887050693789163
  0.2953457405253559  0.2725902190329421  0.0112949306210837
  0.7966422946331164  0.2033577053668907  0.0000000000000000
  0.0609915843215845  0.9390084156784155  0.5000000000000000
  0.7425203289677285  0.1652458268645205  0.8104748827644102
  0.8347541731354724  0.2574796710322715  0.1895251172355970
  0.5857632268345725  0.8895012771368158  0.6733342271642755
  0.1104987228631842  0.4142367731654275  0.3266657728357316
 
  0.00000000E+00  0.00000000E+00  0.00000000E+00
  0.00000000E+00  0.00000000E+00  0.00000000E+00
  0.00000000E+00  0.00000000E+00  0.00000000E+00
  0.00000000E+00  0.00000000E+00  0.00000000E+00
  0.00000000E+00  0.00000000E+00  0.00000000E+00
  0.00000000E+00  0.00000000E+00  0.00000000E+00
  0.00000000E+00  0.00000000E+00  0.00000000E+00
  0.00000000E+00  0.00000000E+00  0.00000000E+00
  0.00000000E+00  0.00000000E+00  0.00000000E+00
  0.00000000E+00  0.00000000E+00  0.00000000E+00
  0.00000000E+00  0.00000000E+00  0.00000000E+00
  0.00000000E+00  0.00000000E+00  0.00000000E+00
  0.00000000E+00  0.00000000E+00  0.00000000E+00
