BaCl2                                   
   1.00000000000000     
     3.7086256077044051   -3.7086256077044051    0.0000000000000000
    -3.7086256077044051    0.0000000000000000   -3.7086256077044051
     3.7086256077044051    3.7086256077044051    0.0000000000000000
   Ba   Cl
     1     2
Direct
  0.0000000000000000  0.0000000000000000  0.0000000000000000
  0.7500000000000000  0.5000000000000000  0.2500000000000000
  0.2500000000000000  0.5000000000000000  0.7500000000000000
 
  0.00000000E+00  0.00000000E+00  0.00000000E+00
  0.00000000E+00  0.00000000E+00  0.00000000E+00
  0.00000000E+00  0.00000000E+00  0.00000000E+00
