ADDGRID = True
ALGO = Normal
AMIX = 0.2
BMIX = 0.001
EDIFF = 0.00001
EDIFFG = -0.01
ENCUT = 450
ISPIN = 2
IVDW = 11
LCHARG = False
LREAL = False
LWAVE = False
NCORE = 4
NSW = 0
NWRITE = 2
POTIM = 0.5
PREC = Normal
SIGMA = 0.01
ISYM = 0
LSORBIT = True
ISMEAR = 0
NBANDS = 408
NEDOS = 6000
LORBIT = 10
ICHARG = 11
