K-Path Generated by VASPKIT.
   20
Line-Mode
Reciprocal
   0.0000000000   0.0000000000   0.0000000000     GAMMA          
   0.5000000000   0.0000000000   0.0000000000     X              
 
   0.0000000000   0.5000000000   0.0000000000     Y              
   0.0000000000   0.0000000000   0.0000000000     GAMMA          
 
   0.0000000000   0.0000000000   0.0000000000     GAMMA          
   0.0000000000   0.0000000000   0.5000000000     Z              
 
  -0.5000000000  -0.5000000000   0.5000000000     R_2            
   0.0000000000   0.0000000000   0.0000000000     GAMMA          
 
   0.0000000000   0.0000000000   0.0000000000     GAMMA          
   0.0000000000  -0.5000000000   0.5000000000     T_2            
 
  -0.5000000000   0.0000000000   0.5000000000     U_2            
   0.0000000000   0.0000000000   0.0000000000     GAMMA          
 
   0.0000000000   0.0000000000   0.0000000000     GAMMA          
   0.5000000000  -0.5000000000   0.0000000000     V_2            
 
