Ba2 Tl2 F10                             
   1.0000000000000000     
     4.0779439062015630    0.0000000000000000    0.0000000000000002
    -0.0000000000000006    8.3583441749901422    0.0000000000000005
     0.0000000000000001    0.0000000000000000    8.2948786591853576
   Ba   Tl   F 
     2     2    10
Direct
  0.0000000000000000  0.0000000000000000  0.5000000000000000
  0.5000000000000000  0.5000000000000000  0.0000000000000000
  0.5000000000000000  0.0000000000000000  0.0000000000000000
  0.0000000000000000  0.5000000000000000  0.5000000000000000
  0.5000000000000000  0.7992725021243245  0.5000000000000000
  0.5000000000000000  0.2007274978756755  0.5000000000000000
  0.5000000000000000  0.0000000000000000  0.2480236950656192
  0.5000000000000000  0.0000000000000000  0.7519763049343808
  0.0000000000000000  0.0000000000000000  0.0000000000000000
  0.0000000000000000  0.2992725021243245  0.0000000000000000
  0.0000000000000000  0.7007274978756755  0.0000000000000000
  0.0000000000000000  0.5000000000000000  0.7480236950656192
  0.0000000000000000  0.5000000000000000  0.2519763049343808
  0.5000000000000000  0.5000000000000000  0.5000000000000000

  0.00000000E+00  0.00000000E+00  0.00000000E+00
  0.00000000E+00  0.00000000E+00  0.00000000E+00
  0.00000000E+00  0.00000000E+00  0.00000000E+00
  0.00000000E+00  0.00000000E+00  0.00000000E+00
  0.00000000E+00  0.00000000E+00  0.00000000E+00
  0.00000000E+00  0.00000000E+00  0.00000000E+00
  0.00000000E+00  0.00000000E+00  0.00000000E+00
  0.00000000E+00  0.00000000E+00  0.00000000E+00
  0.00000000E+00  0.00000000E+00  0.00000000E+00
  0.00000000E+00  0.00000000E+00  0.00000000E+00
  0.00000000E+00  0.00000000E+00  0.00000000E+00
  0.00000000E+00  0.00000000E+00  0.00000000E+00
  0.00000000E+00  0.00000000E+00  0.00000000E+00
  0.00000000E+00  0.00000000E+00  0.00000000E+00
