Ba1 In2 Br6                             
   1.0000000000000000     
     2.9198087688807965    2.9946139099651328    8.1981466679500361
    -2.9198087688807965    2.9946139099651328    8.1981466679500361
     0.0000000000000000   -5.6773380836046741    8.1197445412763773
   Ba   Br   In
     1     6     2
Direct
  0.0000000000000000  0.0000000000000000  0.0000000000000000
  0.7863087482480466  0.7863087482480466  0.3137536735853530
  0.7793150155264641  0.2863469438810000  0.2558237383480275
  0.2863469438810000  0.7793150155264641  0.2558237383480275
  0.2136912517519534  0.2136912517519534  0.6862463264146470
  0.7136530561190000  0.2206849844735359  0.7441762616519725
  0.2206849844735359  0.7136530561190000  0.7441762616519725
  0.1655033698987509  0.1655033698987509  0.4292180516315511
  0.8344966301012491  0.8344966301012491  0.5707819483684489

  0.00000000E+00  0.00000000E+00  0.00000000E+00
  0.00000000E+00  0.00000000E+00  0.00000000E+00
  0.00000000E+00  0.00000000E+00  0.00000000E+00
  0.00000000E+00  0.00000000E+00  0.00000000E+00
  0.00000000E+00  0.00000000E+00  0.00000000E+00
  0.00000000E+00  0.00000000E+00  0.00000000E+00
  0.00000000E+00  0.00000000E+00  0.00000000E+00
  0.00000000E+00  0.00000000E+00  0.00000000E+00
  0.00000000E+00  0.00000000E+00  0.00000000E+00
