Mg3F2                                   
   1.00000000000000     
    -5.5413736225787193   -0.0213126361259397    0.0678948932915970
     2.7779223733778577   -5.4326451534015892   -0.7754242622268188
    -2.6862499598541389    2.7768422862750759    5.8189718175343446
   F    Mg
     4     6
Direct
  0.1890232161172705  0.3651251037837042  0.8685318550182686
  0.3069402431484676  0.8657743233194282  0.3680451623177277
  0.6929775673242631  0.1341458871665679  0.6319947983437189
  0.8108977998197133  0.6347940881582304  0.1315061419565495
  0.3776789277963175  0.2482600249571902  0.2502440913625961
  0.9993342925156199  0.4983583637118443  0.2299272647644273
  0.7299549800581744  0.9999093375506192  0.2701158898006213
  0.2699662155229490  0.0000105442805207  0.7299242298273114
  0.0005852510273385  0.5015607987532462  0.7701108954766411
  0.6222415066698659  0.7516615283186567  0.7497996711321449
 
  0.00000000E+00  0.00000000E+00  0.00000000E+00
  0.00000000E+00  0.00000000E+00  0.00000000E+00
  0.00000000E+00  0.00000000E+00  0.00000000E+00
  0.00000000E+00  0.00000000E+00  0.00000000E+00
  0.00000000E+00  0.00000000E+00  0.00000000E+00
  0.00000000E+00  0.00000000E+00  0.00000000E+00
  0.00000000E+00  0.00000000E+00  0.00000000E+00
  0.00000000E+00  0.00000000E+00  0.00000000E+00
  0.00000000E+00  0.00000000E+00  0.00000000E+00
  0.00000000E+00  0.00000000E+00  0.00000000E+00
