Tl28 Br36                               
   1.0000000000000000     
    13.2112820044360646    0.0023835332963347    0.0023835158326468
     0.0023835158326468   13.2112820044360646    0.0023835332963347
     0.0023835332963347    0.0023835158326468   13.2112820044360646
   Br   Tl
    36    28
Direct
  0.9995915927479615  0.9995915927479615  0.9995915927479615
  0.5002317692961000  0.5005214190800800  0.0001684196821543
  0.4449244379850441  0.2016803676169800  0.0427294687141710
  0.0541586162404926  0.7013966910305882  0.0429181111769310
  0.7013966910305882  0.0429181111769310  0.0541586162404926
  0.7981936504745946  0.5425368013646263  0.0546779156791288
  0.1794397189637351  0.1794397189637351  0.1794397189637351
  0.3205694608512459  0.6802131516189718  0.1796529603526267
  0.0427294687141710  0.4449244379850441  0.2016803676169800
  0.4573699945007661  0.9455924951420371  0.2014935545705185
  0.5431726678182827  0.4456714534577841  0.2984780663023940
  0.9571815186431039  0.9454207050793997  0.2981240726918841
  0.6802131516189718  0.1796529603526267  0.3205694608512459
  0.8206870020473644  0.6798649979928157  0.3202085712151401
  0.2016803676169800  0.0427294687141710  0.4449244379850441
  0.2984780663023940  0.5431726678182827  0.4456714534577841
  0.9455924951420371  0.2014935545705185  0.4573699945007661
  0.5547612113382527  0.7016180438959267  0.4570507082098629
  0.5005214190800800  0.0001684196821543  0.5002317692961000
  0.0001684196821543  0.5002317692961000  0.5005214190800800
  0.4456714534577841  0.2984780663023940  0.5431726678182827
  0.0546779156791288  0.7981936504745946  0.5425368013646263
  0.7016180438959267  0.4570507082098629  0.5547612113382527
  0.7985219898607383  0.9567943326553277  0.5541565637117500
  0.1796529603526267  0.3205694608512459  0.6802131516189718
  0.3202085712151401  0.8206870020473644  0.6798649979928157
  0.0429181111769310  0.0541586162404926  0.7013966910305882
  0.4570507082098629  0.5547612113382527  0.7016180438959267
  0.5425368013646263  0.0546779156791288  0.7981936504745946
  0.9567943326553277  0.5541565637117500  0.7985219898607383
  0.6798649979928157  0.3202085712151401  0.8206870020473644
  0.8198142124451451  0.8198142124451451  0.8198142124451451
  0.2014935545705185  0.4573699945007661  0.9455924951420371
  0.2981240726918841  0.9571815186431039  0.9454207050793997
  0.9454207050793997  0.2981240726918841  0.9571815186431039
  0.5541565637117500  0.7985219898607383  0.9567943326553277
  0.4996632670691952  0.0001476673270133  0.9997673566632415
  0.9997673566632415  0.4996632670691952  0.0001476673270133
  0.6657460412557725  0.3137669545543034  0.0589616043939216
  0.8335157885294393  0.8137071571145285  0.0581162697515936
  0.3146648460492543  0.4421294433560945  0.1661061011576237
  0.1860549706657721  0.9413187202173674  0.1665041889783865
  0.9413187202173674  0.1665041889783865  0.1860549706657721
  0.5589344817209962  0.6667625094902192  0.1861287871611736
  0.4421294433560945  0.1661061011576237  0.3146648460492543
  0.0589616043939216  0.6657460412557725  0.3137669545543034
  0.8141006916708093  0.4417406878588110  0.3339614530444734
  0.6869413209217896  0.9413965620933453  0.3331483182803225
  0.1661061011576237  0.3146648460492543  0.4421294433560945
  0.3339614530444734  0.8141006916708093  0.4417406878588110
  0.0001476673270133  0.9997673566632415  0.4996632670691952
  0.5001721022459193  0.5001721022459193  0.5001721022459193
  0.6667625094902192  0.1861287871611736  0.5589344817209962
  0.8335219937669933  0.6864764352728301  0.5585575649348726
  0.3137669545543034  0.0589616043939216  0.6657460412557725
  0.1861287871611736  0.5589344817209962  0.6667625094902192
  0.9413965620933453  0.3331483182803225  0.6869413209217896
  0.5585575649348726  0.8335219937669933  0.6864764352728301
  0.4417406878588110  0.3339614530444734  0.8141006916708093
  0.0581162697515936  0.8335157885294393  0.8137071571145285
  0.8137071571145285  0.0581162697515936  0.8335157885294393
  0.6864764352728301  0.5585575649348726  0.8335219937669933
  0.1665041889783865  0.1860549706657721  0.9413187202173674
  0.3331483182803225  0.6869413209217896  0.9413965620933453

  0.00000000E+00  0.00000000E+00  0.00000000E+00
  0.00000000E+00  0.00000000E+00  0.00000000E+00
  0.00000000E+00  0.00000000E+00  0.00000000E+00
  0.00000000E+00  0.00000000E+00  0.00000000E+00
  0.00000000E+00  0.00000000E+00  0.00000000E+00
  0.00000000E+00  0.00000000E+00  0.00000000E+00
  0.00000000E+00  0.00000000E+00  0.00000000E+00
  0.00000000E+00  0.00000000E+00  0.00000000E+00
  0.00000000E+00  0.00000000E+00  0.00000000E+00
  0.00000000E+00  0.00000000E+00  0.00000000E+00
  0.00000000E+00  0.00000000E+00  0.00000000E+00
  0.00000000E+00  0.00000000E+00  0.00000000E+00
  0.00000000E+00  0.00000000E+00  0.00000000E+00
  0.00000000E+00  0.00000000E+00  0.00000000E+00
  0.00000000E+00  0.00000000E+00  0.00000000E+00
  0.00000000E+00  0.00000000E+00  0.00000000E+00
  0.00000000E+00  0.00000000E+00  0.00000000E+00
  0.00000000E+00  0.00000000E+00  0.00000000E+00
  0.00000000E+00  0.00000000E+00  0.00000000E+00
  0.00000000E+00  0.00000000E+00  0.00000000E+00
  0.00000000E+00  0.00000000E+00  0.00000000E+00
  0.00000000E+00  0.00000000E+00  0.00000000E+00
  0.00000000E+00  0.00000000E+00  0.00000000E+00
  0.00000000E+00  0.00000000E+00  0.00000000E+00
  0.00000000E+00  0.00000000E+00  0.00000000E+00
  0.00000000E+00  0.00000000E+00  0.00000000E+00
  0.00000000E+00  0.00000000E+00  0.00000000E+00
  0.00000000E+00  0.00000000E+00  0.00000000E+00
  0.00000000E+00  0.00000000E+00  0.00000000E+00
  0.00000000E+00  0.00000000E+00  0.00000000E+00
  0.00000000E+00  0.00000000E+00  0.00000000E+00
  0.00000000E+00  0.00000000E+00  0.00000000E+00
  0.00000000E+00  0.00000000E+00  0.00000000E+00
  0.00000000E+00  0.00000000E+00  0.00000000E+00
  0.00000000E+00  0.00000000E+00  0.00000000E+00
  0.00000000E+00  0.00000000E+00  0.00000000E+00
  0.00000000E+00  0.00000000E+00  0.00000000E+00
  0.00000000E+00  0.00000000E+00  0.00000000E+00
  0.00000000E+00  0.00000000E+00  0.00000000E+00
  0.00000000E+00  0.00000000E+00  0.00000000E+00
  0.00000000E+00  0.00000000E+00  0.00000000E+00
  0.00000000E+00  0.00000000E+00  0.00000000E+00
  0.00000000E+00  0.00000000E+00  0.00000000E+00
  0.00000000E+00  0.00000000E+00  0.00000000E+00
  0.00000000E+00  0.00000000E+00  0.00000000E+00
  0.00000000E+00  0.00000000E+00  0.00000000E+00
  0.00000000E+00  0.00000000E+00  0.00000000E+00
  0.00000000E+00  0.00000000E+00  0.00000000E+00
  0.00000000E+00  0.00000000E+00  0.00000000E+00
  0.00000000E+00  0.00000000E+00  0.00000000E+00
  0.00000000E+00  0.00000000E+00  0.00000000E+00
  0.00000000E+00  0.00000000E+00  0.00000000E+00
  0.00000000E+00  0.00000000E+00  0.00000000E+00
  0.00000000E+00  0.00000000E+00  0.00000000E+00
  0.00000000E+00  0.00000000E+00  0.00000000E+00
  0.00000000E+00  0.00000000E+00  0.00000000E+00
  0.00000000E+00  0.00000000E+00  0.00000000E+00
  0.00000000E+00  0.00000000E+00  0.00000000E+00
  0.00000000E+00  0.00000000E+00  0.00000000E+00
  0.00000000E+00  0.00000000E+00  0.00000000E+00
  0.00000000E+00  0.00000000E+00  0.00000000E+00
  0.00000000E+00  0.00000000E+00  0.00000000E+00
  0.00000000E+00  0.00000000E+00  0.00000000E+00
  0.00000000E+00  0.00000000E+00  0.00000000E+00
