Sr3 In1 I1                              
   1.0000000000000000     
     6.1716255148962063    0.0000000000000000   -0.0000000000000000
     0.0000000000000000    6.1716255148962063    0.0000000000000000
     0.0000000000000000    0.0000000000000000    6.1716255148962063
   Sr   I    In
     3     1     1
Direct
  0.5000000000000000  0.5000000000000000  0.0000000000000000
  0.5000000000000000  0.0000000000000000  0.5000000000000000
  0.0000000000000000  0.5000000000000000  0.5000000000000000
  0.5000000000000000  0.5000000000000000  0.5000000000000000
  0.0000000000000000  0.0000000000000000  0.0000000000000000

  0.00000000E+00  0.00000000E+00  0.00000000E+00
  0.00000000E+00  0.00000000E+00  0.00000000E+00
  0.00000000E+00  0.00000000E+00  0.00000000E+00
  0.00000000E+00  0.00000000E+00  0.00000000E+00
  0.00000000E+00  0.00000000E+00  0.00000000E+00
