Ba5 B2                                  
   1.00000000000000     
     1.9786368601141451    2.8396459840849739   10.6339697040606289
    -1.9786368601141451    2.8396459840849739   10.6339697040606289
     0.0000000000000000   -4.3688587476643619   10.5204274325415863
   Ba   B 
     5     2
Direct
  0.3034815316899540  0.3034815316899540  0.0822055311701959
  0.4102551961826393  0.4102551961826393  0.3039086389409462
  0.4999913035855812  0.4999913035855812  0.4999637587484145
  0.5897184693711637  0.5897184693711637  0.6960627559230232
  0.6964916920541384  0.6964916920541384  0.9177586966893116
  0.0410533438809750  0.0410533438809750  0.2245048603882864
  0.9589084632355593  0.9589084632355593  0.7754957581398116
 
  0.00000000E+00  0.00000000E+00  0.00000000E+00
  0.00000000E+00  0.00000000E+00  0.00000000E+00
  0.00000000E+00  0.00000000E+00  0.00000000E+00
  0.00000000E+00  0.00000000E+00  0.00000000E+00
  0.00000000E+00  0.00000000E+00  0.00000000E+00
  0.00000000E+00  0.00000000E+00  0.00000000E+00
  0.00000000E+00  0.00000000E+00  0.00000000E+00
