Sr16 Al12 Br1                           
   1.00000000000000     
     8.9361964300763113   -5.1582360797405427    3.6486527259104782
    -0.0304300604185010   10.2317470681264773    3.6001271613108123
    -8.8764939460723280   -5.0903139062523195    3.6005291986924632
   Al   Br   Sr
    12     1    16
Direct
  0.8191397334898411  0.6231343158286791  0.9999811225914286
  0.6272588007284483  0.8313952034933152  0.9999711149140538
  0.3728036025456163  0.3899631518772253  0.2354236107537275
  0.1373628739008481  0.7645798922218034  0.1545828995993759
  0.7959272959899977  0.1685332716049501  0.1685427363109895
  0.3727473331971112  0.2353031252256770  0.3899150470570447
  0.1957984511978950  0.3764957828078579  0.3765112790768583
  0.8190989415977086  0.0000072636270332  0.6230784837163981
  0.9828814465734723  0.8454928415199632  0.6100047728300666
  0.6272766462862549  0.9999699133748408  0.8313876216580169
  0.9828498913891153  0.6100365162076358  0.8454951372764512
  0.1373005723095062  0.1544818127932643  0.7644141160043176
  0.4361070834321623  0.0003308377985292  0.0002012871920698
  0.5224433744055617  0.2911747185076052  0.9998710366887238
  0.2659622292982391  0.5381507647047457  0.0000643505249727
  0.1720414264840429  0.0000963485557648  0.0000692669486142
  0.9935072857211367  0.2325430293862638  0.9998384528861664
  0.7065053237996821  0.7291799359265454  0.2724038352298024
  0.5226109624066453  0.9998402229099810  0.2911131517480854
  0.9773449597536583  0.5431000369924348  0.2707883045418100
  0.9935501856289406  0.9998956199172042  0.2328349110645576
  0.4340717924211361  0.7274556783963320  0.4569906562123975
  0.7277209530234430  0.4617294317378651  0.4617866994679147
  0.2661749368713231  0.0000397411313173  0.5382663273083494
  0.9773763386385355  0.2709351519390921  0.5431934236370708
  0.7611265074959448  0.7674730968824974  0.7674112597351552
  0.7065190716563805  0.2724366383889176  0.7292106800573350
  0.2315760306109453  0.7091739576429887  0.7092463626733831
  0.4341159491464097  0.4570526985996892  0.7274040522948724
 
  0.00000000E+00  0.00000000E+00  0.00000000E+00
  0.00000000E+00  0.00000000E+00  0.00000000E+00
  0.00000000E+00  0.00000000E+00  0.00000000E+00
  0.00000000E+00  0.00000000E+00  0.00000000E+00
  0.00000000E+00  0.00000000E+00  0.00000000E+00
  0.00000000E+00  0.00000000E+00  0.00000000E+00
  0.00000000E+00  0.00000000E+00  0.00000000E+00
  0.00000000E+00  0.00000000E+00  0.00000000E+00
  0.00000000E+00  0.00000000E+00  0.00000000E+00
  0.00000000E+00  0.00000000E+00  0.00000000E+00
  0.00000000E+00  0.00000000E+00  0.00000000E+00
  0.00000000E+00  0.00000000E+00  0.00000000E+00
  0.00000000E+00  0.00000000E+00  0.00000000E+00
  0.00000000E+00  0.00000000E+00  0.00000000E+00
  0.00000000E+00  0.00000000E+00  0.00000000E+00
  0.00000000E+00  0.00000000E+00  0.00000000E+00
  0.00000000E+00  0.00000000E+00  0.00000000E+00
  0.00000000E+00  0.00000000E+00  0.00000000E+00
  0.00000000E+00  0.00000000E+00  0.00000000E+00
  0.00000000E+00  0.00000000E+00  0.00000000E+00
  0.00000000E+00  0.00000000E+00  0.00000000E+00
  0.00000000E+00  0.00000000E+00  0.00000000E+00
  0.00000000E+00  0.00000000E+00  0.00000000E+00
  0.00000000E+00  0.00000000E+00  0.00000000E+00
  0.00000000E+00  0.00000000E+00  0.00000000E+00
  0.00000000E+00  0.00000000E+00  0.00000000E+00
  0.00000000E+00  0.00000000E+00  0.00000000E+00
  0.00000000E+00  0.00000000E+00  0.00000000E+00
  0.00000000E+00  0.00000000E+00  0.00000000E+00
