Ca3Cl                                   
   1.00000000000000     
    -2.4149386943078874    2.4149386943078874    6.3216106624653863
     2.4149386943078874   -2.4149386943078874    6.3216106624653863
     2.4149386943078874    2.4149386943078874   -6.3216106624653863
   Ca   Cl
     3     1
Direct
  0.7500000000000000  0.2500000000000000  0.5000000000000000
  0.2500000000000000  0.7500000000000000  0.5000000000000000
  0.5000000000000000  0.5000000000000000  0.0000000000000000
  0.0000000000000000  0.0000000000000000  0.0000000000000000
 
  0.00000000E+00  0.00000000E+00  0.00000000E+00
  0.00000000E+00  0.00000000E+00  0.00000000E+00
  0.00000000E+00  0.00000000E+00  0.00000000E+00
  0.00000000E+00  0.00000000E+00  0.00000000E+00
