Ba4 B4 Br20                             
   1.0000000000000000     
     9.0456705877570176   -0.0000000000000001    0.0000000000000008
    -0.0000000000000007    7.5085302395923108    0.0000000000000005
     0.0000000000000010    0.0000000000000003   18.6426941505352985
   Ba   B    Br
     4     4    20
Direct
  0.7730062177072909  0.4814988730768448  0.7447853961974786
  0.2730062177072909  0.0185011269231552  0.2552146038025214
  0.2269937822927091  0.9814988730768448  0.7552146038025214
  0.7269937822927091  0.5185011269231552  0.2447853961974786
  0.5058447202011536  0.1775140386433449  0.6154066809709278
  0.0058447202011536  0.3224859613566551  0.3845933190290722
  0.4941552797988464  0.6775140386433449  0.8845933190290722
  0.9941552797988464  0.8224859613566551  0.1154066809709278
  0.0015059865823375  0.5284778858481047  0.4504994368136153
  0.5015059865823375  0.9715221141518953  0.5495005631863847
  0.9984940134176625  0.0284778858481047  0.0495005631863847
  0.4984940134176625  0.4715221141518953  0.9504994368136153
  0.5067840946892304  0.7680991008019049  0.3241959442455453
  0.0067840946892304  0.7319008991980951  0.6758040557544476
  0.4932159053107696  0.2680991008018978  0.1758040557544476
  0.9932159053107696  0.2319008991981022  0.8241959442455453
  0.2990488304447183  0.2828616840988118  0.6297573242717007
  0.7990488304447183  0.2171383159011882  0.3702426757282993
  0.7009511695552817  0.7828616840988118  0.8702426757282993
  0.2009511695552817  0.7171383159011882  0.1297573242717007
  0.5831993907080886  0.0910721687844003  0.7162286523319565
  0.0831993907080886  0.4089278312155997  0.2837713476680435
  0.4168006092919114  0.5910721687844003  0.7837713476680435
  0.9168006092919114  0.9089278312155997  0.2162286523319565
  0.6444994249489824  0.3736043712392103  0.5815625621086724
  0.1444994249489824  0.1263956287607826  0.4184374378913276
  0.3555005750510247  0.8736043712392174  0.9184374378913276
  0.8555005750510176  0.6263956287607826  0.0815625621086724

  0.00000000E+00  0.00000000E+00  0.00000000E+00
  0.00000000E+00  0.00000000E+00  0.00000000E+00
  0.00000000E+00  0.00000000E+00  0.00000000E+00
  0.00000000E+00  0.00000000E+00  0.00000000E+00
  0.00000000E+00  0.00000000E+00  0.00000000E+00
  0.00000000E+00  0.00000000E+00  0.00000000E+00
  0.00000000E+00  0.00000000E+00  0.00000000E+00
  0.00000000E+00  0.00000000E+00  0.00000000E+00
  0.00000000E+00  0.00000000E+00  0.00000000E+00
  0.00000000E+00  0.00000000E+00  0.00000000E+00
  0.00000000E+00  0.00000000E+00  0.00000000E+00
  0.00000000E+00  0.00000000E+00  0.00000000E+00
  0.00000000E+00  0.00000000E+00  0.00000000E+00
  0.00000000E+00  0.00000000E+00  0.00000000E+00
  0.00000000E+00  0.00000000E+00  0.00000000E+00
  0.00000000E+00  0.00000000E+00  0.00000000E+00
  0.00000000E+00  0.00000000E+00  0.00000000E+00
  0.00000000E+00  0.00000000E+00  0.00000000E+00
  0.00000000E+00  0.00000000E+00  0.00000000E+00
  0.00000000E+00  0.00000000E+00  0.00000000E+00
  0.00000000E+00  0.00000000E+00  0.00000000E+00
  0.00000000E+00  0.00000000E+00  0.00000000E+00
  0.00000000E+00  0.00000000E+00  0.00000000E+00
  0.00000000E+00  0.00000000E+00  0.00000000E+00
  0.00000000E+00  0.00000000E+00  0.00000000E+00
  0.00000000E+00  0.00000000E+00  0.00000000E+00
  0.00000000E+00  0.00000000E+00  0.00000000E+00
  0.00000000E+00  0.00000000E+00  0.00000000E+00
