Mg6 B33                                 
   1.00000000000000     
     6.7930822098406125    0.0000000000000000    0.0000000000000000
     0.0000000000000000    6.7930822098406090    0.0000000000000000
     0.0000000000000000    0.0000000000000000    6.7930822098406090
   Mg   B 
     6    33
Direct
  0.2114737180266104  0.5000000000000000  0.0000000000000000
  0.7885262819733896  0.5000000000000000  0.0000000000000000
  0.5000000000000000  0.0000000000000000  0.2114737180266104
  0.0000000000000000  0.2114737180266104  0.5000000000000000
  0.0000000000000000  0.7885262819733896  0.5000000000000000
  0.5000000000000000  0.0000000000000000  0.7885262819733896
  0.0000000000000000  0.0000000000000000  0.0000000000000000
  0.2387931662947977  0.1391817904336676  0.0000000000000000
  0.7612068337052023  0.1391817904336676  0.0000000000000000
  0.5000000000000000  0.2941997277808923  0.0000000000000000
  0.5000000000000000  0.7058002722191077  0.0000000000000000
  0.2387931662947977  0.8608182095663324  0.0000000000000000
  0.7612068337052023  0.8608182095663324  0.0000000000000000
  0.0000000000000000  0.2387931662947977  0.1391817904336676
  0.0000000000000000  0.7612068337052023  0.1391817904336676
  0.5000000000000000  0.5000000000000000  0.1887759906135642
  0.1391817904336676  0.0000000000000000  0.2387931662947977
  0.8608182095663324  0.0000000000000000  0.2387931662947977
  0.3620527199946224  0.3620527199946224  0.3620527199946224
  0.6379472800053776  0.3620527199946224  0.3620527199946224
  0.3620527199946224  0.6379472800053776  0.3620527199946224
  0.6379472800053776  0.6379472800053776  0.3620527199946224
  0.0000000000000000  0.5000000000000000  0.2941997277808923
  0.2941997277808923  0.0000000000000000  0.5000000000000000
  0.7058002722191077  0.0000000000000000  0.5000000000000000
  0.5000000000000000  0.1887759906135642  0.5000000000000000
  0.1887759906135642  0.5000000000000000  0.5000000000000000
  0.8112240093864358  0.5000000000000000  0.5000000000000000
  0.5000000000000000  0.8112240093864358  0.5000000000000000
  0.0000000000000000  0.5000000000000000  0.7058002722191077
  0.3620527199946224  0.3620527199946224  0.6379472800053776
  0.6379472800053776  0.3620527199946224  0.6379472800053776
  0.3620527199946224  0.6379472800053776  0.6379472800053776
  0.6379472800053776  0.6379472800053776  0.6379472800053776
  0.1391817904336676  0.0000000000000000  0.7612068337052023
  0.8608182095663324  0.0000000000000000  0.7612068337052023
  0.5000000000000000  0.5000000000000000  0.8112240093864358
  0.0000000000000000  0.2387931662947977  0.8608182095663324
  0.0000000000000000  0.7612068337052023  0.8608182095663324
 
  0.00000000E+00  0.00000000E+00  0.00000000E+00
  0.00000000E+00  0.00000000E+00  0.00000000E+00
  0.00000000E+00  0.00000000E+00  0.00000000E+00
  0.00000000E+00  0.00000000E+00  0.00000000E+00
  0.00000000E+00  0.00000000E+00  0.00000000E+00
  0.00000000E+00  0.00000000E+00  0.00000000E+00
  0.00000000E+00  0.00000000E+00  0.00000000E+00
  0.00000000E+00  0.00000000E+00  0.00000000E+00
  0.00000000E+00  0.00000000E+00  0.00000000E+00
  0.00000000E+00  0.00000000E+00  0.00000000E+00
  0.00000000E+00  0.00000000E+00  0.00000000E+00
  0.00000000E+00  0.00000000E+00  0.00000000E+00
  0.00000000E+00  0.00000000E+00  0.00000000E+00
  0.00000000E+00  0.00000000E+00  0.00000000E+00
  0.00000000E+00  0.00000000E+00  0.00000000E+00
  0.00000000E+00  0.00000000E+00  0.00000000E+00
  0.00000000E+00  0.00000000E+00  0.00000000E+00
  0.00000000E+00  0.00000000E+00  0.00000000E+00
  0.00000000E+00  0.00000000E+00  0.00000000E+00
  0.00000000E+00  0.00000000E+00  0.00000000E+00
  0.00000000E+00  0.00000000E+00  0.00000000E+00
  0.00000000E+00  0.00000000E+00  0.00000000E+00
  0.00000000E+00  0.00000000E+00  0.00000000E+00
  0.00000000E+00  0.00000000E+00  0.00000000E+00
  0.00000000E+00  0.00000000E+00  0.00000000E+00
  0.00000000E+00  0.00000000E+00  0.00000000E+00
  0.00000000E+00  0.00000000E+00  0.00000000E+00
  0.00000000E+00  0.00000000E+00  0.00000000E+00
  0.00000000E+00  0.00000000E+00  0.00000000E+00
  0.00000000E+00  0.00000000E+00  0.00000000E+00
  0.00000000E+00  0.00000000E+00  0.00000000E+00
  0.00000000E+00  0.00000000E+00  0.00000000E+00
  0.00000000E+00  0.00000000E+00  0.00000000E+00
  0.00000000E+00  0.00000000E+00  0.00000000E+00
  0.00000000E+00  0.00000000E+00  0.00000000E+00
  0.00000000E+00  0.00000000E+00  0.00000000E+00
  0.00000000E+00  0.00000000E+00  0.00000000E+00
  0.00000000E+00  0.00000000E+00  0.00000000E+00
  0.00000000E+00  0.00000000E+00  0.00000000E+00
