Ba1 Al2 I6                              
   1.00000000000000     
     4.4975389477303773    3.0309110965706982   10.2925017055261439
    -4.4975389477303755    3.0309110965706982   10.2925017055261456
     0.0000000000000001   -3.6346688757246590    9.3854398805241317
   Ba   I    Al
     1     6     2
Direct
  0.0000000000000000  0.0000000000000000  0.0000000000000000
  0.7396590803589476  0.7396590803589476  0.5124161190574767
  0.7416448123044574  0.2748007489667046  0.2435586612647072
  0.2748007489667046  0.7416448123044574  0.2435586612647072
  0.2603409196410524  0.2603409196410524  0.4875838809425233
  0.7251992510332954  0.2583551876955426  0.7564413387352928
  0.2583551876955426  0.7251992510332954  0.7564413387352928
  0.4593303309223344  0.4593303309223344  0.1835718246587703
  0.5406696690776656  0.5406696690776656  0.8164281753412297
 
  0.00000000E+00  0.00000000E+00  0.00000000E+00
  0.00000000E+00  0.00000000E+00  0.00000000E+00
  0.00000000E+00  0.00000000E+00  0.00000000E+00
  0.00000000E+00  0.00000000E+00  0.00000000E+00
  0.00000000E+00  0.00000000E+00  0.00000000E+00
  0.00000000E+00  0.00000000E+00  0.00000000E+00
  0.00000000E+00  0.00000000E+00  0.00000000E+00
  0.00000000E+00  0.00000000E+00  0.00000000E+00
  0.00000000E+00  0.00000000E+00  0.00000000E+00
