Mg8 Ga10                                
   1.00000000000000     
     5.2471370749165738    0.1359531840049011    0.3666472454880135
    -2.4854048961516684    4.4520283602407655   -0.6034347381425055
     0.8692101688560450   -1.2774953075434945   15.4081924565515109
   Ga   Mg
    10     8
Direct
  0.5725613814178345  0.1876718388817196  0.0805569336435212
  0.9217162318788326  0.4555640540406429  0.2454965496072816
  0.4299044993376171  0.4856709423719181  0.2635636657280855
  0.4067722987701288  0.9610233775318306  0.2421729008465903
  0.6226095541743462  0.4347917320339647  0.4219314414756923
  0.3773853273269410  0.5656428600410379  0.5781684874629534
  0.5932710675590371  0.0390354891949158  0.7579030478580577
  0.5700985573257782  0.5143573831685302  0.7364856446703385
  0.0782940660842470  0.5444703634678092  0.7545386752485896
  0.4276231457526194  0.8120197435897296  0.9194506855858791
  0.2293685099572613  0.4922876384888184  0.0655249381801326
  0.8986596786347079  0.8797710004720614  0.1368834757825894
  0.9217813927751806  0.0456484208700942  0.3600749350709265
  0.2505861037393586  0.7696567992122780  0.4353249177012941
  0.7493889094320210  0.2306642564263583  0.5647282011353738
  0.0781712825730452  0.9546039886073814  0.6399805884895500
  0.1014684620650570  0.1200890377497075  0.8631792332104311
  0.7708395311958682  0.5075310738511831  0.9345356783027654
 
  0.00000000E+00  0.00000000E+00  0.00000000E+00
  0.00000000E+00  0.00000000E+00  0.00000000E+00
  0.00000000E+00  0.00000000E+00  0.00000000E+00
  0.00000000E+00  0.00000000E+00  0.00000000E+00
  0.00000000E+00  0.00000000E+00  0.00000000E+00
  0.00000000E+00  0.00000000E+00  0.00000000E+00
  0.00000000E+00  0.00000000E+00  0.00000000E+00
  0.00000000E+00  0.00000000E+00  0.00000000E+00
  0.00000000E+00  0.00000000E+00  0.00000000E+00
  0.00000000E+00  0.00000000E+00  0.00000000E+00
  0.00000000E+00  0.00000000E+00  0.00000000E+00
  0.00000000E+00  0.00000000E+00  0.00000000E+00
  0.00000000E+00  0.00000000E+00  0.00000000E+00
  0.00000000E+00  0.00000000E+00  0.00000000E+00
  0.00000000E+00  0.00000000E+00  0.00000000E+00
  0.00000000E+00  0.00000000E+00  0.00000000E+00
  0.00000000E+00  0.00000000E+00  0.00000000E+00
  0.00000000E+00  0.00000000E+00  0.00000000E+00
