Ca1 Al2 Cl10                            
   1.00000000000000     
     3.8801237967107918    5.5084242479656380    0.0736627791950665
    -3.8801237967107918    5.5084242479656380    0.0736627791950665
     0.0000000000000000    4.0065640348186697    8.4798264129920113
   Ca   Al   Cl
     1     2    10
Direct
  0.5567879561617559  0.4432120438382441  0.0000000000000000
  0.0034172972793627  0.0079460279848291  0.7407480409393088
  0.9920539720151709  0.9965827027206373  0.2592519590606912
  0.2052186211678162  0.2548021694166636  0.6260389085014424
  0.7451978305833364  0.7947813788321838  0.3739610914985576
  0.7998579079341823  0.7483009518973915  0.8722271430299458
  0.2516990481026085  0.2001420920658177  0.1277728569700542
  0.9161941041228587  0.0838058958771413  0.0000000000000000
  0.0864944164139914  0.9135055835860086  0.5000000000000000
  0.6984760311418370  0.2794653369697997  0.7110692459679839
  0.7205346630302003  0.3015239688581630  0.2889307540320161
  0.3094399368412653  0.7413727847944074  0.7888431638293341
  0.2586272152055926  0.6905600631587347  0.2111568361706659
 
  0.00000000E+00  0.00000000E+00  0.00000000E+00
  0.00000000E+00  0.00000000E+00  0.00000000E+00
  0.00000000E+00  0.00000000E+00  0.00000000E+00
  0.00000000E+00  0.00000000E+00  0.00000000E+00
  0.00000000E+00  0.00000000E+00  0.00000000E+00
  0.00000000E+00  0.00000000E+00  0.00000000E+00
  0.00000000E+00  0.00000000E+00  0.00000000E+00
  0.00000000E+00  0.00000000E+00  0.00000000E+00
  0.00000000E+00  0.00000000E+00  0.00000000E+00
  0.00000000E+00  0.00000000E+00  0.00000000E+00
  0.00000000E+00  0.00000000E+00  0.00000000E+00
  0.00000000E+00  0.00000000E+00  0.00000000E+00
  0.00000000E+00  0.00000000E+00  0.00000000E+00
