Ca15 B1                                 
   1.00000000000000     
     3.8487399251684171   -6.6662141858576200    0.0000000000000000
     3.8487399251684171    6.6662141858576200    0.0000000000000000
     0.0000000000000000    0.0000000000000000   12.0600867287464535
   Ca   B 
    15     1
Direct
  0.3333330000000032  0.6666669999999968  0.5000000000000000
  0.8275291759217467  0.6550583518362956  0.0000000000000000
  0.8354373943829501  0.6708737887716438  0.5000000000000000
  0.8275291759145418  0.1724708240854582  0.0000000000000000
  0.8354373943886984  0.1645626056113016  0.5000000000000000
  0.3449416481637044  0.1724708240782533  0.0000000000000000
  0.3291262112283562  0.1645626056170499  0.5000000000000000
  0.6480621347118074  0.8240315673479230  0.2255806632896835
  0.6480621347118074  0.8240315673479230  0.7744193367103165
  0.1759684326361182  0.8240315673638818  0.2255806632896835
  0.1759684326361182  0.8240315673638818  0.7744193367103165
  0.1759684326520770  0.3519378652881926  0.2255806632896835
  0.1759684326520770  0.3519378652881926  0.7744193367103165
  0.6666669999999968  0.3333330000000032  0.2578703644070686
  0.6666669999999968  0.3333330000000032  0.7421296355929314
  0.3333330000000032  0.6666669999999968  0.0000000000000000
 
  0.00000000E+00  0.00000000E+00  0.00000000E+00
  0.00000000E+00  0.00000000E+00  0.00000000E+00
  0.00000000E+00  0.00000000E+00  0.00000000E+00
  0.00000000E+00  0.00000000E+00  0.00000000E+00
  0.00000000E+00  0.00000000E+00  0.00000000E+00
  0.00000000E+00  0.00000000E+00  0.00000000E+00
  0.00000000E+00  0.00000000E+00  0.00000000E+00
  0.00000000E+00  0.00000000E+00  0.00000000E+00
  0.00000000E+00  0.00000000E+00  0.00000000E+00
  0.00000000E+00  0.00000000E+00  0.00000000E+00
  0.00000000E+00  0.00000000E+00  0.00000000E+00
  0.00000000E+00  0.00000000E+00  0.00000000E+00
  0.00000000E+00  0.00000000E+00  0.00000000E+00
  0.00000000E+00  0.00000000E+00  0.00000000E+00
  0.00000000E+00  0.00000000E+00  0.00000000E+00
  0.00000000E+00  0.00000000E+00  0.00000000E+00
