Be4 B20                                 
   1.00000000000000     
     8.0356391619275627   -1.6549304591784528    0.7837928022640126
     8.0356391619275627    1.6549304591784528    0.7837928022640125
    -2.7056412910377605    0.0000000000000002    6.8691784262271645
   B    Be
    20     4
Direct
  0.0099002666309715  0.0099002666309715  0.9397308382318315
  0.8561382855204371  0.3522086787749217  0.1058049174805831
  0.3522086787749217  0.8561382855204371  0.1058049174805831
  0.9111948629667381  0.9111948629667381  0.1674091861685270
  0.4433733152283921  0.4433733152283921  0.2961242271806910
  0.2791024381390841  0.2791024381390841  0.3413069641200934
  0.1659666017041488  0.1659666017041488  0.3202408830823913
  0.8326382631117752  0.8326382631117752  0.3040113153552255
  0.6087965803691162  0.1070945371882956  0.5291780074850507
  0.1070945371882956  0.6087965803691162  0.5291780074850507
  0.4531124752381714  0.4531124752381714  0.5372124571777093
  0.8883245016632841  0.3877850025467851  0.5141597329959211
  0.3877850025467851  0.8883245016632841  0.5141597329959211
  0.1686131946858964  0.1686131946858964  0.7436879904125959
  0.8320618944619937  0.8320618944619937  0.7194668583568244
  0.7175896592108302  0.7175896592108302  0.7041267214253324
  0.5378134449220582  0.5378134449220582  0.4773333411481104
  0.1026776583016158  0.1026776583016158  0.8870083691477646
  0.6596254760286797  0.1437311227872584  0.9293294110616088
  0.1437311227872584  0.6596254760286797  0.9293294110616088
  0.4959073679682930  0.4959073679682930  0.1118977120860905
  0.7089163894490653  0.7089163894490653  0.2570760446781364
  0.2932027170099758  0.2932027170099758  0.7734293008004940
  0.5444252660922331  0.5444252660922331  0.7621936525818569
 
  0.00000000E+00  0.00000000E+00  0.00000000E+00
  0.00000000E+00  0.00000000E+00  0.00000000E+00
  0.00000000E+00  0.00000000E+00  0.00000000E+00
  0.00000000E+00  0.00000000E+00  0.00000000E+00
  0.00000000E+00  0.00000000E+00  0.00000000E+00
  0.00000000E+00  0.00000000E+00  0.00000000E+00
  0.00000000E+00  0.00000000E+00  0.00000000E+00
  0.00000000E+00  0.00000000E+00  0.00000000E+00
  0.00000000E+00  0.00000000E+00  0.00000000E+00
  0.00000000E+00  0.00000000E+00  0.00000000E+00
  0.00000000E+00  0.00000000E+00  0.00000000E+00
  0.00000000E+00  0.00000000E+00  0.00000000E+00
  0.00000000E+00  0.00000000E+00  0.00000000E+00
  0.00000000E+00  0.00000000E+00  0.00000000E+00
  0.00000000E+00  0.00000000E+00  0.00000000E+00
  0.00000000E+00  0.00000000E+00  0.00000000E+00
  0.00000000E+00  0.00000000E+00  0.00000000E+00
  0.00000000E+00  0.00000000E+00  0.00000000E+00
  0.00000000E+00  0.00000000E+00  0.00000000E+00
  0.00000000E+00  0.00000000E+00  0.00000000E+00
  0.00000000E+00  0.00000000E+00  0.00000000E+00
  0.00000000E+00  0.00000000E+00  0.00000000E+00
  0.00000000E+00  0.00000000E+00  0.00000000E+00
  0.00000000E+00  0.00000000E+00  0.00000000E+00
