Mg13 Ga16                               
   1.00000000000000     
    -5.2144266286179688   -5.2144266286179688    5.2144266286179688
    -5.2144266286179688    5.2144266286179688   -5.2144266286179688
     5.2144266286179688   -5.2144266286179688   -5.2144266286179688
   Ga   Mg
    16    13
Direct
  0.6665971497829304  0.0000000000000000  0.0000000000000000
  0.3728903719197305  0.1906784060693028  0.0000000000000000
  0.1906784060693028  0.3728903719197305  0.0000000000000000
  0.0000000000000000  0.6665971497829304  0.0000000000000000
  0.8093215939306972  0.8093215939306972  0.1822119658504207
  0.3728903719197305  0.0000000000000000  0.1906784060693028
  0.0000000000000000  0.3728903719197305  0.1906784060693028
  0.3334028502170696  0.3334028502170696  0.3334028502170696
  0.1906784060693028  0.0000000000000000  0.3728903719197305
  0.0000000000000000  0.1906784060693028  0.3728903719197305
  0.8177880341495793  0.6271096280802766  0.6271096280802766
  0.6271096280802766  0.8177880341495793  0.6271096280802766
  0.0000000000000000  0.0000000000000000  0.6665971497829304
  0.8093215939306972  0.1822119658504207  0.8093215939306972
  0.1822119658504207  0.8093215939306972  0.8093215939306972
  0.6271096280802766  0.6271096280802766  0.8177880341495793
  0.0000000000000000  0.0000000000000000  0.0000000000000000
  0.6959704904125275  0.4095000475919832  0.0000000000000000
  0.4095000475919832  0.6959704904125275  0.0000000000000000
  0.5904999524080168  0.5904999524080168  0.2864704428205442
  0.7135295571794558  0.3040295095874725  0.3040295095874725
  0.3040295095874725  0.7135295571794558  0.3040295095874725
  0.6959704904125275  0.0000000000000000  0.4095000475919832
  0.0000000000000000  0.6959704904125275  0.4095000475919832
  0.5904999524080168  0.2864704428205442  0.5904999524080168
  0.2864704428205442  0.5904999524080168  0.5904999524080168
  0.4095000475919832  0.0000000000000000  0.6959704904125275
  0.0000000000000000  0.4095000475919832  0.6959704904125275
  0.3040295095874725  0.3040295095874725  0.7135295571794558
 
  0.00000000E+00  0.00000000E+00  0.00000000E+00
  0.00000000E+00  0.00000000E+00  0.00000000E+00
  0.00000000E+00  0.00000000E+00  0.00000000E+00
  0.00000000E+00  0.00000000E+00  0.00000000E+00
  0.00000000E+00  0.00000000E+00  0.00000000E+00
  0.00000000E+00  0.00000000E+00  0.00000000E+00
  0.00000000E+00  0.00000000E+00  0.00000000E+00
  0.00000000E+00  0.00000000E+00  0.00000000E+00
  0.00000000E+00  0.00000000E+00  0.00000000E+00
  0.00000000E+00  0.00000000E+00  0.00000000E+00
  0.00000000E+00  0.00000000E+00  0.00000000E+00
  0.00000000E+00  0.00000000E+00  0.00000000E+00
  0.00000000E+00  0.00000000E+00  0.00000000E+00
  0.00000000E+00  0.00000000E+00  0.00000000E+00
  0.00000000E+00  0.00000000E+00  0.00000000E+00
  0.00000000E+00  0.00000000E+00  0.00000000E+00
  0.00000000E+00  0.00000000E+00  0.00000000E+00
  0.00000000E+00  0.00000000E+00  0.00000000E+00
  0.00000000E+00  0.00000000E+00  0.00000000E+00
  0.00000000E+00  0.00000000E+00  0.00000000E+00
  0.00000000E+00  0.00000000E+00  0.00000000E+00
  0.00000000E+00  0.00000000E+00  0.00000000E+00
  0.00000000E+00  0.00000000E+00  0.00000000E+00
  0.00000000E+00  0.00000000E+00  0.00000000E+00
  0.00000000E+00  0.00000000E+00  0.00000000E+00
  0.00000000E+00  0.00000000E+00  0.00000000E+00
  0.00000000E+00  0.00000000E+00  0.00000000E+00
  0.00000000E+00  0.00000000E+00  0.00000000E+00
  0.00000000E+00  0.00000000E+00  0.00000000E+00
