Al12 I28                                
   1.00000000000000     
    14.5614750950803646   -0.0001913501769171    0.0001714682031245
    -0.0007289947905522   10.2522423487264849   -0.0009977335977905
    -0.0012828826191711    0.0013533758567578   13.3265239530410291
   I    Al
    28    12
Direct
  0.1220196298732716  0.6259367067267192  0.1163369227092232
  0.6219362704136131  0.8741282825004220  0.1161792541073865
  0.7468317578938581  0.2466086262061964  0.1098370649907281
  0.2468319278883797  0.2533762025047963  0.1098571828166541
  0.4316716976541670  0.5695957874875290  0.1441964661391566
  0.9315596833071567  0.9303340103613635  0.1439633569507990
  0.4784520751460946  0.2065011460559489  0.2789768039145812
  0.9783828469409173  0.2933697287566233  0.2790158708598227
  0.7234525117739352  0.5057338343587858  0.3598306692927267
  0.2233805071265706  0.9938725833426361  0.3596606957323729
  0.7632106799958649  0.0542430448477518  0.3894826794192952
  0.2631573309317048  0.4454170399461503  0.3895344810493029
  0.9739308190756546  0.6721565784370682  0.4214771413665730
  0.4738834250928718  0.8277636988917578  0.4215419444507518
  0.3779891313751733  0.1261040842342922  0.6161665620283401
  0.8781858781171081  0.3740325749959652  0.6163460283838234
  0.7532616014120421  0.7466177784671260  0.6098585889928287
  0.2531487215976469  0.7533490252372843  0.6098297853814643
  0.0682406134695555  0.0693238598291117  0.6439058496057655
  0.5683556660800733  0.4305686358764902  0.6440554302474197
  0.0216215183927559  0.7063652044290123  0.7790128367952391
  0.5216530969136670  0.7937114951767938  0.7788299652136459
  0.7765879048388982  0.0059860408268406  0.8596338144327973
  0.2767145656988674  0.4941278430346046  0.8597764404389068
  0.7367948720664330  0.5546387887280559  0.8894912349485082
  0.2368158499916575  0.9456429990737760  0.8893471105348141
  0.5261555332365191  0.1724471563440915  0.9212776119954285
  0.0262081501202829  0.3277787252928803  0.9213167175933137
  0.8996980254004470  0.5725121176877295  0.2176633768687140
  0.3997231056442274  0.9273200517819262  0.2176873773653156
  0.8581379228763026  0.1156701245683749  0.2397959704607544
  0.3581867462985215  0.3841624436481368  0.2398735756402957
  0.8340562710545072  0.5598326999545975  0.5019376087811409
  0.3339240477749144  0.9400746856285664  0.5019068735371306
  0.6002672333027519  0.0730574046415313  0.7175116911380428
  0.1002628864445612  0.4272659156893397  0.7175602539406682
  0.6418448635923539  0.6159284383319417  0.7398517290667286
  0.1417851767554765  0.8841561105381004  0.7397852561251099
  0.6659920921380618  0.0599803527320049  0.0017967774518581
  0.1661073622931184  0.4401081728276779  0.0018909992325788
 
  0.00000000E+00  0.00000000E+00  0.00000000E+00
  0.00000000E+00  0.00000000E+00  0.00000000E+00
  0.00000000E+00  0.00000000E+00  0.00000000E+00
  0.00000000E+00  0.00000000E+00  0.00000000E+00
  0.00000000E+00  0.00000000E+00  0.00000000E+00
  0.00000000E+00  0.00000000E+00  0.00000000E+00
  0.00000000E+00  0.00000000E+00  0.00000000E+00
  0.00000000E+00  0.00000000E+00  0.00000000E+00
  0.00000000E+00  0.00000000E+00  0.00000000E+00
  0.00000000E+00  0.00000000E+00  0.00000000E+00
  0.00000000E+00  0.00000000E+00  0.00000000E+00
  0.00000000E+00  0.00000000E+00  0.00000000E+00
  0.00000000E+00  0.00000000E+00  0.00000000E+00
  0.00000000E+00  0.00000000E+00  0.00000000E+00
  0.00000000E+00  0.00000000E+00  0.00000000E+00
  0.00000000E+00  0.00000000E+00  0.00000000E+00
  0.00000000E+00  0.00000000E+00  0.00000000E+00
  0.00000000E+00  0.00000000E+00  0.00000000E+00
  0.00000000E+00  0.00000000E+00  0.00000000E+00
  0.00000000E+00  0.00000000E+00  0.00000000E+00
  0.00000000E+00  0.00000000E+00  0.00000000E+00
  0.00000000E+00  0.00000000E+00  0.00000000E+00
  0.00000000E+00  0.00000000E+00  0.00000000E+00
  0.00000000E+00  0.00000000E+00  0.00000000E+00
  0.00000000E+00  0.00000000E+00  0.00000000E+00
  0.00000000E+00  0.00000000E+00  0.00000000E+00
  0.00000000E+00  0.00000000E+00  0.00000000E+00
  0.00000000E+00  0.00000000E+00  0.00000000E+00
  0.00000000E+00  0.00000000E+00  0.00000000E+00
  0.00000000E+00  0.00000000E+00  0.00000000E+00
  0.00000000E+00  0.00000000E+00  0.00000000E+00
  0.00000000E+00  0.00000000E+00  0.00000000E+00
  0.00000000E+00  0.00000000E+00  0.00000000E+00
  0.00000000E+00  0.00000000E+00  0.00000000E+00
  0.00000000E+00  0.00000000E+00  0.00000000E+00
  0.00000000E+00  0.00000000E+00  0.00000000E+00
  0.00000000E+00  0.00000000E+00  0.00000000E+00
  0.00000000E+00  0.00000000E+00  0.00000000E+00
  0.00000000E+00  0.00000000E+00  0.00000000E+00
  0.00000000E+00  0.00000000E+00  0.00000000E+00
