Sr2 B2 Cl10                             
   1.0000000000000000     
     4.6383606694015818   -0.0000000000000001    0.0000000000000003
    -0.0000000000000010   11.8152531946995900    0.0000000000000009
     0.0000000000000002    0.0000000000000003    9.7586812436272172
   Sr   B    Cl
     2     2    10
Direct
  0.0000000000000000  0.0000000000000000  0.5000000000000000
  0.5000000000000000  0.5000000000000000  0.0000000000000000
  0.5000000000000000  0.0000000000000000  0.0000000000000000
  0.0000000000000000  0.5000000000000000  0.5000000000000000
  0.5000000000000000  0.8526620492380133  0.5000000000000000
  0.5000000000000000  0.1473379507619867  0.5000000000000000
  0.5000000000000000  0.0000000000000000  0.1770475602322463
  0.5000000000000000  0.0000000000000000  0.8229524397677537
  0.0000000000000000  0.0000000000000000  0.0000000000000000
  0.0000000000000000  0.3526620492380133  0.0000000000000000
  0.0000000000000000  0.6473379507619867  0.0000000000000000
  0.0000000000000000  0.5000000000000000  0.6770475602322463
  0.0000000000000000  0.5000000000000000  0.3229524397677537
  0.5000000000000000  0.5000000000000000  0.5000000000000000

  0.00000000E+00  0.00000000E+00  0.00000000E+00
  0.00000000E+00  0.00000000E+00  0.00000000E+00
  0.00000000E+00  0.00000000E+00  0.00000000E+00
  0.00000000E+00  0.00000000E+00  0.00000000E+00
  0.00000000E+00  0.00000000E+00  0.00000000E+00
  0.00000000E+00  0.00000000E+00  0.00000000E+00
  0.00000000E+00  0.00000000E+00  0.00000000E+00
  0.00000000E+00  0.00000000E+00  0.00000000E+00
  0.00000000E+00  0.00000000E+00  0.00000000E+00
  0.00000000E+00  0.00000000E+00  0.00000000E+00
  0.00000000E+00  0.00000000E+00  0.00000000E+00
  0.00000000E+00  0.00000000E+00  0.00000000E+00
  0.00000000E+00  0.00000000E+00  0.00000000E+00
  0.00000000E+00  0.00000000E+00  0.00000000E+00
