I1                                      
   1.00000000000000     
     2.7278089790229232   -0.0186698117109071   -1.2896932651847461
    -0.8019971893107978    3.1144318679122915   -1.6090504583647423
     0.7616330359364343    0.7542510649736670    5.0474041619693368
   I 
     1
Direct
  0.0173210000000026  0.9954380000000000  0.0033219999999972
 
  0.00000000E+00  0.00000000E+00  0.00000000E+00
