Tl40 Cl56                               
   1.0000000000000000     
     9.4017688736537153    9.4104181031972995    0.0262157083762286
    -9.4017688736537153    9.4104181031972995    0.0262157083762286
     0.0000000000000000    4.9443452414174169   18.3986498838937571
   Tl   Cl
    40    56
Direct
  0.3046773665356426  0.4323310300122145  0.7521685293426543
  0.5027847165127781  0.9878283739587701  0.8651293444750507
  0.9320205272476443  0.0679794727523557  0.2500000000000000
  0.1728537568929767  0.0001595707265452  0.4257575790687511
  0.4972152834872219  0.0121716260412228  0.1348706555249493
  0.8046848185657183  0.1953151814342817  0.7500000000000000
  0.2645962495393306  0.7041586160749986  0.8980879052140693
  0.5034345709912955  0.6328900362808128  0.0682903049220656
  0.8271462431070233  0.9998404292734548  0.5742424209312560
  0.5676689699877855  0.6953226334643574  0.7478314706573457
  0.9998404292734548  0.8271462431070233  0.0742424209312489
  0.7653717174094794  0.8500648445026968  0.8994545380772365
  0.7041586160749986  0.2645962495393306  0.3980879052140693
  0.5803463553963866  0.9970596223628760  0.3730202257968926
  0.7354037504606694  0.2958413839250014  0.1019120947859307
  0.4323310300122145  0.3046773665356426  0.2521685293426543
  0.1499351554973032  0.2346282825905277  0.6005454619227635
  0.5118130878509319  0.1880545570857421  0.6388874171535761
  0.9970596223628760  0.5803463553963866  0.8730202257968998
  0.6875826701684247  0.9202360958823661  0.1351882609690023
  0.1953151814342817  0.8046848185657183  0.2500000000000000
  0.3124173298315753  0.0797639041176339  0.8648117390309977
  0.8119454429142579  0.4881869121490681  0.8611125828464239
  0.0029403776371169  0.4196536446036134  0.1269797742031074
  0.0679794727523557  0.9320205272476443  0.7500000000000000
  0.4196536446036134  0.0029403776371169  0.6269797742031002
  0.4965654290086974  0.3671099637191872  0.9317096950779344
  0.8500648445026968  0.7653717174094794  0.3994545380772365
  0.9202360958823661  0.6875826701684247  0.6351882609690023
  0.2958413839250014  0.7354037504606694  0.6019120947859307
  0.1880545570857421  0.5118130878509319  0.1388874171535761
  0.9878283739587701  0.5027847165127781  0.3651293444750507
  0.3671099637191872  0.4965654290086974  0.4317096950779344
  0.0001595707265452  0.1728537568929767  0.9257575790687440
  0.0121716260412228  0.4972152834872219  0.6348706555249493
  0.2346282825905277  0.1499351554973032  0.1005454619227635
  0.6953226334643574  0.5676689699877855  0.2478314706573457
  0.6328900362808128  0.5034345709912955  0.5682903049220656
  0.0797639041176339  0.3124173298315753  0.3648117390309977
  0.4881869121490681  0.8119454429142579  0.3611125828464168
  0.7004393122119552  0.2226743905260165  0.5775736528832383
  0.2226743905260165  0.7004393122119552  0.0775736528832383
  0.2800632834957497  0.2379726074144699  0.9247748988585300
  0.5104917261270643  0.2581858068273064  0.7547724190884608
  0.9568441973673529  0.3716771256139495  0.5636505557564675
  0.1298522397263469  0.6425341918523557  0.7535220675637575
  0.8533287822230236  0.7597786751707432  0.7500654793807939
  0.4995012275190618  0.7927228966397664  0.9073088457561198
  0.7597786751707432  0.8533287822230236  0.2500654793807939
  0.0272774708192145  0.8489215133108274  0.5666291917052604
  0.9945711439907967  0.6325583157005426  0.2449704255550387
  0.0431558026326471  0.6283228743860505  0.4363494442435325
  0.2379726074144699  0.2800632834957497  0.4247748988585229
  0.2459145788516324  0.0056731415365832  0.5863267598235211
  0.4901167893725074  0.1282159659167093  0.4409397476287324
  0.1510784866891726  0.9727225291807855  0.9333708082947396
  0.0056731415365832  0.2459145788516324  0.0863267598235211
  0.9943268584634239  0.7540854211483676  0.9136732401764789
  0.8717840340832907  0.5098832106274926  0.0590602523712818
  0.3716771256139495  0.9568441973673529  0.0636505557564675
  0.5098832106274926  0.8717840340832907  0.5590602523712676
  0.8489215133108274  0.0272774708192145  0.0666291917052604
  0.7199367165042574  0.7620273925855301  0.0752251011414700
  0.5609729393235199  0.6517510081093221  0.4314589235329223
  0.1466712177769764  0.2402213248292568  0.2499345206192061
  0.6325583157005426  0.9945711439907967  0.7449704255550387
  0.3482489918906850  0.4390270606764730  0.0685410764670777
  0.7540854211483676  0.9943268584634239  0.4136732401764789
  0.4077702578283748  0.5452042832011514  0.8491104675383809
  0.9644826429067876  0.0924939254574895  0.6515541252067152
  0.2072771033602336  0.5004987724809382  0.5926911542438802
  0.6425341918523557  0.1298522397263469  0.2535220675637504
  0.5922297421716252  0.4547957167988486  0.1508895324616191
  0.7773256094739835  0.2995606877880519  0.9224263471167617
  0.3674416842994574  0.0054288560091962  0.2550295744449613
  0.1282159659167093  0.4901167893725074  0.9409397476287324
  0.4547957167988486  0.5922297421716252  0.6508895324616191
  0.8701477602736460  0.3574658081476443  0.2464779324362496
  0.0355173570932124  0.9075060745425034  0.3484458747932848
  0.0924939254574895  0.9644826429067876  0.1515541252067152
  0.6283228743860505  0.0431558026326471  0.9363494442435325
  0.5004987724809382  0.2072771033602336  0.0926911542438802
  0.2402213248292568  0.1466712177769764  0.7499345206192061
  0.3574658081476443  0.8701477602736460  0.7464779324362425
  0.4390270606764730  0.3482489918906850  0.5685410764670777
  0.2995606877880519  0.7773256094739835  0.4224263471167617
  0.7927228966397664  0.4995012275190618  0.4073088457561198
  0.7620273925855301  0.7199367165042574  0.5752251011414700
  0.0054288560091962  0.3674416842994574  0.7550295744449613
  0.9727225291807855  0.1510784866891726  0.4333708082947396
  0.4895082738729357  0.7418141931726936  0.2452275809115392
  0.6517510081093221  0.5609729393235199  0.9314589235329223
  0.9075060745425034  0.0355173570932124  0.8484458747932848
  0.5452042832011514  0.4077702578283748  0.3491104675383809
  0.7418141931726936  0.4895082738729357  0.7452275809115392
  0.2581858068273064  0.5104917261270643  0.2547724190884679

  0.00000000E+00  0.00000000E+00  0.00000000E+00
  0.00000000E+00  0.00000000E+00  0.00000000E+00
  0.00000000E+00  0.00000000E+00  0.00000000E+00
  0.00000000E+00  0.00000000E+00  0.00000000E+00
  0.00000000E+00  0.00000000E+00  0.00000000E+00
  0.00000000E+00  0.00000000E+00  0.00000000E+00
  0.00000000E+00  0.00000000E+00  0.00000000E+00
  0.00000000E+00  0.00000000E+00  0.00000000E+00
  0.00000000E+00  0.00000000E+00  0.00000000E+00
  0.00000000E+00  0.00000000E+00  0.00000000E+00
  0.00000000E+00  0.00000000E+00  0.00000000E+00
  0.00000000E+00  0.00000000E+00  0.00000000E+00
  0.00000000E+00  0.00000000E+00  0.00000000E+00
  0.00000000E+00  0.00000000E+00  0.00000000E+00
  0.00000000E+00  0.00000000E+00  0.00000000E+00
  0.00000000E+00  0.00000000E+00  0.00000000E+00
  0.00000000E+00  0.00000000E+00  0.00000000E+00
  0.00000000E+00  0.00000000E+00  0.00000000E+00
  0.00000000E+00  0.00000000E+00  0.00000000E+00
  0.00000000E+00  0.00000000E+00  0.00000000E+00
  0.00000000E+00  0.00000000E+00  0.00000000E+00
  0.00000000E+00  0.00000000E+00  0.00000000E+00
  0.00000000E+00  0.00000000E+00  0.00000000E+00
  0.00000000E+00  0.00000000E+00  0.00000000E+00
  0.00000000E+00  0.00000000E+00  0.00000000E+00
  0.00000000E+00  0.00000000E+00  0.00000000E+00
  0.00000000E+00  0.00000000E+00  0.00000000E+00
  0.00000000E+00  0.00000000E+00  0.00000000E+00
  0.00000000E+00  0.00000000E+00  0.00000000E+00
  0.00000000E+00  0.00000000E+00  0.00000000E+00
  0.00000000E+00  0.00000000E+00  0.00000000E+00
  0.00000000E+00  0.00000000E+00  0.00000000E+00
  0.00000000E+00  0.00000000E+00  0.00000000E+00
  0.00000000E+00  0.00000000E+00  0.00000000E+00
  0.00000000E+00  0.00000000E+00  0.00000000E+00
  0.00000000E+00  0.00000000E+00  0.00000000E+00
  0.00000000E+00  0.00000000E+00  0.00000000E+00
  0.00000000E+00  0.00000000E+00  0.00000000E+00
  0.00000000E+00  0.00000000E+00  0.00000000E+00
  0.00000000E+00  0.00000000E+00  0.00000000E+00
  0.00000000E+00  0.00000000E+00  0.00000000E+00
  0.00000000E+00  0.00000000E+00  0.00000000E+00
  0.00000000E+00  0.00000000E+00  0.00000000E+00
  0.00000000E+00  0.00000000E+00  0.00000000E+00
  0.00000000E+00  0.00000000E+00  0.00000000E+00
  0.00000000E+00  0.00000000E+00  0.00000000E+00
  0.00000000E+00  0.00000000E+00  0.00000000E+00
  0.00000000E+00  0.00000000E+00  0.00000000E+00
  0.00000000E+00  0.00000000E+00  0.00000000E+00
  0.00000000E+00  0.00000000E+00  0.00000000E+00
  0.00000000E+00  0.00000000E+00  0.00000000E+00
  0.00000000E+00  0.00000000E+00  0.00000000E+00
  0.00000000E+00  0.00000000E+00  0.00000000E+00
  0.00000000E+00  0.00000000E+00  0.00000000E+00
  0.00000000E+00  0.00000000E+00  0.00000000E+00
  0.00000000E+00  0.00000000E+00  0.00000000E+00
  0.00000000E+00  0.00000000E+00  0.00000000E+00
  0.00000000E+00  0.00000000E+00  0.00000000E+00
  0.00000000E+00  0.00000000E+00  0.00000000E+00
  0.00000000E+00  0.00000000E+00  0.00000000E+00
  0.00000000E+00  0.00000000E+00  0.00000000E+00
  0.00000000E+00  0.00000000E+00  0.00000000E+00
  0.00000000E+00  0.00000000E+00  0.00000000E+00
  0.00000000E+00  0.00000000E+00  0.00000000E+00
  0.00000000E+00  0.00000000E+00  0.00000000E+00
  0.00000000E+00  0.00000000E+00  0.00000000E+00
  0.00000000E+00  0.00000000E+00  0.00000000E+00
  0.00000000E+00  0.00000000E+00  0.00000000E+00
  0.00000000E+00  0.00000000E+00  0.00000000E+00
  0.00000000E+00  0.00000000E+00  0.00000000E+00
  0.00000000E+00  0.00000000E+00  0.00000000E+00
  0.00000000E+00  0.00000000E+00  0.00000000E+00
  0.00000000E+00  0.00000000E+00  0.00000000E+00
  0.00000000E+00  0.00000000E+00  0.00000000E+00
  0.00000000E+00  0.00000000E+00  0.00000000E+00
  0.00000000E+00  0.00000000E+00  0.00000000E+00
  0.00000000E+00  0.00000000E+00  0.00000000E+00
  0.00000000E+00  0.00000000E+00  0.00000000E+00
  0.00000000E+00  0.00000000E+00  0.00000000E+00
  0.00000000E+00  0.00000000E+00  0.00000000E+00
  0.00000000E+00  0.00000000E+00  0.00000000E+00
  0.00000000E+00  0.00000000E+00  0.00000000E+00
  0.00000000E+00  0.00000000E+00  0.00000000E+00
  0.00000000E+00  0.00000000E+00  0.00000000E+00
  0.00000000E+00  0.00000000E+00  0.00000000E+00
  0.00000000E+00  0.00000000E+00  0.00000000E+00
  0.00000000E+00  0.00000000E+00  0.00000000E+00
  0.00000000E+00  0.00000000E+00  0.00000000E+00
  0.00000000E+00  0.00000000E+00  0.00000000E+00
  0.00000000E+00  0.00000000E+00  0.00000000E+00
  0.00000000E+00  0.00000000E+00  0.00000000E+00
  0.00000000E+00  0.00000000E+00  0.00000000E+00
  0.00000000E+00  0.00000000E+00  0.00000000E+00
  0.00000000E+00  0.00000000E+00  0.00000000E+00
  0.00000000E+00  0.00000000E+00  0.00000000E+00
  0.00000000E+00  0.00000000E+00  0.00000000E+00
