Mg5Ga2                                  
   1.00000000000000     
     0.0185810890553845    0.0026749903673978    5.9936419696846164
    -0.0014758500428210   -7.0467534349950469   -0.0031738869683445
     6.8142315972911662    3.5230146324401339   -2.9734192151488239
   Ga   Mg
     4    10
Direct
  0.6233287846265938  0.3876133131721602  0.2459940275012826
  0.1230091482255347  0.8581470026495168  0.2456291138819751
  0.8770242834729416  0.1418543043576435  0.7543667937784946
  0.3767043908910921  0.6123866012819761  0.7540110022678732
  0.2500499560955589  0.9999631974610281  0.0000097213733028
  0.7499720837769459  0.0000404493315429  0.9999913893542072
  0.0846677129655262  0.4307817670099681  0.1673331081265985
  0.5844579693883389  0.7364707952295149  0.1671805846659353
  0.4824732246680981  0.2309941327843461  0.4642398581298366
  0.9823813536003314  0.2327544284492831  0.4640718972960087
  0.0176599516460172  0.7672508053924219  0.5359275575565903
  0.5175606180447616  0.7689923072109721  0.5357602986159407
  0.4155674405284486  0.2635361348111047  0.8328288481196395
  0.9153430820698389  0.5692147608585145  0.8326557993323220
 
  0.00000000E+00  0.00000000E+00  0.00000000E+00
  0.00000000E+00  0.00000000E+00  0.00000000E+00
  0.00000000E+00  0.00000000E+00  0.00000000E+00
  0.00000000E+00  0.00000000E+00  0.00000000E+00
  0.00000000E+00  0.00000000E+00  0.00000000E+00
  0.00000000E+00  0.00000000E+00  0.00000000E+00
  0.00000000E+00  0.00000000E+00  0.00000000E+00
  0.00000000E+00  0.00000000E+00  0.00000000E+00
  0.00000000E+00  0.00000000E+00  0.00000000E+00
  0.00000000E+00  0.00000000E+00  0.00000000E+00
  0.00000000E+00  0.00000000E+00  0.00000000E+00
  0.00000000E+00  0.00000000E+00  0.00000000E+00
  0.00000000E+00  0.00000000E+00  0.00000000E+00
  0.00000000E+00  0.00000000E+00  0.00000000E+00
