Ba18 In11                               
   1.0000000000000000     
     9.2210039255377740   -5.2534386437883995    3.7871169467346673
     0.1566385572054068   10.8808344865006195    3.9409794047771425
    -9.5702113754056057   -5.6317661343229064    4.1026145544704749
   In   Ba
    11    18
Direct
  0.6324537793720708  0.8392614114219299  0.9999199130411327
  0.3669948779089793  0.3696045228763651  0.2106733727702874
  0.7951966889988853  0.1733224146458383  0.1621803233940824
  0.2017764207497805  0.8414494947487654  0.2050370106800017
  0.3654260714536619  0.1796185486403346  0.3593329589578147
  0.1936312789682475  0.3629786400513524  0.3679240058174429
  0.8257177291254720  0.9948827263042830  0.6322505171293571
  0.0060336232515894  0.8199282213040817  0.6408682853067162
  0.9967885284039184  0.6363458499465722  0.7952917808543347
  0.6327836978505914  0.0108081341637316  0.8373415551308625
  0.1563101078761164  0.1589640340573908  0.7893300890250288
  0.3288166130125703  0.9821115838419701  0.0000262348897806
  0.5524044890856530  0.2945782149022165  0.9998864742764013
  0.0077591806983790  0.0115213953137285  0.9999225996972996
  0.8323883205468974  0.6410324696497725  0.0000601207571762
  0.0024938036947688  0.3196231576435906  0.9999338067992483
  0.3143709146123896  0.6028294786986308  0.0001639901418642
  0.7060789239947312  0.6998033408526823  0.3104513692180220
  0.5968041394486718  0.0040373121598520  0.3044290476378109
  0.0077550131684632  0.5695177719148106  0.3186212304476399
  0.0017723279458082  0.0206013905224864  0.3301465146515454
  0.4114597416287253  0.7219839636962178  0.4024189809400553
  0.7110473752190458  0.4048939063935748  0.4133618662118863
  0.2970533507127939  0.9913046966866759  0.5864583037412814
  0.0090374817803536  0.3196010227799775  0.5981890498381972
  0.6713926918399267  0.6897625346890024  0.6695717226738580
  0.6886863180775222  0.2507760178920364  0.6810052462890468
  0.2921976086936908  0.6994067559972450  0.6954855866383483
  0.3955709018803049  0.3894879882048983  0.6897180430435057

  0.00000000E+00  0.00000000E+00  0.00000000E+00
  0.00000000E+00  0.00000000E+00  0.00000000E+00
  0.00000000E+00  0.00000000E+00  0.00000000E+00
  0.00000000E+00  0.00000000E+00  0.00000000E+00
  0.00000000E+00  0.00000000E+00  0.00000000E+00
  0.00000000E+00  0.00000000E+00  0.00000000E+00
  0.00000000E+00  0.00000000E+00  0.00000000E+00
  0.00000000E+00  0.00000000E+00  0.00000000E+00
  0.00000000E+00  0.00000000E+00  0.00000000E+00
  0.00000000E+00  0.00000000E+00  0.00000000E+00
  0.00000000E+00  0.00000000E+00  0.00000000E+00
  0.00000000E+00  0.00000000E+00  0.00000000E+00
  0.00000000E+00  0.00000000E+00  0.00000000E+00
  0.00000000E+00  0.00000000E+00  0.00000000E+00
  0.00000000E+00  0.00000000E+00  0.00000000E+00
  0.00000000E+00  0.00000000E+00  0.00000000E+00
  0.00000000E+00  0.00000000E+00  0.00000000E+00
  0.00000000E+00  0.00000000E+00  0.00000000E+00
  0.00000000E+00  0.00000000E+00  0.00000000E+00
  0.00000000E+00  0.00000000E+00  0.00000000E+00
  0.00000000E+00  0.00000000E+00  0.00000000E+00
  0.00000000E+00  0.00000000E+00  0.00000000E+00
  0.00000000E+00  0.00000000E+00  0.00000000E+00
  0.00000000E+00  0.00000000E+00  0.00000000E+00
  0.00000000E+00  0.00000000E+00  0.00000000E+00
  0.00000000E+00  0.00000000E+00  0.00000000E+00
  0.00000000E+00  0.00000000E+00  0.00000000E+00
  0.00000000E+00  0.00000000E+00  0.00000000E+00
  0.00000000E+00  0.00000000E+00  0.00000000E+00
