Sr4 Ga6                                 
   1.00000000000000     
     2.8658305115830469   -5.6428214894608368    0.0000000000000000
     2.8658305115830469    5.6428214894608368    0.0000000000000000
     0.0000000000000000    0.0000000000000000    8.3492637118391695
   Sr   Ga
     4     6
Direct
  0.1567922450730634  0.8432077549269366  0.0991902301354983
  0.6567922450730634  0.3432077549269366  0.4008097698645017
  0.3432077549269366  0.6567922450730634  0.5991902301354983
  0.8432077549269366  0.1567922450730634  0.9008097698645017
  0.5000000000000000  0.5000000000000000  0.0000000000000000
  0.1526747384028297  0.3473252615971703  0.2500000000000000
  0.6526747384028297  0.8473252615971703  0.2500000000000000
  0.0000000000000000  0.0000000000000000  0.5000000000000000
  0.3473252615971703  0.1526747384028297  0.7500000000000000
  0.8473252615971703  0.6526747384028297  0.7500000000000000
 
  0.00000000E+00  0.00000000E+00  0.00000000E+00
  0.00000000E+00  0.00000000E+00  0.00000000E+00
  0.00000000E+00  0.00000000E+00  0.00000000E+00
  0.00000000E+00  0.00000000E+00  0.00000000E+00
  0.00000000E+00  0.00000000E+00  0.00000000E+00
  0.00000000E+00  0.00000000E+00  0.00000000E+00
  0.00000000E+00  0.00000000E+00  0.00000000E+00
  0.00000000E+00  0.00000000E+00  0.00000000E+00
  0.00000000E+00  0.00000000E+00  0.00000000E+00
  0.00000000E+00  0.00000000E+00  0.00000000E+00
