In7Cl9                                  
   1.00000000000000     
    12.4663803951108623    0.0007961566334373    0.0007961745972603
     0.0007961745972603   12.4663803951108640    0.0007961566334373
     0.0007961566334373    0.0007961745972603   12.4663803951108640
   Cl   In
    36    28
Direct
  0.0000338187025335  0.0000338187025335  0.0000338187025335
  0.5000402722515531  0.5000923578458298  0.9999768091726651
  0.4516498060775334  0.1956570616944191  0.0423481908159786
  0.0483272120095890  0.6956763545319191  0.0422498582813517
  0.6956763545319191  0.0422498582813517  0.0483272120095890
  0.8044012803675571  0.5420324116112241  0.0486460096298416
  0.1678478887137018  0.1678478887137018  0.1678478887137018
  0.3322832529521378  0.6677933784622354  0.1677117079084312
  0.0423481908159786  0.4516498060775334  0.1956570616944191
  0.4579057517418548  0.9516455267054482  0.1957264960431289
  0.5421825163008052  0.4516045184970494  0.3043393719073322
  0.9578833285563135  0.9517163770517669  0.3043652528118130
  0.6677933784622354  0.1677117079084312  0.3322832529521378
  0.8322936584154021  0.6676834874212716  0.3322909613341523
  0.1956570616944191  0.0423481908159786  0.4516498060775334
  0.3043393719073322  0.5421825163008052  0.4516045184970494
  0.9516455267054482  0.1957264960431289  0.4579057517418548
  0.5482808555033429  0.6956629547947841  0.4577451103749794
  0.5000923578458298  0.9999768091726651  0.5000402722515531
  0.9999768091726651  0.5000402722515531  0.5000923578458298
  0.4516045184970494  0.3043393719073322  0.5421825163008052
  0.0486460096298416  0.8044012803675571  0.5420324116112241
  0.6956629547947841  0.4577451103749794  0.5482808555033429
  0.8044049381864440  0.9578832273997406  0.5484620758033643
  0.1677117079084312  0.3322832529521378  0.6677933784622354
  0.3322909613341523  0.8322936584154021  0.6676834874212716
  0.0422498582813517  0.0483272120095890  0.6956763545319191
  0.4577451103749794  0.5482808555033429  0.6956629547947841
  0.5420324116112241  0.0486460096298416  0.8044012803675571
  0.9578832273997406  0.5484620758033643  0.8044049381864440
  0.6676834874212716  0.3322909613341523  0.8322936584154021
  0.8323084831164991  0.8323084831164991  0.8323084831164991
  0.1957264960431289  0.4579057517418548  0.9516455267054482
  0.3043652528118130  0.9578833285563135  0.9517163770517669
  0.9517163770517669  0.3043652528118130  0.9578833285563135
  0.5484620758033643  0.8044049381864440  0.9578832273997406
  0.5000275636214866  0.9999860832052647  0.0000118651413672
  0.0000118651413672  0.5000275636214866  0.9999860832052647
  0.6702061969853546  0.3170762048569955  0.0650414851229968
  0.8299691025533917  0.8176377014901917  0.0650868188317730
  0.3173008708653171  0.4350468842689637  0.1702286989898525
  0.1827736795352379  0.9350015768135194  0.1701094978679905
  0.9350015768135194  0.1701094978679905  0.1827736795352379
  0.5651928771722652  0.6699227306082634  0.1824416472160664
  0.4350468842689637  0.1702286989898525  0.3173008708653171
  0.0650414851229968  0.6702061969853546  0.3170762048569955
  0.8174656231373163  0.4349010665298678  0.3298375394003727
  0.6825609594270432  0.9348160147976756  0.3300467351812983
  0.1702286989898525  0.3173008708653171  0.4350468842689708
  0.3298375394003727  0.8174656231373163  0.4349010665298678
  0.9999860832052647  0.0000118651413672  0.5000275636214866
  0.5000109671605486  0.5000109671605486  0.5000109671605486
  0.6699227306082634  0.1824416472160664  0.5651928771722652
  0.8307936339405515  0.6815819018981983  0.5653715103867683
  0.3170762048569955  0.0650414851229968  0.6702061969853546
  0.1824416472160664  0.5651928771722652  0.6699227306082634
  0.9348160147976756  0.3300467351812983  0.6825609594270432
  0.5653715103867683  0.8307936339405515  0.6815819018981983
  0.4349010665298678  0.3298375394003727  0.8174656231373163
  0.0650868188317730  0.8299691025533917  0.8176377014901917
  0.8176377014901917  0.0650868188317730  0.8299691025533917
  0.6815819018981983  0.5653715103867683  0.8307936339405515
  0.1701094978679905  0.1827736795352379  0.9350015768135194
  0.3300467351812983  0.6825609594270432  0.9348160147976756
 
  0.00000000E+00  0.00000000E+00  0.00000000E+00
  0.00000000E+00  0.00000000E+00  0.00000000E+00
  0.00000000E+00  0.00000000E+00  0.00000000E+00
  0.00000000E+00  0.00000000E+00  0.00000000E+00
  0.00000000E+00  0.00000000E+00  0.00000000E+00
  0.00000000E+00  0.00000000E+00  0.00000000E+00
  0.00000000E+00  0.00000000E+00  0.00000000E+00
  0.00000000E+00  0.00000000E+00  0.00000000E+00
  0.00000000E+00  0.00000000E+00  0.00000000E+00
  0.00000000E+00  0.00000000E+00  0.00000000E+00
  0.00000000E+00  0.00000000E+00  0.00000000E+00
  0.00000000E+00  0.00000000E+00  0.00000000E+00
  0.00000000E+00  0.00000000E+00  0.00000000E+00
  0.00000000E+00  0.00000000E+00  0.00000000E+00
  0.00000000E+00  0.00000000E+00  0.00000000E+00
  0.00000000E+00  0.00000000E+00  0.00000000E+00
  0.00000000E+00  0.00000000E+00  0.00000000E+00
  0.00000000E+00  0.00000000E+00  0.00000000E+00
  0.00000000E+00  0.00000000E+00  0.00000000E+00
  0.00000000E+00  0.00000000E+00  0.00000000E+00
  0.00000000E+00  0.00000000E+00  0.00000000E+00
  0.00000000E+00  0.00000000E+00  0.00000000E+00
  0.00000000E+00  0.00000000E+00  0.00000000E+00
  0.00000000E+00  0.00000000E+00  0.00000000E+00
  0.00000000E+00  0.00000000E+00  0.00000000E+00
  0.00000000E+00  0.00000000E+00  0.00000000E+00
  0.00000000E+00  0.00000000E+00  0.00000000E+00
  0.00000000E+00  0.00000000E+00  0.00000000E+00
  0.00000000E+00  0.00000000E+00  0.00000000E+00
  0.00000000E+00  0.00000000E+00  0.00000000E+00
  0.00000000E+00  0.00000000E+00  0.00000000E+00
  0.00000000E+00  0.00000000E+00  0.00000000E+00
  0.00000000E+00  0.00000000E+00  0.00000000E+00
  0.00000000E+00  0.00000000E+00  0.00000000E+00
  0.00000000E+00  0.00000000E+00  0.00000000E+00
  0.00000000E+00  0.00000000E+00  0.00000000E+00
  0.00000000E+00  0.00000000E+00  0.00000000E+00
  0.00000000E+00  0.00000000E+00  0.00000000E+00
  0.00000000E+00  0.00000000E+00  0.00000000E+00
  0.00000000E+00  0.00000000E+00  0.00000000E+00
  0.00000000E+00  0.00000000E+00  0.00000000E+00
  0.00000000E+00  0.00000000E+00  0.00000000E+00
  0.00000000E+00  0.00000000E+00  0.00000000E+00
  0.00000000E+00  0.00000000E+00  0.00000000E+00
  0.00000000E+00  0.00000000E+00  0.00000000E+00
  0.00000000E+00  0.00000000E+00  0.00000000E+00
  0.00000000E+00  0.00000000E+00  0.00000000E+00
  0.00000000E+00  0.00000000E+00  0.00000000E+00
  0.00000000E+00  0.00000000E+00  0.00000000E+00
  0.00000000E+00  0.00000000E+00  0.00000000E+00
  0.00000000E+00  0.00000000E+00  0.00000000E+00
  0.00000000E+00  0.00000000E+00  0.00000000E+00
  0.00000000E+00  0.00000000E+00  0.00000000E+00
  0.00000000E+00  0.00000000E+00  0.00000000E+00
  0.00000000E+00  0.00000000E+00  0.00000000E+00
  0.00000000E+00  0.00000000E+00  0.00000000E+00
  0.00000000E+00  0.00000000E+00  0.00000000E+00
  0.00000000E+00  0.00000000E+00  0.00000000E+00
  0.00000000E+00  0.00000000E+00  0.00000000E+00
  0.00000000E+00  0.00000000E+00  0.00000000E+00
  0.00000000E+00  0.00000000E+00  0.00000000E+00
  0.00000000E+00  0.00000000E+00  0.00000000E+00
  0.00000000E+00  0.00000000E+00  0.00000000E+00
  0.00000000E+00  0.00000000E+00  0.00000000E+00
