Ca17 B12                                
   1.00000000000000     
    -5.8845766786125244   -5.8845766786125253    7.6989174434415082
    -5.8845766786125235    7.6989174434415144   -5.8845766786125262
     7.6989174434415126   -5.8845766786125244   -5.8845766786125262
   B    Ca
    12    17
Direct
  0.3138183111198956  0.1269483333705281  0.0416021057683196
  0.1269483333705281  0.3138183111198956  0.0416021057683196
  0.8815416339687374  0.8815416339687374  0.0837016235300041
  0.3138183111198956  0.0416021057683196  0.1269483333705281
  0.0416021057683196  0.3138183111198956  0.1269483333705281
  0.1269483333705281  0.0416021057683196  0.3138183111198956
  0.0416021057683196  0.1269483333705281  0.3138183111198956
  0.8429402219852236  0.7494114600750805  0.7494114600750805
  0.7494114600750805  0.8429402219852236  0.7494114600750805
  0.8815416339687374  0.0837016235300041  0.8815416339687374
  0.0837016235300041  0.8815416339687374  0.8815416339687374
  0.7494114600750805  0.7494114600750805  0.8429402219852236
  0.0977148211896477  0.0977148211896477  0.0977148211896477
  0.6895730081075939  0.9523474761975521  0.9523474761975521
  0.8000043188873818  0.3194005365212647  0.9842116743047455
  0.9523474761975521  0.6895730081075939  0.9523474761975521
  0.3194005365212647  0.8000043188873818  0.9842116743047455
  0.4418287189042900  0.4418287189042900  0.1027468267932008
  0.7167548590000337  0.3936529050497626  0.3936529050497626
  0.3936529050497626  0.7167548590000337  0.3936529050497626
  0.4570336910591806  0.4570336910591806  0.4570336910591806
  0.8000043188873818  0.9842116743047455  0.3194005365212647
  0.9842116743047455  0.8000043188873818  0.3194005365212647
  0.4418287189042900  0.1027468267932008  0.4418287189042900
  0.1027468267932008  0.4418287189042900  0.4418287189042900
  0.9523474761975521  0.9523474761975521  0.6895730081075939
  0.3194005365212647  0.9842116743047455  0.8000043188873818
  0.9842116743047455  0.3194005365212647  0.8000043188873818
  0.3936529050497626  0.3936529050497626  0.7167548590000337
 
  0.00000000E+00  0.00000000E+00  0.00000000E+00
  0.00000000E+00  0.00000000E+00  0.00000000E+00
  0.00000000E+00  0.00000000E+00  0.00000000E+00
  0.00000000E+00  0.00000000E+00  0.00000000E+00
  0.00000000E+00  0.00000000E+00  0.00000000E+00
  0.00000000E+00  0.00000000E+00  0.00000000E+00
  0.00000000E+00  0.00000000E+00  0.00000000E+00
  0.00000000E+00  0.00000000E+00  0.00000000E+00
  0.00000000E+00  0.00000000E+00  0.00000000E+00
  0.00000000E+00  0.00000000E+00  0.00000000E+00
  0.00000000E+00  0.00000000E+00  0.00000000E+00
  0.00000000E+00  0.00000000E+00  0.00000000E+00
  0.00000000E+00  0.00000000E+00  0.00000000E+00
  0.00000000E+00  0.00000000E+00  0.00000000E+00
  0.00000000E+00  0.00000000E+00  0.00000000E+00
  0.00000000E+00  0.00000000E+00  0.00000000E+00
  0.00000000E+00  0.00000000E+00  0.00000000E+00
  0.00000000E+00  0.00000000E+00  0.00000000E+00
  0.00000000E+00  0.00000000E+00  0.00000000E+00
  0.00000000E+00  0.00000000E+00  0.00000000E+00
  0.00000000E+00  0.00000000E+00  0.00000000E+00
  0.00000000E+00  0.00000000E+00  0.00000000E+00
  0.00000000E+00  0.00000000E+00  0.00000000E+00
  0.00000000E+00  0.00000000E+00  0.00000000E+00
  0.00000000E+00  0.00000000E+00  0.00000000E+00
  0.00000000E+00  0.00000000E+00  0.00000000E+00
  0.00000000E+00  0.00000000E+00  0.00000000E+00
  0.00000000E+00  0.00000000E+00  0.00000000E+00
  0.00000000E+00  0.00000000E+00  0.00000000E+00
