Ba4 B4 Br20                             
   1.0000000000000000     
     9.9880650132947242    0.0000000000000000    0.0000000000000000
     0.0000000000000000   14.6444425843050468   -3.6757142628004766
     0.0000000000000000    3.2164904780647561    8.1383884528669022
   Ba   B    Br
     4     4    20
Direct
  0.8748014486485687  0.5064984446505179  0.2484785562473064
  0.3748014486485616  0.4935015553494821  0.2515214437526936
  0.1251985513514384  0.4935015553494821  0.7515214437526865
  0.6251985513514313  0.5064984446505179  0.7484785562473135
  0.7546398773168121  0.9088560891980038  0.6723469348585240
  0.2546398773168121  0.0911439108019891  0.8276530651414760
  0.2453601226831950  0.0911439108019891  0.3276530651414831
  0.7453601226831879  0.9088560891980038  0.1723469348585169
  0.6300507975520730  0.3997690122868534  0.4433850384242675
  0.1300507975520802  0.6002309877131395  0.0566149615757325
  0.3699492024479270  0.6002309877131395  0.5566149615757325
  0.8699492024479270  0.3997690122868534  0.9433850384242675
  0.7507019440731568  0.0256863725186065  0.5589454941869008
  0.2507019440731568  0.9743136274814006  0.9410545058131063
  0.2492980559268432  0.9743136274814006  0.4410545058131063
  0.7492980559268432  0.0256863725186065  0.0589454941868937
  0.4215538154021914  0.1449787011519845  0.7639509638320803
  0.9215538154021914  0.8550212988480155  0.7360490361679197
  0.5784461845978086  0.8550212988480155  0.2360490361679197
  0.0784461845978086  0.1449787011519845  0.2639509638320803
  0.5912179705218108  0.8459376640118776  0.7217557543966393
  0.0912179705218108  0.1540623359881224  0.7782442456033607
  0.4087820294781892  0.1540623359881224  0.2782442456033607
  0.9087820294781892  0.8459376640118776  0.2217557543966393
  0.3806549078447361  0.3976754335289030  0.9372538377228636
  0.8806549078447361  0.6023245664710899  0.5627461622771364
  0.6193450921552639  0.6023245664710899  0.0627461622771435
  0.1193450921552639  0.3976754335289030  0.4372538377228494

  0.00000000E+00  0.00000000E+00  0.00000000E+00
  0.00000000E+00  0.00000000E+00  0.00000000E+00
  0.00000000E+00  0.00000000E+00  0.00000000E+00
  0.00000000E+00  0.00000000E+00  0.00000000E+00
  0.00000000E+00  0.00000000E+00  0.00000000E+00
  0.00000000E+00  0.00000000E+00  0.00000000E+00
  0.00000000E+00  0.00000000E+00  0.00000000E+00
  0.00000000E+00  0.00000000E+00  0.00000000E+00
  0.00000000E+00  0.00000000E+00  0.00000000E+00
  0.00000000E+00  0.00000000E+00  0.00000000E+00
  0.00000000E+00  0.00000000E+00  0.00000000E+00
  0.00000000E+00  0.00000000E+00  0.00000000E+00
  0.00000000E+00  0.00000000E+00  0.00000000E+00
  0.00000000E+00  0.00000000E+00  0.00000000E+00
  0.00000000E+00  0.00000000E+00  0.00000000E+00
  0.00000000E+00  0.00000000E+00  0.00000000E+00
  0.00000000E+00  0.00000000E+00  0.00000000E+00
  0.00000000E+00  0.00000000E+00  0.00000000E+00
  0.00000000E+00  0.00000000E+00  0.00000000E+00
  0.00000000E+00  0.00000000E+00  0.00000000E+00
  0.00000000E+00  0.00000000E+00  0.00000000E+00
  0.00000000E+00  0.00000000E+00  0.00000000E+00
  0.00000000E+00  0.00000000E+00  0.00000000E+00
  0.00000000E+00  0.00000000E+00  0.00000000E+00
  0.00000000E+00  0.00000000E+00  0.00000000E+00
  0.00000000E+00  0.00000000E+00  0.00000000E+00
  0.00000000E+00  0.00000000E+00  0.00000000E+00
  0.00000000E+00  0.00000000E+00  0.00000000E+00
