Be1 Tl2 Cl6                             
   1.0000000000000000     
     3.4020634103779077    1.9623379801860052    5.5551406739577178
    -3.4020634103779077    1.9623379801860052    5.5551406739577178
     0.0000000000000000   -3.9271938835609466    5.5560309167615678
   Be   Cl   Tl
     1     6     2
Direct
  0.0000000000000000  0.0000000000000000  0.0000000000000000
  0.7671820522557624  0.7671820522557624  0.2328114012335476
  0.7671572622032627  0.2328333845309132  0.2328409323208263
  0.2328333845309132  0.7671572622032627  0.2328409323208263
  0.2328179477442376  0.2328179477442376  0.7671885987664524
  0.7671666154690868  0.2328427377967373  0.7671590676791737
  0.2328427377967373  0.7671666154690868  0.7671590676791737
  0.2499998442919136  0.2499998442919136  0.2500005362993249
  0.7500001557080864  0.7500001557080864  0.7499994637006751

  0.00000000E+00  0.00000000E+00  0.00000000E+00
  0.00000000E+00  0.00000000E+00  0.00000000E+00
  0.00000000E+00  0.00000000E+00  0.00000000E+00
  0.00000000E+00  0.00000000E+00  0.00000000E+00
  0.00000000E+00  0.00000000E+00  0.00000000E+00
  0.00000000E+00  0.00000000E+00  0.00000000E+00
  0.00000000E+00  0.00000000E+00  0.00000000E+00
  0.00000000E+00  0.00000000E+00  0.00000000E+00
  0.00000000E+00  0.00000000E+00  0.00000000E+00
