Be4 B4 Cl20                             
   1.0000000000000000     
     7.2379861579456506   -0.0000000000000002    0.0000000000000006
    -0.0000000000000006    8.2638627117985273    0.0000000000000007
     0.0000000000000007    0.0000000000000005   20.8323449999118679
   Be   B    Cl
     4     4    20
Direct
  0.0028469335215320  0.6868660423276722  0.6513652392542113
  0.5028469335215320  0.8131339576723278  0.3486347607457887
  0.9971530664784680  0.1868660423276722  0.8486347607457887
  0.4971530664784680  0.3131339576723207  0.1513652392542113
  0.3637260405684017  0.0183166050711350  0.5656642827037075
  0.8637260405684017  0.4816833949288650  0.4343357172962925
  0.6362739594315983  0.5183166050711350  0.9343357172962925
  0.1362739594315983  0.9816833949288650  0.0656642827037075
  0.9132307790938228  0.6888125822115825  0.4406065072178649
  0.4132307790938228  0.8111874177884175  0.5593934927821351
  0.0867692209061701  0.1888125822115825  0.0593934927821351
  0.5867692209061772  0.3111874177884175  0.9406065072178649
  0.4441593597762363  0.6026595415310183  0.3373962702040956
  0.9441593597762363  0.8973404584689817  0.6626037297959044
  0.5558406402237637  0.1026595415310183  0.1626037297959044
  0.0558406402237637  0.3973404584689817  0.8373962702040885
  0.0588049803910735  0.4757690343459586  0.6414041437797096
  0.5588049803910735  0.0242309656540343  0.3585958562202904
  0.9411950196089265  0.9757690343459586  0.8585958562202904
  0.4411950196089265  0.5242309656540414  0.1414041437797096
  0.4615911701638282  0.1319440441907744  0.6273987538348678
  0.9615911701638282  0.3680559558092256  0.3726012461651322
  0.5384088298361718  0.6319440441907744  0.8726012461651322
  0.0384088298361718  0.8680559558092256  0.1273987538348678
  0.7181850068081985  0.3906464180327376  0.4903800269434129
  0.2181850068081985  0.1093535819672624  0.5096199730565871
  0.2818149931918015  0.8906464180327376  0.0096199730565800
  0.7818149931918015  0.6093535819672624  0.9903800269434200

  0.00000000E+00  0.00000000E+00  0.00000000E+00
  0.00000000E+00  0.00000000E+00  0.00000000E+00
  0.00000000E+00  0.00000000E+00  0.00000000E+00
  0.00000000E+00  0.00000000E+00  0.00000000E+00
  0.00000000E+00  0.00000000E+00  0.00000000E+00
  0.00000000E+00  0.00000000E+00  0.00000000E+00
  0.00000000E+00  0.00000000E+00  0.00000000E+00
  0.00000000E+00  0.00000000E+00  0.00000000E+00
  0.00000000E+00  0.00000000E+00  0.00000000E+00
  0.00000000E+00  0.00000000E+00  0.00000000E+00
  0.00000000E+00  0.00000000E+00  0.00000000E+00
  0.00000000E+00  0.00000000E+00  0.00000000E+00
  0.00000000E+00  0.00000000E+00  0.00000000E+00
  0.00000000E+00  0.00000000E+00  0.00000000E+00
  0.00000000E+00  0.00000000E+00  0.00000000E+00
  0.00000000E+00  0.00000000E+00  0.00000000E+00
  0.00000000E+00  0.00000000E+00  0.00000000E+00
  0.00000000E+00  0.00000000E+00  0.00000000E+00
  0.00000000E+00  0.00000000E+00  0.00000000E+00
  0.00000000E+00  0.00000000E+00  0.00000000E+00
  0.00000000E+00  0.00000000E+00  0.00000000E+00
  0.00000000E+00  0.00000000E+00  0.00000000E+00
  0.00000000E+00  0.00000000E+00  0.00000000E+00
  0.00000000E+00  0.00000000E+00  0.00000000E+00
  0.00000000E+00  0.00000000E+00  0.00000000E+00
  0.00000000E+00  0.00000000E+00  0.00000000E+00
  0.00000000E+00  0.00000000E+00  0.00000000E+00
  0.00000000E+00  0.00000000E+00  0.00000000E+00
