Sr                                      
   1.00000000000000     
     0.0000000000000000    3.0083294151219162   -3.0083294151219162
     3.0083294151219162    0.0000000000000000    3.0083294151219162
     0.0000000000000000   -3.0083294151219162   -3.0083294151219162
   Sr
     1
Direct
  0.0000000000000000  0.0000000000000000  0.0000000000000000
 
  0.00000000E+00  0.00000000E+00  0.00000000E+00
