CaAl                                    
   1.00000000000000     
     5.0558879044792526    0.0000000000000000    0.0000000000000000
     0.0000000000000000    3.6742203079603106    0.0000000000000000
     0.0000000000000000    0.0000000000000000    5.4462129598826063
   Al   Ca
     2     2
Direct
  0.2500000000000000  0.0000000000000000  0.1726313216352438
  0.7500000000000000  0.0000000000000000  0.8273686783647562
  0.7500000000000000  0.5000000000000000  0.2962075263500310
  0.2500000000000000  0.5000000000000000  0.7037924736499690
 
  0.00000000E+00  0.00000000E+00  0.00000000E+00
  0.00000000E+00  0.00000000E+00  0.00000000E+00
  0.00000000E+00  0.00000000E+00  0.00000000E+00
  0.00000000E+00  0.00000000E+00  0.00000000E+00
