Mg6 B10                                 
   1.00000000000000     
     3.1259204173560105    0.0016703031655877   -0.0000378702889100
     1.5483828439319582    4.5369977986474250    0.0000533990949989
     0.0001071147984701   -0.0001176296805855   11.4664389139461296
   Mg   B 
     6    10
Direct
  0.4636058861187493  0.9145765516379782  0.1124014985480528
  0.7689908597207022  0.3192944783401686  0.2499765303820070
  0.4636073077955203  0.9145887354350393  0.3875485235611862
  0.5363846043930991  0.0854214209367257  0.6124069453703598
  0.2310119958142991  0.6807051747294892  0.7499731643764278
  0.5363818652359171  0.0854090108962211  0.8875406099641481
  0.7403113393343688  0.3840018808374595  0.0426724200487953
  0.1735340466318505  0.5021461720188825  0.1071768374362136
  0.0834852181823607  0.7052614705574030  0.2499750393977038
  0.1735384508960323  0.5021636076537206  0.3927721754817100
  0.7403201719374479  0.3840276534219882  0.4572797624179614
  0.2596842186905164  0.6159960379631357  0.5426736576589377
  0.8264674589989696  0.4978480208809231  0.6071795966743565
  0.9165177595723861  0.2947362774397391  0.7499748524807046
  0.8264686263750889  0.4978397287238110  0.8927722740481414
  0.2596901903026989  0.6159837785272941  0.9572761121532665
 
  0.00000000E+00  0.00000000E+00  0.00000000E+00
  0.00000000E+00  0.00000000E+00  0.00000000E+00
  0.00000000E+00  0.00000000E+00  0.00000000E+00
  0.00000000E+00  0.00000000E+00  0.00000000E+00
  0.00000000E+00  0.00000000E+00  0.00000000E+00
  0.00000000E+00  0.00000000E+00  0.00000000E+00
  0.00000000E+00  0.00000000E+00  0.00000000E+00
  0.00000000E+00  0.00000000E+00  0.00000000E+00
  0.00000000E+00  0.00000000E+00  0.00000000E+00
  0.00000000E+00  0.00000000E+00  0.00000000E+00
  0.00000000E+00  0.00000000E+00  0.00000000E+00
  0.00000000E+00  0.00000000E+00  0.00000000E+00
  0.00000000E+00  0.00000000E+00  0.00000000E+00
  0.00000000E+00  0.00000000E+00  0.00000000E+00
  0.00000000E+00  0.00000000E+00  0.00000000E+00
  0.00000000E+00  0.00000000E+00  0.00000000E+00
