Sr4 Cl6                                 
   1.00000000000000     
    -7.5371884765525250   -0.0815289916560059    0.0848182215844373
     3.6776885142243558   -6.5193899211364759   -0.2225771000537751
    -3.7702193381637170    2.2746128291473764    6.5980772288209870
   Sr   Cl
     4     6
Direct
  0.5903841368110605  0.3395983597172929  0.1797051764905007
  0.8172005465350125  0.1900388645110169  0.4697869341835172
  0.1834162001656452  0.9004492468071490  0.5292287710845685
  0.3879031170080864  0.5950800961894700  0.8511683905881640
  0.0175521836755976  0.4527471157821239  0.2000316378645906
  0.5648950321595834  0.7584187559904905  0.2344872629993446
  0.1712312660968607  0.9824228978920715  0.2120642369661923
  0.7702586912646510  0.9853530916550497  0.7705921813395520
  0.4299045219004114  0.2111201291995144  0.8357091576039721
  0.0668543043830923  0.5843714422558079  0.7177262508795934
 
  0.00000000E+00  0.00000000E+00  0.00000000E+00
  0.00000000E+00  0.00000000E+00  0.00000000E+00
  0.00000000E+00  0.00000000E+00  0.00000000E+00
  0.00000000E+00  0.00000000E+00  0.00000000E+00
  0.00000000E+00  0.00000000E+00  0.00000000E+00
  0.00000000E+00  0.00000000E+00  0.00000000E+00
  0.00000000E+00  0.00000000E+00  0.00000000E+00
  0.00000000E+00  0.00000000E+00  0.00000000E+00
  0.00000000E+00  0.00000000E+00  0.00000000E+00
  0.00000000E+00  0.00000000E+00  0.00000000E+00
