Ba8 B1                                  
   1.00000000000000     
    10.9356322964435915    2.7951662969140258    0.0000000000000000
    -3.0471505028478494   10.8680456778624812    0.0000000000000000
     0.0000000000000000    0.0000000000000000    3.9094861563360377
   B    Ba
     1     8
Direct
  0.0000000000000000  0.0000000000000000  0.5000000000000000
  0.3745476262851497  0.1235935278967162  0.0000000000000000
  0.8635552931379422  0.1364446457775657  0.0000000000000000
  0.1235934486086592  0.3745476545152542  0.0000000000000000
  0.6218115522623862  0.3781884507994988  0.0000000000000000
  0.3781884477376138  0.6218115492005012  0.0000000000000000
  0.8764065513913408  0.6254523454847458  0.0000000000000000
  0.1364447068620578  0.8635553542224343  0.0000000000000000
  0.6254523737148503  0.8764064721032838  0.0000000000000000
 
  0.00000000E+00  0.00000000E+00  0.00000000E+00
  0.00000000E+00  0.00000000E+00  0.00000000E+00
  0.00000000E+00  0.00000000E+00  0.00000000E+00
  0.00000000E+00  0.00000000E+00  0.00000000E+00
  0.00000000E+00  0.00000000E+00  0.00000000E+00
  0.00000000E+00  0.00000000E+00  0.00000000E+00
  0.00000000E+00  0.00000000E+00  0.00000000E+00
  0.00000000E+00  0.00000000E+00  0.00000000E+00
  0.00000000E+00  0.00000000E+00  0.00000000E+00
