Ca10 Al12                               
   1.00000000000000     
    -3.6625482553723088   -6.3437115297901219    0.0000000000000000
    -3.6626099511766608    6.3437469171891774    0.0000000000000000
     0.0000000000000000    0.0000000000000000  -12.7690657244892094
   Ca   Al
    10    12
Direct
  0.7380184435966441  0.6666577526836335  0.2500000000000000
  0.9286347284089302  0.2619647755694032  0.2500000000000000
  0.3333418990045303  0.0713645916545715  0.2500000000000000
  0.9283105324782355  0.6667078295490043  0.7500000000000000
  0.3332829126304233  0.2615920483273797  0.7500000000000000
  0.7384038315053303  0.0716996516528283  0.7500000000000000
  0.0000035749010436  0.9999995858105777  0.9999973139171274
  0.0000035749010436  0.9999995858105777  0.5000026860828726
  0.6666697577470586  0.3333277896588669  0.9999675943612942
  0.6666697577470586  0.3333277896588669  0.5000324056387129
  0.5479263754151091  0.8812672902109071  0.0917613031375666
  0.3333681970882054  0.4520775139577253  0.0917599303689300
  0.1187274826654772  0.6666474167257590  0.0917730218392521
  0.5479263754151091  0.8812672902109071  0.4082386968624334
  0.3333681970882054  0.4520775139577253  0.4082400696310700
  0.1187274826654772  0.6666474167257590  0.4082269781607479
  0.3333410707573847  0.8812791374208615  0.5920852151815765
  0.1187120981041474  0.4520526781615501  0.5920719285690836
  0.5479552695095151  0.6666552633353291  0.5920976565801155
  0.3333410707573847  0.8812791374208615  0.9079147848184235
  0.1187120981041474  0.4520526781615501  0.9079280714309164
  0.5479552695095151  0.6666552633353291  0.9079023434198845
 
  0.00000000E+00  0.00000000E+00  0.00000000E+00
  0.00000000E+00  0.00000000E+00  0.00000000E+00
  0.00000000E+00  0.00000000E+00  0.00000000E+00
  0.00000000E+00  0.00000000E+00  0.00000000E+00
  0.00000000E+00  0.00000000E+00  0.00000000E+00
  0.00000000E+00  0.00000000E+00  0.00000000E+00
  0.00000000E+00  0.00000000E+00  0.00000000E+00
  0.00000000E+00  0.00000000E+00  0.00000000E+00
  0.00000000E+00  0.00000000E+00  0.00000000E+00
  0.00000000E+00  0.00000000E+00  0.00000000E+00
  0.00000000E+00  0.00000000E+00  0.00000000E+00
  0.00000000E+00  0.00000000E+00  0.00000000E+00
  0.00000000E+00  0.00000000E+00  0.00000000E+00
  0.00000000E+00  0.00000000E+00  0.00000000E+00
  0.00000000E+00  0.00000000E+00  0.00000000E+00
  0.00000000E+00  0.00000000E+00  0.00000000E+00
  0.00000000E+00  0.00000000E+00  0.00000000E+00
  0.00000000E+00  0.00000000E+00  0.00000000E+00
  0.00000000E+00  0.00000000E+00  0.00000000E+00
  0.00000000E+00  0.00000000E+00  0.00000000E+00
  0.00000000E+00  0.00000000E+00  0.00000000E+00
  0.00000000E+00  0.00000000E+00  0.00000000E+00
