Be2 In2 Br10                            
   1.0000000000000000     
     4.8313661477345233   -0.0000000000000001    0.0000000000000002
    -0.0000000000000010   11.9110831556638459    0.0000000000000009
    -0.0000000000000004   -0.0000000000000001   12.3511040037957525
   Be   In   Br
     2     2    10
Direct
  0.0000000000000000  0.0000000000000000  0.5000000000000000
  0.5000000000000000  0.5000000000000000  0.0000000000000000
  0.5000000000000000  0.0000000000000000  0.0000000000000000
  0.0000000000000000  0.5000000000000000  0.5000000000000000
  0.5000000000000000  0.8632453352598404  0.5000000000000000
  0.5000000000000000  0.1367546647401596  0.5000000000000000
  0.5000000000000000  0.0000000000000000  0.7944664113351507
  0.5000000000000000  0.0000000000000000  0.2055335886648564
  0.0000000000000000  0.0000000000000000  0.0000000000000000
  0.0000000000000000  0.3632453352598404  0.0000000000000000
  0.0000000000000000  0.6367546647401596  0.0000000000000000
  0.0000000000000000  0.5000000000000000  0.2944664113351507
  0.0000000000000000  0.5000000000000000  0.7055335886648493
  0.5000000000000000  0.5000000000000000  0.5000000000000000

  0.00000000E+00  0.00000000E+00  0.00000000E+00
  0.00000000E+00  0.00000000E+00  0.00000000E+00
  0.00000000E+00  0.00000000E+00  0.00000000E+00
  0.00000000E+00  0.00000000E+00  0.00000000E+00
  0.00000000E+00  0.00000000E+00  0.00000000E+00
  0.00000000E+00  0.00000000E+00  0.00000000E+00
  0.00000000E+00  0.00000000E+00  0.00000000E+00
  0.00000000E+00  0.00000000E+00  0.00000000E+00
  0.00000000E+00  0.00000000E+00  0.00000000E+00
  0.00000000E+00  0.00000000E+00  0.00000000E+00
  0.00000000E+00  0.00000000E+00  0.00000000E+00
  0.00000000E+00  0.00000000E+00  0.00000000E+00
  0.00000000E+00  0.00000000E+00  0.00000000E+00
  0.00000000E+00  0.00000000E+00  0.00000000E+00
