Be4 Al10 Cl2                            
   1.00000000000000     
     7.0767291030901482    0.2235820717741686   -0.4378265918641706
     0.1367517241868105    6.1850122459208601    0.9310258078098735
     3.1563211187991742    4.0243224425532196    6.6173865637773650
   Cl   Be   Al
     2     4    10
Direct
  0.8003742375349603  0.6569066832724815  0.4626720850774575
  0.1765735718359025  0.3478206351933224  0.5372831103745739
  0.3911102241477735  0.1298560810342053  0.9894788700979973
  0.8970975348660630  0.3741298998392963  0.9961802914042792
  0.0348072130812227  0.6456665126542873  0.0126086615782270
  0.6048019533259961  0.8379944168760574  0.0347166434921533
  0.0671644657263855  0.0671964144744166  0.9559494588475417
  0.5256542104650563  0.4823655458843419  0.0029761072874734
  0.4882348514740897  0.9379737970992394  0.3111018945506174
  0.0888625759096300  0.1729270899495106  0.2530631755963526
  0.6812076910925313  0.3838257635066213  0.2908335635836181
  0.2414350676481476  0.6643965218028640  0.1723233601921237
  0.7664903529693063  0.3043112919845967  0.8039834484898734
  0.2985204326521753  0.6072259700445315  0.7519684350368649
  0.9152237652267772  0.8665068441229167  0.7070914397193135
  0.5223418520439793  0.0207965322612935  0.7177694546715188
 
  0.00000000E+00  0.00000000E+00  0.00000000E+00
  0.00000000E+00  0.00000000E+00  0.00000000E+00
  0.00000000E+00  0.00000000E+00  0.00000000E+00
  0.00000000E+00  0.00000000E+00  0.00000000E+00
  0.00000000E+00  0.00000000E+00  0.00000000E+00
  0.00000000E+00  0.00000000E+00  0.00000000E+00
  0.00000000E+00  0.00000000E+00  0.00000000E+00
  0.00000000E+00  0.00000000E+00  0.00000000E+00
  0.00000000E+00  0.00000000E+00  0.00000000E+00
  0.00000000E+00  0.00000000E+00  0.00000000E+00
  0.00000000E+00  0.00000000E+00  0.00000000E+00
  0.00000000E+00  0.00000000E+00  0.00000000E+00
  0.00000000E+00  0.00000000E+00  0.00000000E+00
  0.00000000E+00  0.00000000E+00  0.00000000E+00
  0.00000000E+00  0.00000000E+00  0.00000000E+00
  0.00000000E+00  0.00000000E+00  0.00000000E+00
