Sr4 In4 F20                             
   1.0000000000000000     
     4.2462194683395627    0.0000000000000000    0.0000000000000003
    -0.0000000000000003    5.4145265260524598    0.0000000000000003
    -0.0000000000000001    0.0000000000000000   15.2333928506181344
   Sr   In   F 
     4     4    20
Direct
  0.7506075797965934  0.4995572822449006  0.3243825970050835
  0.2506075797966005  0.0004427177550994  0.6756174029949165
  0.2493924202034066  0.9995572822449006  0.1756174029949165
  0.7493924202033995  0.5004427177550994  0.8243825970050835
  0.2505365107759658  0.0001019048022144  0.4257774685436075
  0.7505365107759658  0.4998980951977856  0.5742225314563854
  0.7494634892240342  0.5001019048022144  0.0742225314563854
  0.2494634892240342  0.9998980951977856  0.9257774685436075
  0.0000905545405132  0.6467538049403814  0.4651396954721534
  0.5000905545405061  0.8532461950596186  0.5348603045278466
  0.9999094454594868  0.1467538049403814  0.0348603045278466
  0.4999094454594868  0.3532461950596186  0.9651396954721534
  0.7508197590713692  0.0006266929305454  0.3707446634291856
  0.2508197590713692  0.4993733070694546  0.6292553365708144
  0.2491802409286308  0.5006266929305454  0.1292553365708144
  0.7491802409286308  0.9993733070694546  0.8707446634291856
  0.0001406133728636  0.6465743718182679  0.9651494211669061
  0.5001406133728636  0.8534256281817321  0.0348505788330939
  0.9998593866271364  0.1465743718182679  0.5348505788330939
  0.4998593866271364  0.3534256281817321  0.4651494211669061
  0.7604778747329490  0.7499695186614588  0.1853494340006563
  0.2604778747329490  0.7500304813385412  0.8146505659993437
  0.2395221252670510  0.2499695186614588  0.3146505659993437
  0.7395221252670510  0.2500304813385483  0.6853494340006563
  0.2380800790284141  0.2502980186852426  0.8149256509130751
  0.7380800790284070  0.2497019813147574  0.1850743490869249
  0.7619199209715930  0.7502980186852426  0.6850743490869249
  0.2619199209715859  0.7497019813147574  0.3149256509130751

  0.00000000E+00  0.00000000E+00  0.00000000E+00
  0.00000000E+00  0.00000000E+00  0.00000000E+00
  0.00000000E+00  0.00000000E+00  0.00000000E+00
  0.00000000E+00  0.00000000E+00  0.00000000E+00
  0.00000000E+00  0.00000000E+00  0.00000000E+00
  0.00000000E+00  0.00000000E+00  0.00000000E+00
  0.00000000E+00  0.00000000E+00  0.00000000E+00
  0.00000000E+00  0.00000000E+00  0.00000000E+00
  0.00000000E+00  0.00000000E+00  0.00000000E+00
  0.00000000E+00  0.00000000E+00  0.00000000E+00
  0.00000000E+00  0.00000000E+00  0.00000000E+00
  0.00000000E+00  0.00000000E+00  0.00000000E+00
  0.00000000E+00  0.00000000E+00  0.00000000E+00
  0.00000000E+00  0.00000000E+00  0.00000000E+00
  0.00000000E+00  0.00000000E+00  0.00000000E+00
  0.00000000E+00  0.00000000E+00  0.00000000E+00
  0.00000000E+00  0.00000000E+00  0.00000000E+00
  0.00000000E+00  0.00000000E+00  0.00000000E+00
  0.00000000E+00  0.00000000E+00  0.00000000E+00
  0.00000000E+00  0.00000000E+00  0.00000000E+00
  0.00000000E+00  0.00000000E+00  0.00000000E+00
  0.00000000E+00  0.00000000E+00  0.00000000E+00
  0.00000000E+00  0.00000000E+00  0.00000000E+00
  0.00000000E+00  0.00000000E+00  0.00000000E+00
  0.00000000E+00  0.00000000E+00  0.00000000E+00
  0.00000000E+00  0.00000000E+00  0.00000000E+00
  0.00000000E+00  0.00000000E+00  0.00000000E+00
  0.00000000E+00  0.00000000E+00  0.00000000E+00
