Sr8 Tl4 Br28                            
   1.0000000000000000     
     8.1889740822586123    0.0016998364415860    1.1537990539155687
    -0.0029063149434912   15.0354574429837147   -0.0031019820474577
     1.6423632481408137    0.0015162556314978   11.7372956781347924
   Br   Tl   Sr
    28     4     8
Direct
  0.1920578442911633  0.8397343876157777  0.0472965288436384
  0.5983559517828141  0.5825164824142419  0.1059883905520422
  0.0723898100779721  0.6038184006019236  0.0672862513952026
  0.3336301980339442  0.0779598278228804  0.0906103921489176
  0.0729913866377672  0.2806775648888760  0.1751579533228877
  0.5484805133276680  0.2960061155469162  0.2284600265105112
  0.8094210810336051  0.9776900603088663  0.1843088660573073
  0.1914196768204803  0.4774975001583357  0.3150587057759182
  0.4517928442507468  0.7961137171655466  0.2717256519325062
  0.9268608661661446  0.7808061186603865  0.3249586283532793
  0.6663720850857189  0.5779613153672543  0.4093441797674870
  0.9275513946059348  0.1037854422290607  0.4326777675808700
  0.4017695478452126  0.0822217288317546  0.3937135821487132
  0.8082116435002575  0.3398819913135540  0.4529983190997484
  0.1917827697613177  0.6601449116044265  0.5470183247435685
  0.5982058703058115  0.9177594281004673  0.6062596538381939
  0.0725335257100070  0.8962483778052857  0.5672680756173492
  0.3336134390339751  0.4220553614273683  0.5906600670205790
  0.0732146113196634  0.2191502432602377  0.6750228841689392
  0.5482121222071328  0.2039014026213479  0.7282699347748007
  0.8086386483792722  0.5225580673730619  0.6849418965776053
  0.1905300533343564  0.0223103993129001  0.8156441014814959
  0.4515668387303222  0.7040564003357090  0.7715551106066840
  0.9270854899061050  0.7193613746399521  0.8248641762441906
  0.6664986217197750  0.9220431873225365  0.9094690500613751
  0.9276764736028795  0.3961720818556813  0.9327118472226203
  0.4016995945159607  0.4175022943103457  0.8940351280051075
  0.8080093037461040  0.1602471149396294  0.9527261655252275
  0.6068727558443001  0.1174546031661663  0.1699358293975877
  0.3933029602865474  0.6175063243423153  0.3298687488000169
  0.6067571711287272  0.3824878170689487  0.6701670954174119
  0.3930954933654291  0.8825094178638366  0.8300213339497233
  0.8195403284024252  0.7626115797838438  0.0902202398050278
  0.8587916460116745  0.4503305498332182  0.1940747707554493
  0.1414170027049266  0.9503028016096522  0.3058644349567317
  0.1805349513238497  0.2624768552499361  0.4098219373762717
  0.8194741369761189  0.7375070737724982  0.5902128979559436
  0.8586220748796336  0.0497113660681023  0.6940916385961771
  0.1412124853929342  0.5496850400074607  0.8058883286633645
  0.1805267879513792  0.2373352733996512  0.9098010849495637

  0.00000000E+00  0.00000000E+00  0.00000000E+00
  0.00000000E+00  0.00000000E+00  0.00000000E+00
  0.00000000E+00  0.00000000E+00  0.00000000E+00
  0.00000000E+00  0.00000000E+00  0.00000000E+00
  0.00000000E+00  0.00000000E+00  0.00000000E+00
  0.00000000E+00  0.00000000E+00  0.00000000E+00
  0.00000000E+00  0.00000000E+00  0.00000000E+00
  0.00000000E+00  0.00000000E+00  0.00000000E+00
  0.00000000E+00  0.00000000E+00  0.00000000E+00
  0.00000000E+00  0.00000000E+00  0.00000000E+00
  0.00000000E+00  0.00000000E+00  0.00000000E+00
  0.00000000E+00  0.00000000E+00  0.00000000E+00
  0.00000000E+00  0.00000000E+00  0.00000000E+00
  0.00000000E+00  0.00000000E+00  0.00000000E+00
  0.00000000E+00  0.00000000E+00  0.00000000E+00
  0.00000000E+00  0.00000000E+00  0.00000000E+00
  0.00000000E+00  0.00000000E+00  0.00000000E+00
  0.00000000E+00  0.00000000E+00  0.00000000E+00
  0.00000000E+00  0.00000000E+00  0.00000000E+00
  0.00000000E+00  0.00000000E+00  0.00000000E+00
  0.00000000E+00  0.00000000E+00  0.00000000E+00
  0.00000000E+00  0.00000000E+00  0.00000000E+00
  0.00000000E+00  0.00000000E+00  0.00000000E+00
  0.00000000E+00  0.00000000E+00  0.00000000E+00
  0.00000000E+00  0.00000000E+00  0.00000000E+00
  0.00000000E+00  0.00000000E+00  0.00000000E+00
  0.00000000E+00  0.00000000E+00  0.00000000E+00
  0.00000000E+00  0.00000000E+00  0.00000000E+00
  0.00000000E+00  0.00000000E+00  0.00000000E+00
  0.00000000E+00  0.00000000E+00  0.00000000E+00
  0.00000000E+00  0.00000000E+00  0.00000000E+00
  0.00000000E+00  0.00000000E+00  0.00000000E+00
  0.00000000E+00  0.00000000E+00  0.00000000E+00
  0.00000000E+00  0.00000000E+00  0.00000000E+00
  0.00000000E+00  0.00000000E+00  0.00000000E+00
  0.00000000E+00  0.00000000E+00  0.00000000E+00
  0.00000000E+00  0.00000000E+00  0.00000000E+00
  0.00000000E+00  0.00000000E+00  0.00000000E+00
  0.00000000E+00  0.00000000E+00  0.00000000E+00
  0.00000000E+00  0.00000000E+00  0.00000000E+00
