Ba1 Tl3 Cl6                             
   1.0000000000000000     
     8.1971351351173265    0.0002334318752479    0.0001207883744283
     0.0002334318752479    8.1971351351173283    0.0001207883744283
     4.0987694406531086    4.0987694406531086    5.7960246769376305
   Cl   Ba   Tl
     6     1     3
Direct
  0.7423333903418552  0.2576666096581448  0.0000000000000000
  0.2578016478846763  0.2578016478846763  0.9997120299176387
  0.2576666096581448  0.7423333903418552  0.0000000000000000
  0.7421983521153237  0.7421983521153237  0.0002879700823613
  0.7428934922829953  0.7428934922829953  0.5153184146395091
  0.2571065077170047  0.2571065077170047  0.4846815853604909
  0.0000000000000000  0.0000000000000000  0.0000000000000000
  0.5000000000000000  0.5000000000000000  0.0000000000000000
  0.2499780319811364  0.7500219680188636  0.5000000000000000
  0.7500219680188636  0.2499780319811364  0.5000000000000000

  0.00000000E+00  0.00000000E+00  0.00000000E+00
  0.00000000E+00  0.00000000E+00  0.00000000E+00
  0.00000000E+00  0.00000000E+00  0.00000000E+00
  0.00000000E+00  0.00000000E+00  0.00000000E+00
  0.00000000E+00  0.00000000E+00  0.00000000E+00
  0.00000000E+00  0.00000000E+00  0.00000000E+00
  0.00000000E+00  0.00000000E+00  0.00000000E+00
  0.00000000E+00  0.00000000E+00  0.00000000E+00
  0.00000000E+00  0.00000000E+00  0.00000000E+00
  0.00000000E+00  0.00000000E+00  0.00000000E+00
