Mg1 Ga3 Cl6                             
   1.00000000000000     
     7.2134319770142223    0.0221854343115529   -0.0308784838513985
     0.0221854343115529    7.2134319770142232   -0.0308784838513985
     3.5961495559826409    3.5961495559826404    5.0784967074332350
   Cl   Mg   Ga
     6     1     3
Direct
  0.7524557898809618  0.2475442101190382  0.0000000000000000
  0.2321756526477614  0.2321756526477614  0.0285701883562837
  0.2475442101190382  0.7524557898809618  0.0000000000000000
  0.7678243473522386  0.7678243473522386  0.9714298116437163
  0.7716841457552306  0.7716841457552306  0.4926916147519762
  0.2283158542447694  0.2283158542447694  0.5073083852480309
  0.0000000000000000  0.0000000000000000  0.0000000000000000
  0.5000000000000000  0.5000000000000000  0.0000000000000000
  0.1850024585757168  0.8149975414242832  0.5000000000000000
  0.8149975414242832  0.1850024585757168  0.5000000000000000
 
  0.00000000E+00  0.00000000E+00  0.00000000E+00
  0.00000000E+00  0.00000000E+00  0.00000000E+00
  0.00000000E+00  0.00000000E+00  0.00000000E+00
  0.00000000E+00  0.00000000E+00  0.00000000E+00
  0.00000000E+00  0.00000000E+00  0.00000000E+00
  0.00000000E+00  0.00000000E+00  0.00000000E+00
  0.00000000E+00  0.00000000E+00  0.00000000E+00
  0.00000000E+00  0.00000000E+00  0.00000000E+00
  0.00000000E+00  0.00000000E+00  0.00000000E+00
  0.00000000E+00  0.00000000E+00  0.00000000E+00
