Mg1                                     
   1.00000000000000     
    -2.2507365493195928   -2.2507365493195928    0.0000000000000000
    -2.2507365493195928    0.0000000000000000   -2.2507365493195928
     0.0000000000000000   -2.2507365493195928   -2.2507365493195928
   Mg
     1
Direct
  0.0000000000000000  0.0000000000000000  0.0000000000000000
 
  0.00000000E+00  0.00000000E+00  0.00000000E+00
