Be4 In4 F2                              
   1.00000000000000     
     4.2705816813295430   -1.2204240497631731   -0.0126035635742302
    -2.9427751401788051    5.5002320347329148   -0.0222455130004451
     0.0149818903354206    0.1481208656557783    8.6501267096853045
   Be   In   F 
     4     4     2
Direct
  0.1839521633253511  0.9441261856768719  0.0703171528024527
  0.3148987428416135  0.0552900425608200  0.4299396810114544
  0.6850978923600266  0.9447113150869839  0.5701015010567545
  0.8160571270706143  0.0558782420983945  0.9297235903863168
  0.3326454989313561  0.5843188579669274  0.0971079625956008
  0.1678701317225517  0.4163698633333581  0.4026873719945954
  0.8321191837278263  0.5836240001548774  0.5973318166898451
  0.6673541933451546  0.4156780062466012  0.9029115039350515
  0.2499492758957516  0.0000688233044031  0.2500983483793888
  0.7500557907797329  0.9999346635707482  0.7499410711484984
 
  0.00000000E+00  0.00000000E+00  0.00000000E+00
  0.00000000E+00  0.00000000E+00  0.00000000E+00
  0.00000000E+00  0.00000000E+00  0.00000000E+00
  0.00000000E+00  0.00000000E+00  0.00000000E+00
  0.00000000E+00  0.00000000E+00  0.00000000E+00
  0.00000000E+00  0.00000000E+00  0.00000000E+00
  0.00000000E+00  0.00000000E+00  0.00000000E+00
  0.00000000E+00  0.00000000E+00  0.00000000E+00
  0.00000000E+00  0.00000000E+00  0.00000000E+00
  0.00000000E+00  0.00000000E+00  0.00000000E+00
