Mg17 B11 F1                             
   1.00000000000000     
     7.0058541514650976   -2.8238130488878634    3.2298332424613698
     0.9973071261239903    6.3755167269828030    2.8856384590385260
    -8.0424307144845244   -4.0614960606037265    3.4698812832367167
   B    F    Mg
    11     1    17
Direct
  0.7533106858863192  0.0915153465688832  0.9967871795791510
  0.3679696871681912  0.3080066990698640  0.3358185219145042
  0.1706021567054989  0.8545677673299892  0.2438758089086406
  0.9823321787630022  0.2020118104869155  0.1279585161406800
  0.1570027154795142  0.3523590463682496  0.3131356062139687
  0.1950100127234862  0.1026362085921093  0.2696271789286797
  0.9797931288040829  0.8061418504600368  0.7459570022211466
  0.9466721337814050  0.0493195865401930  0.7664159365949104
  0.9020148044283047  0.1127847626090315  0.9236421040570661
  0.9417816998092192  0.5829260258399316  0.7532457564711592
  0.1025092449234393  0.9619242737694478  0.7054527961467798
  0.7492230926842822  0.5302817855856858  0.9940531265231840
  0.2319146694413945  0.1948869915132292  0.0348893442896241
  0.2300476025437845  0.6578779377050807  0.9980241151371558
  0.4652806575581536  0.8899966806088671  0.9176491183886668
  0.5174033159668170  0.3343169181015213  0.9448360525931605
  0.8950328310635953  0.7952057180530190  0.9899616432213136
  0.8048998934907701  0.8523206231672589  0.4507716724517081
  0.9632069403444277  0.5755400330214115  0.2180261122327494
  0.4823785100939588  0.0133127042051910  0.2974718920540198
  0.8625998351040778  0.1364151167481040  0.2874762434910849
  0.3711106265882691  0.6339847187366701  0.3346420775445864
  0.6899684595167841  0.4469834355811884  0.4730183772681329
  0.2520131288024530  0.9825923547577560  0.5371449096253471
  0.0832004441336167  0.2871325476552968  0.6947030284049660
  0.6373119712035731  0.8768926480107737  0.6956358303162276
  0.0900372024975340  0.6035921844790053  0.5670882852380927
  0.7708063600701607  0.3301017453356323  0.7737598018750376
  0.4049800104238983  0.4325284790996449  0.6089319621682492
 
  0.00000000E+00  0.00000000E+00  0.00000000E+00
  0.00000000E+00  0.00000000E+00  0.00000000E+00
  0.00000000E+00  0.00000000E+00  0.00000000E+00
  0.00000000E+00  0.00000000E+00  0.00000000E+00
  0.00000000E+00  0.00000000E+00  0.00000000E+00
  0.00000000E+00  0.00000000E+00  0.00000000E+00
  0.00000000E+00  0.00000000E+00  0.00000000E+00
  0.00000000E+00  0.00000000E+00  0.00000000E+00
  0.00000000E+00  0.00000000E+00  0.00000000E+00
  0.00000000E+00  0.00000000E+00  0.00000000E+00
  0.00000000E+00  0.00000000E+00  0.00000000E+00
  0.00000000E+00  0.00000000E+00  0.00000000E+00
  0.00000000E+00  0.00000000E+00  0.00000000E+00
  0.00000000E+00  0.00000000E+00  0.00000000E+00
  0.00000000E+00  0.00000000E+00  0.00000000E+00
  0.00000000E+00  0.00000000E+00  0.00000000E+00
  0.00000000E+00  0.00000000E+00  0.00000000E+00
  0.00000000E+00  0.00000000E+00  0.00000000E+00
  0.00000000E+00  0.00000000E+00  0.00000000E+00
  0.00000000E+00  0.00000000E+00  0.00000000E+00
  0.00000000E+00  0.00000000E+00  0.00000000E+00
  0.00000000E+00  0.00000000E+00  0.00000000E+00
  0.00000000E+00  0.00000000E+00  0.00000000E+00
  0.00000000E+00  0.00000000E+00  0.00000000E+00
  0.00000000E+00  0.00000000E+00  0.00000000E+00
  0.00000000E+00  0.00000000E+00  0.00000000E+00
  0.00000000E+00  0.00000000E+00  0.00000000E+00
  0.00000000E+00  0.00000000E+00  0.00000000E+00
  0.00000000E+00  0.00000000E+00  0.00000000E+00
