Ca4 Tl10 Cl2                            
   1.0000000000000000     
     8.8233426578327219   -0.1246216641740354   -0.0104116655902228
    -0.1246155916904440    8.8212181729775647   -0.0025460348931433
     4.3412665095327840    4.3458339736708336    6.3619778079110620
   Cl   Ca   Tl
     2     4    10
Direct
  0.7476955418656033  0.7524247550423127  0.4995973949007748
  0.2527054696553392  0.2480149928462225  0.4996788903091200
  0.3539807256224989  0.1469750389728119  0.9989455392157680
  0.8446774560027777  0.3447083132712407  0.0003722510060058
  0.1550860716627511  0.6550232714333788  0.0001640925901043
  0.6459670783331006  0.8529801628796889  0.0009558023619221
  0.0001756631775791  0.0002042660149968  0.9995300486750907
  0.5002280844554861  0.5001740528651624  0.9995286703890542
  0.4710699525045499  0.9723712276751328  0.3504337722892998
  0.9893186734935497  0.1793516156201278  0.3345908887068774
  0.6794296615332058  0.4880685160233824  0.3358623740778768
  0.1777013682915296  0.6789309185968264  0.3504220436298624
  0.8222905107265959  0.3210664088216646  0.6497834331927947
  0.3202197872488384  0.5118870874454231  0.6646295588235063
  0.0106104656466712  0.8202511708820879  0.6659260306486772
  0.5287434897799130  0.0274682016095369  0.6495792091832442

  0.00000000E+00  0.00000000E+00  0.00000000E+00
  0.00000000E+00  0.00000000E+00  0.00000000E+00
  0.00000000E+00  0.00000000E+00  0.00000000E+00
  0.00000000E+00  0.00000000E+00  0.00000000E+00
  0.00000000E+00  0.00000000E+00  0.00000000E+00
  0.00000000E+00  0.00000000E+00  0.00000000E+00
  0.00000000E+00  0.00000000E+00  0.00000000E+00
  0.00000000E+00  0.00000000E+00  0.00000000E+00
  0.00000000E+00  0.00000000E+00  0.00000000E+00
  0.00000000E+00  0.00000000E+00  0.00000000E+00
  0.00000000E+00  0.00000000E+00  0.00000000E+00
  0.00000000E+00  0.00000000E+00  0.00000000E+00
  0.00000000E+00  0.00000000E+00  0.00000000E+00
  0.00000000E+00  0.00000000E+00  0.00000000E+00
  0.00000000E+00  0.00000000E+00  0.00000000E+00
  0.00000000E+00  0.00000000E+00  0.00000000E+00
