B18 Br18                                
   1.00000000000000     
    10.2618167580058053   -0.0864655728796024   -0.0407682153808423
     0.6815012793044464   10.2695976026298066    0.0215869534360465
     0.5816084857174730    0.4640000039207954   10.2373335393787475
   B    Br
    18    18
Direct
  0.8647179477056639  0.7350554949219585  0.7414662438988984
  0.7952576753565168  0.7880306253609035  0.5938214907603623
  0.7869322474981431  0.5936566910933152  0.7973756717492577
  0.7384622867495167  0.8663165248936835  0.7356829911036513
  0.7328084751689303  0.7408433628252880  0.8669426018508020
  0.7565834909987501  0.6262065235313230  0.6319865802307945
  0.6244906869023694  0.6323432829468700  0.7581472351573950
  0.6298598113336098  0.7580215319135917  0.6261191174899068
  0.5909550397600682  0.7974213526677190  0.7883760547730176
  0.4033305564065159  0.2071662896477875  0.2114804192535260
  0.3666901705308732  0.2428182985093201  0.3750749407496343
  0.3682917357683024  0.3711366025054161  0.2454062598408484
  0.2384824276828539  0.3732977026814623  0.3739662281339946
  0.2577384121461108  0.1354719372470328  0.2654098714713129
  0.2594863282443072  0.2635109866164242  0.1364211466843983
  0.2046045779263821  0.4085910494098570  0.2097817248039675
  0.2021797423644145  0.2103960603782866  0.4096054080140732
  0.1296249296931649  0.2651050073967696  0.2639894877340581
  0.8776152767078926  0.8594747527603985  0.4396761619843232
  0.9464240082235165  0.2462707961069981  0.2422062372484959
  0.8596910573664189  0.4397234871043736  0.8795214450691731
  0.7907541820452408  0.4943258164422559  0.5070590937037380
  0.7617180833461035  0.0489166156786496  0.7531426818249685
  0.7491414980612916  0.7644839354302562  0.0503098101094821
  0.5578549770085743  0.1278467304307398  0.1356970484023066
  0.5051928483281642  0.7916994367333103  0.4937205079313216
  0.4928329929749609  0.5081435966034249  0.7919040186172666
  0.4979509071699937  0.4974950395986255  0.2118858469153651
  0.4939868956850901  0.2078501696794248  0.5047037284080602
  0.4362006206543541  0.8803523153692154  0.8597828197954556
  0.2404757373294473  0.2430746566271438  0.9529297512769404
  0.2364795698272530  0.9529065076843892  0.2451773574399283
  0.2047169967238887  0.5023431313930047  0.5018636771723379
  0.0477139799336896  0.7521207204068006  0.7659237428877148
  0.1230979200875524  0.1350784474466522  0.5636433312267002
  0.1284559062900499  0.5632055199573500  0.1319992662865275
 
  0.00000000E+00  0.00000000E+00  0.00000000E+00
  0.00000000E+00  0.00000000E+00  0.00000000E+00
  0.00000000E+00  0.00000000E+00  0.00000000E+00
  0.00000000E+00  0.00000000E+00  0.00000000E+00
  0.00000000E+00  0.00000000E+00  0.00000000E+00
  0.00000000E+00  0.00000000E+00  0.00000000E+00
  0.00000000E+00  0.00000000E+00  0.00000000E+00
  0.00000000E+00  0.00000000E+00  0.00000000E+00
  0.00000000E+00  0.00000000E+00  0.00000000E+00
  0.00000000E+00  0.00000000E+00  0.00000000E+00
  0.00000000E+00  0.00000000E+00  0.00000000E+00
  0.00000000E+00  0.00000000E+00  0.00000000E+00
  0.00000000E+00  0.00000000E+00  0.00000000E+00
  0.00000000E+00  0.00000000E+00  0.00000000E+00
  0.00000000E+00  0.00000000E+00  0.00000000E+00
  0.00000000E+00  0.00000000E+00  0.00000000E+00
  0.00000000E+00  0.00000000E+00  0.00000000E+00
  0.00000000E+00  0.00000000E+00  0.00000000E+00
  0.00000000E+00  0.00000000E+00  0.00000000E+00
  0.00000000E+00  0.00000000E+00  0.00000000E+00
  0.00000000E+00  0.00000000E+00  0.00000000E+00
  0.00000000E+00  0.00000000E+00  0.00000000E+00
  0.00000000E+00  0.00000000E+00  0.00000000E+00
  0.00000000E+00  0.00000000E+00  0.00000000E+00
  0.00000000E+00  0.00000000E+00  0.00000000E+00
  0.00000000E+00  0.00000000E+00  0.00000000E+00
  0.00000000E+00  0.00000000E+00  0.00000000E+00
  0.00000000E+00  0.00000000E+00  0.00000000E+00
  0.00000000E+00  0.00000000E+00  0.00000000E+00
  0.00000000E+00  0.00000000E+00  0.00000000E+00
  0.00000000E+00  0.00000000E+00  0.00000000E+00
  0.00000000E+00  0.00000000E+00  0.00000000E+00
  0.00000000E+00  0.00000000E+00  0.00000000E+00
  0.00000000E+00  0.00000000E+00  0.00000000E+00
  0.00000000E+00  0.00000000E+00  0.00000000E+00
  0.00000000E+00  0.00000000E+00  0.00000000E+00
