Ca4 Ga4 Cl20                            
   1.0000000000000000     
     7.1003948605944354    0.0000000000000000    0.0000000000000004
    -0.0000000000000005    6.3890237604479889    0.0000000000000005
     0.0000000000000000   -0.0000000000000001   20.8259672076305193
   Ca   Ga   Cl
     4     4    20
Direct
  0.9424158344190374  0.5525621345978351  0.5420162968328484
  0.4424158344190374  0.9474378654021649  0.4579837031671516
  0.0575841655809626  0.0525621345978351  0.9579837031671516
  0.5575841655809626  0.4474378654021649  0.0420162968328484
  0.1561822138951214  0.1192471044245025  0.6425965927047699
  0.6561822138951214  0.3807528955754904  0.3574034072952301
  0.8438177861048786  0.6192471044245025  0.8574034072952301
  0.3438177861048786  0.8807528955754975  0.1425965927047699
  0.1266950112898186  0.7360747949503192  0.4481158029722678
  0.6266950112898186  0.7639252050496808  0.5518841970277393
  0.8733049887101814  0.2360747949503192  0.0518841970277322
  0.3733049887101814  0.2639252050496808  0.9481158029722607
  0.6352673220086729  0.7266185950579498  0.3607663101522220
  0.1352673220086800  0.7733814049420502  0.6392336898477708
  0.3647326779913200  0.2266185950579498  0.1392336898477708
  0.8647326779913271  0.2733814049420502  0.8607663101522220
  0.8709135461518827  0.2638341777138891  0.6417972646320607
  0.3709135461518827  0.2361658222861180  0.3582027353679393
  0.1290864538481173  0.7638341777138820  0.8582027353679393
  0.6290864538481173  0.7361658222861180  0.1417972646320607
  0.3370131519609387  0.2245894132797659  0.7178241542654078
  0.8370131519609316  0.2754105867202341  0.2821758457345922
  0.6629868480390684  0.7245894132797659  0.7821758457345922
  0.1629868480390613  0.7754105867202341  0.2178241542654078
  0.7609300101118919  0.2574779815149242  0.4548350824101774
  0.2609300101118919  0.2425220184850758  0.5451649175898226
  0.2390699898881081  0.7574779815149242  0.0451649175898226
  0.7390699898881081  0.7425220184850758  0.9548350824101774

  0.00000000E+00  0.00000000E+00  0.00000000E+00
  0.00000000E+00  0.00000000E+00  0.00000000E+00
  0.00000000E+00  0.00000000E+00  0.00000000E+00
  0.00000000E+00  0.00000000E+00  0.00000000E+00
  0.00000000E+00  0.00000000E+00  0.00000000E+00
  0.00000000E+00  0.00000000E+00  0.00000000E+00
  0.00000000E+00  0.00000000E+00  0.00000000E+00
  0.00000000E+00  0.00000000E+00  0.00000000E+00
  0.00000000E+00  0.00000000E+00  0.00000000E+00
  0.00000000E+00  0.00000000E+00  0.00000000E+00
  0.00000000E+00  0.00000000E+00  0.00000000E+00
  0.00000000E+00  0.00000000E+00  0.00000000E+00
  0.00000000E+00  0.00000000E+00  0.00000000E+00
  0.00000000E+00  0.00000000E+00  0.00000000E+00
  0.00000000E+00  0.00000000E+00  0.00000000E+00
  0.00000000E+00  0.00000000E+00  0.00000000E+00
  0.00000000E+00  0.00000000E+00  0.00000000E+00
  0.00000000E+00  0.00000000E+00  0.00000000E+00
  0.00000000E+00  0.00000000E+00  0.00000000E+00
  0.00000000E+00  0.00000000E+00  0.00000000E+00
  0.00000000E+00  0.00000000E+00  0.00000000E+00
  0.00000000E+00  0.00000000E+00  0.00000000E+00
  0.00000000E+00  0.00000000E+00  0.00000000E+00
  0.00000000E+00  0.00000000E+00  0.00000000E+00
  0.00000000E+00  0.00000000E+00  0.00000000E+00
  0.00000000E+00  0.00000000E+00  0.00000000E+00
  0.00000000E+00  0.00000000E+00  0.00000000E+00
  0.00000000E+00  0.00000000E+00  0.00000000E+00
