SrIn3                                   
   1.0000000000000000     
     7.6936792023535148   -0.5205226481707226    0.0000000000000000
    -4.2976767445980597    6.4043326564396068    0.0000000000000000
     0.0000000000000000    0.0000000000000000    5.0630274709569552
   In   Sr
     6     2
Direct
  0.2036437200588281  0.3371309904514064  0.2500000000000000
  0.6634122232767936  0.7970801771305318  0.2500000000000000
  0.1245682022238341  0.8755082709130377  0.2500000000000000
  0.7963562799411719  0.6628690095485936  0.7500000000000000
  0.3365877767231993  0.2029198228694682  0.7500000000000000
  0.8754317977761659  0.1244917290869623  0.7500000000000000
  0.3035809601329120  0.6964505132115306  0.7500000000000000
  0.6964190398670880  0.3035494867884694  0.2500000000000000

  0.00000000E+00  0.00000000E+00  0.00000000E+00
  0.00000000E+00  0.00000000E+00  0.00000000E+00
  0.00000000E+00  0.00000000E+00  0.00000000E+00
  0.00000000E+00  0.00000000E+00  0.00000000E+00
  0.00000000E+00  0.00000000E+00  0.00000000E+00
  0.00000000E+00  0.00000000E+00  0.00000000E+00
  0.00000000E+00  0.00000000E+00  0.00000000E+00
  0.00000000E+00  0.00000000E+00  0.00000000E+00
