Be2 Al3                                 
   1.00000000000000     
    -1.8934503045650606    3.6409970831580751    2.4475550472857934
     1.8934503045650606   -3.6409970831580751    2.4475550472857934
     1.8934503045650606    3.6409970831580751   -2.4475550472857934
   Al   Be
     3     2
Direct
  0.3002599479294901  0.0000000000000000  0.3002599479294901
  0.0000000000000000  0.5000000000000000  0.5000000000000000
  0.6997400520705099  0.0000000000000000  0.6997400520705099
  0.2842949303034246  0.2842949303034246  0.0000000000000000
  0.7157050696965754  0.7157050696965754  0.0000000000000000
 
  0.00000000E+00  0.00000000E+00  0.00000000E+00
  0.00000000E+00  0.00000000E+00  0.00000000E+00
  0.00000000E+00  0.00000000E+00  0.00000000E+00
  0.00000000E+00  0.00000000E+00  0.00000000E+00
  0.00000000E+00  0.00000000E+00  0.00000000E+00
