Be6 Al4 F24                             
   1.00000000000000     
     0.0000000000000000    0.0000000000000000    4.8153497326932042
     8.4161442351279607   -0.5854745767173565    0.0000000000000000
    -0.5298171610119017    9.2404318071783234    0.0000000000000000
   Be   F    Al
     6    24     4
Direct
  0.0000000000000000  0.8650424773295526  0.9078557110569037
  0.5000000000000000  0.1805581939771059  0.0679132010181007
  0.5000000000000000  0.8019996260499340  0.5234301021580521
  0.0000000000000000  0.5340948615399981  0.1884512703429309
  0.5000000000000000  0.0948607725243349  0.4953181853178990
  0.5000000000000000  0.4602193432198689  0.9426563595102593
  0.2525640408377683  0.4740323230574646  0.0693043973002503
  0.7474359591622317  0.4740323230574646  0.0693043973002503
  0.2341835405961987  0.8765367013047936  0.0408736021888103
  0.7658164594038013  0.8765367013047936  0.0408736021888103
  0.0000000000000000  0.4352322976150802  0.3194304259066314
  0.2648981350913431  0.1964083611787260  0.1904011721551697
  0.7351018649086569  0.1964083611787260  0.1904011721551697
  0.2345348102489524  0.7006687523301025  0.2442244679970429
  0.7654651897510476  0.7006687523301025  0.2442244679970429
  0.0000000000000000  0.0026907936803084  0.3014762417703878
  0.2644559854644868  0.2196012855452096  0.4625238429936545
  0.7355440145355132  0.2196012855452096  0.4625238429936545
  0.2775655525716445  0.9421587568434333  0.5067689260790900
  0.7224344474283555  0.9421587568434333  0.5067689260790900
  0.2595266973660131  0.6768432809982130  0.5568630733056139
  0.7404733026339869  0.6768432809982130  0.5568630733056139
  0.0000000000000000  0.1605755469512076  0.6850630428943845
  0.2641451251599989  0.4216672172460179  0.8173589642802810
  0.7358548748400011  0.4216672172460179  0.8173589642802810
  0.2386464900227239  0.9000412072574591  0.7767690924824251
  0.7613535099772761  0.9000412072574591  0.7767690924824251
  0.0000000000000000  0.6779434661814534  0.8343848486650387
  0.2599246998529736  0.1808253907122861  0.9417287540904411
  0.7400753001470264  0.1808253907122861  0.9417287540904411
  0.0000000000000000  0.8343363169253166  0.1810658505231189
  0.0000000000000000  0.2233170507488751  0.3285154067675577
  0.0000000000000000  0.7732518961819537  0.6688533528920217
  0.0000000000000000  0.2785108041275635  0.8421534154312482
 
  0.00000000E+00  0.00000000E+00  0.00000000E+00
  0.00000000E+00  0.00000000E+00  0.00000000E+00
  0.00000000E+00  0.00000000E+00  0.00000000E+00
  0.00000000E+00  0.00000000E+00  0.00000000E+00
  0.00000000E+00  0.00000000E+00  0.00000000E+00
  0.00000000E+00  0.00000000E+00  0.00000000E+00
  0.00000000E+00  0.00000000E+00  0.00000000E+00
  0.00000000E+00  0.00000000E+00  0.00000000E+00
  0.00000000E+00  0.00000000E+00  0.00000000E+00
  0.00000000E+00  0.00000000E+00  0.00000000E+00
  0.00000000E+00  0.00000000E+00  0.00000000E+00
  0.00000000E+00  0.00000000E+00  0.00000000E+00
  0.00000000E+00  0.00000000E+00  0.00000000E+00
  0.00000000E+00  0.00000000E+00  0.00000000E+00
  0.00000000E+00  0.00000000E+00  0.00000000E+00
  0.00000000E+00  0.00000000E+00  0.00000000E+00
  0.00000000E+00  0.00000000E+00  0.00000000E+00
  0.00000000E+00  0.00000000E+00  0.00000000E+00
  0.00000000E+00  0.00000000E+00  0.00000000E+00
  0.00000000E+00  0.00000000E+00  0.00000000E+00
  0.00000000E+00  0.00000000E+00  0.00000000E+00
  0.00000000E+00  0.00000000E+00  0.00000000E+00
  0.00000000E+00  0.00000000E+00  0.00000000E+00
  0.00000000E+00  0.00000000E+00  0.00000000E+00
  0.00000000E+00  0.00000000E+00  0.00000000E+00
  0.00000000E+00  0.00000000E+00  0.00000000E+00
  0.00000000E+00  0.00000000E+00  0.00000000E+00
  0.00000000E+00  0.00000000E+00  0.00000000E+00
  0.00000000E+00  0.00000000E+00  0.00000000E+00
  0.00000000E+00  0.00000000E+00  0.00000000E+00
  0.00000000E+00  0.00000000E+00  0.00000000E+00
  0.00000000E+00  0.00000000E+00  0.00000000E+00
  0.00000000E+00  0.00000000E+00  0.00000000E+00
  0.00000000E+00  0.00000000E+00  0.00000000E+00
