Mg40 Ga4                                
   1.00000000000000     
     0.0000000000000000    8.0326978061286702    8.0326978061286702
     8.0326978061286702    0.0000000000000000    8.0326978061286702
     8.0326978061286702    8.0326978061286702    0.0000000000000000
   Mg   Ga
    40     4
Direct
  0.6132473809975636  0.6132473809975636  0.8867526190024364
  0.3632473809975707  0.6367526190024364  0.6367526190024364
  0.6367526190024364  0.3632473809975707  0.3632473809975707
  0.3632473809975707  0.3632473809975707  0.6367526190024364
  0.3632473809975707  0.6367526190024364  0.3632473809975707
  0.6367526190024364  0.3632473809975707  0.6367526190024364
  0.8867526190024364  0.6132473809975636  0.8867526190024364
  0.8867526190024364  0.6132473809975636  0.6132473809975636
  0.6132473809975636  0.8867526190024364  0.8867526190024364
  0.6132473809975636  0.8867526190024364  0.6132473809975636
  0.6367526190024364  0.6367526190024364  0.3632473809975707
  0.8867526190024364  0.8867526190024364  0.6132473809975636
  0.8024947004880261  0.0675862054167098  0.3274233936072264
  0.4475052995119739  0.4475052995119739  0.1824137945832902
  0.1824137945832902  0.9225766063927736  0.4475052995119739
  0.4475052995119739  0.9225766063927736  0.4475052995119739
  0.9225766063927736  0.4475052995119739  0.1824137945832902
  0.9225766063927736  0.4475052995119739  0.4475052995119739
  0.1824137945832902  0.4475052995119739  0.4475052995119739
  0.3274233936072264  0.0675862054167098  0.8024947004880261
  0.8024947004880261  0.0675862054167098  0.8024947004880261
  0.0675862054167098  0.8024947004880261  0.3274233936072264
  0.8024947004880261  0.8024947004880261  0.3274233936072264
  0.0675862054167098  0.3274233936072264  0.8024947004880261
  0.3274233936072264  0.8024947004880261  0.0675862054167098
  0.8024947004880261  0.8024947004880261  0.0675862054167098
  0.8024947004880261  0.3274233936072264  0.8024947004880261
  0.1824137945832902  0.4475052995119739  0.9225766063927736
  0.4475052995119739  0.4475052995119739  0.9225766063927736
  0.4475052995119739  0.9225766063927736  0.1824137945832902
  0.4475052995119739  0.1824137945832902  0.9225766063927736
  0.9225766063927736  0.1824137945832902  0.4475052995119739
  0.4475052995119739  0.1824137945832902  0.4475052995119739
  0.3274233936072264  0.8024947004880261  0.8024947004880261
  0.0675862054167098  0.8024947004880261  0.8024947004880261
  0.8024947004880261  0.3274233936072264  0.0675862054167098
  0.1250000000000000  0.1250000000000000  0.1250000000000000
  0.6250000000000000  0.1250000000000000  0.1250000000000000
  0.1250000000000000  0.1250000000000000  0.6250000000000000
  0.1250000000000000  0.6250000000000000  0.1250000000000000
  0.6250000000000000  0.6250000000000000  0.6250000000000000
  0.1250000000000000  0.6250000000000000  0.6250000000000000
  0.6250000000000000  0.6250000000000000  0.1250000000000000
  0.6250000000000000  0.1250000000000000  0.6250000000000000
 
  0.00000000E+00  0.00000000E+00  0.00000000E+00
  0.00000000E+00  0.00000000E+00  0.00000000E+00
  0.00000000E+00  0.00000000E+00  0.00000000E+00
  0.00000000E+00  0.00000000E+00  0.00000000E+00
  0.00000000E+00  0.00000000E+00  0.00000000E+00
  0.00000000E+00  0.00000000E+00  0.00000000E+00
  0.00000000E+00  0.00000000E+00  0.00000000E+00
  0.00000000E+00  0.00000000E+00  0.00000000E+00
  0.00000000E+00  0.00000000E+00  0.00000000E+00
  0.00000000E+00  0.00000000E+00  0.00000000E+00
  0.00000000E+00  0.00000000E+00  0.00000000E+00
  0.00000000E+00  0.00000000E+00  0.00000000E+00
  0.00000000E+00  0.00000000E+00  0.00000000E+00
  0.00000000E+00  0.00000000E+00  0.00000000E+00
  0.00000000E+00  0.00000000E+00  0.00000000E+00
  0.00000000E+00  0.00000000E+00  0.00000000E+00
  0.00000000E+00  0.00000000E+00  0.00000000E+00
  0.00000000E+00  0.00000000E+00  0.00000000E+00
  0.00000000E+00  0.00000000E+00  0.00000000E+00
  0.00000000E+00  0.00000000E+00  0.00000000E+00
  0.00000000E+00  0.00000000E+00  0.00000000E+00
  0.00000000E+00  0.00000000E+00  0.00000000E+00
  0.00000000E+00  0.00000000E+00  0.00000000E+00
  0.00000000E+00  0.00000000E+00  0.00000000E+00
  0.00000000E+00  0.00000000E+00  0.00000000E+00
  0.00000000E+00  0.00000000E+00  0.00000000E+00
  0.00000000E+00  0.00000000E+00  0.00000000E+00
  0.00000000E+00  0.00000000E+00  0.00000000E+00
  0.00000000E+00  0.00000000E+00  0.00000000E+00
  0.00000000E+00  0.00000000E+00  0.00000000E+00
  0.00000000E+00  0.00000000E+00  0.00000000E+00
  0.00000000E+00  0.00000000E+00  0.00000000E+00
  0.00000000E+00  0.00000000E+00  0.00000000E+00
  0.00000000E+00  0.00000000E+00  0.00000000E+00
  0.00000000E+00  0.00000000E+00  0.00000000E+00
  0.00000000E+00  0.00000000E+00  0.00000000E+00
  0.00000000E+00  0.00000000E+00  0.00000000E+00
  0.00000000E+00  0.00000000E+00  0.00000000E+00
  0.00000000E+00  0.00000000E+00  0.00000000E+00
  0.00000000E+00  0.00000000E+00  0.00000000E+00
  0.00000000E+00  0.00000000E+00  0.00000000E+00
  0.00000000E+00  0.00000000E+00  0.00000000E+00
  0.00000000E+00  0.00000000E+00  0.00000000E+00
  0.00000000E+00  0.00000000E+00  0.00000000E+00
