BaGa2                                   
   1.00000000000000     
     4.4699027180175310    0.0009791581091733    0.0000000000000000
    -2.2346044876453055    3.8715327158002313    0.0000000000000000
     0.0000000000000000    0.0000000000000000    5.1098579195546048
   Ba   Ga
     1     2
Direct
  0.0000040948507802  0.0000043253503179  0.0000000000000000
  0.6666744775945119  0.3332953555800202  0.5000000000000000
  0.3333262675547104  0.6667054990696570  0.5000000000000000
 
  0.00000000E+00  0.00000000E+00  0.00000000E+00
  0.00000000E+00  0.00000000E+00  0.00000000E+00
  0.00000000E+00  0.00000000E+00  0.00000000E+00
