Mg4 B4 I20                              
   1.0000000000000000     
     8.8330135616020371   -0.0000000000000000    0.0000000000000008
    -0.0000000000000007    7.6591128556860184    0.0000000000000005
     0.0000000000000005    0.0000000000000003   20.9453734140230097
   Mg   B    I 
     4     4    20
Direct
  0.6207426887786411  0.3582563468703981  0.2807128783650299
  0.1207426887786411  0.1417436531296019  0.7192871216349701
  0.3792573112213518  0.8582563468703981  0.2192871216349701
  0.8792573112213518  0.6417436531296019  0.7807128783650299
  0.2186368608778793  0.7358692443114094  0.4020334494216797
  0.7186368608778864  0.7641307556885906  0.5979665505783132
  0.7813631391221136  0.2358692443114023  0.0979665505783132
  0.2813631391221207  0.2641307556885977  0.9020334494216797
  0.7427803774618980  0.5707799167064280  0.5269522590667748
  0.2427803774618909  0.9292200832935720  0.4730477409332252
  0.2572196225381020  0.0707799167064351  0.9730477409332252
  0.7572196225381020  0.4292200832935720  0.0269522590667748
  0.1168517061785082  0.8056218993846898  0.3104632584242069
  0.6168517061785153  0.6943781006153102  0.6895367415757931
  0.8831482938214847  0.3056218993846898  0.1895367415757931
  0.3831482938214918  0.1943781006153102  0.8104632584242069
  0.2650692243691921  0.7195567601505388  0.1151962692605437
  0.7650692243691992  0.7804432398494612  0.8848037307394492
  0.7349307756308008  0.2195567601505388  0.3848037307394563
  0.2349307756308079  0.2804432398494612  0.6151962692605508
  0.6204433345580966  0.7213152560528115  0.2849455529071534
  0.1204433345580966  0.7786847439471885  0.7150544470928466
  0.3795566654419034  0.2213152560528115  0.2150544470928466
  0.8795566654419034  0.2786847439471885  0.7849455529071534
  0.2195375382197469  0.5269388997051365  0.9174517843334939
  0.7195375382197469  0.9730611002948635  0.0825482156665061
  0.7804624617802531  0.0269388997051365  0.5825482156665061
  0.2804624617802531  0.4730611002948635  0.4174517843334939

  0.00000000E+00  0.00000000E+00  0.00000000E+00
  0.00000000E+00  0.00000000E+00  0.00000000E+00
  0.00000000E+00  0.00000000E+00  0.00000000E+00
  0.00000000E+00  0.00000000E+00  0.00000000E+00
  0.00000000E+00  0.00000000E+00  0.00000000E+00
  0.00000000E+00  0.00000000E+00  0.00000000E+00
  0.00000000E+00  0.00000000E+00  0.00000000E+00
  0.00000000E+00  0.00000000E+00  0.00000000E+00
  0.00000000E+00  0.00000000E+00  0.00000000E+00
  0.00000000E+00  0.00000000E+00  0.00000000E+00
  0.00000000E+00  0.00000000E+00  0.00000000E+00
  0.00000000E+00  0.00000000E+00  0.00000000E+00
  0.00000000E+00  0.00000000E+00  0.00000000E+00
  0.00000000E+00  0.00000000E+00  0.00000000E+00
  0.00000000E+00  0.00000000E+00  0.00000000E+00
  0.00000000E+00  0.00000000E+00  0.00000000E+00
  0.00000000E+00  0.00000000E+00  0.00000000E+00
  0.00000000E+00  0.00000000E+00  0.00000000E+00
  0.00000000E+00  0.00000000E+00  0.00000000E+00
  0.00000000E+00  0.00000000E+00  0.00000000E+00
  0.00000000E+00  0.00000000E+00  0.00000000E+00
  0.00000000E+00  0.00000000E+00  0.00000000E+00
  0.00000000E+00  0.00000000E+00  0.00000000E+00
  0.00000000E+00  0.00000000E+00  0.00000000E+00
  0.00000000E+00  0.00000000E+00  0.00000000E+00
  0.00000000E+00  0.00000000E+00  0.00000000E+00
  0.00000000E+00  0.00000000E+00  0.00000000E+00
  0.00000000E+00  0.00000000E+00  0.00000000E+00
