Ga2 I8                                  
   1.00000000000000     
     5.9499212565636208    0.0000000000000000    0.0000000000000000
     0.0000000000000000    5.9499212565636199    0.0000000000000000
     0.0000000000000000    0.0000000000000000   14.8962022716598685
   Ga   I 
     2     8
Direct
  0.0000000000000000  0.5000000000000000  0.2366981964140678
  0.5000000000000000  0.0000000000000000  0.7633018035859322
  0.0000000000000000  0.0000000000000000  0.0000000000000000
  0.5000000000000000  0.5000000000000000  0.0000000000000000
  0.0000000000000000  0.0000000000000000  0.1971395611682070
  0.5000000000000000  0.5000000000000000  0.1971395611682070
  0.0000000000000000  0.5000000000000000  0.4096803866025738
  0.5000000000000000  0.0000000000000000  0.5903196133974262
  0.0000000000000000  0.0000000000000000  0.8028604388317930
  0.5000000000000000  0.5000000000000000  0.8028604388317930
 
  0.00000000E+00  0.00000000E+00  0.00000000E+00
  0.00000000E+00  0.00000000E+00  0.00000000E+00
  0.00000000E+00  0.00000000E+00  0.00000000E+00
  0.00000000E+00  0.00000000E+00  0.00000000E+00
  0.00000000E+00  0.00000000E+00  0.00000000E+00
  0.00000000E+00  0.00000000E+00  0.00000000E+00
  0.00000000E+00  0.00000000E+00  0.00000000E+00
  0.00000000E+00  0.00000000E+00  0.00000000E+00
  0.00000000E+00  0.00000000E+00  0.00000000E+00
  0.00000000E+00  0.00000000E+00  0.00000000E+00
