Be2 Br8                                 
   1.00000000000000     
     4.7580674365234863   -9.8312228198430347    0.0000000000000000
     4.7580674365234863    9.8312228198430347    0.0000000000000000
     0.0000000000000000    0.0000000000000000    5.5308849377317824
   Br   Be
     8     2
Direct
  0.6218543562505801  0.1222111698371080  0.0000000000000000
  0.0664152664594440  0.1886707932851479  0.0000000000000000
  0.9335847335405560  0.8113292067148521  0.0000000000000000
  0.3781456437494342  0.8777888301628920  0.0000000000000000
  0.1886707932851479  0.0664152664594440  0.5000000000000000
  0.8777888301628920  0.3781456437494342  0.5000000000000000
  0.1222111698371080  0.6218543562505801  0.5000000000000000
  0.8113292067148521  0.9335847335405560  0.5000000000000000
  0.0000000000000000  0.0000000000000000  0.2500000000000000
  0.0000000000000000  0.0000000000000000  0.7500000000000000
 
  0.00000000E+00  0.00000000E+00  0.00000000E+00
  0.00000000E+00  0.00000000E+00  0.00000000E+00
  0.00000000E+00  0.00000000E+00  0.00000000E+00
  0.00000000E+00  0.00000000E+00  0.00000000E+00
  0.00000000E+00  0.00000000E+00  0.00000000E+00
  0.00000000E+00  0.00000000E+00  0.00000000E+00
  0.00000000E+00  0.00000000E+00  0.00000000E+00
  0.00000000E+00  0.00000000E+00  0.00000000E+00
  0.00000000E+00  0.00000000E+00  0.00000000E+00
  0.00000000E+00  0.00000000E+00  0.00000000E+00
