B2 Cl8                                  
   1.00000000000000     
     8.4291617217876293    1.0105998282260493   -0.2126937629055829
     5.2355871047814295    7.0796845053007660    0.1974567259315170
     0.6320787300055761    0.5837034620009374    6.8515297912196171
   B    Cl
     2     8
Direct
  0.7978679377099667  0.9114030522497245  0.1136755053132248
  0.2018704387615458  0.0881172932670111  0.8862309401737889
  0.5623479119612114  0.1761511882075411  0.0629256510954050
  0.0178860814437840  0.2263697525489334  0.0684759784848268
  0.8518353654188999  0.7813007342632332  0.3512111052644045
  0.3508604269889375  0.5659175629762316  0.4652550572881111
  0.6500360736465183  0.4365873904492048  0.5344622832451549
  0.1511411498457917  0.2146368260430336  0.6474750360113077
  0.9795445797348989  0.7761750633802151  0.9291170072492605
  0.4367700344884327  0.8236411366148744  0.9403714358745106
 
  0.00000000E+00  0.00000000E+00  0.00000000E+00
  0.00000000E+00  0.00000000E+00  0.00000000E+00
  0.00000000E+00  0.00000000E+00  0.00000000E+00
  0.00000000E+00  0.00000000E+00  0.00000000E+00
  0.00000000E+00  0.00000000E+00  0.00000000E+00
  0.00000000E+00  0.00000000E+00  0.00000000E+00
  0.00000000E+00  0.00000000E+00  0.00000000E+00
  0.00000000E+00  0.00000000E+00  0.00000000E+00
  0.00000000E+00  0.00000000E+00  0.00000000E+00
  0.00000000E+00  0.00000000E+00  0.00000000E+00
