Ba10 Tl6 Cl38                           
   1.0000000000000000     
     0.0914554470540330    0.3432816191624677    9.6731254799449324
     9.2224629548349437    8.9880468733732890   -4.4117461045169968
    -9.4659480840411643    9.5713508558171707    5.0831988823469079
   Tl   Ba   Cl
     6    10    38
Direct
  0.2604126274790985  0.9928658253950786  0.9801322063430291
  0.7555823880826011  0.0058184838586897  0.0187683299159005
  0.1487098751255118  0.4745191423900437  0.1676022205435856
  0.6897789517175568  0.8284329743057341  0.4807023128150334
  0.2945003406515880  0.1738789925722770  0.5191391954082576
  0.8319601493299018  0.5243689156336302  0.8333900789363042
  0.7544221921920808  0.6808509626550148  0.1756902488225407
  0.5521401662311121  0.2708913768674890  0.1805627547085180
  0.2756409848898400  0.8338620902558702  0.2547019425936909
  0.9219311262025371  0.1851977440151202  0.3190230007432362
  0.3010808360347426  0.5707424312665950  0.4494665503799808
  0.6824740652508439  0.4280875653388918  0.5501071579233567
  0.0560786508781987  0.8092335272376090  0.6780930271421823
  0.7103562815079201  0.1657798606462961  0.7455179830432357
  0.4294969472474364  0.7315532005488876  0.8188788883897473
  0.2309534073334518  0.3195217369721917  0.8224606785370625
  0.0017689357628612  0.0317006748350437  0.0983988956116733
  0.5854886697992754  0.9632286725042860  0.8934875649107283
  0.7140851616426787  0.4903217173564798  0.0241352066977356
  0.1887366180422205  0.8065968614501813  0.0381296008525354
  0.6105380878529587  0.8216748380623216  0.0822690567423408
  0.2592607195328682  0.3159348820766894  0.1557976732097472
  0.9079952482225480  0.3286355710293520  0.1572566692056583
  0.3523807376609369  0.0439904746394859  0.1346608889966703
  0.6505180631634317  0.0652145719217785  0.2071681427265020
  0.0165949334324793  0.6252456442867356  0.2126672858305696
  0.3707776213857201  0.6164380959481761  0.2094858804667652
  0.5564946090545533  0.4781772490574170  0.2878250087901009
  0.0278645430956530  0.4369124492114409  0.3657982314640620
  0.5373211277663827  0.7892049180236640  0.3466651894289399
  0.9378818512836418  0.8677103418050578  0.3128634160780734
  0.2215860329623709  0.1753845041668143  0.3611212703052971
  0.6012259144341172  0.2493202571654152  0.3912391855488124
  0.6761626744307208  0.6365331505159091  0.4542081207344211
  0.1200195238439790  0.7308176444124328  0.4553819030817081
  0.2757171853509419  0.9845234671145775  0.4936710080876878
  0.6974978499110094  0.0155589967289274  0.5032098284064759
  0.8592548521418593  0.2657456787484378  0.5426832604737726
  0.3155092648611983  0.3685258045078825  0.5488786924805993
  0.3805831971094875  0.7494540860113119  0.6082965671238796
  0.7585697948206231  0.8396732539063976  0.6442527484125975
  0.0475253313342421  0.1403584112021932  0.6855559871531511
  0.4449058432275947  0.2076408817056645  0.6530819553302152
  0.9568000097987053  0.5597552283964049  0.6336775163972987
  0.4305826157930852  0.5240480572134842  0.7146115543092932
  0.6132094548353564  0.3817986677366036  0.7884422511664511
  0.9634429976803958  0.3740832972246153  0.7911252328657596
  0.3205627297441680  0.9315224097842645  0.7930126639336663
  0.9690673964789482  0.9608348490275631  0.8696741032392907
  0.0698579474206866  0.6700986501443040  0.8462296765953568
  0.7199247332309682  0.6806952641457187  0.8413746830987492
  0.3822396864880417  0.1781965895061290  0.9171677499934034
  0.8006663838076733  0.1900908909999970  0.9641978771588668
  0.2623626624411699  0.5079981674674201  0.9773108768455074

  0.00000000E+00  0.00000000E+00  0.00000000E+00
  0.00000000E+00  0.00000000E+00  0.00000000E+00
  0.00000000E+00  0.00000000E+00  0.00000000E+00
  0.00000000E+00  0.00000000E+00  0.00000000E+00
  0.00000000E+00  0.00000000E+00  0.00000000E+00
  0.00000000E+00  0.00000000E+00  0.00000000E+00
  0.00000000E+00  0.00000000E+00  0.00000000E+00
  0.00000000E+00  0.00000000E+00  0.00000000E+00
  0.00000000E+00  0.00000000E+00  0.00000000E+00
  0.00000000E+00  0.00000000E+00  0.00000000E+00
  0.00000000E+00  0.00000000E+00  0.00000000E+00
  0.00000000E+00  0.00000000E+00  0.00000000E+00
  0.00000000E+00  0.00000000E+00  0.00000000E+00
  0.00000000E+00  0.00000000E+00  0.00000000E+00
  0.00000000E+00  0.00000000E+00  0.00000000E+00
  0.00000000E+00  0.00000000E+00  0.00000000E+00
  0.00000000E+00  0.00000000E+00  0.00000000E+00
  0.00000000E+00  0.00000000E+00  0.00000000E+00
  0.00000000E+00  0.00000000E+00  0.00000000E+00
  0.00000000E+00  0.00000000E+00  0.00000000E+00
  0.00000000E+00  0.00000000E+00  0.00000000E+00
  0.00000000E+00  0.00000000E+00  0.00000000E+00
  0.00000000E+00  0.00000000E+00  0.00000000E+00
  0.00000000E+00  0.00000000E+00  0.00000000E+00
  0.00000000E+00  0.00000000E+00  0.00000000E+00
  0.00000000E+00  0.00000000E+00  0.00000000E+00
  0.00000000E+00  0.00000000E+00  0.00000000E+00
  0.00000000E+00  0.00000000E+00  0.00000000E+00
  0.00000000E+00  0.00000000E+00  0.00000000E+00
  0.00000000E+00  0.00000000E+00  0.00000000E+00
  0.00000000E+00  0.00000000E+00  0.00000000E+00
  0.00000000E+00  0.00000000E+00  0.00000000E+00
  0.00000000E+00  0.00000000E+00  0.00000000E+00
  0.00000000E+00  0.00000000E+00  0.00000000E+00
  0.00000000E+00  0.00000000E+00  0.00000000E+00
  0.00000000E+00  0.00000000E+00  0.00000000E+00
  0.00000000E+00  0.00000000E+00  0.00000000E+00
  0.00000000E+00  0.00000000E+00  0.00000000E+00
  0.00000000E+00  0.00000000E+00  0.00000000E+00
  0.00000000E+00  0.00000000E+00  0.00000000E+00
  0.00000000E+00  0.00000000E+00  0.00000000E+00
  0.00000000E+00  0.00000000E+00  0.00000000E+00
  0.00000000E+00  0.00000000E+00  0.00000000E+00
  0.00000000E+00  0.00000000E+00  0.00000000E+00
  0.00000000E+00  0.00000000E+00  0.00000000E+00
  0.00000000E+00  0.00000000E+00  0.00000000E+00
  0.00000000E+00  0.00000000E+00  0.00000000E+00
  0.00000000E+00  0.00000000E+00  0.00000000E+00
  0.00000000E+00  0.00000000E+00  0.00000000E+00
  0.00000000E+00  0.00000000E+00  0.00000000E+00
  0.00000000E+00  0.00000000E+00  0.00000000E+00
  0.00000000E+00  0.00000000E+00  0.00000000E+00
  0.00000000E+00  0.00000000E+00  0.00000000E+00
  0.00000000E+00  0.00000000E+00  0.00000000E+00
