Ba4 In4 Br20                            
   1.0000000000000000     
     9.6852003220471676    0.0000000000000000    0.0000000000000000
     0.0000000000000000   15.0176469111437836   -3.8208765608274269
     0.0000000000000000    3.0929957536271684    8.5356133582484208
   Ba   In   Br
     4     4    20
Direct
  0.9060928489612010  0.5609188913178897  0.2343700349510272
  0.4060928489612010  0.4390811086820960  0.2656299650489728
  0.0939071510387990  0.4390811086820960  0.7656299650489728
  0.5939071510387990  0.5609188913178897  0.7343700349510272
  0.7800827343804642  0.2288132015194648  0.5712956136169538
  0.2800827343804642  0.7711867984805423  0.9287043863830462
  0.2199172656195358  0.7711867984805423  0.4287043863830462
  0.7199172656195358  0.2288132015194648  0.0712956136169609
  0.5924443127020638  0.6089985183451674  0.3547810153548951
  0.0924443127020638  0.3910014816548326  0.1452189846451049
  0.4075556872979362  0.3910014816548326  0.6452189846451049
  0.9075556872979362  0.6089985183451674  0.8547810153548951
  0.9698153779214564  0.0768648327031372  0.3927535316980055
  0.4698153779214493  0.9231351672968628  0.1072464683019945
  0.0301846220785507  0.9231351672968628  0.6072464683019945
  0.5301846220785436  0.0768648327031372  0.8927535316980055
  0.4734870721062947  0.2223564378650451  0.7847291002898018
  0.9734870721062876  0.7776435621349549  0.7152708997101982
  0.5265129278937053  0.7776435621349549  0.2152708997101982
  0.0265129278937053  0.2223564378650451  0.2847291002898018
  0.4915804263128507  0.7541440113637137  0.6952612674447138
  0.9915804263128507  0.2458559886362863  0.8047387325552862
  0.5084195736871493  0.2458559886362863  0.3047387325552933
  0.0084195736871493  0.7541440113637137  0.1952612674447067
  0.3174402135118584  0.5585310621095303  0.9515079205619230
  0.8174402135118584  0.4414689378904697  0.5484920794380770
  0.6825597864881416  0.4414689378904697  0.0484920794380770
  0.1825597864881416  0.5585310621095303  0.4515079205619230

  0.00000000E+00  0.00000000E+00  0.00000000E+00
  0.00000000E+00  0.00000000E+00  0.00000000E+00
  0.00000000E+00  0.00000000E+00  0.00000000E+00
  0.00000000E+00  0.00000000E+00  0.00000000E+00
  0.00000000E+00  0.00000000E+00  0.00000000E+00
  0.00000000E+00  0.00000000E+00  0.00000000E+00
  0.00000000E+00  0.00000000E+00  0.00000000E+00
  0.00000000E+00  0.00000000E+00  0.00000000E+00
  0.00000000E+00  0.00000000E+00  0.00000000E+00
  0.00000000E+00  0.00000000E+00  0.00000000E+00
  0.00000000E+00  0.00000000E+00  0.00000000E+00
  0.00000000E+00  0.00000000E+00  0.00000000E+00
  0.00000000E+00  0.00000000E+00  0.00000000E+00
  0.00000000E+00  0.00000000E+00  0.00000000E+00
  0.00000000E+00  0.00000000E+00  0.00000000E+00
  0.00000000E+00  0.00000000E+00  0.00000000E+00
  0.00000000E+00  0.00000000E+00  0.00000000E+00
  0.00000000E+00  0.00000000E+00  0.00000000E+00
  0.00000000E+00  0.00000000E+00  0.00000000E+00
  0.00000000E+00  0.00000000E+00  0.00000000E+00
  0.00000000E+00  0.00000000E+00  0.00000000E+00
  0.00000000E+00  0.00000000E+00  0.00000000E+00
  0.00000000E+00  0.00000000E+00  0.00000000E+00
  0.00000000E+00  0.00000000E+00  0.00000000E+00
  0.00000000E+00  0.00000000E+00  0.00000000E+00
  0.00000000E+00  0.00000000E+00  0.00000000E+00
  0.00000000E+00  0.00000000E+00  0.00000000E+00
  0.00000000E+00  0.00000000E+00  0.00000000E+00
