Mg3 Ga4                                 
   1.00000000000000     
     2.3582418652518435    1.2308763126367175    7.2150662107852321
    -2.3582418652518435    1.2308763126367175    7.2150662107852321
     0.0000000000000001   -2.7655295990242905    7.2682165411600108
   Ga   Mg
     4     3
Direct
  0.1535835864022701  0.1535835864022701  0.1537223884487489
  0.2913030244787649  0.2913030244787649  0.2909891440037384
  0.7135606245271475  0.7135606245271475  0.7138889868568157
  0.8512987241375356  0.8512987241375356  0.8511458010143329
  0.0024348796781339  0.0024348796781339  0.0024459819205731
  0.4298072415045411  0.4298072415045411  0.4289522417750504
  0.5750719192715863  0.5750719192715863  0.5759154559807413
 
  0.00000000E+00  0.00000000E+00  0.00000000E+00
  0.00000000E+00  0.00000000E+00  0.00000000E+00
  0.00000000E+00  0.00000000E+00  0.00000000E+00
  0.00000000E+00  0.00000000E+00  0.00000000E+00
  0.00000000E+00  0.00000000E+00  0.00000000E+00
  0.00000000E+00  0.00000000E+00  0.00000000E+00
  0.00000000E+00  0.00000000E+00  0.00000000E+00
