Be16 Al6                                
   1.00000000000000     
     5.5836249839569101   -0.3734761919660903    0.4659474365829148
     2.4254077883689411    6.4245381840466642    0.2763955979060705
     1.3947729472021646    2.2142375139716597    6.5309688579864815
   Be   Al
    16     6
Direct
  0.5517416734432956  0.3382113099992026  0.1066802313279709
  0.1372062381336647  0.5095556717866287  0.1076346497518585
  0.3904117559450100  0.9767002355523715  0.1578999349927557
  0.6579254188044885  0.0153813516374086  0.3357970541929447
  0.9354424498182112  0.2361005940293097  0.2111106908147988
  0.3068696862146254  0.6523518461177105  0.2456922664259125
  0.2613718811537353  0.1753634313915100  0.3471192899845263
  0.0589100208875522  0.8958555518058660  0.3993934550462868
  0.9410878732739079  0.1042442760679378  0.6002117611799989
  0.7387835174332480  0.8243772640052427  0.6528874263291229
  0.6931553452989121  0.3478564850333967  0.7541493621899491
  0.0642342655345729  0.7641824027543436  0.7893156847002274
  0.3421434666517271  0.9846799961649069  0.6643695029791488
  0.6100229322809767  0.0231749558930758  0.8420210757764650
  0.8629977054301676  0.4902206272737786  0.8924510458350170
  0.4483423849924364  0.6616417321123151  0.8932632445368114
  0.9996369656968440  0.0003854917996193  0.0000235469443197
  0.7229051206529249  0.6768610330101410  0.1351895281243642
  0.4667296305672721  0.6959151988474304  0.5163487524714085
  0.0000315984877730  0.5000241106362893  0.4998597286924280
  0.5330478166090131  0.3042954466270658  0.4836245893664284
  0.2773022526896298  0.3229799874544526  0.8648571783372674
 
  0.00000000E+00  0.00000000E+00  0.00000000E+00
  0.00000000E+00  0.00000000E+00  0.00000000E+00
  0.00000000E+00  0.00000000E+00  0.00000000E+00
  0.00000000E+00  0.00000000E+00  0.00000000E+00
  0.00000000E+00  0.00000000E+00  0.00000000E+00
  0.00000000E+00  0.00000000E+00  0.00000000E+00
  0.00000000E+00  0.00000000E+00  0.00000000E+00
  0.00000000E+00  0.00000000E+00  0.00000000E+00
  0.00000000E+00  0.00000000E+00  0.00000000E+00
  0.00000000E+00  0.00000000E+00  0.00000000E+00
  0.00000000E+00  0.00000000E+00  0.00000000E+00
  0.00000000E+00  0.00000000E+00  0.00000000E+00
  0.00000000E+00  0.00000000E+00  0.00000000E+00
  0.00000000E+00  0.00000000E+00  0.00000000E+00
  0.00000000E+00  0.00000000E+00  0.00000000E+00
  0.00000000E+00  0.00000000E+00  0.00000000E+00
  0.00000000E+00  0.00000000E+00  0.00000000E+00
  0.00000000E+00  0.00000000E+00  0.00000000E+00
  0.00000000E+00  0.00000000E+00  0.00000000E+00
  0.00000000E+00  0.00000000E+00  0.00000000E+00
  0.00000000E+00  0.00000000E+00  0.00000000E+00
  0.00000000E+00  0.00000000E+00  0.00000000E+00
