Mg1 Tl2 I6                              
   1.0000000000000000     
     3.9894280425006565    2.3029816332504298    6.5144610958430977
    -3.9894280425006565    2.3029816332504298    6.5144610958430977
     0.0000000000000000   -4.6010545638423030    6.5127251964824664
   Mg   I    Tl
     1     6     2
Direct
  0.0000000000000000  0.0000000000000000  0.0000000000000000
  0.7466060922654307  0.7466060922654307  0.2533945578142891
  0.7466222031572087  0.2533868759633435  0.2533693733637463
  0.2533868759633435  0.7466222031572087  0.2533693733637463
  0.2533939077345693  0.2533939077345693  0.7466054421857109
  0.7466131240366565  0.2533777968427913  0.7466306266362608
  0.2533777968427913  0.7466131240366565  0.7466306266362608
  0.2499997253800856  0.2499997253800856  0.2500019779900953
  0.7500002746199144  0.7500002746199144  0.7499980220099047

  0.00000000E+00  0.00000000E+00  0.00000000E+00
  0.00000000E+00  0.00000000E+00  0.00000000E+00
  0.00000000E+00  0.00000000E+00  0.00000000E+00
  0.00000000E+00  0.00000000E+00  0.00000000E+00
  0.00000000E+00  0.00000000E+00  0.00000000E+00
  0.00000000E+00  0.00000000E+00  0.00000000E+00
  0.00000000E+00  0.00000000E+00  0.00000000E+00
  0.00000000E+00  0.00000000E+00  0.00000000E+00
  0.00000000E+00  0.00000000E+00  0.00000000E+00
