Br4                                     
   1.00000000000000     
     0.0000000000000000   -4.2678041543813148    0.0000000000000000
    -4.3232944209304751    2.1339020771906574    0.0000000000000000
     0.0000000000000000    0.0000000000000001   -8.7118938730078970
   Br
     4
Direct
  0.8576502750734463  0.0000000000000000  0.3817881397145868
  0.1423497249265537  0.0000000000000000  0.6182118602854132
  0.6423497249265537  0.0000000000000000  0.8817881397145868
  0.3576502750734463  0.0000000000000000  0.1182118602854132
 
  0.00000000E+00  0.00000000E+00  0.00000000E+00
  0.00000000E+00  0.00000000E+00  0.00000000E+00
  0.00000000E+00  0.00000000E+00  0.00000000E+00
  0.00000000E+00  0.00000000E+00  0.00000000E+00
