Be2 In7                                 
   1.00000000000000     
     7.2296438609597997   -0.6323949936897387    0.8143958411272276
    -3.9384734753620214    5.8761289775359957   -2.6610904129271344
     1.1994463762841854   -2.5628660688282796    6.6320349604584843
   In   Be
     7     2
Direct
  0.0000000000000000  0.0000000000000000  0.0000000000000000
  0.4430295839807314  0.1889926665143804  0.2939107337142985
  0.7594742849971041  0.1821912562266377  0.4875235206473931
  0.8377944504565136  0.6504998961040656  0.1872506614795455
  0.1622055495434793  0.3495001038959344  0.8127493385204545
  0.2405257150028959  0.8178087437733623  0.5124764793526069
  0.5569704160192686  0.8110073334856196  0.7060892662857015
  0.1418156769435015  0.7031570736930348  0.8421899804032549
  0.8581843230565056  0.2968429263069652  0.1578100195967451
 
  0.00000000E+00  0.00000000E+00  0.00000000E+00
  0.00000000E+00  0.00000000E+00  0.00000000E+00
  0.00000000E+00  0.00000000E+00  0.00000000E+00
  0.00000000E+00  0.00000000E+00  0.00000000E+00
  0.00000000E+00  0.00000000E+00  0.00000000E+00
  0.00000000E+00  0.00000000E+00  0.00000000E+00
  0.00000000E+00  0.00000000E+00  0.00000000E+00
  0.00000000E+00  0.00000000E+00  0.00000000E+00
  0.00000000E+00  0.00000000E+00  0.00000000E+00
