Mg1 Tl2 Cl6                             
   1.00000000000000     
     3.5294393958996162    2.0377936916518382    5.7637462741302201
    -3.5294393958996162    2.0377936916518382    5.7637462741302201
     0.0000000000000000   -4.0750473209300884    5.7635553175006971
   Mg   Cl   Tl
     1     6     2
Direct
  0.0000000000000000  0.0000000000000000  0.0000000000000000
  0.7528127925365879  0.7528127925365879  0.2471883541857025
  0.7528133267378578  0.2471854573326979  0.2471861798233661
  0.2471854573326979  0.7528133267378578  0.2471861798233661
  0.2471872074634121  0.2471872074634121  0.7528116458142975
  0.7528145426673021  0.2471866732621422  0.7528138201766339
  0.2471866732621422  0.7528145426673021  0.7528138201766339
  0.2500002676709343  0.2500002676709343  0.2499992512014657
  0.7499997323290657  0.7499997323290657  0.7500007487985343
 
  0.00000000E+00  0.00000000E+00  0.00000000E+00
  0.00000000E+00  0.00000000E+00  0.00000000E+00
  0.00000000E+00  0.00000000E+00  0.00000000E+00
  0.00000000E+00  0.00000000E+00  0.00000000E+00
  0.00000000E+00  0.00000000E+00  0.00000000E+00
  0.00000000E+00  0.00000000E+00  0.00000000E+00
  0.00000000E+00  0.00000000E+00  0.00000000E+00
  0.00000000E+00  0.00000000E+00  0.00000000E+00
  0.00000000E+00  0.00000000E+00  0.00000000E+00
