Ca5 In41                                
   1.00000000000000     
    -7.4342438406663582    7.3490996499389700    5.8196581670689511
     7.4084570764499613   -7.3230960276803652    5.7532104436680518
     7.6806778364312054    7.5705238516521467   -5.7868945011559703
   In   Ca
    41     5
Direct
  0.4996881458934936  0.9995905612094731  0.9996700613175022
  0.9999482848827412  0.4999799674605967  0.0004123526943616
  0.5000982833683238  0.4999231175160048  0.0000074855797649
  0.2536697027458672  0.4664330313225022  0.0680712098159546
  0.5969521422914355  0.8105538578612297  0.0668870534821338
  0.8751532326848661  0.2152140467457997  0.0995805593787864
  0.3383513662282454  0.7789572604377923  0.1208460730570451
  0.3514986409162759  0.0891447225636384  0.1480272265225935
  0.0630251240224808  0.7968833138164655  0.1460144777997883
  0.4817646103864064  0.4146369006272224  0.2208900867611732
  0.8104043883233132  0.7345124176662878  0.2166255487042861
  0.6778177254673778  0.1135243497316054  0.2944734845794557
  0.1769828214628291  0.6128520370135888  0.2937840966878724
  0.9105235424885905  0.0522938998587534  0.2664209759403064
  0.2050490735053856  0.3484272587114106  0.2674600241321627
  0.2251934585494197  0.1169560965147625  0.3463874898182482
  0.4017820675799371  0.9737777234831384  0.3774452656382792
  0.0177282530287286  0.3978276618114336  0.4178751513052177
  0.6160020775865505  0.3184718856844952  0.4376896435721420
  0.1170390049175154  0.8185769914722485  0.4347563042997038
  0.7842572712514553  0.6638283934914710  0.4464357195836399
  0.0004176858872071  0.0001514541692700  0.5002531554769547
  0.4999223908335750  0.4999242563187067  0.4999612000332760
  0.2156952020043335  0.3363135857828468  0.5536771657894377
  0.8830401776874126  0.1815329868008746  0.5652141150291357
  0.3844307464129599  0.6817279511666356  0.5625325492053790
  0.9823810507651132  0.6025688795419200  0.5823660450891595
  0.5979271330427949  0.0261831791956553  0.6220385825250503
  0.7753645650217464  0.8838154298892817  0.6535520876252221
  0.7946562161543795  0.6517897789939369  0.7324399802572827
  0.0896630524463902  0.9477523240219767  0.7341807845365977
  0.8234388479784371  0.3874718025614783  0.7065881354807999
  0.3220985055153704  0.8864104576231853  0.7052800338485810
  0.1895183362139647  0.2654596595426710  0.7834948987218269
  0.5180786952437373  0.5851638656821194  0.7791592850945435
  0.9368774074969082  0.2034717468915872  0.8541445533768837
  0.6486406846698571  0.9106770475428121  0.8516451012205621
  0.6616350790134149  0.2207156304388036  0.8788651821088109
  0.1240262454385004  0.7839678137839314  0.9005228034785091
  0.4033855050261934  0.1894881087757128  0.9329755303150620
  0.7464314781978416  0.5334596731536152  0.9317413970001382
  0.0000979295395638  0.0001900225115818  0.0001044587726682
  0.7832591509728815  0.4247543820667872  0.2132147106413811
  0.5731929616556357  0.7867212932963596  0.3594157090830166
  0.4269398548254060  0.2133928400642517  0.6404547545249812
  0.2167518803752344  0.5753303351839563  0.7867174900943539
 
  0.00000000E+00  0.00000000E+00  0.00000000E+00
  0.00000000E+00  0.00000000E+00  0.00000000E+00
  0.00000000E+00  0.00000000E+00  0.00000000E+00
  0.00000000E+00  0.00000000E+00  0.00000000E+00
  0.00000000E+00  0.00000000E+00  0.00000000E+00
  0.00000000E+00  0.00000000E+00  0.00000000E+00
  0.00000000E+00  0.00000000E+00  0.00000000E+00
  0.00000000E+00  0.00000000E+00  0.00000000E+00
  0.00000000E+00  0.00000000E+00  0.00000000E+00
  0.00000000E+00  0.00000000E+00  0.00000000E+00
  0.00000000E+00  0.00000000E+00  0.00000000E+00
  0.00000000E+00  0.00000000E+00  0.00000000E+00
  0.00000000E+00  0.00000000E+00  0.00000000E+00
  0.00000000E+00  0.00000000E+00  0.00000000E+00
  0.00000000E+00  0.00000000E+00  0.00000000E+00
  0.00000000E+00  0.00000000E+00  0.00000000E+00
  0.00000000E+00  0.00000000E+00  0.00000000E+00
  0.00000000E+00  0.00000000E+00  0.00000000E+00
  0.00000000E+00  0.00000000E+00  0.00000000E+00
  0.00000000E+00  0.00000000E+00  0.00000000E+00
  0.00000000E+00  0.00000000E+00  0.00000000E+00
  0.00000000E+00  0.00000000E+00  0.00000000E+00
  0.00000000E+00  0.00000000E+00  0.00000000E+00
  0.00000000E+00  0.00000000E+00  0.00000000E+00
  0.00000000E+00  0.00000000E+00  0.00000000E+00
  0.00000000E+00  0.00000000E+00  0.00000000E+00
  0.00000000E+00  0.00000000E+00  0.00000000E+00
  0.00000000E+00  0.00000000E+00  0.00000000E+00
  0.00000000E+00  0.00000000E+00  0.00000000E+00
  0.00000000E+00  0.00000000E+00  0.00000000E+00
  0.00000000E+00  0.00000000E+00  0.00000000E+00
  0.00000000E+00  0.00000000E+00  0.00000000E+00
  0.00000000E+00  0.00000000E+00  0.00000000E+00
  0.00000000E+00  0.00000000E+00  0.00000000E+00
  0.00000000E+00  0.00000000E+00  0.00000000E+00
  0.00000000E+00  0.00000000E+00  0.00000000E+00
  0.00000000E+00  0.00000000E+00  0.00000000E+00
  0.00000000E+00  0.00000000E+00  0.00000000E+00
  0.00000000E+00  0.00000000E+00  0.00000000E+00
  0.00000000E+00  0.00000000E+00  0.00000000E+00
  0.00000000E+00  0.00000000E+00  0.00000000E+00
  0.00000000E+00  0.00000000E+00  0.00000000E+00
  0.00000000E+00  0.00000000E+00  0.00000000E+00
  0.00000000E+00  0.00000000E+00  0.00000000E+00
  0.00000000E+00  0.00000000E+00  0.00000000E+00
  0.00000000E+00  0.00000000E+00  0.00000000E+00
