Ca1                                     
   1.00000000000000     
    -2.2631167872618785    2.2631167872618785    2.0523945839299151
     2.2631167872618785   -2.2631167872618785    2.0523945839299151
     2.2631167872618785    2.2631167872618785   -2.0523945839299151
   Ca
     1
Direct
  0.0000000000000000  0.0000000000000000  0.0000000000000000
 
  0.00000000E+00  0.00000000E+00  0.00000000E+00
