Be2 Ga2 Br10                            
   1.00000000000000     
     6.3099488655417524   -1.2987509961072314    2.5074501547276649
     0.1155933172343586    6.4411837121905018    2.5074505233624587
    -0.1210922700467708   -0.0969084053932473    9.7653270132570125
   Be   Ga   Br
     2     2    10
Direct
  0.6377115793157486  0.3622884228258485  0.2500000000396199
  0.3622884206842514  0.6377115771741515  0.7499999999603801
  0.0000000000000000  0.0000000000000000  0.5000000000000000
  0.0000000000000000  0.0000000000000000  0.0000000000000000
  0.7156639407357588  0.6686587275142628  0.6618517737219136
  0.3313412821264734  0.2843350568023268  0.8381482237243603
  0.2843350592642437  0.3313412724857443  0.3381492262780981
  0.6686587178735195  0.7156639431976757  0.1618517762756397
  0.9069755511487614  0.0930244469068953  0.7500000021993429
  0.0930244488512386  0.9069755530931047  0.2499999978006571
  0.7611006480219515  0.2763207211509524  0.0463476055790366
  0.7236792845892026  0.2388993516822140  0.4536523956717105
  0.2388993519780485  0.7236792788490547  0.9536523944209634
  0.2763207154107974  0.7611006483177860  0.5463476043282895
 
  0.00000000E+00  0.00000000E+00  0.00000000E+00
  0.00000000E+00  0.00000000E+00  0.00000000E+00
  0.00000000E+00  0.00000000E+00  0.00000000E+00
  0.00000000E+00  0.00000000E+00  0.00000000E+00
  0.00000000E+00  0.00000000E+00  0.00000000E+00
  0.00000000E+00  0.00000000E+00  0.00000000E+00
  0.00000000E+00  0.00000000E+00  0.00000000E+00
  0.00000000E+00  0.00000000E+00  0.00000000E+00
  0.00000000E+00  0.00000000E+00  0.00000000E+00
  0.00000000E+00  0.00000000E+00  0.00000000E+00
  0.00000000E+00  0.00000000E+00  0.00000000E+00
  0.00000000E+00  0.00000000E+00  0.00000000E+00
  0.00000000E+00  0.00000000E+00  0.00000000E+00
  0.00000000E+00  0.00000000E+00  0.00000000E+00
