Ca1 B3 Cl6                              
   1.00000000000000     
     8.1057245928929440   -0.7312633971893371   -0.8874924654045232
    -0.7312633971893371    8.1057245928929476   -0.8874924654045236
     2.8999325791039539    2.8999325791039543    5.2990128864452739
   Cl   Ca   B 
     6     1     3
Direct
  0.6320921514791564  0.3679078485208436  0.0000000000000000
  0.2611950363531292  0.2611950363531292  0.9165257790377268
  0.3679078485208436  0.6320921514791564  0.0000000000000000
  0.7388049636468708  0.7388049636468708  0.0834742209622732
  0.8637330032999131  0.8637330032999131  0.4868419892715750
  0.1362669967000869  0.1362669967000869  0.5131580107284250
  0.0000000000000000  0.0000000000000000  0.0000000000000000
  0.5000000000000000  0.5000000000000000  0.0000000000000000
  0.1208425537684903  0.8791574462315168  0.5000000000000000
  0.8791574462315168  0.1208425537684903  0.5000000000000000
 
  0.00000000E+00  0.00000000E+00  0.00000000E+00
  0.00000000E+00  0.00000000E+00  0.00000000E+00
  0.00000000E+00  0.00000000E+00  0.00000000E+00
  0.00000000E+00  0.00000000E+00  0.00000000E+00
  0.00000000E+00  0.00000000E+00  0.00000000E+00
  0.00000000E+00  0.00000000E+00  0.00000000E+00
  0.00000000E+00  0.00000000E+00  0.00000000E+00
  0.00000000E+00  0.00000000E+00  0.00000000E+00
  0.00000000E+00  0.00000000E+00  0.00000000E+00
  0.00000000E+00  0.00000000E+00  0.00000000E+00
