Sr2 B7                                  
   1.00000000000000     
     5.6384443700416815   -0.0006875278808055    0.0000947377918470
    -2.8202349525875383    4.8824566132087872   -0.0000953628143501
     0.0007455620924439   -0.0004290506176180    4.2641012034966010
   B    Sr
     7     2
Direct
  0.1100673931669434  0.2200687226310976  0.1578156400000026
  0.1099884963579143  0.8900117304805519  0.1577526276082040
  0.7799309530803029  0.8899324803525133  0.1578155803541961
  0.0000000000000000  0.0000000000000000  0.5000000000000000
  0.2200690469196971  0.1100675196474867  0.8421844196458039
  0.8900115036420857  0.1099882695194481  0.8422473723917960
  0.8899326068330566  0.7799312773689024  0.8421843599999974
  0.6666786780994300  0.3333205825317052  0.3114177922619845
  0.3333213219005700  0.6666794174682948  0.6885822077380155
 
  0.00000000E+00  0.00000000E+00  0.00000000E+00
  0.00000000E+00  0.00000000E+00  0.00000000E+00
  0.00000000E+00  0.00000000E+00  0.00000000E+00
  0.00000000E+00  0.00000000E+00  0.00000000E+00
  0.00000000E+00  0.00000000E+00  0.00000000E+00
  0.00000000E+00  0.00000000E+00  0.00000000E+00
  0.00000000E+00  0.00000000E+00  0.00000000E+00
  0.00000000E+00  0.00000000E+00  0.00000000E+00
  0.00000000E+00  0.00000000E+00  0.00000000E+00
