Mg7 Tl10                                
   1.0000000000000000     
     2.5508194677202747   -5.2412055754167861   -0.9898491302859471
    -5.6327215701365780   -0.2963462735098114    1.0061584833854476
     4.6005718674543941   -2.7683010030977870  -16.2918146330603406
   Tl   Mg
    10     7
Direct
  0.1937483439059449  0.5341141267033791  0.0600941089581610
  0.9338020790237493  0.5912468027657596  0.3046369867999701
  0.3258645286844271  0.2021529117143785  0.3054301176761101
  0.5846191700612593  0.6253965080981985  0.1743017376904348
  0.1758721792315967  0.8043546752112647  0.4759071822796770
  0.8169334241153550  0.2046003551487630  0.5254783228566140
  0.4170041832288121  0.3723846294636957  0.8251340961009461
  0.6701994263608029  0.8028759157442877  0.6975865411287643
  0.0694217885527593  0.4071564538801766  0.6920985157410513
  0.8079670506342254  0.4597146121004911  0.9386972132603120
  0.6855959942260483  0.0453999896699671  0.0648340002322811
  0.1055508084715271  0.1018044271735903  0.1499527341629872
  0.7070377644954178  0.0351462212744096  0.3448826998938799
  0.5041780600284440  0.5075895627882971  0.4987453801500976
  0.2883215049895540  0.9633587924954128  0.6557767567262545
  0.8977423182166930  0.8926548650547446  0.8505264639130132
  0.3165413757733617  0.9504491507131689  0.9361171424294241

  0.00000000E+00 -0.00000000E+00  0.00000000E+00
  0.00000000E+00 -0.00000000E+00  0.00000000E+00
  0.00000000E+00 -0.00000000E+00  0.00000000E+00
  0.00000000E+00 -0.00000000E+00  0.00000000E+00
  0.00000000E+00 -0.00000000E+00  0.00000000E+00
  0.00000000E+00 -0.00000000E+00  0.00000000E+00
  0.00000000E+00 -0.00000000E+00  0.00000000E+00
  0.00000000E+00 -0.00000000E+00  0.00000000E+00
  0.00000000E+00 -0.00000000E+00  0.00000000E+00
  0.00000000E+00 -0.00000000E+00  0.00000000E+00
  0.00000000E+00 -0.00000000E+00  0.00000000E+00
  0.00000000E+00 -0.00000000E+00  0.00000000E+00
  0.00000000E+00 -0.00000000E+00  0.00000000E+00
  0.00000000E+00 -0.00000000E+00  0.00000000E+00
  0.00000000E+00 -0.00000000E+00  0.00000000E+00
  0.00000000E+00 -0.00000000E+00  0.00000000E+00
  0.00000000E+00 -0.00000000E+00  0.00000000E+00
