Be28 Tl11                               
   1.0000000000000000     
     3.7964051278394257    0.0000001707478190   -0.3265295850781894
    -0.0671952918521914    6.4343849480683675   -0.7812419589346473
     0.1463442533008865   -0.3574255258701699   23.9342378003044089
   Be   Tl
    28    11
Direct
  0.8067845554121860  0.7252444972066883  0.6135691113777142
  0.5641362892312998  0.2227779096129794  0.1282735778195772
  0.7118845418964739  0.0081183520358081  0.4237680828107671
  0.6678890388371030  0.0548147542501667  0.3357780770881647
  0.3021806084283725  0.9386625802347055  0.6043612152775353
  0.8505298494511706  0.6090791801002524  0.7010596997602860
  0.5249141470543037  0.0049731416058449  0.0498272954191847
  0.9999999999195239  0.9374808453765766  0.0000000000047748
  0.5952537037400134  0.4956400861723225  0.1905064068474047
  0.8837375536210104  0.3926187821785732  0.7674761066235902
  0.2782724896730429  0.2549011241944186  0.5565449799215187
  0.2881154591262955  0.5843502687917308  0.5762319171003014
  0.9210214996106529  0.2254703891332355  0.8420419998657849
  0.3321109617084232  0.7190376775079486  0.6642219228365249
  0.4750858517185250  0.9551458459456370  0.9501727046735766
  0.6978193933982766  0.3343013649358824  0.3956387846507212
  0.4358637112586834  0.0945043315723737  0.8717264222104006
  0.1494701488560821  0.9080204798915048  0.2989413002583987
  0.0789784992854408  0.3834283890595884  0.1579580002660137
  0.7760116415044394  0.4283933990629407  0.5520232859485290
  0.4047462978310179  0.3051336796616582  0.8094935931212248
  0.4999999989320969  0.7064409241387608  0.0000000000298854
  0.7217275093039461  0.6983571439399583  0.4434550200319691
  0.9557580443524429  0.0375287686220318  0.9115160880442090
  0.1162624474666742  0.6251426759803280  0.2325238933533313
  0.2239883566347842  0.8763701137176696  0.4479767141292399
  0.1932154442359817  0.1116753860437001  0.3864308886315797
  0.0442419572521899  0.1260136810863841  0.0884839119369190
  0.6652297486885459  0.6475679411018262  0.3304594965673786
  0.1359084333521920  0.2707470656083046  0.2718168667709122
  0.7686055493085604  0.0044617954132420  0.5372120987180509
  0.9562433098144396  0.5913867055964062  0.9124866194657599
  0.3347702522422296  0.3171094445184650  0.6695405034471307
  0.8640915662364606  0.9989291986508277  0.7281831331945412
  0.0437566902316391  0.6789010860224138  0.0875133805294297
  0.6016266264184154  0.9091098522645069  0.2032522522700759
  0.3983733741033433  0.7058576000085139  0.7967477477027813
  0.2313944504867607  0.4672496963596373  0.4627879013058802
  0.4999999993769677  0.3290528423961874  0.9999999999889440

  0.00000000E+00  0.00000000E+00  0.00000000E+00
  0.00000000E+00  0.00000000E+00  0.00000000E+00
  0.00000000E+00  0.00000000E+00  0.00000000E+00
  0.00000000E+00  0.00000000E+00  0.00000000E+00
  0.00000000E+00  0.00000000E+00  0.00000000E+00
  0.00000000E+00  0.00000000E+00  0.00000000E+00
  0.00000000E+00  0.00000000E+00  0.00000000E+00
  0.00000000E+00  0.00000000E+00  0.00000000E+00
  0.00000000E+00  0.00000000E+00  0.00000000E+00
  0.00000000E+00  0.00000000E+00  0.00000000E+00
  0.00000000E+00  0.00000000E+00  0.00000000E+00
  0.00000000E+00  0.00000000E+00  0.00000000E+00
  0.00000000E+00  0.00000000E+00  0.00000000E+00
  0.00000000E+00  0.00000000E+00  0.00000000E+00
  0.00000000E+00  0.00000000E+00  0.00000000E+00
  0.00000000E+00  0.00000000E+00  0.00000000E+00
  0.00000000E+00  0.00000000E+00  0.00000000E+00
  0.00000000E+00  0.00000000E+00  0.00000000E+00
  0.00000000E+00  0.00000000E+00  0.00000000E+00
  0.00000000E+00  0.00000000E+00  0.00000000E+00
  0.00000000E+00  0.00000000E+00  0.00000000E+00
  0.00000000E+00  0.00000000E+00  0.00000000E+00
  0.00000000E+00  0.00000000E+00  0.00000000E+00
  0.00000000E+00  0.00000000E+00  0.00000000E+00
  0.00000000E+00  0.00000000E+00  0.00000000E+00
  0.00000000E+00  0.00000000E+00  0.00000000E+00
  0.00000000E+00  0.00000000E+00  0.00000000E+00
  0.00000000E+00  0.00000000E+00  0.00000000E+00
  0.00000000E+00  0.00000000E+00  0.00000000E+00
  0.00000000E+00  0.00000000E+00  0.00000000E+00
  0.00000000E+00  0.00000000E+00  0.00000000E+00
  0.00000000E+00  0.00000000E+00  0.00000000E+00
  0.00000000E+00  0.00000000E+00  0.00000000E+00
  0.00000000E+00  0.00000000E+00  0.00000000E+00
  0.00000000E+00  0.00000000E+00  0.00000000E+00
  0.00000000E+00  0.00000000E+00  0.00000000E+00
  0.00000000E+00  0.00000000E+00  0.00000000E+00
  0.00000000E+00  0.00000000E+00  0.00000000E+00
  0.00000000E+00  0.00000000E+00  0.00000000E+00
