Mg4 Tl8 I32                             
   1.0000000000000000     
    -7.0316393493029263    7.0316393493029263   12.0405287703706723
     7.0316393493029263   -7.0316393493029263   12.0405287703706723
     7.0316393493029263    7.0316393493029263  -12.0405287703706723
   Mg   Tl   I 
     4     8    32
Direct
  0.0000000000000000  0.0000000000000000  0.0000000000000000
  0.7500000000000000  0.2500000000000000  0.5000000000000000
  0.2500000000000000  0.7500000000000000  0.5000000000000000
  0.5000000000000000  0.5000000000000000  0.0000000000000000
  0.5574851333156943  0.8750000000000000  0.1824851333156943
  0.1250000000000000  0.8074851333156943  0.1824851333156943
  0.1250000000000000  0.3074851333156943  0.6824851333156943
  0.6925148666843057  0.3750000000000000  0.8175148666843057
  0.6250000000000000  0.9425148666843057  0.8175148666843057
  0.0574851333156943  0.8750000000000000  0.6824851333156943
  0.1925148666843057  0.3750000000000000  0.3175148666843057
  0.6250000000000000  0.4425148666843057  0.3175148666843057
  0.6126850582583216  0.2237773723046672  0.2572339775355417
  0.1054510807227729  0.8626850582583216  0.8889076859536615
  0.7834566052308887  0.8945489192772271  0.7572339775355559
  0.3123731254213595  0.2380948177836899  0.2397915745111874
  0.8123731254213524  0.5725815509101579  0.0742793076376671
  0.8225815509101579  0.5623731254213524  0.5742793076376671
  0.1373149417416784  0.0262226276953328  0.2427660224644512
  0.9737773723046601  0.2165433947691113  0.1110923140463385
  0.4665433947691113  0.7237773723046601  0.6110923140463385
  0.2619051822163101  0.1876268745786405  0.7602084254888126
  0.9983022432724979  0.0725815509101579  0.7602084254888126
  0.9376268745786476  0.6774184490898421  0.4257206923623329
  0.9274184490898421  0.6876268745786476  0.9257206923623329
  0.1445489192772271  0.5334566052308887  0.2572339775355417
  0.2834566052308887  0.5262226276953399  0.8889076859536615
  0.6054510807227729  0.7165433947691113  0.2427660224644512
  0.7516977567275021  0.1774184490898421  0.7397915745111874
  0.2762226276953328  0.8873149417416784  0.7427660224644441
  0.4737773723046672  0.3626850582583216  0.7572339775355559
  0.9665433947691113  0.3554510807227729  0.7427660224644441
  0.3225815509101579  0.7483022432724979  0.2602084254888126
  0.4274184490898421  0.5016977567275021  0.2397915745111874
  0.6445489192772271  0.3873149417416784  0.6110923140463385
  0.6373149417416784  0.3945489192772271  0.1110923140463385
  0.2516977567275021  0.5119051822163101  0.5742793076376671
  0.4376268745786405  0.0119051822163101  0.2602084254888126
  0.1126850582583216  0.8554510807227729  0.3889076859536615
  0.4880948177836899  0.0623731254213595  0.7397915745111874
  0.4983022432724979  0.7380948177836899  0.9257206923623329
  0.9880948177836899  0.2483022432724979  0.4257206923623329
  0.7762226276953399  0.0334566052308887  0.3889076859536615
  0.7619051822163101  0.0016977567275021  0.0742793076376671

  0.00000000E+00  0.00000000E+00  0.00000000E+00
  0.00000000E+00  0.00000000E+00  0.00000000E+00
  0.00000000E+00  0.00000000E+00  0.00000000E+00
  0.00000000E+00  0.00000000E+00  0.00000000E+00
  0.00000000E+00  0.00000000E+00  0.00000000E+00
  0.00000000E+00  0.00000000E+00  0.00000000E+00
  0.00000000E+00  0.00000000E+00  0.00000000E+00
  0.00000000E+00  0.00000000E+00  0.00000000E+00
  0.00000000E+00  0.00000000E+00  0.00000000E+00
  0.00000000E+00  0.00000000E+00  0.00000000E+00
  0.00000000E+00  0.00000000E+00  0.00000000E+00
  0.00000000E+00  0.00000000E+00  0.00000000E+00
  0.00000000E+00  0.00000000E+00  0.00000000E+00
  0.00000000E+00  0.00000000E+00  0.00000000E+00
  0.00000000E+00  0.00000000E+00  0.00000000E+00
  0.00000000E+00  0.00000000E+00  0.00000000E+00
  0.00000000E+00  0.00000000E+00  0.00000000E+00
  0.00000000E+00  0.00000000E+00  0.00000000E+00
  0.00000000E+00  0.00000000E+00  0.00000000E+00
  0.00000000E+00  0.00000000E+00  0.00000000E+00
  0.00000000E+00  0.00000000E+00  0.00000000E+00
  0.00000000E+00  0.00000000E+00  0.00000000E+00
  0.00000000E+00  0.00000000E+00  0.00000000E+00
  0.00000000E+00  0.00000000E+00  0.00000000E+00
  0.00000000E+00  0.00000000E+00  0.00000000E+00
  0.00000000E+00  0.00000000E+00  0.00000000E+00
  0.00000000E+00  0.00000000E+00  0.00000000E+00
  0.00000000E+00  0.00000000E+00  0.00000000E+00
  0.00000000E+00  0.00000000E+00  0.00000000E+00
  0.00000000E+00  0.00000000E+00  0.00000000E+00
  0.00000000E+00  0.00000000E+00  0.00000000E+00
  0.00000000E+00  0.00000000E+00  0.00000000E+00
  0.00000000E+00  0.00000000E+00  0.00000000E+00
  0.00000000E+00  0.00000000E+00  0.00000000E+00
  0.00000000E+00  0.00000000E+00  0.00000000E+00
  0.00000000E+00  0.00000000E+00  0.00000000E+00
  0.00000000E+00  0.00000000E+00  0.00000000E+00
  0.00000000E+00  0.00000000E+00  0.00000000E+00
  0.00000000E+00  0.00000000E+00  0.00000000E+00
  0.00000000E+00  0.00000000E+00  0.00000000E+00
  0.00000000E+00  0.00000000E+00  0.00000000E+00
  0.00000000E+00  0.00000000E+00  0.00000000E+00
  0.00000000E+00  0.00000000E+00  0.00000000E+00
  0.00000000E+00  0.00000000E+00  0.00000000E+00
