Mg7 Al10                                
   1.00000000000000     
     2.6097609636849959   -4.6244987500059036   -0.6410267836284189
    -5.2218280914616413   -0.0027127281575175    0.8529887454707071
     4.5990238784904589   -2.1873601325916265  -14.8036827373343591
   Al   Mg
    10     7
Direct
  0.3740457290550125  0.4680874346628769  0.0920536042631568
  0.9355276074362919  0.4755832161320228  0.2625843704677280
  0.4415824221923472  0.9802747712113984  0.2621700194851186
  0.4397576073855021  0.4764513323463859  0.2631020812398503
  0.1612024070045308  0.8159800019080663  0.4294605215498422
  0.8341260087428495  0.1851347919517963  0.5668390614822130
  0.5578693373202839  0.5255192424589694  0.7341226002891119
  0.5572253286686504  0.0228866669315408  0.7354820722260840
  0.0621249808820110  0.5250164684994161  0.7342976747893317
  0.6212057894455896  0.5337030225348798  0.9069951083855443
  0.7282399863346996  0.1198917851490791  0.0682566295231624
  0.0117881877834947  0.8551907903475637  0.1425127339534740
  0.8712278060115821  0.0859944244521884  0.3709809914282829
  0.5147750236481059  0.4908704044498222  0.5240784075021168
  0.1316689809534566  0.9097005340136946  0.6246835437823108
  0.9868579984364700  0.1469390707248905  0.8540077914804556
  0.2711747986991142  0.8831760422254149  0.9285727881522021
 
  0.00000000E+00  0.00000000E+00  0.00000000E+00
  0.00000000E+00  0.00000000E+00  0.00000000E+00
  0.00000000E+00  0.00000000E+00  0.00000000E+00
  0.00000000E+00  0.00000000E+00  0.00000000E+00
  0.00000000E+00  0.00000000E+00  0.00000000E+00
  0.00000000E+00  0.00000000E+00  0.00000000E+00
  0.00000000E+00  0.00000000E+00  0.00000000E+00
  0.00000000E+00  0.00000000E+00  0.00000000E+00
  0.00000000E+00  0.00000000E+00  0.00000000E+00
  0.00000000E+00  0.00000000E+00  0.00000000E+00
  0.00000000E+00  0.00000000E+00  0.00000000E+00
  0.00000000E+00  0.00000000E+00  0.00000000E+00
  0.00000000E+00  0.00000000E+00  0.00000000E+00
  0.00000000E+00  0.00000000E+00  0.00000000E+00
  0.00000000E+00  0.00000000E+00  0.00000000E+00
  0.00000000E+00  0.00000000E+00  0.00000000E+00
  0.00000000E+00  0.00000000E+00  0.00000000E+00
