Ca9 Ga4                                 
   1.00000000000000     
     0.0057990464838921   -0.0029563932355119    5.1912913935065070
    -6.1666966038175319    6.1602894196180831    2.5846557247244504
    -6.1664075119917703   -6.1541969349997254   -2.5984600356158318
   Ca   Ga
     9     4
Direct
  0.5000124751737118  0.9999824834470346  0.9999944954909594
  0.8885414368364053  0.3000164685476392  0.0776875514513975
  0.3885549738371097  0.4955799364147211  0.2721632741106745
  0.1875515442475333  0.9226475060077419  0.3003011988265243
  0.8830772475520448  0.7278987063849698  0.4954373796884042
  0.1169385916898449  0.2720475936604174  0.5045249698182843
  0.8124563108743530  0.0773067046423535  0.6996676982597663
  0.6114521553716514  0.5043719487349847  0.7277741832480515
  0.1114786668809842  0.6999396839115946  0.9222662737972627
  0.7396572468767886  0.6675712110081591  0.1447552052998873
  0.5941411566594823  0.1448841727560790  0.3315097627208274
  0.4058254585644008  0.8550806905324251  0.6684503517923233
  0.2603127354356829  0.3323728939518773  0.8551676554956487
 
  0.00000000E+00  0.00000000E+00  0.00000000E+00
  0.00000000E+00  0.00000000E+00  0.00000000E+00
  0.00000000E+00  0.00000000E+00  0.00000000E+00
  0.00000000E+00  0.00000000E+00  0.00000000E+00
  0.00000000E+00  0.00000000E+00  0.00000000E+00
  0.00000000E+00  0.00000000E+00  0.00000000E+00
  0.00000000E+00  0.00000000E+00  0.00000000E+00
  0.00000000E+00  0.00000000E+00  0.00000000E+00
  0.00000000E+00  0.00000000E+00  0.00000000E+00
  0.00000000E+00  0.00000000E+00  0.00000000E+00
  0.00000000E+00  0.00000000E+00  0.00000000E+00
  0.00000000E+00  0.00000000E+00  0.00000000E+00
  0.00000000E+00  0.00000000E+00  0.00000000E+00
