Ca3I                                    
   1.00000000000000     
    -2.5212799061484312    2.5212799061484312    6.1138620159618471
     2.5212799061484312   -2.5212799061484312    6.1138620159618471
     2.5212799061484312    2.5212799061484312   -6.1138620159618471
   Ca   I 
     3     1
Direct
  0.5000000000000000  0.5000000000000000  0.0000000000000000
  0.7500000000000000  0.2500000000000000  0.5000000000000000
  0.2500000000000000  0.7500000000000000  0.5000000000000000
  0.0000000000000000  0.0000000000000000  0.0000000000000000
 
  0.00000000E+00  0.00000000E+00  0.00000000E+00
  0.00000000E+00  0.00000000E+00  0.00000000E+00
  0.00000000E+00  0.00000000E+00  0.00000000E+00
  0.00000000E+00  0.00000000E+00  0.00000000E+00
