Be18 Al11                               
   1.00000000000000     
     5.0240701672945445   -3.0115223031883316    2.3796078355185810
     0.5289996168901774    7.2277241579098161    2.6644726384925965
    -6.1600705557331388   -4.4548177084045326    3.5323147221384565
   Al   Be
    11    18
Direct
  0.7145524889652464  0.7955617490891171  0.0165313663503213
  0.3213297228671195  0.3425518680397772  0.2325096589055349
  0.8834738702334306  0.1775173404280181  0.3096840232469233
  0.1257148904619712  0.8610863071512753  0.1664636028144955
  0.6260754526034162  0.3628654649039831  0.5451551702238859
  0.2558387048161137  0.5476055939215314  0.5639994124999745
  0.7601067944127635  0.0137983402091990  0.5340719464384804
  0.0198983179346328  0.7668062855914073  0.4521537905691915
  0.9758484220456083  0.7392006190743601  0.7585900461134756
  0.5713937756498098  0.9275419797992583  0.7831071442202173
  0.1847779735584609  0.1289817670418003  0.7982448857413473
  0.3574087080793618  0.0339274350855732  0.0298216454425813
  0.5941512252838521  0.3004180756816410  0.0068587344250659
  0.9905224579016831  0.0665114801838129  0.0100784636381732
  0.8242400040214974  0.5048622718142042  0.9180415750135467
  0.8829399599246983  0.2418707502808743  0.8828682722232131
  0.2077391343297634  0.5240630802745727  0.0344686885900884
  0.6116660096943107  0.6180871832910526  0.2117594733749755
  0.4987336693706723  0.8749447936943184  0.2190700479117282
  0.9771480015446201  0.4223510735073148  0.1746197419895736
  0.2129033183152131  0.2109988265117906  0.5445566923281788
  0.3269679432405184  0.6852921827238845  0.3303901199816224
  0.7158651720950573  0.4153417171528275  0.3002883549484423
  0.3721070005960883  0.9968393099605919  0.4576469365542408
  0.0570071015173568  0.3995808517897927  0.7410604792915194
  0.6309584609774177  0.6567426978898609  0.4970906800122634
  0.5443107062180772  0.2095067595506492  0.7264930995201127
  0.3234557231656296  0.7174740181468735  0.9035329176875635
  0.4330669901756039  0.4577071772106507  0.8508430299432774
 
  0.00000000E+00  0.00000000E+00  0.00000000E+00
  0.00000000E+00  0.00000000E+00  0.00000000E+00
  0.00000000E+00  0.00000000E+00  0.00000000E+00
  0.00000000E+00  0.00000000E+00  0.00000000E+00
  0.00000000E+00  0.00000000E+00  0.00000000E+00
  0.00000000E+00  0.00000000E+00  0.00000000E+00
  0.00000000E+00  0.00000000E+00  0.00000000E+00
  0.00000000E+00  0.00000000E+00  0.00000000E+00
  0.00000000E+00  0.00000000E+00  0.00000000E+00
  0.00000000E+00  0.00000000E+00  0.00000000E+00
  0.00000000E+00  0.00000000E+00  0.00000000E+00
  0.00000000E+00  0.00000000E+00  0.00000000E+00
  0.00000000E+00  0.00000000E+00  0.00000000E+00
  0.00000000E+00  0.00000000E+00  0.00000000E+00
  0.00000000E+00  0.00000000E+00  0.00000000E+00
  0.00000000E+00  0.00000000E+00  0.00000000E+00
  0.00000000E+00  0.00000000E+00  0.00000000E+00
  0.00000000E+00  0.00000000E+00  0.00000000E+00
  0.00000000E+00  0.00000000E+00  0.00000000E+00
  0.00000000E+00  0.00000000E+00  0.00000000E+00
  0.00000000E+00  0.00000000E+00  0.00000000E+00
  0.00000000E+00  0.00000000E+00  0.00000000E+00
  0.00000000E+00  0.00000000E+00  0.00000000E+00
  0.00000000E+00  0.00000000E+00  0.00000000E+00
  0.00000000E+00  0.00000000E+00  0.00000000E+00
  0.00000000E+00  0.00000000E+00  0.00000000E+00
  0.00000000E+00  0.00000000E+00  0.00000000E+00
  0.00000000E+00  0.00000000E+00  0.00000000E+00
  0.00000000E+00  0.00000000E+00  0.00000000E+00
