ADDGRID = True
ALGO = Normal
AMIX = 0.2
BMIX = 0.001
EDIFF = 0.00001
EDIFFG = -0.01
ENCUT = 800
IBRION = 2
ISIF = 3
ISMEAR = 0
ISPIN = 1
LASPH = True
LCHARG = False
LORBIT = 10
LREAL = .FALSE.
LWAVE = False
METAGGA = R2SCAN
NELM = 50
NELMDL = -8
NELMIN = 4
NSW = 500
NWRITE = 2
POTIM = 0.5
PREC = Normal
SIGMA = 0.01
