Ba2 Al2 Cl10                            
   1.00000000000000     
     6.7438664240881465    0.0749831140591630    2.4879363829133361
     1.5510257792293494    6.5635099545825586    2.4879367546156743
     0.0179480985505407    0.0143665323578957    9.8631326447978331
   Ba   Al   Cl
     2     2    10
Direct
  0.4393983816064448  0.5606016169276344  0.2500000010257324
  0.5606016183935552  0.4393983830723656  0.7499999989742676
  0.0000000000000000  0.0000000000000000  0.5000000000000000
  0.0000000000000000  0.0000000000000000  0.0000000000000000
  0.8079802898791968  0.7686085951507522  0.6106551299920184
  0.2313914069360195  0.1920187079989546  0.8893448700168989
  0.1920187101208057  0.2313914048492478  0.3893458700079862
  0.7686085930639805  0.8079802920010479  0.1106551299831011
  0.9386271149921512  0.0613728849935526  0.7500000000294875
  0.0613728850078488  0.9386271150064474  0.2499999999705125
  0.7383455572225657  0.2950950095789224  0.0281987101253236
  0.7049049897528974  0.2616544408091954  0.4718012919502712
  0.2616544427774414  0.7049049904210776  0.9718012898746764
  0.2950950102471026  0.7383455591908046  0.5281987080497359
 
  0.00000000E+00  0.00000000E+00  0.00000000E+00
  0.00000000E+00  0.00000000E+00  0.00000000E+00
  0.00000000E+00  0.00000000E+00  0.00000000E+00
  0.00000000E+00  0.00000000E+00  0.00000000E+00
  0.00000000E+00  0.00000000E+00  0.00000000E+00
  0.00000000E+00  0.00000000E+00  0.00000000E+00
  0.00000000E+00  0.00000000E+00  0.00000000E+00
  0.00000000E+00  0.00000000E+00  0.00000000E+00
  0.00000000E+00  0.00000000E+00  0.00000000E+00
  0.00000000E+00  0.00000000E+00  0.00000000E+00
  0.00000000E+00  0.00000000E+00  0.00000000E+00
  0.00000000E+00  0.00000000E+00  0.00000000E+00
  0.00000000E+00  0.00000000E+00  0.00000000E+00
  0.00000000E+00  0.00000000E+00  0.00000000E+00
