Ba4                                     
   1.00000000000000     
    -3.9365670056814275   -4.2625874155397874    0.0000000000000000
    -3.9365670056814275    4.2625874155397883    0.0000000000000000
     0.0000000000000000    0.0000000000000000   -7.4443929288017543
   Ba
     4
Direct
  0.3757206260117272  0.1242793739882728  0.2500000000000000
  0.6242793739882728  0.8757206260117272  0.7500000000000000
  0.8756045896901838  0.6243954103098162  0.2500000000000000
  0.1243954103098162  0.3756045896901838  0.7500000000000000
 
  0.00000000E+00  0.00000000E+00  0.00000000E+00
  0.00000000E+00  0.00000000E+00  0.00000000E+00
  0.00000000E+00  0.00000000E+00  0.00000000E+00
  0.00000000E+00  0.00000000E+00  0.00000000E+00
