Mg4 Al10 Cl2                            
   1.00000000000000     
     7.7755842539383222    0.2172572268512470   -0.6496014962800564
     0.1137557653199222    7.6929530544050460   -1.6826397802544539
     3.5539779452048750    2.8290418358479537    4.5909571266107205
   Cl   Mg   Al
     2     4    10
Direct
  0.8714226638302591  0.6452704041673769  0.4888068605207962
  0.1910934886191455  0.3547072990809497  0.3235547418128277
  0.3783509050209020  0.2419550965616466  0.7408763067204021
  0.0222997816236372  0.4537869049647085  0.7069233744575243
  0.0401769844650559  0.5460641105299118  0.1054122324943663
  0.6841500685742261  0.7580438147511543  0.0717075358514734
  0.9544586363239560  0.1025717966419748  0.0679795454347030
  0.5313532166796335  0.5000291753609929  0.9060589387787772
  0.5312544221542623  0.0000392987781765  0.4063150770748223
  0.8124122005544763  0.0215367818449295  0.5631443821543982
  0.6802661029095276  0.3632382455784722  0.2219499587332763
  0.2501178625348217  0.9783599842770059  0.2494803756752475
  0.6506336973865672  0.1702746782345201  0.9330641158788353
  0.3820896353587386  0.6368475063738188  0.5905364300772931
  0.1079858910221034  0.8975266870892540  0.7446434079908926
  0.4118344429426912  0.8296482157651468  0.8795467163443647
 
  0.00000000E+00  0.00000000E+00  0.00000000E+00
  0.00000000E+00  0.00000000E+00  0.00000000E+00
  0.00000000E+00  0.00000000E+00  0.00000000E+00
  0.00000000E+00  0.00000000E+00  0.00000000E+00
  0.00000000E+00  0.00000000E+00  0.00000000E+00
  0.00000000E+00  0.00000000E+00  0.00000000E+00
  0.00000000E+00  0.00000000E+00  0.00000000E+00
  0.00000000E+00  0.00000000E+00  0.00000000E+00
  0.00000000E+00  0.00000000E+00  0.00000000E+00
  0.00000000E+00  0.00000000E+00  0.00000000E+00
  0.00000000E+00  0.00000000E+00  0.00000000E+00
  0.00000000E+00  0.00000000E+00  0.00000000E+00
  0.00000000E+00  0.00000000E+00  0.00000000E+00
  0.00000000E+00  0.00000000E+00  0.00000000E+00
  0.00000000E+00  0.00000000E+00  0.00000000E+00
  0.00000000E+00  0.00000000E+00  0.00000000E+00
