Mg4 Ga4 F20                             
   1.0000000000000000     
     0.0000000000000000    5.3645170274960492   -0.7002240378130175
     8.7514688888596250    0.0000000000000000    0.0000000000000000
     0.0000000000000000    0.7843838278254694   -6.7343416103380314
   Mg   Ga   F 
     4     4    20
Direct
  0.4278812791540716  0.3781416063506100  0.3834029570233497
  0.5721187208459284  0.8781416063506100  0.6165970429766503
  0.8764796981240295  0.0778297971254318  0.1345811122575000
  0.1235203018759634  0.5778297971254318  0.8654188877425071
  0.5070204196495922  0.7444460648371702  0.1179704572312659
  0.4929795803504149  0.2444460648371702  0.8820295427687270
  0.9336043447975797  0.6122068515250234  0.3983612818372819
  0.0663956552024203  0.1122068515250234  0.6016387181627181
  0.2972307117625590  0.9564476430293638  0.5090422480095569
  0.1657510605782235  0.5288517626163909  0.5604183576451547
  0.8342489394217836  0.0288517626163909  0.4395816423548382
  0.8364111579946183  0.7102699095771428  0.9685649248632231
  0.0046724115421171  0.5050041379625654  0.1521254512190211
  0.5808629979454736  0.9474239338804651  0.1510662487318726
  0.8486365627007117  0.2724814103239837  0.7568717284783588
  0.6185071928015304  0.7313064769274646  0.3781710055279319
  0.9953275884578829  0.0050041379625654  0.8478745487809789
  0.8762941277255081  0.7519140212231434  0.6138107886543693
  0.4191370020545335  0.4474239338804651  0.8489337512681274
  0.7027692882374410  0.4564476430293709  0.4909577519904431
  0.5392602321225581  0.0363687011640792  0.8198232170817974
  0.6161340440596135  0.2449066634571651  0.1390550199339984
  0.1237058722744919  0.2519140212231505  0.3861892113456307
  0.1513634372992883  0.7724814103239837  0.2431282715216412
  0.1635888420053746  0.2102699095771285  0.0314350751367627
  0.3838659559403865  0.7449066634571651  0.8609449800659945
  0.3814928071984625  0.2313064769274646  0.6218289944720681
  0.4607397678774419  0.5363687011640792  0.1801767829182026

  0.00000000E+00  0.00000000E+00  0.00000000E+00
  0.00000000E+00  0.00000000E+00  0.00000000E+00
  0.00000000E+00  0.00000000E+00  0.00000000E+00
  0.00000000E+00  0.00000000E+00  0.00000000E+00
  0.00000000E+00  0.00000000E+00  0.00000000E+00
  0.00000000E+00  0.00000000E+00  0.00000000E+00
  0.00000000E+00  0.00000000E+00  0.00000000E+00
  0.00000000E+00  0.00000000E+00  0.00000000E+00
  0.00000000E+00  0.00000000E+00  0.00000000E+00
  0.00000000E+00  0.00000000E+00  0.00000000E+00
  0.00000000E+00  0.00000000E+00  0.00000000E+00
  0.00000000E+00  0.00000000E+00  0.00000000E+00
  0.00000000E+00  0.00000000E+00  0.00000000E+00
  0.00000000E+00  0.00000000E+00  0.00000000E+00
  0.00000000E+00  0.00000000E+00  0.00000000E+00
  0.00000000E+00  0.00000000E+00  0.00000000E+00
  0.00000000E+00  0.00000000E+00  0.00000000E+00
  0.00000000E+00  0.00000000E+00  0.00000000E+00
  0.00000000E+00  0.00000000E+00  0.00000000E+00
  0.00000000E+00  0.00000000E+00  0.00000000E+00
  0.00000000E+00  0.00000000E+00  0.00000000E+00
  0.00000000E+00  0.00000000E+00  0.00000000E+00
  0.00000000E+00  0.00000000E+00  0.00000000E+00
  0.00000000E+00  0.00000000E+00  0.00000000E+00
  0.00000000E+00  0.00000000E+00  0.00000000E+00
  0.00000000E+00  0.00000000E+00  0.00000000E+00
  0.00000000E+00  0.00000000E+00  0.00000000E+00
  0.00000000E+00  0.00000000E+00  0.00000000E+00
