Sr18 B11                                
   1.00000000000000     
     9.1705609503540266    8.1479711937141772   -1.5368029861448327
    -9.1705609503540266    8.1479711937141772   -1.5368029861448327
     0.0000000000000000    5.8358650634165325    5.2572178772032112
   Sr   B 
    18    11
Direct
  0.8858477479550686  0.8858477479550686  0.3215507773825763
  0.1904761111863778  0.5850030313757557  0.0018108596032107
  0.9665639449463299  0.2345510268425599  0.8943082207874156
  0.2345510268425599  0.9665639449463299  0.8943082207874156
  0.5850030313757557  0.1904761111863778  0.0018108596032107
  0.3028595165132373  0.3028595165132373  0.8126830793433371
  0.9201399617076760  0.9201399617076760  0.7833000564326298
  0.6013720567381924  0.9203264478306039  0.8625148854108744
  0.9203264478306039  0.6013720567381924  0.8625148854108744
  0.2370128280832162  0.2370128280832162  0.3652545330203338
  0.4963631351054758  0.8828668176068390  0.4937335308975790
  0.8828668176068390  0.4963631351054758  0.4937335308975790
  0.9242250919433630  0.2159626925376656  0.4031630011737519
  0.2159626925376656  0.9242250919433630  0.4031630011737519
  0.6422434901050948  0.6422434901050948  0.3278878976821105
  0.2329809635580133  0.5992565217743575  0.4210871695603799
  0.5992565217743575  0.2329809635580133  0.4210871695603799
  0.5403676108440152  0.5403676108440152  0.9601911123871290
  0.7128101110147327  0.9178106410186402  0.1273776429840296
  0.9178106410186402  0.7128101110147327  0.1273776429840296
  0.7669395830065611  0.0593070758305601  0.9352887000045911
  0.0593070758305601  0.7669395830065611  0.9352887000045911
  0.0915291533542373  0.3954280209087742  0.4341924959271779
  0.3954280209087742  0.0915291533542373  0.4341924959271779
  0.7307763092564201  0.0601335620105701  0.3662443016138539
  0.0601335620105701  0.7307763092564201  0.3662443016138539
  0.7397339486060375  0.0431503194473706  0.1724823902313091
  0.0431503194473706  0.7397339486060375  0.1724823902313091
  0.1039622788921974  0.1039622788921974  0.2047271473635774
 
  0.00000000E+00  0.00000000E+00  0.00000000E+00
  0.00000000E+00  0.00000000E+00  0.00000000E+00
  0.00000000E+00  0.00000000E+00  0.00000000E+00
  0.00000000E+00  0.00000000E+00  0.00000000E+00
  0.00000000E+00  0.00000000E+00  0.00000000E+00
  0.00000000E+00  0.00000000E+00  0.00000000E+00
  0.00000000E+00  0.00000000E+00  0.00000000E+00
  0.00000000E+00  0.00000000E+00  0.00000000E+00
  0.00000000E+00  0.00000000E+00  0.00000000E+00
  0.00000000E+00  0.00000000E+00  0.00000000E+00
  0.00000000E+00  0.00000000E+00  0.00000000E+00
  0.00000000E+00  0.00000000E+00  0.00000000E+00
  0.00000000E+00  0.00000000E+00  0.00000000E+00
  0.00000000E+00  0.00000000E+00  0.00000000E+00
  0.00000000E+00  0.00000000E+00  0.00000000E+00
  0.00000000E+00  0.00000000E+00  0.00000000E+00
  0.00000000E+00  0.00000000E+00  0.00000000E+00
  0.00000000E+00  0.00000000E+00  0.00000000E+00
  0.00000000E+00  0.00000000E+00  0.00000000E+00
  0.00000000E+00  0.00000000E+00  0.00000000E+00
  0.00000000E+00  0.00000000E+00  0.00000000E+00
  0.00000000E+00  0.00000000E+00  0.00000000E+00
  0.00000000E+00  0.00000000E+00  0.00000000E+00
  0.00000000E+00  0.00000000E+00  0.00000000E+00
  0.00000000E+00  0.00000000E+00  0.00000000E+00
  0.00000000E+00  0.00000000E+00  0.00000000E+00
  0.00000000E+00  0.00000000E+00  0.00000000E+00
  0.00000000E+00  0.00000000E+00  0.00000000E+00
  0.00000000E+00  0.00000000E+00  0.00000000E+00
