Be2 Tl2 Cl10                            
   1.00000000000000     
     5.7794586618645489    0.2591559610623491    3.3444091799623439
     1.5193792870132010    5.5821844481913283    3.3444101351755218
    -0.5539469067858688   -0.4433274338190227   14.5547455493754168
   Be   Tl   Cl
     2     2    10
Direct
  0.3804816685473824  0.6195183312463683  0.2500000000867857
  0.6195183314526176  0.3804816687536317  0.7499999999132214
  0.0000000000000000  0.0000000000000000  0.5000000000000000
  0.0000000000000000  0.0000000000000000  0.0000000000000000
  0.6406763235079111  0.7035448204483359  0.6648632778808476
  0.2964552006213665  0.3593226553001898  0.8351367197634474
  0.3593226764920914  0.2964551795516641  0.3351377221191569
  0.7035447993786335  0.6406763446998198  0.1648632802365526
  0.8996850833646732  0.1003149147012508  0.7500000041187178
  0.1003149166353268  0.8996850852987421  0.2499999958812822
  0.5651271980584696  0.5430337801719531  0.0396029856099602
  0.4569662038417093  0.4348727864749193  0.4603970354598843
  0.4348728019415304  0.4569662198280469  0.9603970143900398
  0.5430337961582907  0.5651272135250807  0.5396029645401157
 
  0.00000000E+00  0.00000000E+00  0.00000000E+00
  0.00000000E+00  0.00000000E+00  0.00000000E+00
  0.00000000E+00  0.00000000E+00  0.00000000E+00
  0.00000000E+00  0.00000000E+00  0.00000000E+00
  0.00000000E+00  0.00000000E+00  0.00000000E+00
  0.00000000E+00  0.00000000E+00  0.00000000E+00
  0.00000000E+00  0.00000000E+00  0.00000000E+00
  0.00000000E+00  0.00000000E+00  0.00000000E+00
  0.00000000E+00  0.00000000E+00  0.00000000E+00
  0.00000000E+00  0.00000000E+00  0.00000000E+00
  0.00000000E+00  0.00000000E+00  0.00000000E+00
  0.00000000E+00  0.00000000E+00  0.00000000E+00
  0.00000000E+00  0.00000000E+00  0.00000000E+00
  0.00000000E+00  0.00000000E+00  0.00000000E+00
