BeI2                                    
   1.00000000000000     
     6.9145555483411236   -0.0223546599134910   -0.0142290867051879
     0.0126483848761997    0.0130771434709498   -6.1297375727481507
    -3.4846029018183913    6.3441977800416485    3.0588310011784605
   Be   I 
     2     4
Direct
  0.9999415571103754  0.2497656308828411  0.9995882151407898
  0.0000413011365765  0.7502651736346380  0.0004272227086801
  0.9138827286896287  0.6048945594319761  0.2103522272234173
  0.2993358638910877  0.1031973686282015  0.2098346689069714
  0.7007099528391336  0.8967361647232863  0.7901696640676406
  0.0861885963331872  0.3951411026990499  0.7896280019525079
 
  0.00000000E+00  0.00000000E+00  0.00000000E+00
  0.00000000E+00  0.00000000E+00  0.00000000E+00
  0.00000000E+00  0.00000000E+00  0.00000000E+00
  0.00000000E+00  0.00000000E+00  0.00000000E+00
  0.00000000E+00  0.00000000E+00  0.00000000E+00
  0.00000000E+00  0.00000000E+00  0.00000000E+00
