Mg1 B3 I6                               
   1.00000000000000     
     9.1690127177420173   -0.1052423113456396   -0.5686007558719639
    -0.1052423113456399    9.1690127177420173   -0.5686007558719632
     3.9465429983984812    3.9465429983984812    5.8297097391393784
   I    Mg   B 
     6     1     3
Direct
  0.6537818929096701  0.3462181070903299  0.0000000000000000
  0.2334752846608055  0.2334752846608055  0.9144975897388576
  0.3462181070903299  0.6537818929096701  0.0000000000000000
  0.7665247153391945  0.7665247153391945  0.0855024102611424
  0.8536671370607891  0.8536671370607891  0.4833028689423244
  0.1463328629392180  0.1463328629392180  0.5166971310576756
  0.0000000000000000  0.0000000000000000  0.0000000000000000
  0.5000000000000000  0.5000000000000000  0.0000000000000000
  0.1134588223680950  0.8865411776319121  0.5000000000000000
  0.8865411776319121  0.1134588223680950  0.5000000000000000
 
  0.00000000E+00  0.00000000E+00  0.00000000E+00
  0.00000000E+00  0.00000000E+00  0.00000000E+00
  0.00000000E+00  0.00000000E+00  0.00000000E+00
  0.00000000E+00  0.00000000E+00  0.00000000E+00
  0.00000000E+00  0.00000000E+00  0.00000000E+00
  0.00000000E+00  0.00000000E+00  0.00000000E+00
  0.00000000E+00  0.00000000E+00  0.00000000E+00
  0.00000000E+00  0.00000000E+00  0.00000000E+00
  0.00000000E+00  0.00000000E+00  0.00000000E+00
  0.00000000E+00  0.00000000E+00  0.00000000E+00
