Ba2 B10                                 
   1.00000000000000     
     2.4915069878282581   -4.3180608806352998    0.0000000000000000
     2.4915069878282581    4.3180608806352998    0.0000000000000000
     0.0000000000000000    0.0000000000000000    5.9313636634964633
   Ba   B 
     2    10
Direct
  0.0000000000000000  0.0000000000000000  0.0000000000000000
  0.0000000000000000  0.0000000000000000  0.5000000000000000
  0.6668554741284325  0.3337643810243520  0.0000000000000000
  0.3331445258715675  0.6662356189756480  0.0000000000000000
  0.5000000000000000  0.0000000000000000  0.2502522183609130
  0.5000000000000000  0.5000000000000000  0.2500000000000000
  0.0000000000000000  0.5000000000000000  0.2497477816390870
  0.6662356189756480  0.3331445258715675  0.5000000000000000
  0.3337643810243520  0.6668554741284325  0.5000000000000000
  0.0000000000000000  0.5000000000000000  0.7502522183609130
  0.5000000000000000  0.5000000000000000  0.7500000000000000
  0.5000000000000000  0.0000000000000000  0.7497477816390870
 
  0.00000000E+00  0.00000000E+00  0.00000000E+00
  0.00000000E+00  0.00000000E+00  0.00000000E+00
  0.00000000E+00  0.00000000E+00  0.00000000E+00
  0.00000000E+00  0.00000000E+00  0.00000000E+00
  0.00000000E+00  0.00000000E+00  0.00000000E+00
  0.00000000E+00  0.00000000E+00  0.00000000E+00
  0.00000000E+00  0.00000000E+00  0.00000000E+00
  0.00000000E+00  0.00000000E+00  0.00000000E+00
  0.00000000E+00  0.00000000E+00  0.00000000E+00
  0.00000000E+00  0.00000000E+00  0.00000000E+00
  0.00000000E+00  0.00000000E+00  0.00000000E+00
  0.00000000E+00  0.00000000E+00  0.00000000E+00
