Be1 B2 F6                               
   1.00000000000000     
     2.3530076761732368    1.3612844114556477    4.8727141944975036
    -2.3530076761732364    1.3612844114556477    4.8727141944975045
     0.0000000000000002   -2.7134532705197660    4.8777739279406305
   Be   F    B 
     1     6     2
Direct
  0.0000000000000000  0.0000000000000000  0.0000000000000000
  0.7590618335390715  0.7590618335390715  0.2711168166642821
  0.7296635902424953  0.2412427208271382  0.2406038794379413
  0.2412427208271382  0.7296635902424953  0.2406038794379413
  0.2409381664609214  0.2409381664609214  0.7288831833357179
  0.7587572791728618  0.2703364097575047  0.7593961205620587
  0.2703364097575047  0.7587572791728618  0.7593961205620587
  0.4420848930873547  0.4420848930873547  0.4417173589778400
  0.5579151069126453  0.5579151069126453  0.5582826410221600
 
  0.00000000E+00  0.00000000E+00  0.00000000E+00
  0.00000000E+00  0.00000000E+00  0.00000000E+00
  0.00000000E+00  0.00000000E+00  0.00000000E+00
  0.00000000E+00  0.00000000E+00  0.00000000E+00
  0.00000000E+00  0.00000000E+00  0.00000000E+00
  0.00000000E+00  0.00000000E+00  0.00000000E+00
  0.00000000E+00  0.00000000E+00  0.00000000E+00
  0.00000000E+00  0.00000000E+00  0.00000000E+00
  0.00000000E+00  0.00000000E+00  0.00000000E+00
