Be4 Ga4 Cl20                            
   1.0000000000000000     
     0.0000000000000000    6.6031281592552373   -0.2229658236809004
    13.4075246701544319    0.0000000000000000    0.0000000000000000
     0.0000000000000000    0.0891328826367171  -10.2863931370899007
   Be   Ga   Cl
     4     4    20
Direct
  0.5227919821934250  0.5375769412413405  0.3713628367660533
  0.4772080178065750  0.0375769412413405  0.6286371632339467
  0.9624352068512820  0.1460333651172192  0.8845073359601656
  0.0375647931487180  0.6460333651172192  0.1154926640398344
  0.5421915104989736  0.7576751882558668  0.1318567965929489
  0.4578084895010335  0.2576751882558668  0.8681432034070511
  0.0190168264777384  0.6137706005414145  0.4850240615323003
  0.9809831735222616  0.1137706005414145  0.5149759384676997
  0.1968860227366349  0.9879080938997049  0.5514534468716406
  0.3182535749944861  0.5474058625397049  0.5404703544234764
  0.6817464250055139  0.0474058625396907  0.4595296455765165
  0.8517076103260948  0.7574407066635018  0.0300804485562907
  0.9351265195472251  0.5174750972871536  0.0971054019985687
  0.4386493008014867  0.9069703694461069  0.1618568549184332
  0.9230693821278280  0.2080300516600673  0.6968751667087076
  0.5751501045656937  0.6905653058179340  0.3340574522387314
  0.0648734804527749  0.0174750972871536  0.9028945980014313
  0.9089500400710193  0.7115087827621949  0.6358405232298026
  0.5613506991985133  0.4069703694461069  0.8381431450815668
  0.8031139772633580  0.4879080938997120  0.4485465531283594
  0.5725607164587387  0.9506322579870954  0.7536245303432167
  0.6707900154857853  0.1646063567806806  0.9822116508499334
  0.0910499599289807  0.2115087827621949  0.3641594767702045
  0.0769306178721720  0.7080300516600673  0.3031248332912924
  0.1482923896738981  0.2574407066634947  0.9699195514437022
  0.3292099845142076  0.6646063567806806  0.0177883491500666
  0.4248498954343063  0.1905653058179411  0.6659425477612686
  0.4274392835412613  0.4506322579870883  0.2463754696567904

  0.00000000E+00  0.00000000E+00  0.00000000E+00
  0.00000000E+00  0.00000000E+00  0.00000000E+00
  0.00000000E+00  0.00000000E+00  0.00000000E+00
  0.00000000E+00  0.00000000E+00  0.00000000E+00
  0.00000000E+00  0.00000000E+00  0.00000000E+00
  0.00000000E+00  0.00000000E+00  0.00000000E+00
  0.00000000E+00  0.00000000E+00  0.00000000E+00
  0.00000000E+00  0.00000000E+00  0.00000000E+00
  0.00000000E+00  0.00000000E+00  0.00000000E+00
  0.00000000E+00  0.00000000E+00  0.00000000E+00
  0.00000000E+00  0.00000000E+00  0.00000000E+00
  0.00000000E+00  0.00000000E+00  0.00000000E+00
  0.00000000E+00  0.00000000E+00  0.00000000E+00
  0.00000000E+00  0.00000000E+00  0.00000000E+00
  0.00000000E+00  0.00000000E+00  0.00000000E+00
  0.00000000E+00  0.00000000E+00  0.00000000E+00
  0.00000000E+00  0.00000000E+00  0.00000000E+00
  0.00000000E+00  0.00000000E+00  0.00000000E+00
  0.00000000E+00  0.00000000E+00  0.00000000E+00
  0.00000000E+00  0.00000000E+00  0.00000000E+00
  0.00000000E+00  0.00000000E+00  0.00000000E+00
  0.00000000E+00  0.00000000E+00  0.00000000E+00
  0.00000000E+00  0.00000000E+00  0.00000000E+00
  0.00000000E+00  0.00000000E+00  0.00000000E+00
  0.00000000E+00  0.00000000E+00  0.00000000E+00
  0.00000000E+00  0.00000000E+00  0.00000000E+00
  0.00000000E+00  0.00000000E+00  0.00000000E+00
  0.00000000E+00  0.00000000E+00  0.00000000E+00
