Ga1 Cl6                                 
   1.00000000000000     
     2.6956108951021931    2.7073696105481408    6.6518048997255681
    -2.6084232695854341    2.8914472231471811    6.8324205125217583
     0.5977179209814802   -4.6551430775122329    6.7128928463270121
   Cl   Ga
     6     1
Direct
  0.7900397851085899  0.3445141586741656  0.0595634900185757
  0.6699780773598576  0.0666283356672253  0.9259646414492551
  0.9812025144890129  0.1652489320676835  0.3456021414409420
  0.2573806557971352  0.9855139353226789  0.4823596464443867
  0.3831372919695113  0.7565140080585238  0.8225794221141669
  0.9795972877496695  0.7184697309317727  0.3217724370319104
  0.9390643875262512  0.9635108992779777  0.0425582215007481
 
  0.00000000E+00  0.00000000E+00  0.00000000E+00
  0.00000000E+00  0.00000000E+00  0.00000000E+00
  0.00000000E+00  0.00000000E+00  0.00000000E+00
  0.00000000E+00  0.00000000E+00  0.00000000E+00
  0.00000000E+00  0.00000000E+00  0.00000000E+00
  0.00000000E+00  0.00000000E+00  0.00000000E+00
  0.00000000E+00  0.00000000E+00  0.00000000E+00
