Ca4 In8 Cl16                            
   1.0000000000000000     
     9.5080544186368510   -0.4089143751930619   -0.1214670745826054
    -0.3671107683436678    7.5978334163349892   -0.3888064315550029
    -0.1666691943912887   -0.6533226448570812   14.1460170996929708
   Ca   Cl   In
     4    16     8
Direct
  0.6916177289841983  0.1494561889815813  0.0760396677698694
  0.1638832208811394  0.2144813849548015  0.4446683331321211
  0.8137380629971318  0.7091161734309495  0.5640953847927435
  0.3363278081993002  0.8524859562279943  0.9548332327351758
  0.1750529358581048  0.7339387459561024  0.0889840049959929
  0.4159554789598943  0.1829746230548608  0.0561420788117317
  0.7521396180601556  0.0092077270145268  0.2369229542293354
  0.7922281671812144  0.4831672548773511  0.1404159257817952
  0.3226156941801079  0.9840648783429913  0.3491430888205187
  0.2386010956301732  0.4753952901972056  0.3352323981838410
  0.9436269430430428  0.4042938263138041  0.5043049390149648
  0.6291333196283233  0.6248211644467361  0.4185496111737521
  0.3687533630432824  0.3293260702873866  0.5711510893981782
  0.0394045790757360  0.9250760001572900  0.5223390950610991
  0.7552247765499516  0.5494228976473465  0.7205618826456899
  0.6823886667978059  0.0047057219273938  0.6178906528085761
  0.2834019077783623  0.5372427176745447  0.8493945532226661
  0.2077644675540498  0.0344771934993915  0.8336728954926258
  0.6098660210286511  0.8072049842940316  0.9941448596004108
  0.7888042446096435  0.2223307477015055  0.9063531293101761
  0.1508676365928920  0.3178208647586445  0.9813220564965022
  0.5460172859914749  0.6895725776825472  0.2123769300997154
  0.0426015609674195  0.7251659730609177  0.2737566898724353
  0.6137267899830832  0.1935078193784676  0.4312905142794676
  0.3523911945940412  0.7214921816620148  0.5044569888498671
  0.9303344634366084  0.2380660989184378  0.6998433071976322
  0.4820779718566470  0.2738475355340171  0.7647099450975077
  0.8714549965375937  0.6069374020171594  0.9470037911256028

  0.00000000E+00  0.00000000E+00  0.00000000E+00
  0.00000000E+00  0.00000000E+00  0.00000000E+00
  0.00000000E+00  0.00000000E+00  0.00000000E+00
  0.00000000E+00  0.00000000E+00  0.00000000E+00
  0.00000000E+00  0.00000000E+00  0.00000000E+00
  0.00000000E+00  0.00000000E+00  0.00000000E+00
  0.00000000E+00  0.00000000E+00  0.00000000E+00
  0.00000000E+00  0.00000000E+00  0.00000000E+00
  0.00000000E+00  0.00000000E+00  0.00000000E+00
  0.00000000E+00  0.00000000E+00  0.00000000E+00
  0.00000000E+00  0.00000000E+00  0.00000000E+00
  0.00000000E+00  0.00000000E+00  0.00000000E+00
  0.00000000E+00  0.00000000E+00  0.00000000E+00
  0.00000000E+00  0.00000000E+00  0.00000000E+00
  0.00000000E+00  0.00000000E+00  0.00000000E+00
  0.00000000E+00  0.00000000E+00  0.00000000E+00
  0.00000000E+00  0.00000000E+00  0.00000000E+00
  0.00000000E+00  0.00000000E+00  0.00000000E+00
  0.00000000E+00  0.00000000E+00  0.00000000E+00
  0.00000000E+00  0.00000000E+00  0.00000000E+00
  0.00000000E+00  0.00000000E+00  0.00000000E+00
  0.00000000E+00  0.00000000E+00  0.00000000E+00
  0.00000000E+00  0.00000000E+00  0.00000000E+00
  0.00000000E+00  0.00000000E+00  0.00000000E+00
  0.00000000E+00  0.00000000E+00  0.00000000E+00
  0.00000000E+00  0.00000000E+00  0.00000000E+00
  0.00000000E+00  0.00000000E+00  0.00000000E+00
  0.00000000E+00  0.00000000E+00  0.00000000E+00
