Ca4 In4 F20                             
   1.0000000000000000     
     4.8834035021622704    0.0000000000000000    0.0000000000000003
    -0.0000000000000003    5.4164506797063137    0.0000000000000003
     0.0000000000000000    0.0000000000000000   14.5868656359700779
   Ca   In   F 
     4     4    20
Direct
  0.7390179925504725  0.3964063331578132  0.3267081888243055
  0.2390179925504725  0.1035936668421868  0.6732918111756945
  0.2609820074495204  0.8964063331578132  0.1732918111756945
  0.7609820074495204  0.6035936668421868  0.8267081888243055
  0.1797404025694576  0.8694052155566254  0.4074283239289684
  0.6797404025694576  0.6305947844433746  0.5925716760710245
  0.8202595974305424  0.3694052155566254  0.0925716760710245
  0.3202595974305424  0.1305947844433746  0.9074283239289684
  0.8465589348297868  0.6429845369941560  0.4604472684292062
  0.3465589348297797  0.8570154630058440  0.5395527315707938
  0.1534410651702132  0.1429845369941560  0.0395527315707938
  0.6534410651702132  0.3570154630058440  0.9604472684292062
  0.9641532407750333  0.7689273852149228  0.2851113502881901
  0.4641532407750333  0.7310726147850772  0.7148886497118099
  0.0358467592249667  0.2689273852149228  0.2148886497118099
  0.5358467592249667  0.2310726147850772  0.7851113502881901
  0.0647349545137317  0.6619038953389662  0.0672246595262180
  0.5647349545137317  0.8380961046610338  0.9327753404737891
  0.9352650454862683  0.1619038953389662  0.4327753404737820
  0.4352650454862754  0.3380961046610338  0.5672246595262109
  0.5427337895447621  0.5355397208853319  0.1835157153256546
  0.0427337895447621  0.9644602791146681  0.8164842846743383
  0.4572662104552379  0.0355397208853319  0.3164842846743454
  0.9572662104552379  0.4644602791146681  0.6835157153256617
  0.1515042885377014  0.4708283334075460  0.8814761915474278
  0.6515042885377014  0.0291716665924540  0.1185238084525722
  0.8484957114622986  0.9708283334075460  0.6185238084525722
  0.3484957114622986  0.5291716665924540  0.3814761915474278

  0.00000000E+00  0.00000000E+00  0.00000000E+00
  0.00000000E+00  0.00000000E+00  0.00000000E+00
  0.00000000E+00  0.00000000E+00  0.00000000E+00
  0.00000000E+00  0.00000000E+00  0.00000000E+00
  0.00000000E+00  0.00000000E+00  0.00000000E+00
  0.00000000E+00  0.00000000E+00  0.00000000E+00
  0.00000000E+00  0.00000000E+00  0.00000000E+00
  0.00000000E+00  0.00000000E+00  0.00000000E+00
  0.00000000E+00  0.00000000E+00  0.00000000E+00
  0.00000000E+00  0.00000000E+00  0.00000000E+00
  0.00000000E+00  0.00000000E+00  0.00000000E+00
  0.00000000E+00  0.00000000E+00  0.00000000E+00
  0.00000000E+00  0.00000000E+00  0.00000000E+00
  0.00000000E+00  0.00000000E+00  0.00000000E+00
  0.00000000E+00  0.00000000E+00  0.00000000E+00
  0.00000000E+00  0.00000000E+00  0.00000000E+00
  0.00000000E+00  0.00000000E+00  0.00000000E+00
  0.00000000E+00  0.00000000E+00  0.00000000E+00
  0.00000000E+00  0.00000000E+00  0.00000000E+00
  0.00000000E+00  0.00000000E+00  0.00000000E+00
  0.00000000E+00  0.00000000E+00  0.00000000E+00
  0.00000000E+00  0.00000000E+00  0.00000000E+00
  0.00000000E+00  0.00000000E+00  0.00000000E+00
  0.00000000E+00  0.00000000E+00  0.00000000E+00
  0.00000000E+00  0.00000000E+00  0.00000000E+00
  0.00000000E+00  0.00000000E+00  0.00000000E+00
  0.00000000E+00  0.00000000E+00  0.00000000E+00
  0.00000000E+00  0.00000000E+00  0.00000000E+00
