Ca15 In1                                
   1.00000000000000     
     3.8665177457653201   -6.6970053024546550    0.0000000000000000
     3.8665177457653201    6.6970053024546550    0.0000000000000000
     0.0000000000000000    0.0000000000000000   12.4474395746446138
   Ca   In
    15     1
Direct
  0.0000000000000000  0.0000000000000000  0.0000000000000000
  0.9957770711728671  0.4978885355871014  0.5000000000000000
  0.0013486897700830  0.5006743448846578  0.0000000000000000
  0.5021114644142415  0.4978885355857585  0.5000000000000000
  0.4993256551145819  0.5006743448854181  0.0000000000000000
  0.5021114644128986  0.0042229288271329  0.5000000000000000
  0.4993256551153422  0.9986513102299170  0.0000000000000000
  0.1624313549588052  0.3248637099187235  0.2614508523525672
  0.1624313549588052  0.3248637099187235  0.7385491476474328
  0.1624313549599208  0.8375686450400792  0.2614508523525672
  0.1624313549599208  0.8375686450400792  0.7385491476474328
  0.6751362900812765  0.8375686450411948  0.2614508523525672
  0.6751362900812765  0.8375686450411948  0.7385491476474328
  0.6666669999999968  0.3333330000000032  0.2444481552443918
  0.6666669999999968  0.3333330000000032  0.7555518447556082
  0.0000000000000000  0.0000000000000000  0.5000000000000000
 
  0.00000000E+00  0.00000000E+00  0.00000000E+00
  0.00000000E+00  0.00000000E+00  0.00000000E+00
  0.00000000E+00  0.00000000E+00  0.00000000E+00
  0.00000000E+00  0.00000000E+00  0.00000000E+00
  0.00000000E+00  0.00000000E+00  0.00000000E+00
  0.00000000E+00  0.00000000E+00  0.00000000E+00
  0.00000000E+00  0.00000000E+00  0.00000000E+00
  0.00000000E+00  0.00000000E+00  0.00000000E+00
  0.00000000E+00  0.00000000E+00  0.00000000E+00
  0.00000000E+00  0.00000000E+00  0.00000000E+00
  0.00000000E+00  0.00000000E+00  0.00000000E+00
  0.00000000E+00  0.00000000E+00  0.00000000E+00
  0.00000000E+00  0.00000000E+00  0.00000000E+00
  0.00000000E+00  0.00000000E+00  0.00000000E+00
  0.00000000E+00  0.00000000E+00  0.00000000E+00
  0.00000000E+00  0.00000000E+00  0.00000000E+00
