Mg5Ga                                   
   1.00000000000000     
    -4.6937870949932758    2.7318353030027884   -0.0373143483319777
     0.0190168367598877   -5.4307131465733551    0.0376829840270116
    -1.5504470080200110    2.6852583921526332    5.0277025600550003
   Ga   Mg
     1     5
Direct
  0.8323878862965302  0.4991510855485259  0.5000341229322771
  0.6727052204720607  0.3395430362446206  0.0000618628513749
  0.9944184081536349  0.9999417130181811  0.9987656049753255
  0.3331182792263547  0.6612175212901121  0.0011805376995042
  0.4993559808196366  0.8339426768638987  0.5009427009407972
  0.1670142250317639  0.1662039670346545  0.4990151706007069
 
  0.00000000E+00  0.00000000E+00  0.00000000E+00
  0.00000000E+00  0.00000000E+00  0.00000000E+00
  0.00000000E+00  0.00000000E+00  0.00000000E+00
  0.00000000E+00  0.00000000E+00  0.00000000E+00
  0.00000000E+00  0.00000000E+00  0.00000000E+00
  0.00000000E+00  0.00000000E+00  0.00000000E+00
