Ba2 B7                                  
   1.00000000000000     
     6.0038666488490318   -0.0013710252822432    0.0000237896281056
    -3.0035647513310244    5.1984235745674141   -0.0000115067511516
     0.0006292538646501   -0.0003480062975618    4.3058596093288326
   B    Ba
     7     2
Direct
  0.1029737077844572  0.2057538343546170  0.1569724643493018
  0.1028364512412026  0.8971611046699692  0.1568027897509268
  0.7942476005399755  0.8970265586136819  0.1569735226779088
  0.0000000000000000  0.0000000000000000  0.5000000000000000
  0.2057523994600245  0.1029734413863181  0.8430264773220912
  0.8971635487587974  0.1028388953300308  0.8431972102490732
  0.8970262922155428  0.7942461656453830  0.8430275356506982
  0.6667173225497507  0.3332836535907191  0.3114306952088199
  0.3332826774502493  0.6667163464092809  0.6885693047911801
 
  0.00000000E+00  0.00000000E+00  0.00000000E+00
  0.00000000E+00  0.00000000E+00  0.00000000E+00
  0.00000000E+00  0.00000000E+00  0.00000000E+00
  0.00000000E+00  0.00000000E+00  0.00000000E+00
  0.00000000E+00  0.00000000E+00  0.00000000E+00
  0.00000000E+00  0.00000000E+00  0.00000000E+00
  0.00000000E+00  0.00000000E+00  0.00000000E+00
  0.00000000E+00  0.00000000E+00  0.00000000E+00
  0.00000000E+00  0.00000000E+00  0.00000000E+00
