Be18 Tl11                               
   1.0000000000000000     
     5.4725325026832445    2.9400295274254526    0.2444595259581849
    -5.4725325026832445    2.9400295274254526    0.2444595259581849
     0.0000000000000000    0.4893729077873250   16.4880077828758331
   Be   Tl
    18    11
Direct
  0.1850269536639360  0.1850269536639360  0.7377687140908549
  0.4345433297169592  0.6324586009965785  0.7746051178078943
  0.1677584200126390  0.4958506066662878  0.6735056691167358
  0.4958506066662878  0.1677584200126390  0.6735056691167358
  0.6324586009965785  0.4345433297169592  0.7746051178078943
  0.5113863206831013  0.5113863206831013  0.6596651497128931
  0.8420844128262033  0.8420844128262033  0.6958651984887751
  0.7843434965025438  0.1503828823664293  0.7461906264400469
  0.1503828823664293  0.7843434965025438  0.7461906264400469
  0.8435940511833024  0.8435940511833024  0.8175410931722240
  0.5113187465623170  0.8494953551453364  0.6605875070692946
  0.8494953551453364  0.5113187465623170  0.6605875070692946
  0.8528696708494863  0.1897663882381551  0.6164809912093219
  0.1897663882381551  0.8528696708494863  0.6164809912093219
  0.8584250948234384  0.8584250948234384  0.5701833826424476
  0.0123457124689352  0.2115974405673740  0.4923486437554914
  0.2115974405673740  0.0123457124689352  0.4923486437554914
  0.2060650692051595  0.2060650692051595  0.5990750895513770
  0.1651698130094061  0.4584463654900475  0.0798043901590191
  0.4584463654900475  0.1651698130094061  0.0798043901590191
  0.5432524448155505  0.9018479355795748  0.9182358665743422
  0.9018479355795748  0.5432524448155505  0.9182358665743422
  0.4223251501005194  0.7224675846934119  0.4942666141179757
  0.7224675846934119  0.4223251501005194  0.4942666141179757
  0.0364670142908849  0.3224631168616767  0.3376375243050660
  0.3224631168616767  0.0364670142908849  0.3376375243050660
  0.5972592613859433  0.8766652103954726  0.2136889622805711
  0.8766652103954726  0.5972592613859433  0.2136889622805711
  0.2143235508992305  0.2143235508992305  0.9051985466698653

  0.00000000E+00  0.00000000E+00  0.00000000E+00
  0.00000000E+00  0.00000000E+00  0.00000000E+00
  0.00000000E+00  0.00000000E+00  0.00000000E+00
  0.00000000E+00  0.00000000E+00  0.00000000E+00
  0.00000000E+00  0.00000000E+00  0.00000000E+00
  0.00000000E+00  0.00000000E+00  0.00000000E+00
  0.00000000E+00  0.00000000E+00  0.00000000E+00
  0.00000000E+00  0.00000000E+00  0.00000000E+00
  0.00000000E+00  0.00000000E+00  0.00000000E+00
  0.00000000E+00  0.00000000E+00  0.00000000E+00
  0.00000000E+00  0.00000000E+00  0.00000000E+00
  0.00000000E+00  0.00000000E+00  0.00000000E+00
  0.00000000E+00  0.00000000E+00  0.00000000E+00
  0.00000000E+00  0.00000000E+00  0.00000000E+00
  0.00000000E+00  0.00000000E+00  0.00000000E+00
  0.00000000E+00  0.00000000E+00  0.00000000E+00
  0.00000000E+00  0.00000000E+00  0.00000000E+00
  0.00000000E+00  0.00000000E+00  0.00000000E+00
  0.00000000E+00  0.00000000E+00  0.00000000E+00
  0.00000000E+00  0.00000000E+00  0.00000000E+00
  0.00000000E+00  0.00000000E+00  0.00000000E+00
  0.00000000E+00  0.00000000E+00  0.00000000E+00
  0.00000000E+00  0.00000000E+00  0.00000000E+00
  0.00000000E+00  0.00000000E+00  0.00000000E+00
  0.00000000E+00  0.00000000E+00  0.00000000E+00
  0.00000000E+00  0.00000000E+00  0.00000000E+00
  0.00000000E+00  0.00000000E+00  0.00000000E+00
  0.00000000E+00  0.00000000E+00  0.00000000E+00
  0.00000000E+00  0.00000000E+00  0.00000000E+00
