Mg5In2                                  
   1.00000000000000     
    -0.0261203144428893   -0.0001509735480046    6.1999687126933729
     0.0038891272526960    7.3586737674597638   -0.0002375461742778
    -7.1139550808387506   -3.6837885875020917   -3.0698978641500569
   In   Mg
     4    10
Direct
  0.1231067092672475  0.3550069967168668  0.2464845897703825
  0.6220582809262822  0.8909435028272696  0.2443658368321948
  0.3779603453394671  0.1090277774045134  0.7556337885006457
  0.8769037651607618  0.6449652479340529  0.7535163534554528
  0.2497960525159328  0.5003842114181012  0.0000742804359177
  0.7502199741583837  0.4995876535690513  0.9999263090710215
  0.5896288294149628  0.2526815213916862  0.1767934130016187
  0.0884384219714178  0.9240234168523287  0.1746532077036633
  0.4832195637419403  0.7316350482086165  0.4644616824138339
  0.9830687201493475  0.7352829921841959  0.4644204945326678
  0.0169437452611874  0.2646878044684655  0.5355804697199176
  0.5167927098230294  0.2683385159082832  0.5355379926678054
  0.9115854201850979  0.0759486997958732  0.8253477863533547
  0.4103774620849592  0.7472866113206891  0.8232037955415379
 
  0.00000000E+00  0.00000000E+00  0.00000000E+00
  0.00000000E+00  0.00000000E+00  0.00000000E+00
  0.00000000E+00  0.00000000E+00  0.00000000E+00
  0.00000000E+00  0.00000000E+00  0.00000000E+00
  0.00000000E+00  0.00000000E+00  0.00000000E+00
  0.00000000E+00  0.00000000E+00  0.00000000E+00
  0.00000000E+00  0.00000000E+00  0.00000000E+00
  0.00000000E+00  0.00000000E+00  0.00000000E+00
  0.00000000E+00  0.00000000E+00  0.00000000E+00
  0.00000000E+00  0.00000000E+00  0.00000000E+00
  0.00000000E+00  0.00000000E+00  0.00000000E+00
  0.00000000E+00  0.00000000E+00  0.00000000E+00
  0.00000000E+00  0.00000000E+00  0.00000000E+00
  0.00000000E+00  0.00000000E+00  0.00000000E+00
