Sr4 In4 F20                             
   1.0000000000000000     
    12.1115009534622899    0.0000000000000000    0.0000000000000000
     0.0000000000000000    4.1194911853897889    0.0265793269498814
     0.0000000000000000    1.8988305479070795    7.7617848538158905
   Sr   In   F 
     4     4    20
Direct
  0.9768553617716549  0.6022233573290379  0.2289185976990424
  0.4768553617716478  0.3977766426709621  0.2710814023009576
  0.0231446382283522  0.3977766426709621  0.7710814023009576
  0.5231446382283451  0.6022233573290379  0.7289185976990424
  0.7689975520058994  0.1333035173555501  0.5971256714354354
  0.2689975520058994  0.8666964826444499  0.9028743285645646
  0.2310024479941006  0.8666964826444499  0.4028743285645646
  0.7310024479941006  0.1333035173555501  0.0971256714354354
  0.5955304977589932  0.2035247759342127  0.5325466570697515
  0.0955304977589932  0.7964752240657873  0.9674533429302485
  0.4044695022410068  0.7964752240657873  0.4674533429302485
  0.9044695022410068  0.2035247759342127  0.0325466570697515
  0.8098015086503878  0.0603837294106739  0.3472792113833663
  0.3098015086503878  0.9396162705893261  0.1527207886166337
  0.1901984913496122  0.9396162705893261  0.6527207886166266
  0.6901984913496122  0.0603837294106739  0.8472792113833734
  0.4091780459269287  0.0950190738390901  0.7541541825418747
  0.9091780459269287  0.9049809261609099  0.7458458174581253
  0.5908219540730713  0.9049809261609099  0.2458458174581253
  0.0908219540730713  0.0950190738390901  0.2541541825418747
  0.7162629695565883  0.6304721942530591  0.6387504519279048
  0.2162629695565883  0.3695278057469409  0.8612495480720952
  0.2837370304434117  0.3695278057469409  0.3612495480720952
  0.7837370304434117  0.6304721942530591  0.1387504519279048
  0.3974258261629799  0.5305456129226727  0.9820425666277757
  0.8974258261629799  0.4694543870773273  0.5179574333722243
  0.6025741738370201  0.4694543870773273  0.0179574333722172
  0.1025741738370201  0.5305456129226727  0.4820425666277757

  0.00000000E+00  0.00000000E+00  0.00000000E+00
  0.00000000E+00  0.00000000E+00  0.00000000E+00
  0.00000000E+00  0.00000000E+00  0.00000000E+00
  0.00000000E+00  0.00000000E+00  0.00000000E+00
  0.00000000E+00  0.00000000E+00  0.00000000E+00
  0.00000000E+00  0.00000000E+00  0.00000000E+00
  0.00000000E+00  0.00000000E+00  0.00000000E+00
  0.00000000E+00  0.00000000E+00  0.00000000E+00
  0.00000000E+00  0.00000000E+00  0.00000000E+00
  0.00000000E+00  0.00000000E+00  0.00000000E+00
  0.00000000E+00  0.00000000E+00  0.00000000E+00
  0.00000000E+00  0.00000000E+00  0.00000000E+00
  0.00000000E+00  0.00000000E+00  0.00000000E+00
  0.00000000E+00  0.00000000E+00  0.00000000E+00
  0.00000000E+00  0.00000000E+00  0.00000000E+00
  0.00000000E+00  0.00000000E+00  0.00000000E+00
  0.00000000E+00  0.00000000E+00  0.00000000E+00
  0.00000000E+00  0.00000000E+00  0.00000000E+00
  0.00000000E+00  0.00000000E+00  0.00000000E+00
  0.00000000E+00  0.00000000E+00  0.00000000E+00
  0.00000000E+00  0.00000000E+00  0.00000000E+00
  0.00000000E+00  0.00000000E+00  0.00000000E+00
  0.00000000E+00  0.00000000E+00  0.00000000E+00
  0.00000000E+00  0.00000000E+00  0.00000000E+00
  0.00000000E+00  0.00000000E+00  0.00000000E+00
  0.00000000E+00  0.00000000E+00  0.00000000E+00
  0.00000000E+00  0.00000000E+00  0.00000000E+00
  0.00000000E+00  0.00000000E+00  0.00000000E+00
