Sr1 B3 I6                               
   1.00000000000000     
     8.2329329007829148   -0.0530542368363256    0.5692231860908155
    -0.0530542368363256    8.2329329007829148    0.5692231860908161
     4.5154191340510312    4.5154191340510295    6.3473301675232907
   I    Sr   B 
     6     1     3
Direct
  0.7265730459787605  0.2734269540212395  0.0000000000000000
  0.3383386871561811  0.3383386871561811  0.8950118847743695
  0.2734269540212395  0.7265730459787605  0.0000000000000000
  0.6616613128438189  0.6616613128438189  0.1049881152256305
  0.8155541688458854  0.8155541688458854  0.5375914529875061
  0.1844458311541146  0.1844458311541146  0.4624085470124939
  0.0000000000000000  0.0000000000000000  0.0000000000000000
  0.5000000000000000  0.5000000000000000  0.0000000000000000
  0.1422763480881670  0.8577236519118330  0.5000000000000000
  0.8577236519118330  0.1422763480881670  0.5000000000000000
 
  0.00000000E+00  0.00000000E+00  0.00000000E+00
  0.00000000E+00  0.00000000E+00  0.00000000E+00
  0.00000000E+00  0.00000000E+00  0.00000000E+00
  0.00000000E+00  0.00000000E+00  0.00000000E+00
  0.00000000E+00  0.00000000E+00  0.00000000E+00
  0.00000000E+00  0.00000000E+00  0.00000000E+00
  0.00000000E+00  0.00000000E+00  0.00000000E+00
  0.00000000E+00  0.00000000E+00  0.00000000E+00
  0.00000000E+00  0.00000000E+00  0.00000000E+00
  0.00000000E+00  0.00000000E+00  0.00000000E+00
