Ba4 Al4 Cl20                            
   1.0000000000000000     
    10.3898306304205281    0.0000000000000000    0.0000000000000000
     0.0000000000000000    7.5813369433135689    1.6870791446217992
     0.0000000000000000    6.1658690327044061   12.2107355780283520
   Ba   Al   Cl
     4     4    20
Direct
  0.0393753627610280  0.6341848153438363  0.2668728616338356
  0.5393753627610280  0.3658151846561637  0.2331271383661644
  0.9606246372389720  0.3658151846561637  0.7331271383661644
  0.4606246372389720  0.6341848153438363  0.7668728616338356
  0.7840015474177164  0.1151204953119063  0.5529066745184963
  0.2840015474177164  0.8848795046881008  0.9470933254815037
  0.2159984525822836  0.8848795046881008  0.4470933254815037
  0.7159984525822836  0.1151204953119063  0.0529066745184963
  0.5755940747347097  0.1899617258819291  0.5219484885995982
  0.0755940747347097  0.8100382741180709  0.9780515114004018
  0.4244059252652903  0.8100382741180709  0.4780515114004018
  0.9244059252652903  0.1899617258819291  0.0219484885995982
  0.8710367437968713  0.1895071976160381  0.3816472619520468
  0.3710367437968785  0.8104928023839548  0.1183527380479603
  0.1289632562031215  0.8104928023839548  0.6183527380479603
  0.6289632562031287  0.1895071976160381  0.8816472619520397
  0.3711699722822956  0.0273134734433285  0.7634483345836287
  0.8711699722822956  0.9726865265566715  0.7365516654163713
  0.6288300277177044  0.9726865265566715  0.2365516654163642
  0.1288300277177044  0.0273134734433285  0.2634483345836358
  0.7417886460601153  0.7416899071783760  0.6331379477558059
  0.2417886460601224  0.2583100928216240  0.8668620522441941
  0.2582113539398847  0.2583100928216240  0.3668620522441941
  0.7582113539398847  0.7416899071783760  0.1331379477558059
  0.3335663128353374  0.5243088431685692  0.0190078382248586
  0.8335663128353374  0.4756911568314237  0.4809921617751414
  0.6664336871646626  0.4756911568314237  0.9809921617751414
  0.1664336871646697  0.5243088431685692  0.5190078382248586

  0.00000000E+00  0.00000000E+00  0.00000000E+00
  0.00000000E+00  0.00000000E+00  0.00000000E+00
  0.00000000E+00  0.00000000E+00  0.00000000E+00
  0.00000000E+00  0.00000000E+00  0.00000000E+00
  0.00000000E+00  0.00000000E+00  0.00000000E+00
  0.00000000E+00  0.00000000E+00  0.00000000E+00
  0.00000000E+00  0.00000000E+00  0.00000000E+00
  0.00000000E+00  0.00000000E+00  0.00000000E+00
  0.00000000E+00  0.00000000E+00  0.00000000E+00
  0.00000000E+00  0.00000000E+00  0.00000000E+00
  0.00000000E+00  0.00000000E+00  0.00000000E+00
  0.00000000E+00  0.00000000E+00  0.00000000E+00
  0.00000000E+00  0.00000000E+00  0.00000000E+00
  0.00000000E+00  0.00000000E+00  0.00000000E+00
  0.00000000E+00  0.00000000E+00  0.00000000E+00
  0.00000000E+00  0.00000000E+00  0.00000000E+00
  0.00000000E+00  0.00000000E+00  0.00000000E+00
  0.00000000E+00  0.00000000E+00  0.00000000E+00
  0.00000000E+00  0.00000000E+00  0.00000000E+00
  0.00000000E+00  0.00000000E+00  0.00000000E+00
  0.00000000E+00  0.00000000E+00  0.00000000E+00
  0.00000000E+00  0.00000000E+00  0.00000000E+00
  0.00000000E+00  0.00000000E+00  0.00000000E+00
  0.00000000E+00  0.00000000E+00  0.00000000E+00
  0.00000000E+00  0.00000000E+00  0.00000000E+00
  0.00000000E+00  0.00000000E+00  0.00000000E+00
  0.00000000E+00  0.00000000E+00  0.00000000E+00
  0.00000000E+00  0.00000000E+00  0.00000000E+00
