Mg1 Tl8                                 
   1.0000000000000000     
    10.8531085283882955    0.0006401431692647    0.0000000000000000
    -5.4254302639609095    9.3996802929064955    0.0000000000000000
     0.0000000000000000    0.0000000000000000    3.2889435297878351
   Tl   Mg
     8     1
Direct
  0.3314315159049599  0.1657299414516729  0.0000000000000000
  0.8344106446855122  0.1655886777588478  0.0000000000000000
  0.6667231602704362  0.3332773449270050  0.0000000000000000
  0.1657284672401929  0.3314283265482700  0.0000000000000000
  0.8342715327598071  0.6685716734517300  0.0000000000000000
  0.3332768397295638  0.6667226550729950  0.0000000000000000
  0.1655893553144878  0.8344113222411522  0.0000000000000000
  0.6685684840950401  0.8342700585483271  0.0000000000000000
  0.0000000000000000  0.0000000000000000  0.5000000000000000

  0.00000000E+00  0.00000000E+00  0.00000000E+00
  0.00000000E+00  0.00000000E+00  0.00000000E+00
  0.00000000E+00  0.00000000E+00  0.00000000E+00
  0.00000000E+00  0.00000000E+00  0.00000000E+00
  0.00000000E+00  0.00000000E+00  0.00000000E+00
  0.00000000E+00  0.00000000E+00  0.00000000E+00
  0.00000000E+00  0.00000000E+00  0.00000000E+00
  0.00000000E+00  0.00000000E+00  0.00000000E+00
  0.00000000E+00  0.00000000E+00  0.00000000E+00
