Be2 Tl2 I10                             
   1.00000000000000     
    12.5066975777099856    0.5294412302581231    8.4679599484752757
     3.2573171645157397   12.0866758901969700    8.4679576485465553
     5.4011753924337329    4.3226237969412349   12.0052650837636339
   Be   Tl   I 
     2     2    10
Direct
  0.1380355882066127  0.8619644201718444  0.2499999903856462
  0.8619644117933873  0.1380355798281556  0.7500000096143538
  0.0000000000000000  0.0000000000000000  0.5000000000000000
  0.0000000000000000  0.0000000000000000  0.0000000000000000
  0.2419536365906865  0.8116662447654477  0.3468105293467616
  0.1883337803261256  0.7580453492438721  0.1531894622547867
  0.7580453634093161  0.1883337552345523  0.6531904706532430
  0.8116662196738744  0.2419536507561304  0.8468105377452133
  0.0189288084771491  0.9810711782059300  0.7500000137001948
  0.9810711915228509  0.0189288217940700  0.2499999862998052
  0.4630766857750643  0.8427082591617818  0.4894444319601376
  0.1572916622810183  0.5369233630800494  0.0105555887069215
  0.5369233142249357  0.1572917408382111  0.5105555680398624
  0.8427083377189888  0.4630766369199506  0.9894444112930785
 
  0.00000000E+00  0.00000000E+00  0.00000000E+00
  0.00000000E+00  0.00000000E+00  0.00000000E+00
  0.00000000E+00  0.00000000E+00  0.00000000E+00
  0.00000000E+00  0.00000000E+00  0.00000000E+00
  0.00000000E+00  0.00000000E+00  0.00000000E+00
  0.00000000E+00  0.00000000E+00  0.00000000E+00
  0.00000000E+00  0.00000000E+00  0.00000000E+00
  0.00000000E+00  0.00000000E+00  0.00000000E+00
  0.00000000E+00  0.00000000E+00  0.00000000E+00
  0.00000000E+00  0.00000000E+00  0.00000000E+00
  0.00000000E+00  0.00000000E+00  0.00000000E+00
  0.00000000E+00  0.00000000E+00  0.00000000E+00
  0.00000000E+00  0.00000000E+00  0.00000000E+00
  0.00000000E+00  0.00000000E+00  0.00000000E+00
