Ba4                                     
   1.00000000000000     
     7.0161281860693521    0.0000000413952246    2.7920599660816574
     3.5080651615936769    5.9070289229228248    1.3960294279095160
     1.3239578121749391   -0.0000000147434881    6.8844419987173460
   Ba
     4
Direct
  0.1749680272654430  0.5000000000037090  0.1500629354740610
  0.8250319727345570  0.4999999999962910  0.8499370645259390
  0.6749680272669636  0.1500629354715670  0.5000000000037090
  0.3250319727330364  0.8499370645284330  0.4999999999962910
 
  0.00000000E+00  0.00000000E+00  0.00000000E+00
  0.00000000E+00  0.00000000E+00  0.00000000E+00
  0.00000000E+00  0.00000000E+00  0.00000000E+00
  0.00000000E+00  0.00000000E+00  0.00000000E+00
