Ca4                                     
   1.00000000000000     
     3.8807051666051402    0.0000000126302976    0.0000000000000000
    -1.9403510655062410    3.3607887481597380    0.0000000000000000
     0.0000000000000000    0.0000000000000000   13.0346110590809996
   Ca
     4
Direct
  0.0000000000000000  0.0000000000000000  0.0000000000000000
  0.3333330000000032  0.6666669999999968  0.2499757694852036
  0.0000000000000000  0.0000000000000000  0.5000000000000000
  0.6666659999999993  0.3333319999999986  0.7500242305147964
 
  0.00000000E+00  0.00000000E+00  0.00000000E+00
  0.00000000E+00  0.00000000E+00  0.00000000E+00
  0.00000000E+00  0.00000000E+00  0.00000000E+00
  0.00000000E+00  0.00000000E+00  0.00000000E+00
