Sr17 Tl11 Br1                           
   1.0000000000000000     
     8.7848457354864014   -6.1656792028030987    3.1973615252509440
    -0.8760099246039580   11.0075139653316185    3.3771586770369657
    -9.1879668949188193   -5.4273538603663116    5.2444586826526791
   Tl   Br   Sr
    11     1    17
Direct
  0.5564944140192623  0.7661111470499264  0.9967020598926979
  0.3170484216166116  0.3112873626735464  0.2605733558093277
  0.2594083471132720  0.9794834220904960  0.2403751531770837
  0.9771751259546875  0.3318161113653701  0.2878396327578514
  0.2671840257629157  0.4279135894657742  0.5221519771813661
  0.4733307772689912  0.3006496633691853  0.5095043826064440
  0.9697295189576352  0.7947982843474577  0.4942703697830666
  0.7464893181059864  0.9034154698029866  0.4746142591646674
  0.6869857001096022  0.0382054870727728  0.7086838871974592
  0.0190914593686742  0.7395914888706230  0.7610847408514729
  0.0476463026709979  0.0470245557993394  0.7450727272115358
  0.6170059572210889  0.3624156317438789  0.9995647005764496
  0.0828959355931786  0.3001122191382848  0.0029060962259422
  0.2270147788942225  0.7095592946388152  0.0004330276042168
  0.3167370198365234  0.0969182760140583  0.0005676978220350
  0.6811675818010414  0.1073477056876442  0.9977798617783762
  0.9129114369760103  0.8695340886954952  0.9999463866941198
  0.6068470149558820  0.6126471193125198  0.2027147150769082
  0.9840219048876833  0.6264645394883814  0.2164270093857610
  0.6083384594198549  0.0158941363172502  0.2885541667418536
  0.0325264543855255  0.0546415596640273  0.3656350979363268
  0.3528911028286359  0.6500970252311618  0.3664747513574440
  0.7844123680416075  0.4427128738806871  0.4402091304077871
  0.3483872061886046  0.0024332778343705  0.5606128419430618
  0.9827395722506296  0.2802049094702781  0.6341439656395664
  0.6636311519129805  0.6892755753454338  0.6350257810556457
  0.3124917276261954  0.7225631017220380  0.7084494634601626
  0.7680349090831271  0.4110195573340505  0.7858407939018406
  0.3977760071486074  0.4040185265742693  0.7938419667596150

  0.00000000E+00  0.00000000E+00  0.00000000E+00
  0.00000000E+00  0.00000000E+00  0.00000000E+00
  0.00000000E+00  0.00000000E+00  0.00000000E+00
  0.00000000E+00  0.00000000E+00  0.00000000E+00
  0.00000000E+00  0.00000000E+00  0.00000000E+00
  0.00000000E+00  0.00000000E+00  0.00000000E+00
  0.00000000E+00  0.00000000E+00  0.00000000E+00
  0.00000000E+00  0.00000000E+00  0.00000000E+00
  0.00000000E+00  0.00000000E+00  0.00000000E+00
  0.00000000E+00  0.00000000E+00  0.00000000E+00
  0.00000000E+00  0.00000000E+00  0.00000000E+00
  0.00000000E+00  0.00000000E+00  0.00000000E+00
  0.00000000E+00  0.00000000E+00  0.00000000E+00
  0.00000000E+00  0.00000000E+00  0.00000000E+00
  0.00000000E+00  0.00000000E+00  0.00000000E+00
  0.00000000E+00  0.00000000E+00  0.00000000E+00
  0.00000000E+00  0.00000000E+00  0.00000000E+00
  0.00000000E+00  0.00000000E+00  0.00000000E+00
  0.00000000E+00  0.00000000E+00  0.00000000E+00
  0.00000000E+00  0.00000000E+00  0.00000000E+00
  0.00000000E+00  0.00000000E+00  0.00000000E+00
  0.00000000E+00  0.00000000E+00  0.00000000E+00
  0.00000000E+00  0.00000000E+00  0.00000000E+00
  0.00000000E+00  0.00000000E+00  0.00000000E+00
  0.00000000E+00  0.00000000E+00  0.00000000E+00
  0.00000000E+00  0.00000000E+00  0.00000000E+00
  0.00000000E+00  0.00000000E+00  0.00000000E+00
  0.00000000E+00  0.00000000E+00  0.00000000E+00
  0.00000000E+00  0.00000000E+00  0.00000000E+00
