Ca2 I8                                  
   1.00000000000000     
     6.2817217300991466   -0.0322849678866150    0.1742424476851089
    -3.1330120109769450    8.1696240982319690    0.0155982943027913
    -0.9723339818081994   -3.3182393397821444    8.4280897287507273
   I    Ca
     8     2
Direct
  0.7485528456316146  0.4656444038002903  0.1282797517580718
  0.7832337966523895  0.9970927374149525  0.1545589625227706
  0.2651553905503690  0.1668675633358419  0.3852510383910897
  0.2834000066206599  0.6748062801860257  0.4100861400423099
  0.7165875628600276  0.3251578903321359  0.5898978801433543
  0.7348119613418120  0.8330956921994641  0.6147508691757722
  0.2167365562630152  0.0029188552686676  0.8454707452330581
  0.2514829844091580  0.5343447676339181  0.8716914563902733
  0.1847325059832770  0.3282502011623620  0.1115198350558018
  0.8153063896876915  0.6717616086663654  0.8884933212874984
 
  0.00000000E+00  0.00000000E+00  0.00000000E+00
  0.00000000E+00  0.00000000E+00  0.00000000E+00
  0.00000000E+00  0.00000000E+00  0.00000000E+00
  0.00000000E+00  0.00000000E+00  0.00000000E+00
  0.00000000E+00  0.00000000E+00  0.00000000E+00
  0.00000000E+00  0.00000000E+00  0.00000000E+00
  0.00000000E+00  0.00000000E+00  0.00000000E+00
  0.00000000E+00  0.00000000E+00  0.00000000E+00
  0.00000000E+00  0.00000000E+00  0.00000000E+00
  0.00000000E+00  0.00000000E+00  0.00000000E+00
