Ca6 B10                                 
   1.00000000000000     
    -4.6068284753574362   -3.5663515986749328   -0.2621699270413920
    -4.6071043967730594    3.5666084962364537    0.2631063740401848
     0.0007101537229229   -0.5432953660588322   -7.1925752829474998
   Ca   B 
     6    10
Direct
  0.2956896830379705  0.2956055494555443  0.9999898996339596
  0.7043241545843344  0.7044091769710192  0.0000347004627343
  0.1957467245192532  0.8041705211853127  0.2590045264691199
  0.2906548336908799  0.2907053410915523  0.4999898202029840
  0.7093400300945589  0.7092924961184934  0.5000342196761807
  0.8042553770278218  0.1958317004835664  0.7410205967254910
  0.8918998977452830  0.1081598411514335  0.0986102032983354
  0.6307824638868240  0.0689858276790289  0.2381118941459022
  0.9310747948504599  0.3694098932531062  0.2379768378023357
  0.6431843557640349  0.3568537353925123  0.2053845575436810
  0.8229957015058602  0.1772531366486660  0.3550220695313442
  0.1770292792319808  0.8227711692479005  0.6450038274004228
  0.3568265659774070  0.6431569027205768  0.7946400225024277
  0.0689365607520003  0.6306148649503243  0.7620381811987116
  0.3692420987470726  0.9310236912244747  0.7619238670356054
  0.1081174785842620  0.8918561524264916  0.9014147763707570
 
  0.00000000E+00  0.00000000E+00  0.00000000E+00
  0.00000000E+00  0.00000000E+00  0.00000000E+00
  0.00000000E+00  0.00000000E+00  0.00000000E+00
  0.00000000E+00  0.00000000E+00  0.00000000E+00
  0.00000000E+00  0.00000000E+00  0.00000000E+00
  0.00000000E+00  0.00000000E+00  0.00000000E+00
  0.00000000E+00  0.00000000E+00  0.00000000E+00
  0.00000000E+00  0.00000000E+00  0.00000000E+00
  0.00000000E+00  0.00000000E+00  0.00000000E+00
  0.00000000E+00  0.00000000E+00  0.00000000E+00
  0.00000000E+00  0.00000000E+00  0.00000000E+00
  0.00000000E+00  0.00000000E+00  0.00000000E+00
  0.00000000E+00  0.00000000E+00  0.00000000E+00
  0.00000000E+00  0.00000000E+00  0.00000000E+00
  0.00000000E+00  0.00000000E+00  0.00000000E+00
  0.00000000E+00  0.00000000E+00  0.00000000E+00
