Mg6 Ga10                                
   1.00000000000000     
     4.3178743028389439   -0.0650964808483621    0.0023597615412872
     2.0879292354389416    4.9089907495332499   -0.0219625457047991
     0.0071864464077169   -0.0685253728343422   14.7025532199579150
   Mg   Ga
     6    10
Direct
  0.5665316182958620  0.8643297043825555  0.1202909162594352
  0.8337190431101220  0.3183893002583815  0.2498505721818205
  0.5654971503630009  0.8655594000940923  0.3806332836287538
  0.4344295768516915  0.1344978024306727  0.6192985501060804
  0.1662805982634836  0.6816198015257555  0.7501071662471546
  0.4335407379424865  0.1356162091181545  0.8796584036824200
  0.8717290052918045  0.2428004663053898  0.0362989832703420
  0.2746865061579484  0.4421296100000021  0.1096526223363128
  0.1187969184489930  0.7551441587728220  0.2502741397915571
  0.2720944321144785  0.4445691144443487  0.3898773912352169
  0.8714767066403368  0.2413411004876025  0.4629706826186251
  0.1284398192509357  0.7587014906290293  0.5369770103937128
  0.7278266369516686  0.5554775707379918  0.6100734309226894
  0.8812000207290680  0.2448631227848850  0.7496685404138930
  0.7253912257632180  0.5578190482349896  0.8903085866862241
  0.1283600038248736  0.7571420997933132  0.9636597202257349
 
  0.00000000E+00  0.00000000E+00  0.00000000E+00
  0.00000000E+00  0.00000000E+00  0.00000000E+00
  0.00000000E+00  0.00000000E+00  0.00000000E+00
  0.00000000E+00  0.00000000E+00  0.00000000E+00
  0.00000000E+00  0.00000000E+00  0.00000000E+00
  0.00000000E+00  0.00000000E+00  0.00000000E+00
  0.00000000E+00  0.00000000E+00  0.00000000E+00
  0.00000000E+00  0.00000000E+00  0.00000000E+00
  0.00000000E+00  0.00000000E+00  0.00000000E+00
  0.00000000E+00  0.00000000E+00  0.00000000E+00
  0.00000000E+00  0.00000000E+00  0.00000000E+00
  0.00000000E+00  0.00000000E+00  0.00000000E+00
  0.00000000E+00  0.00000000E+00  0.00000000E+00
  0.00000000E+00  0.00000000E+00  0.00000000E+00
  0.00000000E+00  0.00000000E+00  0.00000000E+00
  0.00000000E+00  0.00000000E+00  0.00000000E+00
