Ba2 Al2 I10                             
   1.00000000000000     
     7.8019743331783022   -5.6365900943755509   -1.3038121117797172
     7.2960601233499052    4.4706284182257043   -0.0286871962070997
    -6.6879335384384380    2.5537491068295224   10.8499294989845438
   Al   Ba   I 
     2     2    10
Direct
  0.1415827640155172  0.7899425974686878  0.9678256507608296
  0.1123820522500409  0.0345470113007238  0.4557824902184180
  0.1211963249934200  0.5021006632629010  0.2003561819676065
  0.4250912946023249  0.6829802521150938  0.7048042709746838
  0.3557179960613865  0.5165508969540227  0.0805577351312294
  0.3065649812654527  0.0354696788518396  0.1047070525468712
  0.9074894142673315  0.2688791948659315  0.3086008697563400
  0.9356435581152880  0.8050686644332927  0.3800006016464152
  0.3844712473255356  0.8481760074989566  0.4438483763983143
  0.4680271809735927  0.3458220447430946  0.4965523967349696
  0.2465615459231927  0.1360153791754328  0.7064921700913871
  0.0435639514193227  0.7359283055203178  0.7254292602186538
  0.8599476916532680  0.8557626244393219  0.9707690582357600
  0.6919599971343331  0.4429566793703898  0.9545738853185384
 
  0.00000000E+00  0.00000000E+00  0.00000000E+00
  0.00000000E+00  0.00000000E+00  0.00000000E+00
  0.00000000E+00  0.00000000E+00  0.00000000E+00
  0.00000000E+00  0.00000000E+00  0.00000000E+00
  0.00000000E+00  0.00000000E+00  0.00000000E+00
  0.00000000E+00  0.00000000E+00  0.00000000E+00
  0.00000000E+00  0.00000000E+00  0.00000000E+00
  0.00000000E+00  0.00000000E+00  0.00000000E+00
  0.00000000E+00  0.00000000E+00  0.00000000E+00
  0.00000000E+00  0.00000000E+00  0.00000000E+00
  0.00000000E+00  0.00000000E+00  0.00000000E+00
  0.00000000E+00  0.00000000E+00  0.00000000E+00
  0.00000000E+00  0.00000000E+00  0.00000000E+00
  0.00000000E+00  0.00000000E+00  0.00000000E+00
