Ca2 In7                                 
   1.00000000000000     
     6.6174288111334567    0.0037333179568803    0.0033876562912700
    -3.3049350899716372    5.7330357433842210   -0.0033891745831468
     0.0033567041199539   -0.0019396915577527    6.6339778152873601
   In   Ca
     7     2
Direct
  0.0000000000000000  0.0000000000000000  0.0000000000000000
  0.3584070383021682  0.1793005702105290  0.3263536726248262
  0.8209791540333171  0.1790209207445059  0.3272591802792419
  0.8206994310441544  0.6415930172630269  0.3263533714744540
  0.1793005689558456  0.3584069827369731  0.6736466285255460
  0.1790208459666829  0.8209790792554941  0.6727408197207581
  0.6415929616978318  0.8206994297894710  0.6736463273751738
  0.3332782917098740  0.6667224308193482  0.1375716998250383
  0.6667217082901260  0.3332775691806518  0.8624283001749617
 
  0.00000000E+00  0.00000000E+00  0.00000000E+00
  0.00000000E+00  0.00000000E+00  0.00000000E+00
  0.00000000E+00  0.00000000E+00  0.00000000E+00
  0.00000000E+00  0.00000000E+00  0.00000000E+00
  0.00000000E+00  0.00000000E+00  0.00000000E+00
  0.00000000E+00  0.00000000E+00  0.00000000E+00
  0.00000000E+00  0.00000000E+00  0.00000000E+00
  0.00000000E+00  0.00000000E+00  0.00000000E+00
  0.00000000E+00  0.00000000E+00  0.00000000E+00
