Sr1 Ga6                                 
   1.00000000000000     
     5.9810811883289521    0.0000000000000000    0.0000000000000000
     0.0000000000000000    5.9810811883289512    0.0000000000000000
     0.0000000000000000    0.0000000000000000    5.9810811883289503
   Ga   Sr
     6     1
Direct
  0.5000000000000000  0.5000000000000000  0.1946774838409411
  0.5000000000000000  0.1946774838409411  0.5000000000000000
  0.1946774838409411  0.5000000000000000  0.5000000000000000
  0.8053225161590589  0.5000000000000000  0.5000000000000000
  0.5000000000000000  0.8053225161590589  0.5000000000000000
  0.5000000000000000  0.5000000000000000  0.8053225161590589
  0.0000000000000000  0.0000000000000000  0.0000000000000000
 
  0.00000000E+00  0.00000000E+00  0.00000000E+00
  0.00000000E+00  0.00000000E+00  0.00000000E+00
  0.00000000E+00  0.00000000E+00  0.00000000E+00
  0.00000000E+00  0.00000000E+00  0.00000000E+00
  0.00000000E+00  0.00000000E+00  0.00000000E+00
  0.00000000E+00  0.00000000E+00  0.00000000E+00
  0.00000000E+00  0.00000000E+00  0.00000000E+00
