Mg5 B2                                  
   1.00000000000000     
     6.1286698104494413   -1.5797181407433261   -0.5347131797094743
     6.1286698104494413    1.5797181407433261   -0.5347131797094743
    -6.7118431108364902    0.0000000000000000    6.6939249317262419
   B    Mg
     2     5
Direct
  0.7772688925228692  0.7772688925228692  0.4998229277415263
  0.2227311074771308  0.2227311074771308  0.5001770722584737
  0.4573319900419435  0.4573319900419435  0.1939217582231052
  0.1895536413117540  0.1895536413117540  0.2151701697187960
  0.0000000000000000  0.0000000000000000  0.5000000000000000
  0.8104463586882460  0.8104463586882460  0.7848298302812040
  0.5426680099580565  0.5426680099580565  0.8060782417768948
 
  0.00000000E+00  0.00000000E+00  0.00000000E+00
  0.00000000E+00  0.00000000E+00  0.00000000E+00
  0.00000000E+00  0.00000000E+00  0.00000000E+00
  0.00000000E+00  0.00000000E+00  0.00000000E+00
  0.00000000E+00  0.00000000E+00  0.00000000E+00
  0.00000000E+00  0.00000000E+00  0.00000000E+00
  0.00000000E+00  0.00000000E+00  0.00000000E+00
