B2F3                                    
   1.00000000000000     
    -5.6587471860150664    1.4822405536017824   -0.2515903573521090
     4.0879061750789267   -4.1945124711326134    0.3828176729841034
    -3.1082992498698729    1.2573883952241132    6.3697767385502146
   B    F 
     4     6
Direct
  0.7051619874330797  0.2745351325644023  0.0396185323324758
  0.7050189519308674  0.0596519188508893  0.4246295628564312
  0.2949810480691326  0.9403480811491107  0.5753704371435617
  0.2948380125669203  0.7254648674356048  0.9603814676675242
  0.0023861732522477  0.2377707250493657  0.5070463514523240
  0.7689165911164295  0.0192826375643023  0.2220279477326770
  0.5479082744348887  0.3641336791302408  0.1820135492323089
  0.4520917255651113  0.6358663208697521  0.8179864507676911
  0.2310834088835705  0.9807173624356977  0.7779720522673230
  0.9976138267477523  0.7622292749506343  0.4929536485476760
 
  0.00000000E+00  0.00000000E+00  0.00000000E+00
  0.00000000E+00  0.00000000E+00  0.00000000E+00
  0.00000000E+00  0.00000000E+00  0.00000000E+00
  0.00000000E+00  0.00000000E+00  0.00000000E+00
  0.00000000E+00  0.00000000E+00  0.00000000E+00
  0.00000000E+00  0.00000000E+00  0.00000000E+00
  0.00000000E+00  0.00000000E+00  0.00000000E+00
  0.00000000E+00  0.00000000E+00  0.00000000E+00
  0.00000000E+00  0.00000000E+00  0.00000000E+00
  0.00000000E+00  0.00000000E+00  0.00000000E+00
