Ba5 Al2                                 
   1.00000000000000     
     2.9128159758898273    1.6802825194056112   11.1559701233611861
    -2.9128159758898273    1.6802825194056112   11.1559701233611861
     0.0000000000000000   -3.3688866268246964   11.1572961816283005
   Ba   Al
     5     2
Direct
  0.2240498845610333  0.2240498845610333  0.2238750967074026
  0.3748152044708846  0.3748152044708846  0.3748924568639751
  0.4999330751724713  0.4999330751724713  0.4999410563921103
  0.6252884910311280  0.6252884910311280  0.6252109122670930
  0.7759841800507417  0.7759841800507417  0.7761446101292861
  0.1029055486586756  0.1029055486586756  0.1025556116442843
  0.8971236160550546  0.8971236160550546  0.8974802559958448
 
  0.00000000E+00  0.00000000E+00  0.00000000E+00
  0.00000000E+00  0.00000000E+00  0.00000000E+00
  0.00000000E+00  0.00000000E+00  0.00000000E+00
  0.00000000E+00  0.00000000E+00  0.00000000E+00
  0.00000000E+00  0.00000000E+00  0.00000000E+00
  0.00000000E+00  0.00000000E+00  0.00000000E+00
  0.00000000E+00  0.00000000E+00  0.00000000E+00
