Ba2 Tl2 Br10                            
   1.0000000000000000     
     5.8002773635283624   -0.0000000000000002    0.0000000000000003
    -0.0000000000000010   11.7473675861195428    0.0000000000000006
    -0.0000000000000000    0.0000000000000001   10.1644881693912019
   Ba   Tl   Br
     2     2    10
Direct
  0.0000000000000000  0.0000000000000000  0.5000000000000000
  0.5000000000000000  0.5000000000000000  0.0000000000000000
  0.5000000000000000  0.0000000000000000  0.0000000000000000
  0.0000000000000000  0.5000000000000000  0.5000000000000000
  0.5000000000000000  0.7204093269936394  0.5000000000000000
  0.5000000000000000  0.2795906730063606  0.5000000000000000
  0.5000000000000000  0.0000000000000000  0.6783032447382098
  0.5000000000000000  0.0000000000000000  0.3216967552617902
  0.0000000000000000  0.0000000000000000  0.0000000000000000
  0.0000000000000000  0.2204093269936394  0.0000000000000000
  0.0000000000000000  0.7795906730063606  0.0000000000000000
  0.0000000000000000  0.5000000000000000  0.1783032447382098
  0.0000000000000000  0.5000000000000000  0.8216967552617902
  0.5000000000000000  0.5000000000000000  0.5000000000000000

  0.00000000E+00  0.00000000E+00  0.00000000E+00
  0.00000000E+00  0.00000000E+00  0.00000000E+00
  0.00000000E+00  0.00000000E+00  0.00000000E+00
  0.00000000E+00  0.00000000E+00  0.00000000E+00
  0.00000000E+00  0.00000000E+00  0.00000000E+00
  0.00000000E+00  0.00000000E+00  0.00000000E+00
  0.00000000E+00  0.00000000E+00  0.00000000E+00
  0.00000000E+00  0.00000000E+00  0.00000000E+00
  0.00000000E+00  0.00000000E+00  0.00000000E+00
  0.00000000E+00  0.00000000E+00  0.00000000E+00
  0.00000000E+00  0.00000000E+00  0.00000000E+00
  0.00000000E+00  0.00000000E+00  0.00000000E+00
  0.00000000E+00  0.00000000E+00  0.00000000E+00
  0.00000000E+00  0.00000000E+00  0.00000000E+00
