Be2 Al2 Cl10                            
   1.00000000000000     
     5.8511713790148043   -1.1280607030398611    2.2512065570116579
     0.1815974701295129    5.9561518181834066    2.2512068442331974
     0.0164412891957263    0.0131607378517711    8.9771479893012600
   Be   Al   Cl
     2     2    10
Direct
  0.6344522417775522  0.3655477599751791  0.2499999990564419
  0.3655477582224478  0.6344522400248209  0.7500000009435581
  0.0000000000000000  0.0000000000000000  0.5000000000000000
  0.0000000000000000  0.0000000000000000  0.0000000000000000
  0.7189631278923798  0.6777675728356130  0.6568730087877697
  0.3222324328739887  0.2810358672091482  0.8431269905680239
  0.2810358721076227  0.3222324271643870  0.3431279912122349
  0.6777675671260113  0.7189631327908543  0.1568730094319761
  0.9166497419211481  0.0833502564900996  0.7500000005530651
  0.0833502580788519  0.9166497435099004  0.2499999994469349
  0.7613931551940638  0.2687454456638179  0.0485903550314859
  0.7312545506064083  0.2386068402202994  0.4514096510580856
  0.2386068448059362  0.7312545543361821  0.9514096449685141
  0.2687454493935917  0.7613931597797077  0.5485903489419144
 
  0.00000000E+00  0.00000000E+00  0.00000000E+00
  0.00000000E+00  0.00000000E+00  0.00000000E+00
  0.00000000E+00  0.00000000E+00  0.00000000E+00
  0.00000000E+00  0.00000000E+00  0.00000000E+00
  0.00000000E+00  0.00000000E+00  0.00000000E+00
  0.00000000E+00  0.00000000E+00  0.00000000E+00
  0.00000000E+00  0.00000000E+00  0.00000000E+00
  0.00000000E+00  0.00000000E+00  0.00000000E+00
  0.00000000E+00  0.00000000E+00  0.00000000E+00
  0.00000000E+00  0.00000000E+00  0.00000000E+00
  0.00000000E+00  0.00000000E+00  0.00000000E+00
  0.00000000E+00  0.00000000E+00  0.00000000E+00
  0.00000000E+00  0.00000000E+00  0.00000000E+00
  0.00000000E+00  0.00000000E+00  0.00000000E+00
