Sr22 B14                                
   1.00000000000000     
    -8.2930528746343342    7.1850669227128199    0.1748461630905799
     8.4512715350648140    0.0000000000000000   -8.8405238111815727
    -8.2930528746343342   -7.1850669227128199    0.1748461630905799
   Sr   B 
    22    14
Direct
  0.9399345081250416  0.8954929914829108  0.9399345081250416
  0.3493286715304009  0.2310995427793330  0.1048925383187793
  0.8767658466253678  0.2540883157161389  0.1334829130046060
  0.8847702440474521  0.7601401273412378  0.1898081314386673
  0.4941318256515927  0.0555270309196558  0.2287671450714015
  0.1858459834959447  0.6334204771079115  0.1858459834959447
  0.5180091526640069  0.6259764825382277  0.2439930823705154
  0.1048925383187793  0.2310995427793330  0.3493286715304009
  0.2287671450714015  0.0555270309196558  0.4941318256515927
  0.5236941090009566  0.9939007159602724  0.5236941090009566
  0.8996681494504557  0.1135056209562961  0.5634049333259767
  0.4962927178582319  0.4216400353548408  0.4962927178582319
  0.8198839399630273  0.3854010261631231  0.5486061591319995
  0.2439930823705154  0.6259764825382277  0.5180091526640069
  0.6609912806510607  0.8096105494165400  0.6609912806510607
  0.9334336818878981  0.7003521009197229  0.5051143133711236
  0.5634049333259767  0.1135056209562961  0.8996681494504557
  0.5486061591319995  0.3854010261631231  0.8198839399630273
  0.8969000348653324  0.4204847786457009  0.8969000348653324
  0.1334829130046060  0.2540883157161389  0.8767658466253678
  0.1898081314386673  0.7601401273412378  0.8847702440474521
  0.5051143133711236  0.7003521009197229  0.9334336818878981
  0.6652956796438616  0.4492517030958325  0.1082745280493995
  0.1815944346471454  0.9881386627200186  0.1815944346471454
  0.6650642594801255  0.9327312544115500  0.2726642976123017
  0.2015796297579300  0.3995036660647386  0.2015796297579300
  0.6807837759248869  0.3663678694722350  0.2412522949128331
  0.6612997599577852  0.5098783386583960  0.2865674627566079
  0.8099086654737917  0.4718841574006518  0.1780928649173390
  0.1082745280493995  0.4492517030958325  0.6652956796438616
  0.2412522949128331  0.3663678694722350  0.6807837759248869
  0.2865674627566079  0.5098783386583960  0.6612997599577852
  0.2726642976123017  0.9327312544115500  0.6650642594801255
  0.8191720178073041  0.1259461125243462  0.8191720178073041
  0.7303309672088574  0.5994548699779116  0.7303309672088574
  0.1780928649173390  0.4718841574006518  0.8099086654737917
 
  0.00000000E+00  0.00000000E+00  0.00000000E+00
  0.00000000E+00  0.00000000E+00  0.00000000E+00
  0.00000000E+00  0.00000000E+00  0.00000000E+00
  0.00000000E+00  0.00000000E+00  0.00000000E+00
  0.00000000E+00  0.00000000E+00  0.00000000E+00
  0.00000000E+00  0.00000000E+00  0.00000000E+00
  0.00000000E+00  0.00000000E+00  0.00000000E+00
  0.00000000E+00  0.00000000E+00  0.00000000E+00
  0.00000000E+00  0.00000000E+00  0.00000000E+00
  0.00000000E+00  0.00000000E+00  0.00000000E+00
  0.00000000E+00  0.00000000E+00  0.00000000E+00
  0.00000000E+00  0.00000000E+00  0.00000000E+00
  0.00000000E+00  0.00000000E+00  0.00000000E+00
  0.00000000E+00  0.00000000E+00  0.00000000E+00
  0.00000000E+00  0.00000000E+00  0.00000000E+00
  0.00000000E+00  0.00000000E+00  0.00000000E+00
  0.00000000E+00  0.00000000E+00  0.00000000E+00
  0.00000000E+00  0.00000000E+00  0.00000000E+00
  0.00000000E+00  0.00000000E+00  0.00000000E+00
  0.00000000E+00  0.00000000E+00  0.00000000E+00
  0.00000000E+00  0.00000000E+00  0.00000000E+00
  0.00000000E+00  0.00000000E+00  0.00000000E+00
  0.00000000E+00  0.00000000E+00  0.00000000E+00
  0.00000000E+00  0.00000000E+00  0.00000000E+00
  0.00000000E+00  0.00000000E+00  0.00000000E+00
  0.00000000E+00  0.00000000E+00  0.00000000E+00
  0.00000000E+00  0.00000000E+00  0.00000000E+00
  0.00000000E+00  0.00000000E+00  0.00000000E+00
  0.00000000E+00  0.00000000E+00  0.00000000E+00
  0.00000000E+00  0.00000000E+00  0.00000000E+00
  0.00000000E+00  0.00000000E+00  0.00000000E+00
  0.00000000E+00  0.00000000E+00  0.00000000E+00
  0.00000000E+00  0.00000000E+00  0.00000000E+00
  0.00000000E+00  0.00000000E+00  0.00000000E+00
  0.00000000E+00  0.00000000E+00  0.00000000E+00
  0.00000000E+00  0.00000000E+00  0.00000000E+00
