Sr1 Al2 Br10                            
   1.00000000000000     
     4.2425382544958943    6.2051945045484880    0.3043791541303872
    -4.2425382544958952    6.2051945045484880    0.3043791541303880
    -0.0000000000000009    4.8644002018176824    8.9008345802839717
   Sr   Al   Br
     1     2    10
Direct
  0.5586035392582644  0.4413964607417356  0.0000000000000000
  0.0048380959693120  0.0143227138835798  0.7340363706161526
  0.9856772861164202  0.9951619040306880  0.2659636293838474
  0.2109072253768076  0.2585221898106127  0.5978982310688465
  0.7414778101893873  0.7890927746231924  0.4021017689311535
  0.8011120556727604  0.7543369816566283  0.8997323273154123
  0.2456630183433717  0.1988879443272396  0.1002676726845877
  0.9209348992177837  0.0790651007822163  0.0000000000000000
  0.0900324107356170  0.9099675892643830  0.5000000000000000
  0.7038130117686592  0.2813992756771952  0.7064259622524958
  0.7186007243228048  0.2961869882313408  0.2935740377475042
  0.3132577299884716  0.7509188069596675  0.7764676689237078
  0.2490811930403325  0.6867422700115284  0.2235323310762922
 
  0.00000000E+00  0.00000000E+00  0.00000000E+00
  0.00000000E+00  0.00000000E+00  0.00000000E+00
  0.00000000E+00  0.00000000E+00  0.00000000E+00
  0.00000000E+00  0.00000000E+00  0.00000000E+00
  0.00000000E+00  0.00000000E+00  0.00000000E+00
  0.00000000E+00  0.00000000E+00  0.00000000E+00
  0.00000000E+00  0.00000000E+00  0.00000000E+00
  0.00000000E+00  0.00000000E+00  0.00000000E+00
  0.00000000E+00  0.00000000E+00  0.00000000E+00
  0.00000000E+00  0.00000000E+00  0.00000000E+00
  0.00000000E+00  0.00000000E+00  0.00000000E+00
  0.00000000E+00  0.00000000E+00  0.00000000E+00
  0.00000000E+00  0.00000000E+00  0.00000000E+00
