Sr2 Ga2 Cl6                             
   1.00000000000000     
     2.1828109892229719   -7.0001582210855613    0.0005472301953987
     2.1636947467871499    6.9941094886371360   -0.0002494548042989
     0.0008898438351086   -0.0011439756916787   10.7659154890709559
   Sr   Cl   Ga
     2     6     2
Direct
  0.0122116883375512  0.9893044229517258  0.0098531760334950
  0.9877384154880460  0.0106253971910988  0.5098175606442723
  0.6407370993355386  0.3591862215314094  0.0697636141054687
  0.9200201115043214  0.0816309330482241  0.2537427886504133
  0.6229597153724526  0.3726187115000172  0.4717754169671622
  0.3593091372868784  0.6407912193334013  0.5701705065429508
  0.0801329361926051  0.9186222053930067  0.7537271505305796
  0.3768024505167489  0.6270908336415886  0.9718501845905791
  0.2865938685573255  0.7225905982550032  0.1947110268237466
  0.7132945774085400  0.2773394571545253  0.6949885751113314
 
  0.00000000E+00  0.00000000E+00  0.00000000E+00
  0.00000000E+00  0.00000000E+00  0.00000000E+00
  0.00000000E+00  0.00000000E+00  0.00000000E+00
  0.00000000E+00  0.00000000E+00  0.00000000E+00
  0.00000000E+00  0.00000000E+00  0.00000000E+00
  0.00000000E+00  0.00000000E+00  0.00000000E+00
  0.00000000E+00  0.00000000E+00  0.00000000E+00
  0.00000000E+00  0.00000000E+00  0.00000000E+00
  0.00000000E+00  0.00000000E+00  0.00000000E+00
  0.00000000E+00  0.00000000E+00  0.00000000E+00
