Sr1 Ga2 F6                              
   1.00000000000000     
     2.6912575919844897   -0.0213234098313097    3.6295056174061022
    -2.6912575919844897   -0.0213234098313093    3.6295056174061013
     0.0000000000000003   -7.0636768326731385    5.7472424742154269
   Sr   F    Ga
     1     6     2
Direct
  0.0000000000000000  0.0000000000000000  0.0000000000000000
  0.7264842024687255  0.7264842024687255  0.4019310216078935
  0.9033725683929816  0.3789845040832276  0.1806242503787132
  0.3789845040832276  0.9033725683929816  0.1806242503787132
  0.2735157975312745  0.2735157975312745  0.5980689783920994
  0.6210154959167724  0.0966274316070184  0.8193757496212797
  0.0966274316070184  0.6210154959167724  0.8193757496212797
  0.0026810221072111  0.0026810221072111  0.6262854600856969
  0.9973189778927889  0.9973189778927889  0.3737145399143103
 
  0.00000000E+00  0.00000000E+00  0.00000000E+00
  0.00000000E+00  0.00000000E+00  0.00000000E+00
  0.00000000E+00  0.00000000E+00  0.00000000E+00
  0.00000000E+00  0.00000000E+00  0.00000000E+00
  0.00000000E+00  0.00000000E+00  0.00000000E+00
  0.00000000E+00  0.00000000E+00  0.00000000E+00
  0.00000000E+00  0.00000000E+00  0.00000000E+00
  0.00000000E+00  0.00000000E+00  0.00000000E+00
  0.00000000E+00  0.00000000E+00  0.00000000E+00
