Ca8 B50                                 
   1.00000000000000     
    10.9806839127901341    0.0000000000000000    0.0000000000000000
     0.0000000000000000    5.3581486155180418    0.1674231825306582
     0.0000000000000000    5.6275260854820210    9.6563812926730623
   Ca   B 
     8    50
Direct
  0.6359201734799171  0.0358610887488808  0.4567344717916200
  0.3640798265200829  0.0358610887488808  0.9567344717916200
  0.1925262440074320  0.3514994465135288  0.6451185059661526
  0.8074737559925680  0.3514994465135288  0.1451185059661526
  0.3640798265200829  0.9641389112511192  0.5432655282083800
  0.6359201734799171  0.9641389112511192  0.0432655282083800
  0.8074737559925680  0.6485005534864641  0.3548814940338474
  0.1925262440074320  0.6485005534864641  0.8548814940338474
  0.7409599154393192  0.4868207799791691  0.6263796894949678
  0.2590400845606808  0.4868207799791691  0.1263796894949678
  0.1320382888046936  0.2667757796684853  0.4163629027180917
  0.8679617111953064  0.2667757796684853  0.9163629027180917
  0.2590400845606808  0.5131792200208309  0.3736203105050322
  0.7409599154393192  0.5131792200208309  0.8736203105050322
  0.8679617111953064  0.7332242203315147  0.5836370972819083
  0.1320382888046936  0.7332242203315147  0.0836370972819083
  0.0137196302935365  0.9907333307003938  0.1712088742355604
  0.6941193253419868  0.8653353079517885  0.7341560113801293
  0.9862803697064635  0.9907333307003938  0.6712088742355604
  0.3058806746580132  0.8653353079517885  0.2341560113801293
  0.9862803697064635  0.0092666692996062  0.8287911257644396
  0.3058806746580132  0.1346646920482115  0.2658439886198707
  0.0137196302935365  0.0092666692996062  0.3287911257644396
  0.6941193253419868  0.1346646920482115  0.7658439886198707
  0.5232498720400969  0.6731240024951504  0.3915611458034434
  0.4767501279599031  0.6731240024951504  0.8915611458034434
  0.1237824884390264  0.9736337836451554  0.5919816905183666
  0.8762175115609736  0.9736337836451554  0.0919816905183666
  0.4767501279599031  0.3268759975048496  0.6084388541965566
  0.5232498720400969  0.3268759975048496  0.1084388541965566
  0.8762175115609736  0.0263662163548446  0.4080183094816334
  0.1237824884390264  0.0263662163548446  0.9080183094816334
  0.5800524436189889  0.4057906084705039  0.7052484360249238
  0.4199475563810111  0.4057906084705039  0.2052484360249238
  0.9810743596548193  0.3328379035609927  0.3357097847322876
  0.0189256403451807  0.3328379035609927  0.8357097847322876
  0.4199475563810111  0.5942093915295033  0.2947515639750762
  0.5800524436189889  0.5942093915295033  0.7947515639750762
  0.0189256403451807  0.6671620964390002  0.6642902152677124
  0.9810743596548193  0.6671620964390073  0.1642902152677124
  0.1282349213506819  0.1135807877831709  0.0376170033338141
  0.7478036472425629  0.7948345999207973  0.9009143216317526
  0.8717650786493181  0.1135807877831709  0.5376170033338141
  0.2521963527574371  0.7948345999207973  0.4009143216317526
  0.8717650786493181  0.8864192122168291  0.9623829966661859
  0.2521963527574371  0.2051654000792027  0.0990856783682474
  0.1282349213506819  0.8864192122168291  0.4623829966661859
  0.7478036472425629  0.2051654000792027  0.5990856783682474
  0.6217746643542910  0.4840728634032345  0.5264974564434084
  0.3782253356457090  0.4840728634032345  0.0264974564434155
  0.0071819866819283  0.3328697920781636  0.4989834329921052
  0.9928180133180717  0.3328697920781636  0.9989834329921052
  0.3782253356457090  0.5159271365967655  0.4735025435565916
  0.6217746643542910  0.5159271365967655  0.9735025435565845
  0.9928180133180717  0.6671302079218364  0.5010165670078948
  0.0071819866819283  0.6671302079218364  0.0010165670078948
  0.4630367750755866  0.0000000000000000  0.2500000000000000
  0.5369632249244205  0.0000000000000000  0.7500000000000000
 
  0.00000000E+00  0.00000000E+00  0.00000000E+00
  0.00000000E+00  0.00000000E+00  0.00000000E+00
  0.00000000E+00  0.00000000E+00  0.00000000E+00
  0.00000000E+00  0.00000000E+00  0.00000000E+00
  0.00000000E+00  0.00000000E+00  0.00000000E+00
  0.00000000E+00  0.00000000E+00  0.00000000E+00
  0.00000000E+00  0.00000000E+00  0.00000000E+00
  0.00000000E+00  0.00000000E+00  0.00000000E+00
  0.00000000E+00  0.00000000E+00  0.00000000E+00
  0.00000000E+00  0.00000000E+00  0.00000000E+00
  0.00000000E+00  0.00000000E+00  0.00000000E+00
  0.00000000E+00  0.00000000E+00  0.00000000E+00
  0.00000000E+00  0.00000000E+00  0.00000000E+00
  0.00000000E+00  0.00000000E+00  0.00000000E+00
  0.00000000E+00  0.00000000E+00  0.00000000E+00
  0.00000000E+00  0.00000000E+00  0.00000000E+00
  0.00000000E+00  0.00000000E+00  0.00000000E+00
  0.00000000E+00  0.00000000E+00  0.00000000E+00
  0.00000000E+00  0.00000000E+00  0.00000000E+00
  0.00000000E+00  0.00000000E+00  0.00000000E+00
  0.00000000E+00  0.00000000E+00  0.00000000E+00
  0.00000000E+00  0.00000000E+00  0.00000000E+00
  0.00000000E+00  0.00000000E+00  0.00000000E+00
  0.00000000E+00  0.00000000E+00  0.00000000E+00
  0.00000000E+00  0.00000000E+00  0.00000000E+00
  0.00000000E+00  0.00000000E+00  0.00000000E+00
  0.00000000E+00  0.00000000E+00  0.00000000E+00
  0.00000000E+00  0.00000000E+00  0.00000000E+00
  0.00000000E+00  0.00000000E+00  0.00000000E+00
  0.00000000E+00  0.00000000E+00  0.00000000E+00
  0.00000000E+00  0.00000000E+00  0.00000000E+00
  0.00000000E+00  0.00000000E+00  0.00000000E+00
  0.00000000E+00  0.00000000E+00  0.00000000E+00
  0.00000000E+00  0.00000000E+00  0.00000000E+00
  0.00000000E+00  0.00000000E+00  0.00000000E+00
  0.00000000E+00  0.00000000E+00  0.00000000E+00
  0.00000000E+00  0.00000000E+00  0.00000000E+00
  0.00000000E+00  0.00000000E+00  0.00000000E+00
  0.00000000E+00  0.00000000E+00  0.00000000E+00
  0.00000000E+00  0.00000000E+00  0.00000000E+00
  0.00000000E+00  0.00000000E+00  0.00000000E+00
  0.00000000E+00  0.00000000E+00  0.00000000E+00
  0.00000000E+00  0.00000000E+00  0.00000000E+00
  0.00000000E+00  0.00000000E+00  0.00000000E+00
  0.00000000E+00  0.00000000E+00  0.00000000E+00
  0.00000000E+00  0.00000000E+00  0.00000000E+00
  0.00000000E+00  0.00000000E+00  0.00000000E+00
  0.00000000E+00  0.00000000E+00  0.00000000E+00
  0.00000000E+00  0.00000000E+00  0.00000000E+00
  0.00000000E+00  0.00000000E+00  0.00000000E+00
  0.00000000E+00  0.00000000E+00  0.00000000E+00
  0.00000000E+00  0.00000000E+00  0.00000000E+00
  0.00000000E+00  0.00000000E+00  0.00000000E+00
  0.00000000E+00  0.00000000E+00  0.00000000E+00
  0.00000000E+00  0.00000000E+00  0.00000000E+00
  0.00000000E+00  0.00000000E+00  0.00000000E+00
  0.00000000E+00  0.00000000E+00  0.00000000E+00
  0.00000000E+00  0.00000000E+00  0.00000000E+00
