Be7 In13                                
   1.0000000000000000     
     5.8538947450565262    0.7411267014082564    0.2586848627472865
    -2.2593838554962420    4.9412930886371935   -0.3173430983876673
     0.7237339566430091   -0.5426737704158928   13.9370333655225522
   In   Be
    13     7
Direct
  0.3451026010763911  0.5502653204806407  0.9701024766401574
  0.0230246634312721  0.3008432672452699  0.2825320214273077
  0.1710134148587699  0.0015826215712664  0.0953099819437213
  0.6011900702932707  0.8029240525935322  0.1659582304115190
  0.1570988643474323  0.8457852539184429  0.3615644800932785
  0.1209439113924446  0.4718254067346095  0.5353661927244246
  0.5766466321202515  0.5677814582146752  0.3684573500740385
  0.5477235282426847  0.2397733726094700  0.5447109511270298
  0.7071512070559862  0.8050235455661436  0.6408454095481773
  0.3082341106508011  0.3028588229427314  0.7580229870534012
  0.7632456276568789  0.1419874593424453  0.8899456204048874
  0.9381335837527374  0.6626762283730585  0.8118094284013821
  0.7930466319972496  0.3703781635103596  0.0940182574512960
  0.2654838108198945  0.0264968817985931  0.9158678479658775
  0.4367754866707472  0.1744562404070393  0.2430601400158992
  0.6095804322753935  0.0632890615543786  0.3583831994959752
  0.8433193058324449  0.0189981975347280  0.4618732422217207
  0.1032093730181742  0.9707776296326074  0.5483018786748914
  0.2718481566598072  0.8641395415053452  0.6600286123665882
  0.4172305878476052  0.8181394744646937  0.7942416919584687

  0.00000000E+00  0.00000000E+00  0.00000000E+00
  0.00000000E+00  0.00000000E+00  0.00000000E+00
  0.00000000E+00  0.00000000E+00  0.00000000E+00
  0.00000000E+00  0.00000000E+00  0.00000000E+00
  0.00000000E+00  0.00000000E+00  0.00000000E+00
  0.00000000E+00  0.00000000E+00  0.00000000E+00
  0.00000000E+00  0.00000000E+00  0.00000000E+00
  0.00000000E+00  0.00000000E+00  0.00000000E+00
  0.00000000E+00  0.00000000E+00  0.00000000E+00
  0.00000000E+00  0.00000000E+00  0.00000000E+00
  0.00000000E+00  0.00000000E+00  0.00000000E+00
  0.00000000E+00  0.00000000E+00  0.00000000E+00
  0.00000000E+00  0.00000000E+00  0.00000000E+00
  0.00000000E+00  0.00000000E+00  0.00000000E+00
  0.00000000E+00  0.00000000E+00  0.00000000E+00
  0.00000000E+00  0.00000000E+00  0.00000000E+00
  0.00000000E+00  0.00000000E+00  0.00000000E+00
  0.00000000E+00  0.00000000E+00  0.00000000E+00
  0.00000000E+00  0.00000000E+00  0.00000000E+00
  0.00000000E+00  0.00000000E+00  0.00000000E+00
