Mg2 Ga2 Cl10                            
   1.00000000000000     
     5.9462374518828049    0.1530765950034332    2.5057567788032498
     1.4524269084615118    5.7681559070771051    2.5057571057541534
     0.0555964279035717    0.0444965276109249    9.8545314500085244
   Mg   Ga   Cl
     2     2    10
Direct
  0.4857854297628421  0.5142145700091447  0.2500000002365894
  0.5142145702371579  0.4857854299908553  0.7499999997634106
  0.0000000000000000  0.0000000000000000  0.5000000000000000
  0.0000000000000000  0.0000000000000000  0.0000000000000000
  0.8554155124813505  0.6816297036934529  0.6480042326587068
  0.3183703026534559  0.1445834822034016  0.8519957668090541
  0.1445834875186520  0.3183702963065471  0.3519967673412978
  0.6816296973465441  0.8554155177966010  0.1480042331909459
  0.8651198823795880  0.1348801162526740  0.7500000010189183
  0.1348801176204120  0.8651198837473260  0.2499999989810817
  0.7679347505635832  0.3719688775594037  0.0344541969023950
  0.6280311195329347  0.2320652455889487  0.4655458086460200
  0.2320652494364168  0.6280311224405963  0.9655458030976121
  0.3719688804670653  0.7679347544110513  0.5344541913539871
 
  0.00000000E+00  0.00000000E+00  0.00000000E+00
  0.00000000E+00  0.00000000E+00  0.00000000E+00
  0.00000000E+00  0.00000000E+00  0.00000000E+00
  0.00000000E+00  0.00000000E+00  0.00000000E+00
  0.00000000E+00  0.00000000E+00  0.00000000E+00
  0.00000000E+00  0.00000000E+00  0.00000000E+00
  0.00000000E+00  0.00000000E+00  0.00000000E+00
  0.00000000E+00  0.00000000E+00  0.00000000E+00
  0.00000000E+00  0.00000000E+00  0.00000000E+00
  0.00000000E+00  0.00000000E+00  0.00000000E+00
  0.00000000E+00  0.00000000E+00  0.00000000E+00
  0.00000000E+00  0.00000000E+00  0.00000000E+00
  0.00000000E+00  0.00000000E+00  0.00000000E+00
  0.00000000E+00  0.00000000E+00  0.00000000E+00
