Mg1 Al12                                
   1.00000000000000     
    -4.6385048701790312    4.6385048701790330    2.6864391094200246
     4.6385048701790339   -4.6385048701790303    2.6864391094200246
     4.6385048701790303    4.6385048701790295   -2.6864391094200224
   Al   Mg
    12     1
Direct
  0.5000000000000000  0.0000000000000000  0.0000000000000000
  0.0000000000000000  0.5000000000000000  0.0000000000000000
  0.7150224051505845  0.5000000000000000  0.2150224051505916
  0.5000000000000000  0.7150224051505845  0.2150224051505916
  0.3521821313914444  0.0000000000000000  0.3521821313914444
  0.0000000000000000  0.3521821313914444  0.3521821313914444
  0.0000000000000000  0.0000000000000000  0.5000000000000000
  0.5000000000000000  0.5000000000000000  0.5000000000000000
  0.6478178686085485  0.0000000000000000  0.6478178686085485
  0.0000000000000000  0.6478178686085485  0.6478178686085485
  0.5000000000000000  0.2849775948494155  0.7849775948494155
  0.2849775948494155  0.5000000000000000  0.7849775948494155
  0.0000000000000000  0.0000000000000000  0.0000000000000000
 
  0.00000000E+00  0.00000000E+00  0.00000000E+00
  0.00000000E+00  0.00000000E+00  0.00000000E+00
  0.00000000E+00  0.00000000E+00  0.00000000E+00
  0.00000000E+00  0.00000000E+00  0.00000000E+00
  0.00000000E+00  0.00000000E+00  0.00000000E+00
  0.00000000E+00  0.00000000E+00  0.00000000E+00
  0.00000000E+00  0.00000000E+00  0.00000000E+00
  0.00000000E+00  0.00000000E+00  0.00000000E+00
  0.00000000E+00  0.00000000E+00  0.00000000E+00
  0.00000000E+00  0.00000000E+00  0.00000000E+00
  0.00000000E+00  0.00000000E+00  0.00000000E+00
  0.00000000E+00  0.00000000E+00  0.00000000E+00
  0.00000000E+00  0.00000000E+00  0.00000000E+00
