Mg13 Tl16                               
   1.0000000000000000     
    -5.7727771379497703   -5.7727771379497703    5.7727771379497703
    -5.7727771379497703    5.7727771379497703   -5.7727771379497703
     5.7727771379497703   -5.7727771379497703   -5.7727771379497703
   Tl   Mg
    16    13
Direct
  0.6501949047371554  0.0000000000000000  0.0000000000000000
  0.3947219142971505  0.1997937589327492  0.0000000000000000
  0.1997937589327492  0.3947219142971505  0.0000000000000000
  0.0000000000000000  0.6501949047371554  0.0000000000000000
  0.8002062410672508  0.8002062410672508  0.1949281553644013
  0.3947219142971505  0.0000000000000000  0.1997937589327492
  0.0000000000000000  0.3947219142971505  0.1997937589327492
  0.3498050952628446  0.3498050952628446  0.3498050952628446
  0.1997937589327492  0.0000000000000000  0.3947219142971505
  0.0000000000000000  0.1997937589327492  0.3947219142971505
  0.8050718446355987  0.6052780857028495  0.6052780857028495
  0.6052780857028495  0.8050718446355987  0.6052780857028495
  0.0000000000000000  0.0000000000000000  0.6501949047371554
  0.8002062410672508  0.1949281553644013  0.8002062410672508
  0.1949281553644013  0.8002062410672508  0.8002062410672508
  0.6052780857028495  0.6052780857028495  0.8050718446355987
  0.0000000000000000  0.0000000000000000  0.0000000000000000
  0.6908627216805243  0.4131970129654690  0.0000000000000000
  0.4131970129654690  0.6908627216805243  0.0000000000000000
  0.5868029870345239  0.5868029870345239  0.2776657087150483
  0.7223342912849517  0.3091372783194757  0.3091372783194757
  0.3091372783194757  0.7223342912849517  0.3091372783194757
  0.6908627216805243  0.0000000000000000  0.4131970129654690
  0.0000000000000000  0.6908627216805243  0.4131970129654690
  0.5868029870345239  0.2776657087150483  0.5868029870345239
  0.2776657087150483  0.5868029870345239  0.5868029870345239
  0.4131970129654690  0.0000000000000000  0.6908627216805243
  0.0000000000000000  0.4131970129654690  0.6908627216805243
  0.3091372783194757  0.3091372783194757  0.7223342912849517

  0.00000000E+00  0.00000000E+00  0.00000000E+00
  0.00000000E+00  0.00000000E+00  0.00000000E+00
  0.00000000E+00  0.00000000E+00  0.00000000E+00
  0.00000000E+00  0.00000000E+00  0.00000000E+00
  0.00000000E+00  0.00000000E+00  0.00000000E+00
  0.00000000E+00  0.00000000E+00  0.00000000E+00
  0.00000000E+00  0.00000000E+00  0.00000000E+00
  0.00000000E+00  0.00000000E+00  0.00000000E+00
  0.00000000E+00  0.00000000E+00  0.00000000E+00
  0.00000000E+00  0.00000000E+00  0.00000000E+00
  0.00000000E+00  0.00000000E+00  0.00000000E+00
  0.00000000E+00  0.00000000E+00  0.00000000E+00
  0.00000000E+00  0.00000000E+00  0.00000000E+00
  0.00000000E+00  0.00000000E+00  0.00000000E+00
  0.00000000E+00  0.00000000E+00  0.00000000E+00
  0.00000000E+00  0.00000000E+00  0.00000000E+00
  0.00000000E+00  0.00000000E+00  0.00000000E+00
  0.00000000E+00  0.00000000E+00  0.00000000E+00
  0.00000000E+00  0.00000000E+00  0.00000000E+00
  0.00000000E+00  0.00000000E+00  0.00000000E+00
  0.00000000E+00  0.00000000E+00  0.00000000E+00
  0.00000000E+00  0.00000000E+00  0.00000000E+00
  0.00000000E+00  0.00000000E+00  0.00000000E+00
  0.00000000E+00  0.00000000E+00  0.00000000E+00
  0.00000000E+00  0.00000000E+00  0.00000000E+00
  0.00000000E+00  0.00000000E+00  0.00000000E+00
  0.00000000E+00  0.00000000E+00  0.00000000E+00
  0.00000000E+00  0.00000000E+00  0.00000000E+00
  0.00000000E+00  0.00000000E+00  0.00000000E+00
