Mg17 In11 Br1                           
   1.0000000000000000     
     7.8665251807839685   -4.8290281084461535    3.1079611094254957
    -0.1686556627408022    9.4483745571991431    3.2363458141058685
    -7.7522164642462394   -4.5624062834166415    3.1992635443981658
   In   Br   Mg
    11     1    17
Direct
  0.6636657296982804  0.8191892951280408  0.9999439650395843
  0.3841562896022452  0.3895662522150900  0.1939063738533306
  0.2045993109319539  0.8169326139508826  0.1954714038337997
  0.8014950308529123  0.2074266196911978  0.1956951383535497
  0.1838917775200315  0.3841807924814020  0.3814078376882009
  0.3869065807410479  0.1958084752176390  0.3929685347131127
  0.9938511964499597  0.8025077367316982  0.6070882873341930
  0.8021437904616562  0.0026193950464020  0.6188350447358602
  0.6058698420049851  0.0119674422920824  0.8046215498375062
  0.0093994194473055  0.6212348463256205  0.8044530949979887
  0.1899969823753054  0.1950476610457557  0.8058323027419760
  0.7561668191647968  0.5311617269402049  0.9999107701186389
  0.0139702381120088  0.3303243496844175  0.9999687350624811
  0.3280067159423439  0.6105052443247772  0.0001119794592057
  0.3358398545815575  0.9794726837711849  0.0000413879288388
  0.5544470366310321  0.2780653634675190  0.0002648992406691
  0.0115397877752628  0.9912520385494474  0.9997029115134808
  0.6853737381258682  0.7042267643950879  0.2849531421661737
  0.0104827781997230  0.5900285001372794  0.3147306649426440
  0.6022034296059644  0.0015108000976269  0.3109232371234540
  0.0061296923126477  0.0239545239897083  0.3492300630616612
  0.4017683510054368  0.7203794170633344  0.4006515489131957
  0.7190651177208025  0.4133399766479116  0.4142088847534566
  0.3047729789084670  0.9991502497874194  0.5857917128173398
  0.0010719350672872  0.3193770363119697  0.5993863515115478
  0.6563168831509358  0.6742209915121862  0.6503991354712753
  0.2913892529971633  0.6905867081212378  0.6892335273915293
  0.6956631618584552  0.2752976069416633  0.6852288800704045
  0.4002302787545631  0.4188208881312079  0.7150386353249019

  0.00000000E+00  0.00000000E+00  0.00000000E+00
  0.00000000E+00  0.00000000E+00  0.00000000E+00
  0.00000000E+00  0.00000000E+00  0.00000000E+00
  0.00000000E+00  0.00000000E+00  0.00000000E+00
  0.00000000E+00  0.00000000E+00  0.00000000E+00
  0.00000000E+00  0.00000000E+00  0.00000000E+00
  0.00000000E+00  0.00000000E+00  0.00000000E+00
  0.00000000E+00  0.00000000E+00  0.00000000E+00
  0.00000000E+00  0.00000000E+00  0.00000000E+00
  0.00000000E+00  0.00000000E+00  0.00000000E+00
  0.00000000E+00  0.00000000E+00  0.00000000E+00
  0.00000000E+00  0.00000000E+00  0.00000000E+00
  0.00000000E+00  0.00000000E+00  0.00000000E+00
  0.00000000E+00  0.00000000E+00  0.00000000E+00
  0.00000000E+00  0.00000000E+00  0.00000000E+00
  0.00000000E+00  0.00000000E+00  0.00000000E+00
  0.00000000E+00  0.00000000E+00  0.00000000E+00
  0.00000000E+00  0.00000000E+00  0.00000000E+00
  0.00000000E+00  0.00000000E+00  0.00000000E+00
  0.00000000E+00  0.00000000E+00  0.00000000E+00
  0.00000000E+00  0.00000000E+00  0.00000000E+00
  0.00000000E+00  0.00000000E+00  0.00000000E+00
  0.00000000E+00  0.00000000E+00  0.00000000E+00
  0.00000000E+00  0.00000000E+00  0.00000000E+00
  0.00000000E+00  0.00000000E+00  0.00000000E+00
  0.00000000E+00  0.00000000E+00  0.00000000E+00
  0.00000000E+00  0.00000000E+00  0.00000000E+00
  0.00000000E+00  0.00000000E+00  0.00000000E+00
  0.00000000E+00  0.00000000E+00  0.00000000E+00
