Be17 In11 I1                            
   1.00000000000000     
     7.6256271947529557   -4.3080108649576623    3.1427003627333532
     0.1914977145278544    9.4182976825993734    3.4069337234250918
    -6.7812414361721229   -4.2273599473231718    1.3985653196392831
   In   I    Be
    11     1    17
Direct
  0.6492638827358164  0.7989297942127962  0.9998314555663939
  0.5025597693978909  0.4454086061624736  0.2779957632562642
  0.7818824555354311  0.2799576877008505  0.2736040341066399
  0.3880255001111266  0.8752704442859027  0.2592219666860345
  0.1020579692697652  0.3443220376300218  0.2572560076141599
  0.3064800310841278  0.1880693136598808  0.4071408285860301
  0.8988031992274657  0.7800010982782979  0.5944506619201633
  0.8417339585034185  0.0841360799811568  0.7395678543586612
  0.1291501138590050  0.6164018244364655  0.7436293009764725
  0.5044325223085551  0.0045597929817731  0.7228084975678897
  0.2190176821545293  0.1604871996043400  0.7154557021933385
  0.8548966466456562  0.5452808656098398  0.0000755073706742
  0.0867009688184126  0.4333860833659315  0.9991178541414101
  0.2194687452291433  0.9519270568192510  0.0010358169779465
  0.4226675776179931  0.1316714544641044  0.0001642814899725
  0.9521588842791431  0.9560263880242417  0.9999622935812198
  0.3289266474790509  0.5315010246735667  0.0019333368308594
  0.6221929420445775  0.7761704682483099  0.3022183459062546
  0.7449969463840276  0.0649118906410564  0.3846354322810939
  0.1599168848575090  0.6731315002559484  0.3452047949194963
  0.9742973190062187  0.1147392836865322  0.3324967193090416
  0.3773834664972782  0.6443236826169922  0.3286359700327495
  0.5302300570107903  0.1662453913115556  0.3138365603335700
  0.2150228406482597  0.8494468853888435  0.6870810571979646
  0.0518385017093337  0.3179100057658104  0.6738886968609208
  0.6411327729037950  0.7794115034044182  0.6693518887725318
  0.8185065377792142  0.3327968691230083  0.6544153701650259
  0.3593911360788979  0.6808796294964594  0.6181076015951064
  0.3178200408235554  0.4720361381701750  0.6968773994020978
 
  0.00000000E+00  0.00000000E+00  0.00000000E+00
  0.00000000E+00  0.00000000E+00  0.00000000E+00
  0.00000000E+00  0.00000000E+00  0.00000000E+00
  0.00000000E+00  0.00000000E+00  0.00000000E+00
  0.00000000E+00  0.00000000E+00  0.00000000E+00
  0.00000000E+00  0.00000000E+00  0.00000000E+00
  0.00000000E+00  0.00000000E+00  0.00000000E+00
  0.00000000E+00  0.00000000E+00  0.00000000E+00
  0.00000000E+00  0.00000000E+00  0.00000000E+00
  0.00000000E+00  0.00000000E+00  0.00000000E+00
  0.00000000E+00  0.00000000E+00  0.00000000E+00
  0.00000000E+00  0.00000000E+00  0.00000000E+00
  0.00000000E+00  0.00000000E+00  0.00000000E+00
  0.00000000E+00  0.00000000E+00  0.00000000E+00
  0.00000000E+00  0.00000000E+00  0.00000000E+00
  0.00000000E+00  0.00000000E+00  0.00000000E+00
  0.00000000E+00  0.00000000E+00  0.00000000E+00
  0.00000000E+00  0.00000000E+00  0.00000000E+00
  0.00000000E+00  0.00000000E+00  0.00000000E+00
  0.00000000E+00  0.00000000E+00  0.00000000E+00
  0.00000000E+00  0.00000000E+00  0.00000000E+00
  0.00000000E+00  0.00000000E+00  0.00000000E+00
  0.00000000E+00  0.00000000E+00  0.00000000E+00
  0.00000000E+00  0.00000000E+00  0.00000000E+00
  0.00000000E+00  0.00000000E+00  0.00000000E+00
  0.00000000E+00  0.00000000E+00  0.00000000E+00
  0.00000000E+00  0.00000000E+00  0.00000000E+00
  0.00000000E+00  0.00000000E+00  0.00000000E+00
  0.00000000E+00  0.00000000E+00  0.00000000E+00
