Mg41 In67                               
   1.00000000000000     
    13.9135431019620288    0.0000000000000000    0.0000000000000000
     0.0000000000000000   13.9135431019620270    0.0000000000000000
     0.0000000000000000    0.0000000000000000   13.9135431019620288
   Mg   In
    41    67
Direct
  0.6690117832556410  0.3309882167443590  0.1648995978229095
  0.6690117832556410  0.8351004021770905  0.3309882167443590
  0.1648995978229095  0.6690117832556410  0.6690117832556410
  0.3309882167443590  0.8351004021770905  0.6690117832556410
  0.0000000000000000  0.8374896828260887  0.0000000000000000
  0.8351004021770905  0.6690117832556410  0.6690117832556410
  0.1648995978229095  0.3309882167443590  0.3309882167443590
  0.6690117832556410  0.1648995978229095  0.3309882167443590
  0.8331813339716518  0.1668186660283482  0.1668186660283482
  0.8351004021770905  0.6690117832556410  0.3309882167443590
  0.0000000000000000  0.0000000000000000  0.1625103171739113
  0.6690117832556410  0.6690117832556410  0.1648995978229095
  0.3309882167443590  0.6690117832556410  0.8351004021770905
  0.1668186660283482  0.1668186660283482  0.8331813339716518
  0.6690117832556410  0.3309882167443590  0.8351004021770905
  0.0000000000000000  0.5000000000000000  0.0000000000000000
  0.6690117832556410  0.1648995978229095  0.6690117832556410
  0.1648995978229095  0.6690117832556410  0.3309882167443590
  0.8331813339716518  0.1668186660283482  0.8331813339716518
  0.1648995978229095  0.3309882167443590  0.6690117832556410
  0.1668186660283482  0.1668186660283482  0.1668186660283482
  0.6690117832556410  0.6690117832556410  0.8351004021770905
  0.6690117832556410  0.8351004021770905  0.6690117832556410
  0.8331813339716518  0.8331813339716518  0.1668186660283482
  0.1625103171739113  0.0000000000000000  0.0000000000000000
  0.3309882167443590  0.1648995978229095  0.6690117832556410
  0.8351004021770905  0.3309882167443590  0.6690117832556410
  0.0000000000000000  0.0000000000000000  0.5000000000000000
  0.1668186660283482  0.8331813339716518  0.1668186660283482
  0.3309882167443590  0.6690117832556410  0.1648995978229095
  0.0000000000000000  0.1625103171739113  0.0000000000000000
  0.1668186660283482  0.8331813339716518  0.8331813339716518
  0.8374896828260887  0.0000000000000000  0.0000000000000000
  0.3309882167443590  0.3309882167443590  0.8351004021770905
  0.3309882167443590  0.3309882167443590  0.1648995978229095
  0.3309882167443590  0.1648995978229095  0.3309882167443590
  0.5000000000000000  0.0000000000000000  0.0000000000000000
  0.8351004021770905  0.3309882167443590  0.3309882167443590
  0.3309882167443590  0.8351004021770905  0.3309882167443590
  0.0000000000000000  0.0000000000000000  0.8374896828260887
  0.8331813339716518  0.8331813339716518  0.8331813339716518
  0.5000000000000000  0.3303621850755576  0.3303621850755576
  0.8339138043209289  0.1660861956790711  0.5000000000000000
  0.3303621850755576  0.5000000000000000  0.6696378149244424
  0.6700046001039084  0.0000000000000000  0.5000000000000000
  0.6726624708606863  0.0000000000000000  0.8349822193766130
  0.8349822193766130  0.0000000000000000  0.6726624708606863
  0.5000000000000000  0.0000000000000000  0.3299953998960916
  0.3273375291393137  0.8349822193766130  0.0000000000000000
  0.0000000000000000  0.6700046001039084  0.5000000000000000
  0.3299953998960916  0.0000000000000000  0.5000000000000000
  0.6726624708606863  0.0000000000000000  0.1650177806233870
  0.5000000000000000  0.8339138043209289  0.1660861956790711
  0.6700046001039084  0.5000000000000000  0.0000000000000000
  0.1650177806233870  0.6726624708606863  0.0000000000000000
  0.8339138043209289  0.5000000000000000  0.1660861956790711
  0.1635622680131021  0.5000000000000000  0.5000000000000000
  0.1650177806233870  0.3273375291393137  0.0000000000000000
  0.5000000000000000  0.5000000000000000  0.1635622680131021
  0.5000000000000000  0.8339138043209289  0.8339138043209289
  0.5000000000000000  0.0000000000000000  0.6700046001039084
  0.3303621850755576  0.3303621850755576  0.5000000000000000
  0.5000000000000000  0.1660861956790711  0.1660861956790711
  0.5000000000000000  0.6696378149244424  0.3303621850755576
  0.3273375291393137  0.0000000000000000  0.1650177806233870
  0.1650177806233870  0.0000000000000000  0.6726624708606863
  0.8349822193766130  0.0000000000000000  0.3273375291393137
  0.1660861956790711  0.5000000000000000  0.1660861956790711
  0.0000000000000000  0.1650177806233870  0.6726624708606863
  0.3273375291393137  0.0000000000000000  0.8349822193766130
  0.0000000000000000  0.8349822193766130  0.3273375291393137
  0.1660861956790711  0.1660861956790711  0.5000000000000000
  0.5000000000000000  0.5000000000000000  0.5000000000000000
  0.5000000000000000  0.3299953998960916  0.0000000000000000
  0.5000000000000000  0.6696378149244424  0.6696378149244424
  0.6696378149244424  0.3303621850755576  0.5000000000000000
  0.1650177806233870  0.0000000000000000  0.3273375291393137
  0.6696378149244424  0.5000000000000000  0.6696378149244424
  0.5000000000000000  0.6700046001039084  0.0000000000000000
  0.0000000000000000  0.3273375291393137  0.8349822193766130
  0.0000000000000000  0.6726624708606863  0.8349822193766130
  0.5000000000000000  0.1635622680131021  0.5000000000000000
  0.5000000000000000  0.8364377319868979  0.5000000000000000
  0.8339138043209289  0.8339138043209289  0.5000000000000000
  0.0000000000000000  0.1650177806233870  0.3273375291393137
  0.1660861956790711  0.8339138043209289  0.5000000000000000
  0.0000000000000000  0.3273375291393137  0.1650177806233870
  0.0000000000000000  0.6726624708606863  0.1650177806233870
  0.0000000000000000  0.8349822193766130  0.6726624708606863
  0.3303621850755576  0.6696378149244424  0.5000000000000000
  0.6726624708606863  0.1650177806233870  0.0000000000000000
  0.8349822193766130  0.6726624708606863  0.0000000000000000
  0.3299953998960916  0.5000000000000000  0.0000000000000000
  0.3273375291393137  0.1650177806233870  0.0000000000000000
  0.6726624708606863  0.8349822193766130  0.0000000000000000
  0.8339138043209289  0.5000000000000000  0.8339138043209289
  0.8364377319868979  0.5000000000000000  0.5000000000000000
  0.0000000000000000  0.5000000000000000  0.3299953998960916
  0.5000000000000000  0.1660861956790711  0.8339138043209289
  0.5000000000000000  0.3303621850755576  0.6696378149244424
  0.3303621850755576  0.5000000000000000  0.3303621850755576
  0.0000000000000000  0.3299953998960916  0.5000000000000000
  0.8349822193766130  0.3273375291393137  0.0000000000000000
  0.1660861956790711  0.5000000000000000  0.8339138043209289
  0.6696378149244424  0.5000000000000000  0.3303621850755576
  0.6696378149244424  0.6696378149244424  0.5000000000000000
  0.5000000000000000  0.5000000000000000  0.8364377319868979
  0.0000000000000000  0.5000000000000000  0.6700046001039084
 
  0.00000000E+00  0.00000000E+00  0.00000000E+00
  0.00000000E+00  0.00000000E+00  0.00000000E+00
  0.00000000E+00  0.00000000E+00  0.00000000E+00
  0.00000000E+00  0.00000000E+00  0.00000000E+00
  0.00000000E+00  0.00000000E+00  0.00000000E+00
  0.00000000E+00  0.00000000E+00  0.00000000E+00
  0.00000000E+00  0.00000000E+00  0.00000000E+00
  0.00000000E+00  0.00000000E+00  0.00000000E+00
  0.00000000E+00  0.00000000E+00  0.00000000E+00
  0.00000000E+00  0.00000000E+00  0.00000000E+00
  0.00000000E+00  0.00000000E+00  0.00000000E+00
  0.00000000E+00  0.00000000E+00  0.00000000E+00
  0.00000000E+00  0.00000000E+00  0.00000000E+00
  0.00000000E+00  0.00000000E+00  0.00000000E+00
  0.00000000E+00  0.00000000E+00  0.00000000E+00
  0.00000000E+00  0.00000000E+00  0.00000000E+00
  0.00000000E+00  0.00000000E+00  0.00000000E+00
  0.00000000E+00  0.00000000E+00  0.00000000E+00
  0.00000000E+00  0.00000000E+00  0.00000000E+00
  0.00000000E+00  0.00000000E+00  0.00000000E+00
  0.00000000E+00  0.00000000E+00  0.00000000E+00
  0.00000000E+00  0.00000000E+00  0.00000000E+00
  0.00000000E+00  0.00000000E+00  0.00000000E+00
  0.00000000E+00  0.00000000E+00  0.00000000E+00
  0.00000000E+00  0.00000000E+00  0.00000000E+00
  0.00000000E+00  0.00000000E+00  0.00000000E+00
  0.00000000E+00  0.00000000E+00  0.00000000E+00
  0.00000000E+00  0.00000000E+00  0.00000000E+00
  0.00000000E+00  0.00000000E+00  0.00000000E+00
  0.00000000E+00  0.00000000E+00  0.00000000E+00
  0.00000000E+00  0.00000000E+00  0.00000000E+00
  0.00000000E+00  0.00000000E+00  0.00000000E+00
  0.00000000E+00  0.00000000E+00  0.00000000E+00
  0.00000000E+00  0.00000000E+00  0.00000000E+00
  0.00000000E+00  0.00000000E+00  0.00000000E+00
  0.00000000E+00  0.00000000E+00  0.00000000E+00
  0.00000000E+00  0.00000000E+00  0.00000000E+00
  0.00000000E+00  0.00000000E+00  0.00000000E+00
  0.00000000E+00  0.00000000E+00  0.00000000E+00
  0.00000000E+00  0.00000000E+00  0.00000000E+00
  0.00000000E+00  0.00000000E+00  0.00000000E+00
  0.00000000E+00  0.00000000E+00  0.00000000E+00
  0.00000000E+00  0.00000000E+00  0.00000000E+00
  0.00000000E+00  0.00000000E+00  0.00000000E+00
  0.00000000E+00  0.00000000E+00  0.00000000E+00
  0.00000000E+00  0.00000000E+00  0.00000000E+00
  0.00000000E+00  0.00000000E+00  0.00000000E+00
  0.00000000E+00  0.00000000E+00  0.00000000E+00
  0.00000000E+00  0.00000000E+00  0.00000000E+00
  0.00000000E+00  0.00000000E+00  0.00000000E+00
  0.00000000E+00  0.00000000E+00  0.00000000E+00
  0.00000000E+00  0.00000000E+00  0.00000000E+00
  0.00000000E+00  0.00000000E+00  0.00000000E+00
  0.00000000E+00  0.00000000E+00  0.00000000E+00
  0.00000000E+00  0.00000000E+00  0.00000000E+00
  0.00000000E+00  0.00000000E+00  0.00000000E+00
  0.00000000E+00  0.00000000E+00  0.00000000E+00
  0.00000000E+00  0.00000000E+00  0.00000000E+00
  0.00000000E+00  0.00000000E+00  0.00000000E+00
  0.00000000E+00  0.00000000E+00  0.00000000E+00
  0.00000000E+00  0.00000000E+00  0.00000000E+00
  0.00000000E+00  0.00000000E+00  0.00000000E+00
  0.00000000E+00  0.00000000E+00  0.00000000E+00
  0.00000000E+00  0.00000000E+00  0.00000000E+00
  0.00000000E+00  0.00000000E+00  0.00000000E+00
  0.00000000E+00  0.00000000E+00  0.00000000E+00
  0.00000000E+00  0.00000000E+00  0.00000000E+00
  0.00000000E+00  0.00000000E+00  0.00000000E+00
  0.00000000E+00  0.00000000E+00  0.00000000E+00
  0.00000000E+00  0.00000000E+00  0.00000000E+00
  0.00000000E+00  0.00000000E+00  0.00000000E+00
  0.00000000E+00  0.00000000E+00  0.00000000E+00
  0.00000000E+00  0.00000000E+00  0.00000000E+00
  0.00000000E+00  0.00000000E+00  0.00000000E+00
  0.00000000E+00  0.00000000E+00  0.00000000E+00
  0.00000000E+00  0.00000000E+00  0.00000000E+00
  0.00000000E+00  0.00000000E+00  0.00000000E+00
  0.00000000E+00  0.00000000E+00  0.00000000E+00
  0.00000000E+00  0.00000000E+00  0.00000000E+00
  0.00000000E+00  0.00000000E+00  0.00000000E+00
  0.00000000E+00  0.00000000E+00  0.00000000E+00
  0.00000000E+00  0.00000000E+00  0.00000000E+00
  0.00000000E+00  0.00000000E+00  0.00000000E+00
  0.00000000E+00  0.00000000E+00  0.00000000E+00
  0.00000000E+00  0.00000000E+00  0.00000000E+00
  0.00000000E+00  0.00000000E+00  0.00000000E+00
  0.00000000E+00  0.00000000E+00  0.00000000E+00
  0.00000000E+00  0.00000000E+00  0.00000000E+00
  0.00000000E+00  0.00000000E+00  0.00000000E+00
  0.00000000E+00  0.00000000E+00  0.00000000E+00
  0.00000000E+00  0.00000000E+00  0.00000000E+00
  0.00000000E+00  0.00000000E+00  0.00000000E+00
  0.00000000E+00  0.00000000E+00  0.00000000E+00
  0.00000000E+00  0.00000000E+00  0.00000000E+00
  0.00000000E+00  0.00000000E+00  0.00000000E+00
  0.00000000E+00  0.00000000E+00  0.00000000E+00
  0.00000000E+00  0.00000000E+00  0.00000000E+00
  0.00000000E+00  0.00000000E+00  0.00000000E+00
  0.00000000E+00  0.00000000E+00  0.00000000E+00
  0.00000000E+00  0.00000000E+00  0.00000000E+00
  0.00000000E+00  0.00000000E+00  0.00000000E+00
  0.00000000E+00  0.00000000E+00  0.00000000E+00
  0.00000000E+00  0.00000000E+00  0.00000000E+00
  0.00000000E+00  0.00000000E+00  0.00000000E+00
  0.00000000E+00  0.00000000E+00  0.00000000E+00
  0.00000000E+00  0.00000000E+00  0.00000000E+00
  0.00000000E+00  0.00000000E+00  0.00000000E+00
  0.00000000E+00  0.00000000E+00  0.00000000E+00
