Be17 In11 Br1                           
   1.00000000000000     
     8.5422639747799991   -4.5777896507387181    3.6174909611103798
    -0.0077524229612286    8.6644687601508057    3.0525561486329660
    -7.0658381309707359   -3.6525651024998123    1.2231044432421780
   In   Br   Be
    11     1    17
Direct
  0.6630878003388858  0.6507160471525850  0.0003702525827265
  0.4710031057897979  0.4445268201194423  0.2550691310150981
  0.0917244725719257  0.8575914284087531  0.2606838306837105
  0.7998847361492665  0.1062816304362499  0.2575154697389905
  0.1527586344601346  0.3811400085928582  0.2590326258808417
  0.4110439738933209  0.2526214206323729  0.4898007043434376
  0.9232942689386192  0.7638021050705746  0.5117184262327967
  0.8940905491698956  0.1219432667576328  0.7415607485997029
  0.5404187028450878  0.8455730269085890  0.7412469443518859
  0.8323834117853792  0.5965711764380188  0.7385246232089244
  0.2161816316713541  0.1901776329732314  0.7448538550343144
  0.6982399677403279  0.3120519200587069  0.0009482795579032
  0.1250653605836050  0.5314052042205617  0.9996665920146270
  0.3683585682852808  0.6964001266723514  0.0000848588040157
  0.4148370205837111  0.9492709166240871  0.0001475409351528
  0.4787421625807013  0.1909419566494179  0.0006062475284239
  0.8830087132888806  0.9488183046617564  0.9999200157474917
  0.6397659931328690  0.7842735913277750  0.3113984517487864
  0.2330264395516437  0.7043334422971625  0.3834818807480858
  0.5814194177236658  0.9995263013600706  0.3407083393926484
  0.1036519129313334  0.1757673293571571  0.3849801945194216
  0.4256215865366499  0.7219942079959196  0.3196766701177012
  0.5751110192084923  0.2335042665099110  0.3403397457681692
  0.2368160310762590  0.8942127547439469  0.6599893258725444
  0.1053801237091250  0.4027727011518607  0.6796077500366877
  0.7192563608899718  0.7906606859208338  0.6148379747554600
  0.2393879515812074  0.6585496234102948  0.6598105456697638
  0.8484955556195644  0.3190758170637054  0.6151382532594454
  0.3283585273630365  0.4736522864841461  0.6882807218512355
 
  0.00000000E+00  0.00000000E+00  0.00000000E+00
  0.00000000E+00  0.00000000E+00  0.00000000E+00
  0.00000000E+00  0.00000000E+00  0.00000000E+00
  0.00000000E+00  0.00000000E+00  0.00000000E+00
  0.00000000E+00  0.00000000E+00  0.00000000E+00
  0.00000000E+00  0.00000000E+00  0.00000000E+00
  0.00000000E+00  0.00000000E+00  0.00000000E+00
  0.00000000E+00  0.00000000E+00  0.00000000E+00
  0.00000000E+00  0.00000000E+00  0.00000000E+00
  0.00000000E+00  0.00000000E+00  0.00000000E+00
  0.00000000E+00  0.00000000E+00  0.00000000E+00
  0.00000000E+00  0.00000000E+00  0.00000000E+00
  0.00000000E+00  0.00000000E+00  0.00000000E+00
  0.00000000E+00  0.00000000E+00  0.00000000E+00
  0.00000000E+00  0.00000000E+00  0.00000000E+00
  0.00000000E+00  0.00000000E+00  0.00000000E+00
  0.00000000E+00  0.00000000E+00  0.00000000E+00
  0.00000000E+00  0.00000000E+00  0.00000000E+00
  0.00000000E+00  0.00000000E+00  0.00000000E+00
  0.00000000E+00  0.00000000E+00  0.00000000E+00
  0.00000000E+00  0.00000000E+00  0.00000000E+00
  0.00000000E+00  0.00000000E+00  0.00000000E+00
  0.00000000E+00  0.00000000E+00  0.00000000E+00
  0.00000000E+00  0.00000000E+00  0.00000000E+00
  0.00000000E+00  0.00000000E+00  0.00000000E+00
  0.00000000E+00  0.00000000E+00  0.00000000E+00
  0.00000000E+00  0.00000000E+00  0.00000000E+00
  0.00000000E+00  0.00000000E+00  0.00000000E+00
  0.00000000E+00  0.00000000E+00  0.00000000E+00
