Be1 In3 Br6                             
   1.00000000000000     
     7.5151956221339749    0.0006548383017030   -0.0029490933732034
     0.0006548383017030    7.5151956221339749   -0.0029490933732034
     3.7558440566026823    3.7558440566026823    5.3373184736935126
   Br   Be   In
     6     1     3
Direct
  0.7684573656860039  0.2315426343139961  0.0000000000000000
  0.2306044480711265  0.2306044480711265  0.0028880343927113
  0.2315426343139961  0.7684573656860039  0.0000000000000000
  0.7693955519288735  0.7693955519288735  0.9971119656072887
  0.7653858630344956  0.7653858630344956  0.4658328533700953
  0.2346141369655044  0.2346141369655044  0.5341671466299047
  0.0000000000000000  0.0000000000000000  0.0000000000000000
  0.5000000000000000  0.5000000000000000  0.0000000000000000
  0.2497488121141629  0.7502511878858371  0.5000000000000000
  0.7502511878858371  0.2497488121141629  0.5000000000000000
 
  0.00000000E+00  0.00000000E+00  0.00000000E+00
  0.00000000E+00  0.00000000E+00  0.00000000E+00
  0.00000000E+00  0.00000000E+00  0.00000000E+00
  0.00000000E+00  0.00000000E+00  0.00000000E+00
  0.00000000E+00  0.00000000E+00  0.00000000E+00
  0.00000000E+00  0.00000000E+00  0.00000000E+00
  0.00000000E+00  0.00000000E+00  0.00000000E+00
  0.00000000E+00  0.00000000E+00  0.00000000E+00
  0.00000000E+00  0.00000000E+00  0.00000000E+00
  0.00000000E+00  0.00000000E+00  0.00000000E+00
