Mg1 In2 I10                             
   1.00000000000000     
     5.7164444041404119    7.0490604477280732   -1.4276308578278463
    -5.7164444041404128    7.0490604477280741   -1.4276308578278465
    -0.0000000000000002    2.8528427187290135    9.0984307365472077
   Mg   In   I 
     1     2    10
Direct
  0.4363778753609466  0.5636221246390534  0.0000000000000000
  0.1748388605997917  0.9351688974634342  0.7172431937044692
  0.0648311025365658  0.8251611394002083  0.2827568062955308
  0.1834118534455058  0.2171059214914024  0.6279362971083629
  0.7828940785085976  0.8165881465544942  0.3720637028916371
  0.9270790782149518  0.8603752744225943  0.8438086222605889
  0.1396247255774057  0.0729209217850411  0.1561913777394039
  0.6663151148795237  0.3336848851204763  0.0000000000000000
  0.2743098504111714  0.7256901495888286  0.5000000000000000
  0.6354139789187201  0.3657449476032255  0.6470963864326649
  0.6342550523967745  0.3645860210812799  0.3529036135673351
  0.4533080871297699  0.8286606579797535  0.8569079816167005
  0.1713393420202465  0.5466919128702301  0.1430920183832995
 
  0.00000000E+00  0.00000000E+00  0.00000000E+00
  0.00000000E+00  0.00000000E+00  0.00000000E+00
  0.00000000E+00  0.00000000E+00  0.00000000E+00
  0.00000000E+00  0.00000000E+00  0.00000000E+00
  0.00000000E+00  0.00000000E+00  0.00000000E+00
  0.00000000E+00  0.00000000E+00  0.00000000E+00
  0.00000000E+00  0.00000000E+00  0.00000000E+00
  0.00000000E+00  0.00000000E+00  0.00000000E+00
  0.00000000E+00  0.00000000E+00  0.00000000E+00
  0.00000000E+00  0.00000000E+00  0.00000000E+00
  0.00000000E+00  0.00000000E+00  0.00000000E+00
  0.00000000E+00  0.00000000E+00  0.00000000E+00
  0.00000000E+00  0.00000000E+00  0.00000000E+00
