Ba4 B8 Cl16                             
   1.00000000000000     
     9.5293632418890244   -1.4449789300414726    0.1064234004300731
    -1.1858111416116823    7.1667695183530240   -0.5905795444326647
    -0.0731290740471804   -0.9023305563869130   12.4566660972212571
   Ba   Cl   B 
     4    16     8
Direct
  0.8594054561147502  0.9931379651669801  0.8610156858257980
  0.3292365458854860  0.6084911382042932  0.6619530336290040
  0.6794169204797527  0.8670987910158630  0.3571742029644085
  0.1080003329434476  0.4608836353816983  0.1377423947607141
  0.9917485958058663  0.8611494770075652  0.2551525030549584
  0.2313465890473552  0.8058375247992089  0.4841201604332070
  0.8326931338236392  0.7187213895435463  0.0358037060615501
  0.7200556869918984  0.1690170789032877  0.0655525823336376
  0.2660320316691269  0.3978782552917934  0.4180823742295274
  0.4238350409066669  0.9610633660816532  0.2434994452393013
  0.8606163935498117  0.2841010880453041  0.2938282802993939
  0.4468029665713402  0.5473054750760937  0.1765519188805342
  0.5449846506236469  0.0193077176933869  0.7815626017820847
  0.0432508817851982  0.6761629676939833  0.7687903335661019
  0.7909606094686836  0.6712783567583784  0.5348169089606998
  0.7029477130934794  0.1451323005980854  0.5774258732664919
  0.2305132752232169  0.2427486740341607  0.9283537346746797
  0.2221502012108516  0.7611125033035151  0.9809731760454952
  0.6287157863966115  0.5778547838886894  0.7441332997259025
  0.0907323645812141  0.2074242331169458  0.7046020779934992
  0.2999333180013650  0.6456425535767281  0.3821627261434983
  0.3745760015122386  0.7118270901617123  0.2763252750066201
  0.8849875730872654  0.9209626051730240  0.1511749183156681
  0.8298016979414840  0.1041991377758151  0.1656041083385276
  0.1316030744784840  0.5745664824689456  0.8667237939532484
  0.1449361883548903  0.3633308755506519  0.8402701830245931
  0.6464522092721836  0.9500588485956598  0.6614316399494840
  0.6842647611799961  0.7533056850930038  0.6447730615413434
 
  0.00000000E+00  0.00000000E+00  0.00000000E+00
  0.00000000E+00  0.00000000E+00  0.00000000E+00
  0.00000000E+00  0.00000000E+00  0.00000000E+00
  0.00000000E+00  0.00000000E+00  0.00000000E+00
  0.00000000E+00  0.00000000E+00  0.00000000E+00
  0.00000000E+00  0.00000000E+00  0.00000000E+00
  0.00000000E+00  0.00000000E+00  0.00000000E+00
  0.00000000E+00  0.00000000E+00  0.00000000E+00
  0.00000000E+00  0.00000000E+00  0.00000000E+00
  0.00000000E+00  0.00000000E+00  0.00000000E+00
  0.00000000E+00  0.00000000E+00  0.00000000E+00
  0.00000000E+00  0.00000000E+00  0.00000000E+00
  0.00000000E+00  0.00000000E+00  0.00000000E+00
  0.00000000E+00  0.00000000E+00  0.00000000E+00
  0.00000000E+00  0.00000000E+00  0.00000000E+00
  0.00000000E+00  0.00000000E+00  0.00000000E+00
  0.00000000E+00  0.00000000E+00  0.00000000E+00
  0.00000000E+00  0.00000000E+00  0.00000000E+00
  0.00000000E+00  0.00000000E+00  0.00000000E+00
  0.00000000E+00  0.00000000E+00  0.00000000E+00
  0.00000000E+00  0.00000000E+00  0.00000000E+00
  0.00000000E+00  0.00000000E+00  0.00000000E+00
  0.00000000E+00  0.00000000E+00  0.00000000E+00
  0.00000000E+00  0.00000000E+00  0.00000000E+00
  0.00000000E+00  0.00000000E+00  0.00000000E+00
  0.00000000E+00  0.00000000E+00  0.00000000E+00
  0.00000000E+00  0.00000000E+00  0.00000000E+00
  0.00000000E+00  0.00000000E+00  0.00000000E+00
