Ba2                                     
   1.00000000000000     
     0.0000000000000000    0.0000000000000000   -3.9816271524209728
     0.0000000168016720   -7.1586095172425752    0.0000000000000000
    -6.1995377983912938    3.5793037861190791    0.0000000000000000
   Ba
     2
Direct
  0.5000000000000000  0.3333330000000032  0.6666669999999968
  0.5000000000000000  0.6666669999999968  0.3333330000000032
 
  0.00000000E+00  0.00000000E+00  0.00000000E+00
  0.00000000E+00  0.00000000E+00  0.00000000E+00
