Sr1 In3 F6                              
   1.0000000000000000     
    -3.2808798712573517    4.5461882507239242    3.1298198101907584
     3.2896360637214426   -4.6526202153525187    3.2896360637214430
     3.1298198101907579    4.5461882507239242   -3.2808798712573508
   F    Sr   In
     6     1     3
Direct
  0.2449048059621219  0.5213668437925989  0.2449048059621219
  0.7384114050946948  0.0000000000000000  0.2615885949053052
  0.2458974725473624  0.9700119757545878  0.2458974725473624
  0.7541025274526376  0.0299880242454122  0.7541025274526376
  0.7550951940378781  0.4786331562074011  0.7550951940378781
  0.2615885949053052  0.0000000000000000  0.7384114050946948
  0.0000000000000000  0.0000000000000000  0.0000000000000000
  0.7721472750696989  0.5000000000000000  0.2278527249303011
  0.5000000000000000  0.0000000000000000  0.5000000000000000
  0.2278527249303011  0.5000000000000000  0.7721472750696989

  0.00000000E+00  0.00000000E+00  0.00000000E+00
  0.00000000E+00  0.00000000E+00  0.00000000E+00
  0.00000000E+00  0.00000000E+00  0.00000000E+00
  0.00000000E+00  0.00000000E+00  0.00000000E+00
  0.00000000E+00  0.00000000E+00  0.00000000E+00
  0.00000000E+00  0.00000000E+00  0.00000000E+00
  0.00000000E+00  0.00000000E+00  0.00000000E+00
  0.00000000E+00  0.00000000E+00  0.00000000E+00
  0.00000000E+00  0.00000000E+00  0.00000000E+00
  0.00000000E+00  0.00000000E+00  0.00000000E+00
