Ba4 Ga2 I10                             
   1.00000000000000     
     6.9281678043927135   -6.8355659350280504   -0.2289312411779709
     6.9281678043927135    6.8355659350280504   -0.2289312411779709
    -7.1774270965555438    0.0000000000000000    8.2338403625220984
   I    Ba   Ga
    10     4     2
Direct
  0.5121341678636782  0.9992738273881443  0.0278499422925407
  0.9992738273881443  0.5121341678636782  0.0278499422925407
  0.9922185706001017  0.9922185706001017  0.2861842367413630
  0.7855339365604976  0.4813878394610995  0.2860667910708088
  0.4813878394610995  0.7855339365604976  0.2860667910708088
  0.2776617031836750  0.2776617031836750  0.2750241336691701
  0.7140471093635199  0.7140471093635199  0.7429655893117015
  0.4910810454107093  0.2007459307548416  0.7402869812242514
  0.2007459307548416  0.4910810454107093  0.7402869812242514
  0.0019607030399982  0.0019607030399982  0.7384415488044382
  0.8415779612358563  0.1516450571942585  0.9974847665830140
  0.3364258458222906  0.3364258458222906  0.0148690085924486
  0.6441772798533947  0.6441772798533947  0.9887247088476272
  0.1516450571942585  0.8415779612358563  0.9974847665830140
  0.8094399361636917  0.2605890861042539  0.4252069058460179
  0.2605890861042539  0.8094399361636917  0.4252069058460179
 
  0.00000000E+00  0.00000000E+00  0.00000000E+00
  0.00000000E+00  0.00000000E+00  0.00000000E+00
  0.00000000E+00  0.00000000E+00  0.00000000E+00
  0.00000000E+00  0.00000000E+00  0.00000000E+00
  0.00000000E+00  0.00000000E+00  0.00000000E+00
  0.00000000E+00  0.00000000E+00  0.00000000E+00
  0.00000000E+00  0.00000000E+00  0.00000000E+00
  0.00000000E+00  0.00000000E+00  0.00000000E+00
  0.00000000E+00  0.00000000E+00  0.00000000E+00
  0.00000000E+00  0.00000000E+00  0.00000000E+00
  0.00000000E+00  0.00000000E+00  0.00000000E+00
  0.00000000E+00  0.00000000E+00  0.00000000E+00
  0.00000000E+00  0.00000000E+00  0.00000000E+00
  0.00000000E+00  0.00000000E+00  0.00000000E+00
  0.00000000E+00  0.00000000E+00  0.00000000E+00
  0.00000000E+00  0.00000000E+00  0.00000000E+00
