Mg3In2                                  
   1.00000000000000     
    -6.0111874924639883   -0.0224736821497977    0.0215439519280153
     2.9866169700373648   -5.2167204733838943   -0.0209649320629788
    -3.0225576573611450    1.7440834607425355    8.1042088850387906
   In   Mg
     4     6
Direct
  0.3114669944077093  0.6877080543349763  0.0646475208997757
  0.1877097805690511  0.8114531318001283  0.4353401920666400
  0.8122969679039684  0.1885379846596820  0.5646464348634623
  0.6885398297364986  0.3122832479088231  0.9353390880879715
  0.2497421905690800  0.2485016973596998  0.2492413341604873
  0.7504343794992323  0.2504550154580301  0.2500071275105213
  0.7485140680770854  0.7497482997550406  0.2507113003075503
  0.2515020440802900  0.2502575150412412  0.7492381509590444
  0.2495415194568906  0.7495665684448056  0.7500137634989201
  0.7502522257002013  0.7514884852375587  0.7507150876456379
 
  0.00000000E+00  0.00000000E+00  0.00000000E+00
  0.00000000E+00  0.00000000E+00  0.00000000E+00
  0.00000000E+00  0.00000000E+00  0.00000000E+00
  0.00000000E+00  0.00000000E+00  0.00000000E+00
  0.00000000E+00  0.00000000E+00  0.00000000E+00
  0.00000000E+00  0.00000000E+00  0.00000000E+00
  0.00000000E+00  0.00000000E+00  0.00000000E+00
  0.00000000E+00  0.00000000E+00  0.00000000E+00
  0.00000000E+00  0.00000000E+00  0.00000000E+00
  0.00000000E+00  0.00000000E+00  0.00000000E+00
