Ba2 Ga2 I6                              
   1.00000000000000     
     2.4115762515463128   -7.7674383132894045    0.0000000000000000
     2.4115762515463128    7.7674383132894045    0.0000000000000000
     0.0000000000000000    0.0000000000000000   12.3796018507864236
   Ba   Ga   I 
     2     2     6
Direct
  0.0000000000000000  0.0000000000000000  0.0000000000000000
  0.0000000000000000  0.0000000000000000  0.5000000000000000
  0.2462600957110510  0.7537399042889490  0.2500000000000000
  0.7537399042889490  0.2462600957110510  0.7500000000000000
  0.6455425822924497  0.3544574177075503  0.0769286762984080
  0.3544574177075503  0.6455425822924497  0.9230713237015920
  0.3544574177075503  0.6455425822924497  0.5769286762984080
  0.6455425822924497  0.3544574177075503  0.4230713237015920
  0.8924608003262122  0.1075391996737878  0.2500000000000000
  0.1075391996737878  0.8924608003262122  0.7500000000000000
 
  0.00000000E+00  0.00000000E+00  0.00000000E+00
  0.00000000E+00  0.00000000E+00  0.00000000E+00
  0.00000000E+00  0.00000000E+00  0.00000000E+00
  0.00000000E+00  0.00000000E+00  0.00000000E+00
  0.00000000E+00  0.00000000E+00  0.00000000E+00
  0.00000000E+00  0.00000000E+00  0.00000000E+00
  0.00000000E+00  0.00000000E+00  0.00000000E+00
  0.00000000E+00  0.00000000E+00  0.00000000E+00
  0.00000000E+00  0.00000000E+00  0.00000000E+00
  0.00000000E+00  0.00000000E+00  0.00000000E+00
