Sr2 Tl2 F10                             
   1.0000000000000000     
     3.9962683741303358   -0.0000000000000000    0.0000000000000002
    -0.0000000000000006    8.0584005539024854    0.0000000000000005
     0.0000000000000001    0.0000000000000000    8.3392253151910278
   Sr   Tl   F 
     2     2    10
Direct
  0.0000000000000000  0.0000000000000000  0.5000000000000000
  0.5000000000000000  0.5000000000000000  0.0000000000000000
  0.5000000000000000  0.0000000000000000  0.0000000000000000
  0.0000000000000000  0.5000000000000000  0.5000000000000000
  0.5000000000000000  0.8126981193337528  0.5000000000000000
  0.5000000000000000  0.1873018806662472  0.5000000000000000
  0.5000000000000000  0.0000000000000000  0.2473051015670436
  0.5000000000000000  0.0000000000000000  0.7526948984329564
  0.0000000000000000  0.0000000000000000  0.0000000000000000
  0.0000000000000000  0.3126981193337528  0.0000000000000000
  0.0000000000000000  0.6873018806662472  0.0000000000000000
  0.0000000000000000  0.5000000000000000  0.7473051015670436
  0.0000000000000000  0.5000000000000000  0.2526948984329564
  0.5000000000000000  0.5000000000000000  0.5000000000000000

  0.00000000E+00  0.00000000E+00  0.00000000E+00
  0.00000000E+00  0.00000000E+00  0.00000000E+00
  0.00000000E+00  0.00000000E+00  0.00000000E+00
  0.00000000E+00  0.00000000E+00  0.00000000E+00
  0.00000000E+00  0.00000000E+00  0.00000000E+00
  0.00000000E+00  0.00000000E+00  0.00000000E+00
  0.00000000E+00  0.00000000E+00  0.00000000E+00
  0.00000000E+00  0.00000000E+00  0.00000000E+00
  0.00000000E+00  0.00000000E+00  0.00000000E+00
  0.00000000E+00  0.00000000E+00  0.00000000E+00
  0.00000000E+00  0.00000000E+00  0.00000000E+00
  0.00000000E+00  0.00000000E+00  0.00000000E+00
  0.00000000E+00  0.00000000E+00  0.00000000E+00
  0.00000000E+00  0.00000000E+00  0.00000000E+00
