Sr6 In4 Cl24                            
   1.00000000000000     
     0.0000000000000000    0.0000000000000000    6.7188619090652786
    11.4489082264923603   -0.0003266358474601    0.0000000000000000
    -0.0003257298521689   11.4503562352860708    0.0000000000000000
   Sr   Cl   In
     6    24     4
Direct
  0.0000000000000000  0.9997942150206001  0.0003381696472289
  0.5000000000000000  0.3451452773183732  0.1536875494949470
  0.5000000000000000  0.8451235151603171  0.3462377513619685
  0.0000000000000000  0.4999957517443434  0.4998660939061068
  0.5000000000000000  0.1541434945735176  0.6550811100412872
  0.5000000000000000  0.6541002482044220  0.8448893480366166
  0.2399206255495727  0.4999814928674979  0.9996745314987123
  0.7600793744504273  0.4999814928674979  0.9996745314987123
  0.2608971768229438  0.7862317934042764  0.0571459238840646
  0.7391028231770562  0.7862317934042764  0.0571459238840646
  0.0000000000000000  0.3094679975560624  0.1905588179180739
  0.2609716431165836  0.0572663516627898  0.2139105754387316
  0.7390283568834164  0.0572663516627898  0.2139105754387316
  0.2609417925622779  0.5572908672736929  0.2861364437610732
  0.7390582074377221  0.5572908672736929  0.2861364437610732
  0.0000000000000000  0.8094736795131396  0.3094131142777528
  0.2608711144511986  0.2862809302639988  0.4428434923792679
  0.7391288855488014  0.2862809302639988  0.4428434923792679
  0.2399351969584771  0.9999726304948098  0.5003440465711151
  0.7600648030415229  0.9999726304948098  0.5003440465711151
  0.2609356100661344  0.7137155676504605  0.5572261094639259
  0.7390643899338656  0.7137155676504605  0.5572261094639259
  0.0000000000000000  0.1908046354188571  0.6907886981229865
  0.2609548742477656  0.4428265333008525  0.7135693514231178
  0.7390451257522344  0.4428265333008525  0.7135693514231178
  0.2609714526394882  0.9429260347197967  0.7864957789011626
  0.7390285473605189  0.9429260347197967  0.7864957789011626
  0.0000000000000000  0.6908572754835731  0.8090627212070487
  0.2609453546853899  0.2136596208437354  0.9427921534427099
  0.7390546453146101  0.2136596208437354  0.9427921534427099
  0.0000000000000000  0.6522080301600610  0.1520976342324687
  0.0000000000000000  0.1522805709184141  0.3479098943236920
  0.0000000000000000  0.8483546392777512  0.6519697629784815
  0.0000000000000000  0.3481470246867460  0.8480225209235215
 
  0.00000000E+00  0.00000000E+00  0.00000000E+00
  0.00000000E+00  0.00000000E+00  0.00000000E+00
  0.00000000E+00  0.00000000E+00  0.00000000E+00
  0.00000000E+00  0.00000000E+00  0.00000000E+00
  0.00000000E+00  0.00000000E+00  0.00000000E+00
  0.00000000E+00  0.00000000E+00  0.00000000E+00
  0.00000000E+00  0.00000000E+00  0.00000000E+00
  0.00000000E+00  0.00000000E+00  0.00000000E+00
  0.00000000E+00  0.00000000E+00  0.00000000E+00
  0.00000000E+00  0.00000000E+00  0.00000000E+00
  0.00000000E+00  0.00000000E+00  0.00000000E+00
  0.00000000E+00  0.00000000E+00  0.00000000E+00
  0.00000000E+00  0.00000000E+00  0.00000000E+00
  0.00000000E+00  0.00000000E+00  0.00000000E+00
  0.00000000E+00  0.00000000E+00  0.00000000E+00
  0.00000000E+00  0.00000000E+00  0.00000000E+00
  0.00000000E+00  0.00000000E+00  0.00000000E+00
  0.00000000E+00  0.00000000E+00  0.00000000E+00
  0.00000000E+00  0.00000000E+00  0.00000000E+00
  0.00000000E+00  0.00000000E+00  0.00000000E+00
  0.00000000E+00  0.00000000E+00  0.00000000E+00
  0.00000000E+00  0.00000000E+00  0.00000000E+00
  0.00000000E+00  0.00000000E+00  0.00000000E+00
  0.00000000E+00  0.00000000E+00  0.00000000E+00
  0.00000000E+00  0.00000000E+00  0.00000000E+00
  0.00000000E+00  0.00000000E+00  0.00000000E+00
  0.00000000E+00  0.00000000E+00  0.00000000E+00
  0.00000000E+00  0.00000000E+00  0.00000000E+00
  0.00000000E+00  0.00000000E+00  0.00000000E+00
  0.00000000E+00  0.00000000E+00  0.00000000E+00
  0.00000000E+00  0.00000000E+00  0.00000000E+00
  0.00000000E+00  0.00000000E+00  0.00000000E+00
  0.00000000E+00  0.00000000E+00  0.00000000E+00
  0.00000000E+00  0.00000000E+00  0.00000000E+00
