Be21 Tl40                               
   1.0000000000000000     
     5.1806293911629169   -8.9731137747057677   -0.0000000000000000
     5.1806293911629169    8.9731137747057677   -0.0000000000000000
     0.0000000000000002    0.0000000000000000   16.7570524731900505
   Be   Tl
    21    40
Direct
  0.0000000000318394  0.1181192505388253  0.4623562524823726
  0.6666669999999968  0.3333330000000032  0.4214964073816887
  0.5769613505679061  0.0000000000635580  0.7695674969413773
  0.4230386493685430  0.4230386493685430  0.7695674969413773
  0.0000000000000000  0.0000000000000000  0.2355827576523382
  0.9999999997653717  0.4589823638111596  0.6667213443993418
  0.4242856866836391  0.0000000000558913  0.0482124048172636
  0.0000000000635580  0.5769613505679061  0.7695674969413773
  0.8818807494293281  0.8818807494293281  0.4623562524823726
  0.4589823638111596  0.9999999997653717  0.6667213443993418
  0.3333330000000032  0.6666669999999968  0.2921255919571308
  0.9999999998458193  0.7495238992475421  0.8456542596031795
  0.5410176364234616  0.5410176364234616  0.6667213443993418
  0.2504761009066385  0.2504761009066385  0.8456542596031795
  0.6666669999999968  0.3333330000000032  0.2921255919571308
  0.3333330000000032  0.6666669999999968  0.4214964073816887
  0.0000000000558913  0.4242856866836391  0.0482124048172636
  0.1181192505388253  0.0000000000318394  0.4623562524823726
  0.5757143132604625  0.5757143132604625  0.0482124048172636
  0.7495238992475421  0.9999999998458193  0.8456542596031795
  0.0000000000000000  0.0000000000000000  0.3571554790115954
  0.1959069558834585  0.3910283003230930  0.4704924882475225
  0.1747127379372344  0.4643280197344239  0.1778168830803040
  0.3944761803253343  0.1799915340175389  0.7279846878041809
  0.7103847183003182  0.5356719803403678  0.1778168830803040
  0.6958038588976692  0.0000000001245724  0.0646536408255400
  0.0000000000000000  0.0000000000000000  0.6074301826015400
  0.3333330000000032  0.6666669999999968  0.0059248516692136
  0.2896152817223978  0.8252872619652507  0.1778168830803040
  0.2146627913960444  0.9999999997904112  0.9402540167284741
  0.0000000008585417  0.4804554753561376  0.3444539930037678
  0.4643280197344239  0.1747127379372344  0.1778168830803040
  0.2318712928773152  0.2318712928773152  0.2896920023265679
  0.7853372088135373  0.7853372088135373  0.9402540167284741
  0.6666669999999968  0.3333330000000032  0.0059248516692136
  0.9999999992383479  0.7681287078843297  0.2896920023265679
  0.3041961409777585  0.3041961409777585  0.0646536408255400
  0.8048786551552425  0.6089716992312972  0.4704924882475225
  0.6055238197725075  0.7855153537525794  0.7279846878041809
  0.0000000001245724  0.6958038588976692  0.0646536408255400
  0.8252872619652507  0.2896152817223978  0.1778168830803040
  0.0000000000337721  0.5214765722325012  0.9107938161872582
  0.5195445237853207  0.5195445237853207  0.3444539930037678
  0.3333330000000032  0.6666669999999968  0.5970547125287311
  0.9999999997904112  0.2146627913960444  0.9402540167284741
  0.6666669999999968  0.3333330000000032  0.5970547125287311
  0.1799915340175389  0.3944761803253343  0.7279846878041809
  0.6089716992312972  0.8048786551552425  0.4704924882475225
  0.1951213448852442  0.8040930445216645  0.4704924882475225
  0.5214765722325012  0.0000000000337721  0.9107938161872582
  0.4785234277337338  0.4785234277337338  0.9107938161872582
  0.8200084659220934  0.2144846462099537  0.7279846878041809
  0.4804554753561376  0.0000000008585417  0.3444539930037678
  0.3910283003230930  0.1959069558834585  0.4704924882475225
  0.5356719803403678  0.7103847183003182  0.1778168830803040
  0.7681287078843297  0.9999999992383479  0.2896920023265679
  0.8040930445216645  0.1951213448852442  0.4704924882475225
  0.2144846462099537  0.8200084659220934  0.7279846878041809
  0.0000000000000000  0.0000000000000000  0.0926216855741089
  0.7855153537525794  0.6055238197725075  0.7279846878041809
  0.0000000000000000  0.0000000000000000  0.7929297313493677

  0.00000000E+00  0.00000000E+00  0.00000000E+00
  0.00000000E+00  0.00000000E+00  0.00000000E+00
  0.00000000E+00  0.00000000E+00  0.00000000E+00
  0.00000000E+00  0.00000000E+00  0.00000000E+00
  0.00000000E+00  0.00000000E+00  0.00000000E+00
  0.00000000E+00  0.00000000E+00  0.00000000E+00
  0.00000000E+00  0.00000000E+00  0.00000000E+00
  0.00000000E+00  0.00000000E+00  0.00000000E+00
  0.00000000E+00  0.00000000E+00  0.00000000E+00
  0.00000000E+00  0.00000000E+00  0.00000000E+00
  0.00000000E+00  0.00000000E+00  0.00000000E+00
  0.00000000E+00  0.00000000E+00  0.00000000E+00
  0.00000000E+00  0.00000000E+00  0.00000000E+00
  0.00000000E+00  0.00000000E+00  0.00000000E+00
  0.00000000E+00  0.00000000E+00  0.00000000E+00
  0.00000000E+00  0.00000000E+00  0.00000000E+00
  0.00000000E+00  0.00000000E+00  0.00000000E+00
  0.00000000E+00  0.00000000E+00  0.00000000E+00
  0.00000000E+00  0.00000000E+00  0.00000000E+00
  0.00000000E+00  0.00000000E+00  0.00000000E+00
  0.00000000E+00  0.00000000E+00  0.00000000E+00
  0.00000000E+00  0.00000000E+00  0.00000000E+00
  0.00000000E+00  0.00000000E+00  0.00000000E+00
  0.00000000E+00  0.00000000E+00  0.00000000E+00
  0.00000000E+00  0.00000000E+00  0.00000000E+00
  0.00000000E+00  0.00000000E+00  0.00000000E+00
  0.00000000E+00  0.00000000E+00  0.00000000E+00
  0.00000000E+00  0.00000000E+00  0.00000000E+00
  0.00000000E+00  0.00000000E+00  0.00000000E+00
  0.00000000E+00  0.00000000E+00  0.00000000E+00
  0.00000000E+00  0.00000000E+00  0.00000000E+00
  0.00000000E+00  0.00000000E+00  0.00000000E+00
  0.00000000E+00  0.00000000E+00  0.00000000E+00
  0.00000000E+00  0.00000000E+00  0.00000000E+00
  0.00000000E+00  0.00000000E+00  0.00000000E+00
  0.00000000E+00  0.00000000E+00  0.00000000E+00
  0.00000000E+00  0.00000000E+00  0.00000000E+00
  0.00000000E+00  0.00000000E+00  0.00000000E+00
  0.00000000E+00  0.00000000E+00  0.00000000E+00
  0.00000000E+00  0.00000000E+00  0.00000000E+00
  0.00000000E+00  0.00000000E+00  0.00000000E+00
  0.00000000E+00  0.00000000E+00  0.00000000E+00
  0.00000000E+00  0.00000000E+00  0.00000000E+00
  0.00000000E+00  0.00000000E+00  0.00000000E+00
  0.00000000E+00  0.00000000E+00  0.00000000E+00
  0.00000000E+00  0.00000000E+00  0.00000000E+00
  0.00000000E+00  0.00000000E+00  0.00000000E+00
  0.00000000E+00  0.00000000E+00  0.00000000E+00
  0.00000000E+00  0.00000000E+00  0.00000000E+00
  0.00000000E+00  0.00000000E+00  0.00000000E+00
  0.00000000E+00  0.00000000E+00  0.00000000E+00
  0.00000000E+00  0.00000000E+00  0.00000000E+00
  0.00000000E+00  0.00000000E+00  0.00000000E+00
  0.00000000E+00  0.00000000E+00  0.00000000E+00
  0.00000000E+00  0.00000000E+00  0.00000000E+00
  0.00000000E+00  0.00000000E+00  0.00000000E+00
  0.00000000E+00  0.00000000E+00  0.00000000E+00
  0.00000000E+00  0.00000000E+00  0.00000000E+00
  0.00000000E+00  0.00000000E+00  0.00000000E+00
  0.00000000E+00  0.00000000E+00  0.00000000E+00
  0.00000000E+00  0.00000000E+00  0.00000000E+00
