Mg4 Al4 Cl20                            
   1.0000000000000000     
     7.0609004138088016   -0.0000000000000001    0.0000000000000007
    -0.0000000000000005    6.7438952444047215    0.0000000000000006
     0.0000000000000005    0.0000000000000002   18.4243275509426425
   Mg   Al   Cl
     4     4    20
Direct
  0.6274429028734048  0.3472026295941149  0.4542659954176784
  0.1274429028734048  0.1527973704058851  0.5457340045823216
  0.3725570971265881  0.8472026295941149  0.0457340045823216
  0.8725570971265881  0.6527973704058851  0.9542659954176784
  0.3322256863168604  0.8311018110085868  0.3742999093967256
  0.8322256863168604  0.6688981889914132  0.6257000906032673
  0.6677743136831396  0.3311018110085868  0.1257000906032673
  0.1677743136831396  0.1688981889914132  0.8742999093967256
  0.7087272288565671  0.6789153417778024  0.5170187775177837
  0.2087272288565600  0.8210846582221976  0.4829812224822163
  0.2912727711434329  0.1789153417777953  0.9829812224822163
  0.7912727711434329  0.3210846582221976  0.0170187775177837
  0.1330067175145331  0.8788177558290045  0.2918322779511229
  0.6330067175145331  0.6211822441709955  0.7081677220488771
  0.8669932824854669  0.3788177558290045  0.2081677220488771
  0.3669932824854669  0.1211822441709955  0.7918322779511229
  0.0431384509589492  0.7724325320211918  0.0555903899256691
  0.5431384509589492  0.7275674679788082  0.9444096100743309
  0.9568615490410508  0.2724325320211918  0.4444096100743309
  0.4568615490410508  0.2275674679788082  0.5555903899256691
  0.4318198936134436  0.5390990807860803  0.1295408473858188
  0.9318198936134436  0.9609009192139197  0.8704591526141812
  0.5681801063865564  0.0390990807860803  0.3704591526141812
  0.0681801063865564  0.4609009192139197  0.6295408473858188
  0.0409045731594091  0.4672201127940241  0.8585255953194206
  0.5409045731594091  0.0327798872059759  0.1414744046805794
  0.9590954268405909  0.9672201127940241  0.6414744046805794
  0.4590954268405909  0.5327798872059759  0.3585255953194206

  0.00000000E+00  0.00000000E+00  0.00000000E+00
  0.00000000E+00  0.00000000E+00  0.00000000E+00
  0.00000000E+00  0.00000000E+00  0.00000000E+00
  0.00000000E+00  0.00000000E+00  0.00000000E+00
  0.00000000E+00  0.00000000E+00  0.00000000E+00
  0.00000000E+00  0.00000000E+00  0.00000000E+00
  0.00000000E+00  0.00000000E+00  0.00000000E+00
  0.00000000E+00  0.00000000E+00  0.00000000E+00
  0.00000000E+00  0.00000000E+00  0.00000000E+00
  0.00000000E+00  0.00000000E+00  0.00000000E+00
  0.00000000E+00  0.00000000E+00  0.00000000E+00
  0.00000000E+00  0.00000000E+00  0.00000000E+00
  0.00000000E+00  0.00000000E+00  0.00000000E+00
  0.00000000E+00  0.00000000E+00  0.00000000E+00
  0.00000000E+00  0.00000000E+00  0.00000000E+00
  0.00000000E+00  0.00000000E+00  0.00000000E+00
  0.00000000E+00  0.00000000E+00  0.00000000E+00
  0.00000000E+00  0.00000000E+00  0.00000000E+00
  0.00000000E+00  0.00000000E+00  0.00000000E+00
  0.00000000E+00  0.00000000E+00  0.00000000E+00
  0.00000000E+00  0.00000000E+00  0.00000000E+00
  0.00000000E+00  0.00000000E+00  0.00000000E+00
  0.00000000E+00  0.00000000E+00  0.00000000E+00
  0.00000000E+00  0.00000000E+00  0.00000000E+00
  0.00000000E+00  0.00000000E+00  0.00000000E+00
  0.00000000E+00  0.00000000E+00  0.00000000E+00
  0.00000000E+00  0.00000000E+00  0.00000000E+00
  0.00000000E+00  0.00000000E+00  0.00000000E+00
