SrCl3                                   
   1.00000000000000     
    -2.1426010233896582    2.1426010233896582    5.3315456027910582
     2.1426010233896582   -2.1426010233896582    5.3315456027910582
     2.1426010233896582    2.1426010233896582   -5.3315456027910582
   Cl   Sr
     3     1
Direct
  0.7500000000000000  0.2500000000000000  0.5000000000000000
  0.2500000000000000  0.7500000000000000  0.5000000000000000
  0.5000000000000000  0.5000000000000000  0.0000000000000000
  0.0000000000000000  0.0000000000000000  0.0000000000000000
 
  0.00000000E+00  0.00000000E+00  0.00000000E+00
  0.00000000E+00  0.00000000E+00  0.00000000E+00
  0.00000000E+00  0.00000000E+00  0.00000000E+00
  0.00000000E+00  0.00000000E+00  0.00000000E+00
