MAPbBr3 POLY                            
   1.00000000000000     
    16.8172192199999984    0.0000000000000000    0.0000000000000000
     0.0000000000000000   16.8172192199999984    0.0000000000000000
     0.0000000000000000    0.0000000000000000   11.8915697500000004
   C    N    H    Pb   Br
    16    16    96    16    48
Direct
  0.0192498356651285  0.2442396461520175  0.2547743105783482
  0.5192498356651285  0.2442396461520175  0.2547743105783482
  0.0192498356651285  0.7442396461520175  0.2547743105783482
  0.5192498356651285  0.7442396461520175  0.2547743105783482
  0.2679888780883246  0.0263595259061802  0.2540367859190695
  0.7679888780883246  0.0263595259061802  0.2540367859190695
  0.2679888780883246  0.5263595259061802  0.2540367859190695
  0.7679888780883246  0.5263595259061802  0.2540367859190695
  0.0262688450526198  0.2680628924184205  0.7539349926775500
  0.5262688450526198  0.2680628924184205  0.7539349926775500
  0.0262688450526198  0.7680628924184134  0.7539349926775500
  0.5262688450526198  0.7680628924184134  0.7539349926775500
  0.2442448337584295  0.0193276381456187  0.7547582352459870
  0.7442448337584224  0.0193276381456187  0.7547582352459870
  0.2442448337584295  0.5193276381456187  0.7547582352459870
  0.7442448337584224  0.5193276381456187  0.7547582352459870
  0.4650738155982808  0.2993586002965003  0.1933599801871395
  0.9650738155982808  0.2993586002965003  0.1933599801871395
  0.4650738155982808  0.7993586002964932  0.1933599801871395
  0.9650738155982808  0.7993586002964932  0.1933599801871395
  0.2152528058970020  0.4684927291151268  0.1954781300576443
  0.7152528058970091  0.4684927291151268  0.1954781300576443
  0.2152528058970020  0.9684927291151197  0.1954781300576443
  0.7152528058970091  0.9684927291151197  0.1954781300576443
  0.4685374301205698  0.2151115918071227  0.6955023468112884
  0.9685374301205698  0.2151115918071227  0.6955023468112884
  0.4685374301205698  0.7151115918071227  0.6955023468112884
  0.9685374301205698  0.7151115918071227  0.6955023468112884
  0.2992741374321923  0.4650090876355151  0.6934369287645410
  0.7992741374321923  0.4650090876355151  0.6934369287645410
  0.2992741374321923  0.9650090876355151  0.6934369287645410
  0.7992741374321923  0.9650090876355151  0.6934369287645410
  0.3297568268094437  0.0135184468419567  0.2314050055182975
  0.8297568268094437  0.0135184468419567  0.2314050055182975
  0.3297568268094437  0.5135184468419567  0.2314050055182975
  0.8297568268094437  0.5135184468419567  0.2314050055182975
  0.2596326224550438  0.0198351085717974  0.3447183088081260
  0.7596326224550438  0.0198351085717974  0.3447183088081260
  0.2596326224550438  0.5198351085718045  0.3447183088081260
  0.7596326224550438  0.5198351085718045  0.3447183088081260
  0.2520116378165227  0.0864780023761398  0.2269747031264160
  0.7520116378165227  0.0864780023761398  0.2269747031264160
  0.2520116378165227  0.5864780023761398  0.2269747031264160
  0.7520116378165227  0.5864780023761398  0.2269747031264160
  0.2285101654365747  0.4102162654765706  0.2178539532698807
  0.7285101654365747  0.4102162654765706  0.2178539532698807
  0.2285101654365747  0.9102162654765706  0.2178539532698807
  0.7285101654365747  0.9102162654765706  0.2178539532698807
  0.2211726829740002  0.4722764847496066  0.1092008631089811
  0.7211726829740002  0.4722764847496066  0.1092008631089811
  0.2211726829740002  0.9722764847495995  0.1092008631089811
  0.7211726829740002  0.9722764847495995  0.1092008631089811
  0.1556294305959227  0.4782395249720750  0.2139192764758491
  0.6556294305959227  0.4782395249720750  0.2139192764758491
  0.1556294305959227  0.9782395249720750  0.2139192764758491
  0.6556294305959227  0.9782395249720750  0.2139192764758491
  0.4665096228112233  0.2888354195321341  0.1077508087009988
  0.9665096228112233  0.2888354195321341  0.1077508087009988
  0.4665096228112233  0.7888354195321341  0.1077508087009988
  0.9665096228112233  0.7888354195321341  0.1077508087009988
  0.4805173608210893  0.3584967526613880  0.2066159409221413
  0.9805173608210893  0.3584967526613880  0.2066159409221413
  0.4805173608210893  0.8584967526613880  0.2066159409221413
  0.9805173608210893  0.8584967526613880  0.2066159409221413
  0.4062313175208203  0.2923256891363692  0.2184990041968149
  0.9062313175208203  0.2923256891363692  0.2184990041968149
  0.4062313175208203  0.7923256891363692  0.2184990041968149
  0.9062313175208203  0.7923256891363692  0.2184990041968149
  0.0800704009879638  0.2537918990940966  0.2248829449855521
  0.5800704009879638  0.2537918990940966  0.2248829449855521
  0.0800704009879638  0.7537918990941037  0.2248829449855521
  0.5800704009879638  0.7537918990941037  0.2248829449855521
  0.5008756077819498  0.1829824858763800  0.2377325408083166
  0.0008756077819569  0.1829824858763800  0.2377325408083166
  0.5008756077819498  0.6829824858763800  0.2377325408083166
  0.0008756077819569  0.6829824858763800  0.2377325408083166
  0.0150425284533000  0.2567787228485727  0.3447982272827375
  0.5150425284533000  0.2567787228485727  0.3447982272827375
  0.0150425284533000  0.7567787228485727  0.3447982272827375
  0.5150425284533000  0.7567787228485727  0.3447982272827375
  0.4780939845955956  0.1555716498212618  0.7146771112593768
  0.9780939845955956  0.1555716498212618  0.7146771112593768
  0.4780939845955956  0.6555716498212618  0.7146771112593768
  0.9780939845955956  0.6555716498212618  0.7146771112593768
  0.4727108259786661  0.2205007309740310  0.6091935158730806
  0.9727108259786519  0.2205007309740310  0.6091935158730806
  0.4727108259786661  0.7205007309740310  0.6091935158730806
  0.9727108259786519  0.7205007309740310  0.6091935158730806
  0.4101971514255780  0.2286014932793066  0.7172661912148044
  0.9101971514255780  0.2286014932793066  0.7172661912148044
  0.4101971514255780  0.7286014932793066  0.7172661912148044
  0.9101971514255780  0.7286014932793066  0.7172661912148044
  0.0864745111946519  0.2517289547623776  0.7277035193428603
  0.5864745111946519  0.2517289547623776  0.7277035193428603
  0.0864745111946519  0.7517289547623776  0.7277035193428603
  0.5864745111946519  0.7517289547623776  0.7277035193428603
  0.0192676830527745  0.2603366068644775  0.8446562765606913
  0.5192676830527745  0.2603366068644775  0.8446562765606913
  0.0192676830527745  0.7603366068644775  0.8446562765606913
  0.5192676830527745  0.7603366068644775  0.8446562765606913
  0.0137309416222280  0.3297108660012356  0.7303326314244032
  0.5137309416222280  0.3297108660012356  0.7303326314244032
  0.0137309416222280  0.8297108660012427  0.7303326314244032
  0.5137309416222280  0.8297108660012427  0.7303326314244032
  0.3584242427759534  0.4805615204545148  0.7062941902492312
  0.8584242427759534  0.4805615204545148  0.7062941902492312
  0.3584242427759534  0.9805615204545148  0.7062941902492312
  0.8584242427759534  0.9805615204545148  0.7062941902492312
  0.2885045881299888  0.4661213799886283  0.6078731970875353
  0.7885045881299888  0.4661213799886283  0.6078731970875353
  0.2885045881299888  0.9661213799886283  0.6078731970875353
  0.7885045881299888  0.9661213799886283  0.6078731970875353
  0.2923785543065378  0.4062460607090586  0.7190075115029728
  0.7923785543065378  0.4062460607090586  0.7190075115029728
  0.2923785543065378  0.9062460607090586  0.7190075115029728
  0.7923785543065378  0.9062460607090586  0.7190075115029728
  0.2535987151586738  0.0800438412115909  0.7243209815091305
  0.7535987151586738  0.0800438412115909  0.7243209815091305
  0.2535987151586738  0.5800438412115980  0.7243209815091305
  0.7535987151586738  0.5800438412115980  0.7243209815091305
  0.2570566748279646  0.0154945576835601  0.8447381226197805
  0.7570566748279646  0.0154945576835601  0.8447381226197805
  0.2570566748279646  0.5154945576835601  0.8447381226197805
  0.7570566748279646  0.5154945576835601  0.8447381226197805
  0.1829700364422635  0.5007777257982298  0.7382356392843832
  0.6829700364422635  0.5007777257982298  0.7382356392843832
  0.1829700364422635  0.0007777257982298  0.7382356392843832
  0.6829700364422635  0.0007777257982298  0.7382356392843832
  0.2492109380772192  0.2563190226723506  0.9848711941093100
  0.7492109380772192  0.2563190226723506  0.9848711941093100
  0.2492109380772192  0.7563190226723577  0.9848711941093100
  0.7492109380772192  0.7563190226723577  0.9848711941093100
  0.2563816217285080  0.2492683527966975  0.4848824610140952
  0.7563816217285080  0.2492683527966975  0.4848824610140952
  0.2563816217285080  0.7492683527966975  0.4848824610140952
  0.7563816217285080  0.7492683527966975  0.4848824610140952
  0.0145097041020037  0.9997766969887820  0.4869955886560007
  0.5145097041020037  0.9997766969887820  0.4869955886560007
  0.0145097041020037  0.4997766969887820  0.4869955886560007
  0.5145097041020037  0.4997766969887820  0.4869955886560007
  0.9997403423981837  0.0145386482810324  0.9869833974868030
  0.4997403423981837  0.0145386482810324  0.9869833974868030
  0.9997403423981837  0.5145386482810324  0.9869833974868030
  0.4997403423981837  0.5145386482810324  0.9869833974868030
  0.3540650148380067  0.4096792147831820  0.9911951339226164
  0.8540650148379996  0.4096792147831820  0.9911951339226164
  0.3540650148380067  0.9096792147831820  0.9911951339226164
  0.8540650148379996  0.9096792147831820  0.9911951339226164
  0.1513431022759661  0.1109956404540213  0.0018081173463997
  0.6513431022759661  0.1109956404540213  0.0018081173463997
  0.1513431022759661  0.6109956404540213  0.0018081173463997
  0.6513431022759661  0.6109956404540213  0.0018081173463997
  0.1084654634584723  0.3669430265996141  0.9957381946438559
  0.6084654634584652  0.3669430265996141  0.9957381946438559
  0.1084654634584723  0.8669430265996141  0.9957381946438559
  0.6084654634584652  0.8669430265996141  0.9957381946438559
  0.4069526985605378  0.1666886192949875  0.9871396494660161
  0.9069526985605378  0.1666886192949875  0.9871396494660161
  0.4069526985605378  0.6666886192949875  0.9871396494660161
  0.9069526985605378  0.6666886192949875  0.9871396494660161
  0.1667303316709052  0.4069417161669335  0.4871362977690552
  0.6667303316709052  0.4069417161669335  0.4871362977690552
  0.1667303316709052  0.9069417161669335  0.4871362977690552
  0.6667303316709052  0.9069417161669335  0.4871362977690552
  0.3669742029765359  0.1084608077748115  0.4957222479648493
  0.8669742029765359  0.1084608077748115  0.4957222479648493
  0.3669742029765359  0.6084608077748115  0.4957222479648493
  0.8669742029765359  0.6084608077748115  0.4957222479648493
  0.4096723906901758  0.3541162440633343  0.4912695632402233
  0.9096723906901758  0.3541162440633343  0.4912695632402233
  0.4096723906901758  0.8541162440633343  0.4912695632402233
  0.9096723906901758  0.8541162440633343  0.4912695632402233
  0.1110194304544123  0.1513591405028194  0.5017976211258102
  0.6110194304544194  0.1513591405028194  0.5017976211258102
  0.1110194304544123  0.6513591405028194  0.5017976211258102
  0.6110194304544194  0.6513591405028194  0.5017976211258102
  0.2651561931553275  0.2708736704538097  0.2356643576301636
  0.7651561931553275  0.2708736704538097  0.2356643576301636
  0.2651561931553275  0.7708736704538097  0.2356643576301636
  0.7651561931553275  0.7708736704538097  0.2356643576301636
  0.2709267645243614  0.2650686374583628  0.7356770598457203
  0.7709267645243614  0.2650686374583628  0.7356770598457203
  0.2709267645243614  0.7650686374583628  0.7356770598457203
  0.7709267645243614  0.7650686374583628  0.7356770598457203
  0.9966217949275773  0.0128783263957928  0.7386098815827395
  0.4966217949275773  0.0128783263957928  0.7386098815827395
  0.9966217949275773  0.5128783263957928  0.7386098815827395
  0.4966217949275773  0.5128783263957928  0.7386098815827395
  0.0129704480746184  0.9966583271514438  0.2385749078223114
  0.5129704480746184  0.9966583271514438  0.2385749078223114
  0.0129704480746184  0.4966583271514438  0.2385749078223114
  0.5129704480746184  0.4966583271514438  0.2385749078223114
 
  0.00000000E+00  0.00000000E+00  0.00000000E+00
  0.00000000E+00  0.00000000E+00  0.00000000E+00
  0.00000000E+00  0.00000000E+00  0.00000000E+00
  0.00000000E+00  0.00000000E+00  0.00000000E+00
  0.00000000E+00  0.00000000E+00  0.00000000E+00
  0.00000000E+00  0.00000000E+00  0.00000000E+00
  0.00000000E+00  0.00000000E+00  0.00000000E+00
  0.00000000E+00  0.00000000E+00  0.00000000E+00
  0.00000000E+00  0.00000000E+00  0.00000000E+00
  0.00000000E+00  0.00000000E+00  0.00000000E+00
  0.00000000E+00  0.00000000E+00  0.00000000E+00
  0.00000000E+00  0.00000000E+00  0.00000000E+00
  0.00000000E+00  0.00000000E+00  0.00000000E+00
  0.00000000E+00  0.00000000E+00  0.00000000E+00
  0.00000000E+00  0.00000000E+00  0.00000000E+00
  0.00000000E+00  0.00000000E+00  0.00000000E+00
  0.00000000E+00  0.00000000E+00  0.00000000E+00
  0.00000000E+00  0.00000000E+00  0.00000000E+00
  0.00000000E+00  0.00000000E+00  0.00000000E+00
  0.00000000E+00  0.00000000E+00  0.00000000E+00
  0.00000000E+00  0.00000000E+00  0.00000000E+00
  0.00000000E+00  0.00000000E+00  0.00000000E+00
  0.00000000E+00  0.00000000E+00  0.00000000E+00
  0.00000000E+00  0.00000000E+00  0.00000000E+00
  0.00000000E+00  0.00000000E+00  0.00000000E+00
  0.00000000E+00  0.00000000E+00  0.00000000E+00
  0.00000000E+00  0.00000000E+00  0.00000000E+00
  0.00000000E+00  0.00000000E+00  0.00000000E+00
  0.00000000E+00  0.00000000E+00  0.00000000E+00
  0.00000000E+00  0.00000000E+00  0.00000000E+00
  0.00000000E+00  0.00000000E+00  0.00000000E+00
  0.00000000E+00  0.00000000E+00  0.00000000E+00
  0.00000000E+00  0.00000000E+00  0.00000000E+00
  0.00000000E+00  0.00000000E+00  0.00000000E+00
  0.00000000E+00  0.00000000E+00  0.00000000E+00
  0.00000000E+00  0.00000000E+00  0.00000000E+00
  0.00000000E+00  0.00000000E+00  0.00000000E+00
  0.00000000E+00  0.00000000E+00  0.00000000E+00
  0.00000000E+00  0.00000000E+00  0.00000000E+00
  0.00000000E+00  0.00000000E+00  0.00000000E+00
  0.00000000E+00  0.00000000E+00  0.00000000E+00
  0.00000000E+00  0.00000000E+00  0.00000000E+00
  0.00000000E+00  0.00000000E+00  0.00000000E+00
  0.00000000E+00  0.00000000E+00  0.00000000E+00
  0.00000000E+00  0.00000000E+00  0.00000000E+00
  0.00000000E+00  0.00000000E+00  0.00000000E+00
  0.00000000E+00  0.00000000E+00  0.00000000E+00
  0.00000000E+00  0.00000000E+00  0.00000000E+00
  0.00000000E+00  0.00000000E+00  0.00000000E+00
  0.00000000E+00  0.00000000E+00  0.00000000E+00
  0.00000000E+00  0.00000000E+00  0.00000000E+00
  0.00000000E+00  0.00000000E+00  0.00000000E+00
  0.00000000E+00  0.00000000E+00  0.00000000E+00
  0.00000000E+00  0.00000000E+00  0.00000000E+00
  0.00000000E+00  0.00000000E+00  0.00000000E+00
  0.00000000E+00  0.00000000E+00  0.00000000E+00
  0.00000000E+00  0.00000000E+00  0.00000000E+00
  0.00000000E+00  0.00000000E+00  0.00000000E+00
  0.00000000E+00  0.00000000E+00  0.00000000E+00
  0.00000000E+00  0.00000000E+00  0.00000000E+00
  0.00000000E+00  0.00000000E+00  0.00000000E+00
  0.00000000E+00  0.00000000E+00  0.00000000E+00
  0.00000000E+00  0.00000000E+00  0.00000000E+00
  0.00000000E+00  0.00000000E+00  0.00000000E+00
  0.00000000E+00  0.00000000E+00  0.00000000E+00
  0.00000000E+00  0.00000000E+00  0.00000000E+00
  0.00000000E+00  0.00000000E+00  0.00000000E+00
  0.00000000E+00  0.00000000E+00  0.00000000E+00
  0.00000000E+00  0.00000000E+00  0.00000000E+00
  0.00000000E+00  0.00000000E+00  0.00000000E+00
  0.00000000E+00  0.00000000E+00  0.00000000E+00
  0.00000000E+00  0.00000000E+00  0.00000000E+00
  0.00000000E+00  0.00000000E+00  0.00000000E+00
  0.00000000E+00  0.00000000E+00  0.00000000E+00
  0.00000000E+00  0.00000000E+00  0.00000000E+00
  0.00000000E+00  0.00000000E+00  0.00000000E+00
  0.00000000E+00  0.00000000E+00  0.00000000E+00
  0.00000000E+00  0.00000000E+00  0.00000000E+00
  0.00000000E+00  0.00000000E+00  0.00000000E+00
  0.00000000E+00  0.00000000E+00  0.00000000E+00
  0.00000000E+00  0.00000000E+00  0.00000000E+00
  0.00000000E+00  0.00000000E+00  0.00000000E+00
  0.00000000E+00  0.00000000E+00  0.00000000E+00
  0.00000000E+00  0.00000000E+00  0.00000000E+00
  0.00000000E+00  0.00000000E+00  0.00000000E+00
  0.00000000E+00  0.00000000E+00  0.00000000E+00
  0.00000000E+00  0.00000000E+00  0.00000000E+00
  0.00000000E+00  0.00000000E+00  0.00000000E+00
  0.00000000E+00  0.00000000E+00  0.00000000E+00
  0.00000000E+00  0.00000000E+00  0.00000000E+00
  0.00000000E+00  0.00000000E+00  0.00000000E+00
  0.00000000E+00  0.00000000E+00  0.00000000E+00
  0.00000000E+00  0.00000000E+00  0.00000000E+00
  0.00000000E+00  0.00000000E+00  0.00000000E+00
  0.00000000E+00  0.00000000E+00  0.00000000E+00
  0.00000000E+00  0.00000000E+00  0.00000000E+00
  0.00000000E+00  0.00000000E+00  0.00000000E+00
  0.00000000E+00  0.00000000E+00  0.00000000E+00
  0.00000000E+00  0.00000000E+00  0.00000000E+00
  0.00000000E+00  0.00000000E+00  0.00000000E+00
  0.00000000E+00  0.00000000E+00  0.00000000E+00
  0.00000000E+00  0.00000000E+00  0.00000000E+00
  0.00000000E+00  0.00000000E+00  0.00000000E+00
  0.00000000E+00  0.00000000E+00  0.00000000E+00
  0.00000000E+00  0.00000000E+00  0.00000000E+00
  0.00000000E+00  0.00000000E+00  0.00000000E+00
  0.00000000E+00  0.00000000E+00  0.00000000E+00
  0.00000000E+00  0.00000000E+00  0.00000000E+00
  0.00000000E+00  0.00000000E+00  0.00000000E+00
  0.00000000E+00  0.00000000E+00  0.00000000E+00
  0.00000000E+00  0.00000000E+00  0.00000000E+00
  0.00000000E+00  0.00000000E+00  0.00000000E+00
  0.00000000E+00  0.00000000E+00  0.00000000E+00
  0.00000000E+00  0.00000000E+00  0.00000000E+00
  0.00000000E+00  0.00000000E+00  0.00000000E+00
  0.00000000E+00  0.00000000E+00  0.00000000E+00
  0.00000000E+00  0.00000000E+00  0.00000000E+00
  0.00000000E+00  0.00000000E+00  0.00000000E+00
  0.00000000E+00  0.00000000E+00  0.00000000E+00
  0.00000000E+00  0.00000000E+00  0.00000000E+00
  0.00000000E+00  0.00000000E+00  0.00000000E+00
  0.00000000E+00  0.00000000E+00  0.00000000E+00
  0.00000000E+00  0.00000000E+00  0.00000000E+00
  0.00000000E+00  0.00000000E+00  0.00000000E+00
  0.00000000E+00  0.00000000E+00  0.00000000E+00
  0.00000000E+00  0.00000000E+00  0.00000000E+00
  0.00000000E+00  0.00000000E+00  0.00000000E+00
  0.00000000E+00  0.00000000E+00  0.00000000E+00
  0.00000000E+00  0.00000000E+00  0.00000000E+00
  0.00000000E+00  0.00000000E+00  0.00000000E+00
  0.00000000E+00  0.00000000E+00  0.00000000E+00
  0.00000000E+00  0.00000000E+00  0.00000000E+00
  0.00000000E+00  0.00000000E+00  0.00000000E+00
  0.00000000E+00  0.00000000E+00  0.00000000E+00
  0.00000000E+00  0.00000000E+00  0.00000000E+00
  0.00000000E+00  0.00000000E+00  0.00000000E+00
  0.00000000E+00  0.00000000E+00  0.00000000E+00
  0.00000000E+00  0.00000000E+00  0.00000000E+00
  0.00000000E+00  0.00000000E+00  0.00000000E+00
  0.00000000E+00  0.00000000E+00  0.00000000E+00
  0.00000000E+00  0.00000000E+00  0.00000000E+00
  0.00000000E+00  0.00000000E+00  0.00000000E+00
  0.00000000E+00  0.00000000E+00  0.00000000E+00
  0.00000000E+00  0.00000000E+00  0.00000000E+00
  0.00000000E+00  0.00000000E+00  0.00000000E+00
  0.00000000E+00  0.00000000E+00  0.00000000E+00
  0.00000000E+00  0.00000000E+00  0.00000000E+00
  0.00000000E+00  0.00000000E+00  0.00000000E+00
  0.00000000E+00  0.00000000E+00  0.00000000E+00
  0.00000000E+00  0.00000000E+00  0.00000000E+00
  0.00000000E+00  0.00000000E+00  0.00000000E+00
  0.00000000E+00  0.00000000E+00  0.00000000E+00
  0.00000000E+00  0.00000000E+00  0.00000000E+00
  0.00000000E+00  0.00000000E+00  0.00000000E+00
  0.00000000E+00  0.00000000E+00  0.00000000E+00
  0.00000000E+00  0.00000000E+00  0.00000000E+00
  0.00000000E+00  0.00000000E+00  0.00000000E+00
  0.00000000E+00  0.00000000E+00  0.00000000E+00
  0.00000000E+00  0.00000000E+00  0.00000000E+00
  0.00000000E+00  0.00000000E+00  0.00000000E+00
  0.00000000E+00  0.00000000E+00  0.00000000E+00
  0.00000000E+00  0.00000000E+00  0.00000000E+00
  0.00000000E+00  0.00000000E+00  0.00000000E+00
  0.00000000E+00  0.00000000E+00  0.00000000E+00
  0.00000000E+00  0.00000000E+00  0.00000000E+00
  0.00000000E+00  0.00000000E+00  0.00000000E+00
  0.00000000E+00  0.00000000E+00  0.00000000E+00
  0.00000000E+00  0.00000000E+00  0.00000000E+00
  0.00000000E+00  0.00000000E+00  0.00000000E+00
  0.00000000E+00  0.00000000E+00  0.00000000E+00
  0.00000000E+00  0.00000000E+00  0.00000000E+00
  0.00000000E+00  0.00000000E+00  0.00000000E+00
  0.00000000E+00  0.00000000E+00  0.00000000E+00
  0.00000000E+00  0.00000000E+00  0.00000000E+00
  0.00000000E+00  0.00000000E+00  0.00000000E+00
  0.00000000E+00  0.00000000E+00  0.00000000E+00
  0.00000000E+00  0.00000000E+00  0.00000000E+00
  0.00000000E+00  0.00000000E+00  0.00000000E+00
  0.00000000E+00  0.00000000E+00  0.00000000E+00
  0.00000000E+00  0.00000000E+00  0.00000000E+00
  0.00000000E+00  0.00000000E+00  0.00000000E+00
  0.00000000E+00  0.00000000E+00  0.00000000E+00
  0.00000000E+00  0.00000000E+00  0.00000000E+00
  0.00000000E+00  0.00000000E+00  0.00000000E+00
  0.00000000E+00  0.00000000E+00  0.00000000E+00
  0.00000000E+00  0.00000000E+00  0.00000000E+00
  0.00000000E+00  0.00000000E+00  0.00000000E+00
  0.00000000E+00  0.00000000E+00  0.00000000E+00
  0.00000000E+00  0.00000000E+00  0.00000000E+00
  0.00000000E+00  0.00000000E+00  0.00000000E+00
  0.00000000E+00  0.00000000E+00  0.00000000E+00
  0.00000000E+00  0.00000000E+00  0.00000000E+00
