Sr3Cl                                   
   1.00000000000000     
    -2.6009291764481830    2.6009291764481830    6.8851915211378474
     2.6009291764481830   -2.6009291764481830    6.8851915211378474
     2.6009291764481830    2.6009291764481830   -6.8851915211378474
   Cl   Sr
     1     3
Direct
  0.0000000000000000  0.0000000000000000  0.0000000000000000
  0.7500000000000000  0.2500000000000000  0.5000000000000000
  0.2500000000000000  0.7500000000000000  0.5000000000000000
  0.5000000000000000  0.5000000000000000  0.0000000000000000
 
  0.00000000E+00  0.00000000E+00  0.00000000E+00
  0.00000000E+00  0.00000000E+00  0.00000000E+00
  0.00000000E+00  0.00000000E+00  0.00000000E+00
  0.00000000E+00  0.00000000E+00  0.00000000E+00
