Mg16 Tl12 I1                            
   1.0000000000000000     
     7.8210910242822340   -4.5155482253779367    3.4634466033462488
     0.3789484860266435    9.5400666324266812    3.2719071201315497
    -8.0724452872819530   -5.0978436892458223    3.2719762072320528
   Tl   I    Mg
    12     1    16
Direct
  0.8010089153394304  0.5159100945932238  0.0316625128928223
  0.6690332298374599  0.7838149689331786  0.0103346272047560
  0.3944740126822452  0.4090838909301056  0.2057987910207260
  0.1724606639206101  0.8020897847795609  0.2106441083563411
  0.8170244964681785  0.1910702400718378  0.1910702346609554
  0.3944740010342684  0.2057987756661745  0.4090838715690239
  0.2008843888003540  0.4065323487136396  0.4065323375423802
  0.8010089174127089  0.0316625219974540  0.5159101115698093
  0.9415017713208442  0.8101650571814432  0.6123024558234391
  0.6690332351305983  0.0103346330652130  0.7838149814083124
  0.9415017727554016  0.6123024487696611  0.8101650715126141
  0.1724606734170280  0.2106441263129568  0.8020897914551881
  0.3200423754504627  0.9595675928874599  0.9595675877038161
  0.0187453501420691  0.3436454315423561  0.0255629872649195
  0.5357665295440697  0.2522335637056372  0.9868951119684795
  0.3066242503673777  0.5955775012839055  0.0038587390200320
  0.9815245149391600  0.9870918606171983  0.9870928540916850
  0.6823145674235747  0.6788576702966864  0.2603958414679752
  0.5357665221999284  0.9868961089984722  0.2522335512908569
  0.0387075400946202  0.6172467110076241  0.3724952860232591
  0.0187453449937252  0.0255629848248304  0.3436454292277276
  0.7164237561016620  0.4088035847703679  0.4088035827170700
  0.4283114703960322  0.7476782829201483  0.4116136537802362
  0.0387075411334834  0.3724952850399106  0.6172467149169023
  0.3066242547378835  0.0038587417963001  0.5955775088453024
  0.6248632966942438  0.6416088405993747  0.6416088380245029
  0.6823145707941549  0.2603958424067727  0.6788576738736438
  0.3545405672107336  0.7174584554631167  0.7174584610402164
  0.4283114696576362  0.4116136508254158  0.7476782837270193

  0.00000000E+00  0.00000000E+00  0.00000000E+00
  0.00000000E+00  0.00000000E+00  0.00000000E+00
  0.00000000E+00  0.00000000E+00  0.00000000E+00
  0.00000000E+00  0.00000000E+00  0.00000000E+00
  0.00000000E+00  0.00000000E+00  0.00000000E+00
  0.00000000E+00  0.00000000E+00  0.00000000E+00
  0.00000000E+00  0.00000000E+00  0.00000000E+00
  0.00000000E+00  0.00000000E+00  0.00000000E+00
  0.00000000E+00  0.00000000E+00  0.00000000E+00
  0.00000000E+00  0.00000000E+00  0.00000000E+00
  0.00000000E+00  0.00000000E+00  0.00000000E+00
  0.00000000E+00  0.00000000E+00  0.00000000E+00
  0.00000000E+00  0.00000000E+00  0.00000000E+00
  0.00000000E+00  0.00000000E+00  0.00000000E+00
  0.00000000E+00  0.00000000E+00  0.00000000E+00
  0.00000000E+00  0.00000000E+00  0.00000000E+00
  0.00000000E+00  0.00000000E+00  0.00000000E+00
  0.00000000E+00  0.00000000E+00  0.00000000E+00
  0.00000000E+00  0.00000000E+00  0.00000000E+00
  0.00000000E+00  0.00000000E+00  0.00000000E+00
  0.00000000E+00  0.00000000E+00  0.00000000E+00
  0.00000000E+00  0.00000000E+00  0.00000000E+00
  0.00000000E+00  0.00000000E+00  0.00000000E+00
  0.00000000E+00  0.00000000E+00  0.00000000E+00
  0.00000000E+00  0.00000000E+00  0.00000000E+00
  0.00000000E+00  0.00000000E+00  0.00000000E+00
  0.00000000E+00  0.00000000E+00  0.00000000E+00
  0.00000000E+00  0.00000000E+00  0.00000000E+00
  0.00000000E+00  0.00000000E+00  0.00000000E+00
