Ba2 In4 F16                             
   1.0000000000000000     
    13.6085817233303086    0.0000000000000000    0.1056451035270697
     0.0000000000000000    4.9665539642578143    0.0000000000000000
    -1.7778135822328776    0.0000000000000000    4.8400153542732722
   In   Ba   F 
     4     2    16
Direct
  0.4801462496806366  0.2151350129255505  0.2211835632870063
  0.9801466210243888  0.7848104650688725  0.2211871204759248
  0.0198537503193634  0.2151350129255505  0.7788164367130008
  0.5198533789756112  0.7848104650688725  0.7788128795240752
  0.7500000000000000  0.7429811126126182  0.5000000000000000
  0.2500000000000000  0.2569597827769527  0.5000000000000000
  0.6048329483685464  0.0632160594533957  0.0965615319347890
  0.1048345712336172  0.9367319285281965  0.0965684243804219
  0.8433576430442287  0.5910080521687249  0.1507806188962633
  0.3433586816658405  0.4089335665280700  0.1507824331999856
  0.5529883497352870  0.5912431932749840  0.2607952335015682
  0.0529901818461624  0.4087057104964202  0.2607970603627408
  0.9023575165257540  0.0749902541745584  0.4162824600693114
  0.4023595179709929  0.9249553096864247  0.4162761210839960
  0.5976424834742460  0.0749902541745584  0.5837175399306958
  0.0976404820290071  0.9249553096864247  0.5837238789160040
  0.9470116502647130  0.5912431932749840  0.7392047664984389
  0.4470098181538376  0.4087057104964202  0.7392029396372664
  0.6566423569557713  0.5910080521687249  0.8492193811037438
  0.1566413183341595  0.4089335665280700  0.8492175668000215
  0.8951670516314536  0.0632160594533957  0.9034384680652039
  0.3951654287663828  0.9367319285281965  0.9034315756195781

  0.00000000E+00  0.00000000E+00  0.00000000E+00
  0.00000000E+00  0.00000000E+00  0.00000000E+00
  0.00000000E+00  0.00000000E+00  0.00000000E+00
  0.00000000E+00  0.00000000E+00  0.00000000E+00
  0.00000000E+00  0.00000000E+00  0.00000000E+00
  0.00000000E+00  0.00000000E+00  0.00000000E+00
  0.00000000E+00  0.00000000E+00  0.00000000E+00
  0.00000000E+00  0.00000000E+00  0.00000000E+00
  0.00000000E+00  0.00000000E+00  0.00000000E+00
  0.00000000E+00  0.00000000E+00  0.00000000E+00
  0.00000000E+00  0.00000000E+00  0.00000000E+00
  0.00000000E+00  0.00000000E+00  0.00000000E+00
  0.00000000E+00  0.00000000E+00  0.00000000E+00
  0.00000000E+00  0.00000000E+00  0.00000000E+00
  0.00000000E+00  0.00000000E+00  0.00000000E+00
  0.00000000E+00  0.00000000E+00  0.00000000E+00
  0.00000000E+00  0.00000000E+00  0.00000000E+00
  0.00000000E+00  0.00000000E+00  0.00000000E+00
  0.00000000E+00  0.00000000E+00  0.00000000E+00
  0.00000000E+00  0.00000000E+00  0.00000000E+00
  0.00000000E+00  0.00000000E+00  0.00000000E+00
  0.00000000E+00  0.00000000E+00  0.00000000E+00
