Mg1 Al2 Br6                             
   1.00000000000000     
     3.8154030258383322    2.5064730362131544    5.2204439541856278
    -3.8154030258383309    2.5064730362131549    5.2204439541856260
     0.0000000000000004   -6.2858537710515501    5.9212824610542727
   Mg   Br   Al
     1     6     2
Direct
  0.0000000000000000  0.0000000000000000  0.0000000000000000
  0.7551058075179000  0.7551058075179000  0.0815509613866112
  0.7462789712758564  0.2092944680157061  0.2595904546985750
  0.2092944680157061  0.7462789712758564  0.2595904546985750
  0.2448941924821000  0.2448941924821000  0.9184490386133888
  0.7907055319842939  0.2537210287241507  0.7404095453014250
  0.2537210287241507  0.7907055319842939  0.7404095453014250
  0.4579900091461440  0.4579900091461440  0.8829629246442607
  0.5420099908538560  0.5420099908538560  0.1170370753557393
 
  0.00000000E+00  0.00000000E+00  0.00000000E+00
  0.00000000E+00  0.00000000E+00  0.00000000E+00
  0.00000000E+00  0.00000000E+00  0.00000000E+00
  0.00000000E+00  0.00000000E+00  0.00000000E+00
  0.00000000E+00  0.00000000E+00  0.00000000E+00
  0.00000000E+00  0.00000000E+00  0.00000000E+00
  0.00000000E+00  0.00000000E+00  0.00000000E+00
  0.00000000E+00  0.00000000E+00  0.00000000E+00
  0.00000000E+00  0.00000000E+00  0.00000000E+00
