Mg1 Ga2 I6                              
   1.00000000000000     
     4.3286862990448496    1.6272446680998840    7.4730125938255361
    -4.3286862990448460    1.6272446680998840    7.4730125938255343
     0.0000000000000004   -4.0991991245724329    7.5743131693364223
   Mg   I    Ga
     1     6     2
Direct
  0.0000000000000000  0.0000000000000000  0.0000000000000000
  0.7167303830427656  0.7167303830427656  0.3162326542400038
  0.7843185016479524  0.2612616562712660  0.2103549075273534
  0.2612616562712660  0.7843185016479524  0.2103549075273534
  0.2832696169572344  0.2832696169572344  0.6837673457599962
  0.7387383437287340  0.2156814983520476  0.7896450924726466
  0.2156814983520476  0.7387383437287340  0.7896450924726466
  0.2079925956590429  0.2079925956590429  0.1472154819425384
  0.7920074043409571  0.7920074043409571  0.8527845180574616
 
  0.00000000E+00  0.00000000E+00  0.00000000E+00
  0.00000000E+00  0.00000000E+00  0.00000000E+00
  0.00000000E+00  0.00000000E+00  0.00000000E+00
  0.00000000E+00  0.00000000E+00  0.00000000E+00
  0.00000000E+00  0.00000000E+00  0.00000000E+00
  0.00000000E+00  0.00000000E+00  0.00000000E+00
  0.00000000E+00  0.00000000E+00  0.00000000E+00
  0.00000000E+00  0.00000000E+00  0.00000000E+00
  0.00000000E+00  0.00000000E+00  0.00000000E+00
