Be22 Ga14                               
   1.00000000000000     
     0.0000000000000002    6.1891654924032489    6.1891654924032506
     6.1891654924032506    0.0000000000000000    6.1891654924032506
     6.1891654924032506    6.1891654924032489   -0.0000000000000001
   Be   Ga
    22    14
Direct
  0.7540506558619455  0.2459493441380545  0.0000000000000000
  0.7540506558619455  0.0000000000000000  0.0000000000000000
  0.1213997946168561  0.6262000684610527  0.6262000684610527
  0.0000000000000000  0.7540506558619455  0.2459493441380545
  0.0000000000000000  0.2459493441380545  0.7540506558619455
  0.3737999315389473  0.3737999315389473  0.3737999315389473
  0.0000000000000000  0.7540506558619455  0.0000000000000000
  0.6262000684610527  0.6262000684610527  0.1213997946168561
  0.0000000000000000  0.0000000000000000  0.7540506558619455
  0.6262000684610527  0.1213997946168561  0.6262000684610527
  0.0000000000000000  0.0000000000000000  0.2459493441380545
  0.2459493441380545  0.0000000000000000  0.0000000000000000
  0.0000000000000000  0.2459493441380545  0.0000000000000000
  0.7540506558619455  0.0000000000000000  0.2459493441380545
  0.5000000000000000  0.5000000000000000  0.5000000000000000
  0.3737999315389473  0.8786002053831439  0.3737999315389473
  0.3737999315389473  0.3737999315389473  0.8786002053831439
  0.2459493441380545  0.7540506558619455  0.0000000000000000
  0.2459493441380545  0.0000000000000000  0.7540506558619455
  0.6262000684610527  0.6262000684610527  0.6262000684610527
  0.0000000000000000  0.0000000000000000  0.0000000000000000
  0.8786002053831439  0.3737999315389473  0.3737999315389473
  0.2862021816240130  0.2862021816240130  0.7137978183759870
  0.7137978183759870  0.7137978183759870  0.2862021816240130
  0.8256416997754314  0.5230749006737270  0.8256416997754314
  0.7137978183759870  0.2862021816240130  0.2862021816240130
  0.4769250993262659  0.1743583002245686  0.1743583002245686
  0.2862021816240130  0.7137978183759870  0.7137978183759870
  0.1743583002245686  0.1743583002245686  0.1743583002245686
  0.1743583002245686  0.4769250993262659  0.1743583002245686
  0.5230749006737270  0.8256416997754314  0.8256416997754314
  0.8256416997754314  0.8256416997754314  0.8256416997754314
  0.7137978183759870  0.2862021816240130  0.7137978183759870
  0.1743583002245686  0.1743583002245686  0.4769250993262659
  0.2862021816240130  0.7137978183759870  0.2862021816240130
  0.8256416997754314  0.8256416997754314  0.5230749006737270
 
  0.00000000E+00  0.00000000E+00  0.00000000E+00
  0.00000000E+00  0.00000000E+00  0.00000000E+00
  0.00000000E+00  0.00000000E+00  0.00000000E+00
  0.00000000E+00  0.00000000E+00  0.00000000E+00
  0.00000000E+00  0.00000000E+00  0.00000000E+00
  0.00000000E+00  0.00000000E+00  0.00000000E+00
  0.00000000E+00  0.00000000E+00  0.00000000E+00
  0.00000000E+00  0.00000000E+00  0.00000000E+00
  0.00000000E+00  0.00000000E+00  0.00000000E+00
  0.00000000E+00  0.00000000E+00  0.00000000E+00
  0.00000000E+00  0.00000000E+00  0.00000000E+00
  0.00000000E+00  0.00000000E+00  0.00000000E+00
  0.00000000E+00  0.00000000E+00  0.00000000E+00
  0.00000000E+00  0.00000000E+00  0.00000000E+00
  0.00000000E+00  0.00000000E+00  0.00000000E+00
  0.00000000E+00  0.00000000E+00  0.00000000E+00
  0.00000000E+00  0.00000000E+00  0.00000000E+00
  0.00000000E+00  0.00000000E+00  0.00000000E+00
  0.00000000E+00  0.00000000E+00  0.00000000E+00
  0.00000000E+00  0.00000000E+00  0.00000000E+00
  0.00000000E+00  0.00000000E+00  0.00000000E+00
  0.00000000E+00  0.00000000E+00  0.00000000E+00
  0.00000000E+00  0.00000000E+00  0.00000000E+00
  0.00000000E+00  0.00000000E+00  0.00000000E+00
  0.00000000E+00  0.00000000E+00  0.00000000E+00
  0.00000000E+00  0.00000000E+00  0.00000000E+00
  0.00000000E+00  0.00000000E+00  0.00000000E+00
  0.00000000E+00  0.00000000E+00  0.00000000E+00
  0.00000000E+00  0.00000000E+00  0.00000000E+00
  0.00000000E+00  0.00000000E+00  0.00000000E+00
  0.00000000E+00  0.00000000E+00  0.00000000E+00
  0.00000000E+00  0.00000000E+00  0.00000000E+00
  0.00000000E+00  0.00000000E+00  0.00000000E+00
  0.00000000E+00  0.00000000E+00  0.00000000E+00
  0.00000000E+00  0.00000000E+00  0.00000000E+00
  0.00000000E+00  0.00000000E+00  0.00000000E+00
