Sr2 Tl2 Br10                            
   1.0000000000000000     
     5.6825580189088178   -0.0000000000000002    0.0000000000000003
    -0.0000000000000011   11.8101922760761440    0.0000000000000006
     0.0000000000000001    0.0000000000000002   10.0923641203910108
   Sr   Tl   Br
     2     2    10
Direct
  0.0000000000000000  0.0000000000000000  0.5000000000000000
  0.5000000000000000  0.5000000000000000  0.0000000000000000
  0.5000000000000000  0.0000000000000000  0.0000000000000000
  0.0000000000000000  0.5000000000000000  0.5000000000000000
  0.5000000000000000  0.7189801148096606  0.5000000000000000
  0.5000000000000000  0.2810198851903465  0.5000000000000000
  0.5000000000000000  0.0000000000000000  0.6731107946624419
  0.5000000000000000  0.0000000000000000  0.3268892053375581
  0.0000000000000000  0.0000000000000000  0.0000000000000000
  0.0000000000000000  0.2189801148096535  0.0000000000000000
  0.0000000000000000  0.7810198851903394  0.0000000000000000
  0.0000000000000000  0.5000000000000000  0.1731107946624419
  0.0000000000000000  0.5000000000000000  0.8268892053375581
  0.5000000000000000  0.5000000000000000  0.5000000000000000

  0.00000000E+00  0.00000000E+00  0.00000000E+00
  0.00000000E+00  0.00000000E+00  0.00000000E+00
  0.00000000E+00  0.00000000E+00  0.00000000E+00
  0.00000000E+00  0.00000000E+00  0.00000000E+00
  0.00000000E+00  0.00000000E+00  0.00000000E+00
  0.00000000E+00  0.00000000E+00  0.00000000E+00
  0.00000000E+00  0.00000000E+00  0.00000000E+00
  0.00000000E+00  0.00000000E+00  0.00000000E+00
  0.00000000E+00  0.00000000E+00  0.00000000E+00
  0.00000000E+00  0.00000000E+00  0.00000000E+00
  0.00000000E+00  0.00000000E+00  0.00000000E+00
  0.00000000E+00  0.00000000E+00  0.00000000E+00
  0.00000000E+00  0.00000000E+00  0.00000000E+00
  0.00000000E+00  0.00000000E+00  0.00000000E+00
