Mg4 Al4 I20                             
   1.0000000000000000     
     8.0800868563243977   -0.0000000000000000    0.0000000000000006
    -0.0000000000000005    7.9335064397276582    0.0000000000000006
     0.0000000000000002    0.0000000000000001   22.4387853005331586
   Mg   Al   I 
     4     4    20
Direct
  0.2055868909760079  0.6609173457615967  0.5548756821619563
  0.7055868909760008  0.8390826542384033  0.4451243178380437
  0.7944131090239921  0.1609173457615967  0.9451243178380437
  0.2944131090239992  0.3390826542384033  0.0548756821619563
  0.2628501954490474  0.2251934287937871  0.6240594779914659
  0.7628501954490474  0.2748065712062129  0.3759405220085341
  0.7371498045509526  0.7251934287937871  0.8759405220085341
  0.2371498045509526  0.7748065712062129  0.1240594779914659
  0.0214689292171641  0.6950860165238524  0.4505950676514274
  0.5214689292171641  0.8049139834761476  0.5494049323485726
  0.9785310707828359  0.1950860165238524  0.0494049323485726
  0.4785310707828359  0.3049139834761476  0.9505950676514274
  0.5665536752523934  0.5342361238662932  0.3761188568482723
  0.0665536752523934  0.9657638761337068  0.6238811431517206
  0.4334463247476066  0.0342361238662932  0.1238811431517206
  0.9334463247476066  0.4657638761337139  0.8761188568482723
  0.0798955995497224  0.4831135904218513  0.6572870583579018
  0.5798955995497224  0.0168864095781487  0.3427129416420982
  0.9201044004502776  0.9831135904218513  0.8427129416420982
  0.4201044004502776  0.5168864095781487  0.1572870583579018
  0.5053769234705072  0.1909997560136958  0.6918218288235636
  0.0053769234705072  0.3090002439863042  0.3081781711764364
  0.4946230765294928  0.6909997560136958  0.8081781711764364
  0.9946230765294928  0.8090002439863042  0.1918218288235636
  0.3293538293669371  0.3201169622162254  0.5170180303060405
  0.8293538293669371  0.1798830377837746  0.4829819696939595
  0.6706461706330629  0.8201169622162254  0.9829819696939595
  0.1706461706330629  0.6798830377837746  0.0170180303060405

  0.00000000E+00  0.00000000E+00  0.00000000E+00
  0.00000000E+00  0.00000000E+00  0.00000000E+00
  0.00000000E+00  0.00000000E+00  0.00000000E+00
  0.00000000E+00  0.00000000E+00  0.00000000E+00
  0.00000000E+00  0.00000000E+00  0.00000000E+00
  0.00000000E+00  0.00000000E+00  0.00000000E+00
  0.00000000E+00  0.00000000E+00  0.00000000E+00
  0.00000000E+00  0.00000000E+00  0.00000000E+00
  0.00000000E+00  0.00000000E+00  0.00000000E+00
  0.00000000E+00  0.00000000E+00  0.00000000E+00
  0.00000000E+00  0.00000000E+00  0.00000000E+00
  0.00000000E+00  0.00000000E+00  0.00000000E+00
  0.00000000E+00  0.00000000E+00  0.00000000E+00
  0.00000000E+00  0.00000000E+00  0.00000000E+00
  0.00000000E+00  0.00000000E+00  0.00000000E+00
  0.00000000E+00  0.00000000E+00  0.00000000E+00
  0.00000000E+00  0.00000000E+00  0.00000000E+00
  0.00000000E+00  0.00000000E+00  0.00000000E+00
  0.00000000E+00  0.00000000E+00  0.00000000E+00
  0.00000000E+00  0.00000000E+00  0.00000000E+00
  0.00000000E+00  0.00000000E+00  0.00000000E+00
  0.00000000E+00  0.00000000E+00  0.00000000E+00
  0.00000000E+00  0.00000000E+00  0.00000000E+00
  0.00000000E+00  0.00000000E+00  0.00000000E+00
  0.00000000E+00  0.00000000E+00  0.00000000E+00
  0.00000000E+00  0.00000000E+00  0.00000000E+00
  0.00000000E+00  0.00000000E+00  0.00000000E+00
  0.00000000E+00  0.00000000E+00  0.00000000E+00
