Be1 I6                                  
   1.00000000000000     
     5.6806932628617037   -7.6413211072447575    0.0000000000000000
     5.6806932628617037    7.6413211072447575    0.0000000000000000
     0.0000000000000000    0.0000000000000000   45.5177537121233868
   Be   I 
     1     6
Direct
  0.0000000000000000  0.0000000000000000  0.0000000000000000
  0.0000000000000000  0.0000000000000000  0.2498586342066673
  0.0000000000000000  0.0000000000000000  0.7501413657933327
  0.2604744427048047  0.0229480221081815  0.0000000000000000
  0.7395255572951953  0.9770519778918185  0.0000000000000000
  0.0229480221081815  0.2604744427048047  0.0000000000000000
  0.9770519778918185  0.7395255572951953  0.0000000000000000
 
  0.00000000E+00  0.00000000E+00  0.00000000E+00
  0.00000000E+00  0.00000000E+00  0.00000000E+00
  0.00000000E+00  0.00000000E+00  0.00000000E+00
  0.00000000E+00  0.00000000E+00  0.00000000E+00
  0.00000000E+00  0.00000000E+00  0.00000000E+00
  0.00000000E+00  0.00000000E+00  0.00000000E+00
  0.00000000E+00  0.00000000E+00  0.00000000E+00
