Ca1 Tl2 Cl6                             
   1.0000000000000000     
     3.6348706535395996    2.0986713661022707    5.9344286570380236
    -3.6348706535395996    2.0986713661022707    5.9344286570380236
     0.0000000000000000   -4.1955028770873248    5.9337778503329082
   Ca   Cl   Tl
     1     6     2
Direct
  0.0000000000000000  0.0000000000000000  0.0000000000000000
  0.7390588995249274  0.7390588995249274  0.2609413772195452
  0.7390534469641352  0.2609461753182245  0.2609482951479194
  0.2609461753182245  0.7390534469641352  0.2609482951479194
  0.2609411004750726  0.2609411004750726  0.7390586227804548
  0.7390538246817755  0.2609465530358648  0.7390517048520806
  0.2609465530358648  0.7390538246817755  0.7390517048520806
  0.2500026563276236  0.2500026563276236  0.2499963564141936
  0.7499973436723764  0.7499973436723764  0.7500036435858064

  0.00000000E+00  0.00000000E+00  0.00000000E+00
  0.00000000E+00  0.00000000E+00  0.00000000E+00
  0.00000000E+00  0.00000000E+00  0.00000000E+00
  0.00000000E+00  0.00000000E+00  0.00000000E+00
  0.00000000E+00  0.00000000E+00  0.00000000E+00
  0.00000000E+00  0.00000000E+00  0.00000000E+00
  0.00000000E+00  0.00000000E+00  0.00000000E+00
  0.00000000E+00  0.00000000E+00  0.00000000E+00
  0.00000000E+00  0.00000000E+00  0.00000000E+00
