Mg10 In4 F32                            
   1.00000000000000     
     4.6225216566339045   -4.6423344061884455    0.0000000000000000
     4.6225216566339045    4.6423344061884455    0.0000000000000000
     0.0000000000000000    0.0000000000000000   13.3128421774283865
   Mg   In   F 
    10     4    32
Direct
  0.0000000000000000  0.0000000000000000  0.7408638048713883
  0.0000000000000000  0.0000000000000000  0.2591361951286117
  0.5000000000000000  0.5000000000000000  0.7591361951286117
  0.5000000000000000  0.5000000000000000  0.2408638048713883
  0.5000000000000000  0.5000000000000000  0.5000000000000000
  0.0000000000000000  0.0000000000000000  0.0000000000000000
  0.0000000000000000  0.5000000000000000  0.6113181581118852
  0.5000000000000000  0.0000000000000000  0.3886818418881148
  0.5000000000000000  0.0000000000000000  0.8886818418881148
  0.0000000000000000  0.5000000000000000  0.1113181581118852
  0.5000000000000000  0.0000000000000000  0.6439800572498058
  0.0000000000000000  0.5000000000000000  0.3560199427501942
  0.0000000000000000  0.5000000000000000  0.8560199427501942
  0.5000000000000000  0.0000000000000000  0.1439800572498058
  0.4986171801862156  0.1988811293753514  0.7698157335625311
  0.5013828198137773  0.8011188706246486  0.7698157335625311
  0.1988811293753514  0.4986171801862156  0.2301842664374689
  0.8011188706246486  0.5013828198137773  0.2301842664374689
  0.0013828198137773  0.3011188706246486  0.7301842664374689
  0.9986171801862227  0.6988811293753514  0.7301842664374689
  0.3011188706246486  0.0013828198137773  0.2698157335625311
  0.6988811293753514  0.9986171801862227  0.2698157335625311
  0.1927222412370426  0.9988532617977484  0.6289410116819170
  0.8072777587629503  0.0011467382022516  0.6289410116819170
  0.9988532617977484  0.1927222412370426  0.3710589883180830
  0.0011467382022516  0.8072777587629503  0.3710589883180830
  0.3072777587629574  0.5011467382022516  0.8710589883180830
  0.6927222412370497  0.4988532617977484  0.8710589883180830
  0.6938684362149132  0.9990748373047680  0.0185040069443900
  0.3061315637850868  0.0009251626952249  0.0185040069443900
  0.9990748373047680  0.6938684362149132  0.9814959930556100
  0.0009251626952249  0.3061315637850868  0.9814959930556100
  0.8061315637850868  0.5009251626952320  0.4814959930556100
  0.1938684362149132  0.4990748373047680  0.4814959930556100
  0.5009251626952320  0.8061315637850868  0.5185040069443900
  0.4990748373047680  0.1938684362149132  0.5185040069443900
  0.0018378226831288  0.8051280977255573  0.1483585122745126
  0.9981621773168712  0.1948719022744427  0.1483585122745126
  0.8051280977255573  0.0018378226831288  0.8516414877254874
  0.1948719022744427  0.9981621773168712  0.8516414877254874
  0.4981621773168712  0.6948719022744427  0.3516414877254874
  0.5018378226831288  0.3051280977255573  0.3516414877254874
  0.6948719022744427  0.4981621773168712  0.6483585122745126
  0.3051280977255573  0.5018378226831288  0.6483585122745126
  0.4988532617977484  0.6927222412370497  0.1289410116819170
  0.5011467382022516  0.3072777587629574  0.1289410116819170
 
  0.00000000E+00  0.00000000E+00  0.00000000E+00
  0.00000000E+00  0.00000000E+00  0.00000000E+00
  0.00000000E+00  0.00000000E+00  0.00000000E+00
  0.00000000E+00  0.00000000E+00  0.00000000E+00
  0.00000000E+00  0.00000000E+00  0.00000000E+00
  0.00000000E+00  0.00000000E+00  0.00000000E+00
  0.00000000E+00  0.00000000E+00  0.00000000E+00
  0.00000000E+00  0.00000000E+00  0.00000000E+00
  0.00000000E+00  0.00000000E+00  0.00000000E+00
  0.00000000E+00  0.00000000E+00  0.00000000E+00
  0.00000000E+00  0.00000000E+00  0.00000000E+00
  0.00000000E+00  0.00000000E+00  0.00000000E+00
  0.00000000E+00  0.00000000E+00  0.00000000E+00
  0.00000000E+00  0.00000000E+00  0.00000000E+00
  0.00000000E+00  0.00000000E+00  0.00000000E+00
  0.00000000E+00  0.00000000E+00  0.00000000E+00
  0.00000000E+00  0.00000000E+00  0.00000000E+00
  0.00000000E+00  0.00000000E+00  0.00000000E+00
  0.00000000E+00  0.00000000E+00  0.00000000E+00
  0.00000000E+00  0.00000000E+00  0.00000000E+00
  0.00000000E+00  0.00000000E+00  0.00000000E+00
  0.00000000E+00  0.00000000E+00  0.00000000E+00
  0.00000000E+00  0.00000000E+00  0.00000000E+00
  0.00000000E+00  0.00000000E+00  0.00000000E+00
  0.00000000E+00  0.00000000E+00  0.00000000E+00
  0.00000000E+00  0.00000000E+00  0.00000000E+00
  0.00000000E+00  0.00000000E+00  0.00000000E+00
  0.00000000E+00  0.00000000E+00  0.00000000E+00
  0.00000000E+00  0.00000000E+00  0.00000000E+00
  0.00000000E+00  0.00000000E+00  0.00000000E+00
  0.00000000E+00  0.00000000E+00  0.00000000E+00
  0.00000000E+00  0.00000000E+00  0.00000000E+00
  0.00000000E+00  0.00000000E+00  0.00000000E+00
  0.00000000E+00  0.00000000E+00  0.00000000E+00
  0.00000000E+00  0.00000000E+00  0.00000000E+00
  0.00000000E+00  0.00000000E+00  0.00000000E+00
  0.00000000E+00  0.00000000E+00  0.00000000E+00
  0.00000000E+00  0.00000000E+00  0.00000000E+00
  0.00000000E+00  0.00000000E+00  0.00000000E+00
  0.00000000E+00  0.00000000E+00  0.00000000E+00
  0.00000000E+00  0.00000000E+00  0.00000000E+00
  0.00000000E+00  0.00000000E+00  0.00000000E+00
  0.00000000E+00  0.00000000E+00  0.00000000E+00
  0.00000000E+00  0.00000000E+00  0.00000000E+00
  0.00000000E+00  0.00000000E+00  0.00000000E+00
  0.00000000E+00  0.00000000E+00  0.00000000E+00
