Be4 Al10 Br2                            
   1.00000000000000     
     6.9802858736761380   -0.0707265790543752   -1.3937263978733572
    -0.0141083899205425    6.2086353398889420    0.5848926302283718
     2.2250516493742549    3.5832888208402083    6.3672522664199622
   Br   Be   Al
     2     4    10
Direct
  0.5897472459391864  0.7547533179629440  0.5150613561408122
  0.3973889555779309  0.2559503817114575  0.4745380040534783
  0.2903128762173921  0.1756196202517302  0.0445381812214620
  0.8358347856678137  0.4447581918441657  0.9812190046188860
  0.1503506239634191  0.5805427499971927  0.0073691683230450
  0.7180772930461714  0.8155840482822470  0.9503563578863492
  0.0169892727997976  0.9920922537305330  0.9832562828851081
  0.4859090157294190  0.4682984080645696  0.0676635920221713
  0.6243630555752517  0.0373842361588714  0.1201702398021780
  0.0005155958202536  0.1235929545760044  0.2739288107590596
  0.8453337363211801  0.5133119982965297  0.2740354126764331
  0.1890259429012033  0.7024423008918745  0.3184662658494375
  0.8136519987480071  0.3087299334212830  0.6855179551510204
  0.1615273426428914  0.4902012329506746  0.7302667480544756
  0.9797271318911385  0.8833003579018168  0.6878983277279431
  0.4011451271589266  0.9533380139581098  0.8857142928281334
 
  0.00000000E+00  0.00000000E+00  0.00000000E+00
  0.00000000E+00  0.00000000E+00  0.00000000E+00
  0.00000000E+00  0.00000000E+00  0.00000000E+00
  0.00000000E+00  0.00000000E+00  0.00000000E+00
  0.00000000E+00  0.00000000E+00  0.00000000E+00
  0.00000000E+00  0.00000000E+00  0.00000000E+00
  0.00000000E+00  0.00000000E+00  0.00000000E+00
  0.00000000E+00  0.00000000E+00  0.00000000E+00
  0.00000000E+00  0.00000000E+00  0.00000000E+00
  0.00000000E+00  0.00000000E+00  0.00000000E+00
  0.00000000E+00  0.00000000E+00  0.00000000E+00
  0.00000000E+00  0.00000000E+00  0.00000000E+00
  0.00000000E+00  0.00000000E+00  0.00000000E+00
  0.00000000E+00  0.00000000E+00  0.00000000E+00
  0.00000000E+00  0.00000000E+00  0.00000000E+00
  0.00000000E+00  0.00000000E+00  0.00000000E+00
