Sr4 Ga4 Br20                            
   1.0000000000000000     
     4.7110158127167860   -0.0000000000000003    0.0000000000000004
    -0.0000000000000004   13.9593523608172259    0.0000000000000011
    -0.0000000000000003    0.0000000000000013   21.1690769426460541
   Sr   Ga   Br
     4     4    20
Direct
  0.9929808159079343  0.2577598905605072  0.4062929597233165
  0.4929808159079343  0.2422401094394857  0.5937070402766835
  0.0070191840920586  0.7577598905605143  0.0937070402766835
  0.5070191840920586  0.7422401094394857  0.9062929597233165
  0.1224813100719189  0.7424870892545528  0.4201665868503994
  0.6224813100719189  0.7575129107454472  0.5798334131495935
  0.8775186899280811  0.2424870892545528  0.0798334131495935
  0.3775186899280811  0.2575129107454472  0.9201665868503994
  0.8737954058738566  0.6492521985250264  0.5042465546914698
  0.3737954058738495  0.8507478014749736  0.4957534453085231
  0.1262045941261434  0.1492521985250264  0.9957534453085302
  0.6262045941261434  0.3507478014749736  0.0042465546914769
  0.8865663920172011  0.8523829814574881  0.3588872184221046
  0.3865663920172011  0.6476170185425119  0.6411127815778954
  0.1134336079827989  0.3523829814574881  0.1411127815778954
  0.6134336079827989  0.1476170185425119  0.8588872184221046
  0.0069659453240831  0.6330516352951605  0.9767232030300335
  0.5069659453240760  0.8669483647048395  0.0232767969699665
  0.9930340546759240  0.1330516352951605  0.5232767969699665
  0.4930340546759169  0.3669483647048395  0.4767232030300335
  0.5073155916550149  0.6988610156663810  0.1706412168836025
  0.0073155916550149  0.8011389843336190  0.8293587831163975
  0.4926844083449851  0.1988610156663810  0.3293587831163975
  0.9926844083449851  0.3011389843336190  0.6706412168836025
  0.1418789691769717  0.3778790888241446  0.8679671077338114
  0.6418789691769717  0.1221209111758554  0.1320328922661886
  0.8581210308230283  0.8778790888241446  0.6320328922661886
  0.3581210308230283  0.6221209111758554  0.3679671077338114

  0.00000000E+00  0.00000000E+00  0.00000000E+00
  0.00000000E+00  0.00000000E+00  0.00000000E+00
  0.00000000E+00  0.00000000E+00  0.00000000E+00
  0.00000000E+00  0.00000000E+00  0.00000000E+00
  0.00000000E+00  0.00000000E+00  0.00000000E+00
  0.00000000E+00  0.00000000E+00  0.00000000E+00
  0.00000000E+00  0.00000000E+00  0.00000000E+00
  0.00000000E+00  0.00000000E+00  0.00000000E+00
  0.00000000E+00  0.00000000E+00  0.00000000E+00
  0.00000000E+00  0.00000000E+00  0.00000000E+00
  0.00000000E+00  0.00000000E+00  0.00000000E+00
  0.00000000E+00  0.00000000E+00  0.00000000E+00
  0.00000000E+00  0.00000000E+00  0.00000000E+00
  0.00000000E+00  0.00000000E+00  0.00000000E+00
  0.00000000E+00  0.00000000E+00  0.00000000E+00
  0.00000000E+00  0.00000000E+00  0.00000000E+00
  0.00000000E+00  0.00000000E+00  0.00000000E+00
  0.00000000E+00  0.00000000E+00  0.00000000E+00
  0.00000000E+00  0.00000000E+00  0.00000000E+00
  0.00000000E+00  0.00000000E+00  0.00000000E+00
  0.00000000E+00  0.00000000E+00  0.00000000E+00
  0.00000000E+00  0.00000000E+00  0.00000000E+00
  0.00000000E+00  0.00000000E+00  0.00000000E+00
  0.00000000E+00  0.00000000E+00  0.00000000E+00
  0.00000000E+00  0.00000000E+00  0.00000000E+00
  0.00000000E+00  0.00000000E+00  0.00000000E+00
  0.00000000E+00  0.00000000E+00  0.00000000E+00
  0.00000000E+00  0.00000000E+00  0.00000000E+00
