Be1 Tl2 I10                             
   1.0000000000000000     
     5.4860238624180457    5.8406901914964484    0.4559017297033428
    -5.4860238624180457    5.8406901914964484    0.4559017297033428
     0.0000000000000000    4.8204000023356484   10.2289345756006345
   Be   Tl   I 
     1     2    10
Direct
  0.3672863206522479  0.6327136793477592  0.0000000000000000
  0.9641875041939443  0.9588109780836405  0.7679083331399355
  0.0411890219163595  0.0358124958060557  0.2320916668600645
  0.3598792564152618  0.3825883855869918  0.5318684636294861
  0.6174116144130082  0.6401207435847382  0.4681315363705139
  0.6994592754852391  0.6385837554891438  0.9400214625661860
  0.3614162445108562  0.3005407245147609  0.0599785374338140
  0.9082692814732027  0.0917307185267973  0.0000000000000000
  0.1316070352256205  0.8683929647743795  0.5000000000000000
  0.8703360270787002  0.3015055206572441  0.6253187525236186
  0.6984944793427559  0.1296639729212998  0.3746812474763814
  0.3166689739368564  0.7922060346440603  0.7942293081167264
  0.2077939653559397  0.6833310260631436  0.2057706918832736

  0.00000000E+00  0.00000000E+00  0.00000000E+00
  0.00000000E+00  0.00000000E+00  0.00000000E+00
  0.00000000E+00  0.00000000E+00  0.00000000E+00
  0.00000000E+00  0.00000000E+00  0.00000000E+00
  0.00000000E+00  0.00000000E+00  0.00000000E+00
  0.00000000E+00  0.00000000E+00  0.00000000E+00
  0.00000000E+00  0.00000000E+00  0.00000000E+00
  0.00000000E+00  0.00000000E+00  0.00000000E+00
  0.00000000E+00  0.00000000E+00  0.00000000E+00
  0.00000000E+00  0.00000000E+00  0.00000000E+00
  0.00000000E+00  0.00000000E+00  0.00000000E+00
  0.00000000E+00  0.00000000E+00  0.00000000E+00
  0.00000000E+00  0.00000000E+00  0.00000000E+00
