Ca2 Ga2 I10                             
   1.00000000000000     
    -7.6532052478700985   -4.0332224614283856    0.2841892967389814
     7.6944169000836409   -4.0543802945486886   -0.2698722812878803
    -6.0749674049692306   -0.0098923759187669   10.6536559839274645
   Ga   Ca   I 
     2     2    10
Direct
  0.0264490795975547  0.9478521745337787  0.0655741203499218
  0.0584850324777904  0.9734621860080921  0.5652111026673623
  0.4348623090895956  0.6417901226565519  0.2066658241499297
  0.3609405281792988  0.5627911917914403  0.7077693604044484
  0.8208207377564634  0.5863026838552656  0.0712613601869947
  0.7540915172553824  0.0428086580042333  0.1237304316618832
  0.2252277943735521  0.2059328857864102  0.2313660388787326
  0.0656004488415647  0.7338787389709083  0.3365469998070409
  0.4845302308982298  0.6824691038577058  0.4632149338574578
  0.4227071447016328  0.1805352422667141  0.5674273259219689
  0.9505849253388376  0.2411093364453052  0.6376805347822412
  0.8064768864616241  0.7592829600209399  0.7222708365959178
  0.2779620709735156  0.9394408882777938  0.8396529454362707
  0.3111602940549432  0.5022438275249002  0.9613261852998463
 
  0.00000000E+00  0.00000000E+00  0.00000000E+00
  0.00000000E+00  0.00000000E+00  0.00000000E+00
  0.00000000E+00  0.00000000E+00  0.00000000E+00
  0.00000000E+00  0.00000000E+00  0.00000000E+00
  0.00000000E+00  0.00000000E+00  0.00000000E+00
  0.00000000E+00  0.00000000E+00  0.00000000E+00
  0.00000000E+00  0.00000000E+00  0.00000000E+00
  0.00000000E+00  0.00000000E+00  0.00000000E+00
  0.00000000E+00  0.00000000E+00  0.00000000E+00
  0.00000000E+00  0.00000000E+00  0.00000000E+00
  0.00000000E+00  0.00000000E+00  0.00000000E+00
  0.00000000E+00  0.00000000E+00  0.00000000E+00
  0.00000000E+00  0.00000000E+00  0.00000000E+00
  0.00000000E+00  0.00000000E+00  0.00000000E+00
