Ca8 I2                                  
   1.00000000000000     
     5.4775788608186424    0.0000000000000000    0.0000000000000000
     0.0000000000000000    5.4775788608186424    0.0000000000000000
     0.0000000000000000    0.0000000000000000   13.7595290565765289
   Ca   I 
     8     2
Direct
  0.0000000000000000  0.0000000000000000  0.0000000000000000
  0.5000000000000000  0.5000000000000000  0.0000000000000000
  0.0000000000000000  0.0000000000000000  0.2993289744811918
  0.5000000000000000  0.5000000000000000  0.2993289744811918
  0.5000000000000000  0.0000000000000000  0.4995864572185340
  0.0000000000000000  0.5000000000000000  0.5004135427814660
  0.0000000000000000  0.0000000000000000  0.7006710255188082
  0.5000000000000000  0.5000000000000000  0.7006710255188082
  0.0000000000000000  0.5000000000000000  0.1149649342017582
  0.5000000000000000  0.0000000000000000  0.8850350657982418
 
  0.00000000E+00  0.00000000E+00  0.00000000E+00
  0.00000000E+00  0.00000000E+00  0.00000000E+00
  0.00000000E+00  0.00000000E+00  0.00000000E+00
  0.00000000E+00  0.00000000E+00  0.00000000E+00
  0.00000000E+00  0.00000000E+00  0.00000000E+00
  0.00000000E+00  0.00000000E+00  0.00000000E+00
  0.00000000E+00  0.00000000E+00  0.00000000E+00
  0.00000000E+00  0.00000000E+00  0.00000000E+00
  0.00000000E+00  0.00000000E+00  0.00000000E+00
  0.00000000E+00  0.00000000E+00  0.00000000E+00
