Be6 Tl4 F24                             
   1.0000000000000000     
     9.9049915870083129   -0.0916987241454126    0.0000000000000000
    -0.1831753505729507    8.2934823951800887    0.0000000000000000
     0.0000000000000000    0.0000000000000000    5.3415909006413118
   F    Tl   Be
    24     4     6
Direct
  0.5655565809875398  0.1612522193448527  0.0000000000000000
  0.1815752886916187  0.3459154267458118  0.0000000000000000
  0.7303650649533537  0.6709021787961760  0.0000000000000000
  0.3125982292642959  0.8731763614723320  0.0000000000000000
  0.5291076524140195  0.9124658714237697  0.2913581629025117
  0.0083814719572715  0.5463219809283544  0.2803989072346198
  0.2023011170794007  0.0834062865893159  0.2861643242662240
  0.9698522891052690  0.2106153230613472  0.2271306926480534
  0.4046081553325749  0.3267452283593144  0.2868625656849346
  0.7457771009346459  0.3863392867552307  0.2270000092150539
  0.2391881102269977  0.6211071219783122  0.2888492263958398
  0.5281967733667869  0.5653903299061156  0.2889391698465573
  0.0355039577915832  0.8801068437465887  0.2851388364817637
  0.7613899370761743  0.9695895713849225  0.2861288036411693
  0.2023011170794007  0.0834062865893159  0.7138356757337903
  0.9698522891052690  0.2106153230613472  0.7728693073519466
  0.4046081553325749  0.3267452283593144  0.7131374343150654
  0.7457771009346459  0.3863392867552307  0.7729999907849461
  0.2391881102269977  0.6211071219783122  0.7111507736041531
  0.5281967733667869  0.5653903299061156  0.7110608301534356
  0.0355039577915832  0.8801068437465887  0.7148611635182363
  0.7613899370761743  0.9695895713849225  0.7138711963588307
  0.5291076524140195  0.9124658714237697  0.7086418370974812
  0.0083814719572715  0.5463219809283544  0.7196010927653802
  0.3499499265841735  0.1520822810671163  0.0000000000000000
  0.7816093578493835  0.1546038837361294  0.0000000000000000
  0.1008585696073325  0.7133457306290509  0.0000000000000000
  0.4953070938687176  0.7340632879819609  0.0000000000000000
  0.0523413939502646  0.2574102336702708  0.0000000000000000
  0.7369035586695318  0.4928026937470733  0.0000000000000000
  0.6490348715497305  0.9378499185442166  0.5000000000000000
  0.1194479742285566  0.5723124936564403  0.5000000000000000
  0.1159924151755760  0.9887110020947958  0.5000000000000000
  0.4594465440504933  0.4409966002473098  0.5000000000000000

  0.00000000E+00  0.00000000E+00  0.00000000E+00
  0.00000000E+00  0.00000000E+00  0.00000000E+00
  0.00000000E+00  0.00000000E+00  0.00000000E+00
  0.00000000E+00  0.00000000E+00  0.00000000E+00
  0.00000000E+00  0.00000000E+00  0.00000000E+00
  0.00000000E+00  0.00000000E+00  0.00000000E+00
  0.00000000E+00  0.00000000E+00  0.00000000E+00
  0.00000000E+00  0.00000000E+00  0.00000000E+00
  0.00000000E+00  0.00000000E+00  0.00000000E+00
  0.00000000E+00  0.00000000E+00  0.00000000E+00
  0.00000000E+00  0.00000000E+00  0.00000000E+00
  0.00000000E+00  0.00000000E+00  0.00000000E+00
  0.00000000E+00  0.00000000E+00  0.00000000E+00
  0.00000000E+00  0.00000000E+00  0.00000000E+00
  0.00000000E+00  0.00000000E+00  0.00000000E+00
  0.00000000E+00  0.00000000E+00  0.00000000E+00
  0.00000000E+00  0.00000000E+00  0.00000000E+00
  0.00000000E+00  0.00000000E+00  0.00000000E+00
  0.00000000E+00  0.00000000E+00  0.00000000E+00
  0.00000000E+00  0.00000000E+00  0.00000000E+00
  0.00000000E+00  0.00000000E+00  0.00000000E+00
  0.00000000E+00  0.00000000E+00  0.00000000E+00
  0.00000000E+00  0.00000000E+00  0.00000000E+00
  0.00000000E+00  0.00000000E+00  0.00000000E+00
  0.00000000E+00  0.00000000E+00  0.00000000E+00
  0.00000000E+00  0.00000000E+00  0.00000000E+00
  0.00000000E+00  0.00000000E+00  0.00000000E+00
  0.00000000E+00  0.00000000E+00  0.00000000E+00
  0.00000000E+00  0.00000000E+00  0.00000000E+00
  0.00000000E+00  0.00000000E+00  0.00000000E+00
  0.00000000E+00  0.00000000E+00  0.00000000E+00
  0.00000000E+00  0.00000000E+00  0.00000000E+00
  0.00000000E+00  0.00000000E+00  0.00000000E+00
  0.00000000E+00  0.00000000E+00  0.00000000E+00
