Ba17 In11 I1                            
   1.0000000000000000     
     9.4527892802842839   -5.3446779152104575    3.8986942721824556
     0.0633300840242057   10.7520206030564243    3.8444219481825397
    -9.4450113004947518   -5.4073733282286360    3.7845075839154072
   In   I    Ba
    11     1    17
Direct
  0.6251101486523041  0.8715879170036303  0.0001464295566578
  0.3693532200917318  0.3682548005915010  0.2005582144749454
  0.8334299266058949  0.2000664363559324  0.1825971169341472
  0.1884948914496576  0.8037843413693011  0.1795170310087286
  0.1904164336071545  0.3645203907036461  0.3629410856622428
  0.3632235372494321  0.1911299128665718  0.3657300341398013
  0.9972475095419782  0.8252521485313338  0.6341176723102748
  0.8274206188128730  0.0016221227058892  0.6370781444424125
  0.0090891397008974  0.6242295748213706  0.8202928441833706
  0.6507928458000691  0.0174387899764810  0.8174554547535777
  0.1685914188317383  0.1673338412597474  0.7991089072042286
  0.7545113850655554  0.5571800165860381  0.9998684347248457
  0.0167877891680348  0.3626204387081842  0.9999484008055504
  0.3009208797945249  0.9691559658468520  0.9997839941099045
  0.5545621952687725  0.2594077135868318  0.0000762705272805
  0.0166858079648620  0.0435158481204709  0.0000550990698969
  0.3386724188179784  0.6057466553254827  0.0000255024993336
  0.6920974474980852  0.6895245730260413  0.2911132000644940
  0.5991227989573176  0.0117022172057730  0.3089669330132310
  0.0001268056926733  0.5845816979411396  0.3192240577253287
  0.9804018441820261  0.9695409207955663  0.2792662251603772
  0.4224507953716881  0.7224407533826991  0.4168312668705596
  0.7275808562994399  0.4299311942207780  0.4331007650382617
  0.2946844149972137  0.9967067544890895  0.5669812793558719
  0.0055921732919515  0.3056420356061125  0.5830626561389778
  0.7014109443456107  0.6904669685821077  0.7214125774618836
  0.6809157123124479  0.2653666192595665  0.6808908923500425
  0.2904794450156345  0.7026289502248915  0.6911179013844801
  0.4007825956124762  0.3979604009070030  0.7087326090293047

  0.00000000E+00  0.00000000E+00  0.00000000E+00
  0.00000000E+00  0.00000000E+00  0.00000000E+00
  0.00000000E+00  0.00000000E+00  0.00000000E+00
  0.00000000E+00  0.00000000E+00  0.00000000E+00
  0.00000000E+00  0.00000000E+00  0.00000000E+00
  0.00000000E+00  0.00000000E+00  0.00000000E+00
  0.00000000E+00  0.00000000E+00  0.00000000E+00
  0.00000000E+00  0.00000000E+00  0.00000000E+00
  0.00000000E+00  0.00000000E+00  0.00000000E+00
  0.00000000E+00  0.00000000E+00  0.00000000E+00
  0.00000000E+00  0.00000000E+00  0.00000000E+00
  0.00000000E+00  0.00000000E+00  0.00000000E+00
  0.00000000E+00  0.00000000E+00  0.00000000E+00
  0.00000000E+00  0.00000000E+00  0.00000000E+00
  0.00000000E+00  0.00000000E+00  0.00000000E+00
  0.00000000E+00  0.00000000E+00  0.00000000E+00
  0.00000000E+00  0.00000000E+00  0.00000000E+00
  0.00000000E+00  0.00000000E+00  0.00000000E+00
  0.00000000E+00  0.00000000E+00  0.00000000E+00
  0.00000000E+00  0.00000000E+00  0.00000000E+00
  0.00000000E+00  0.00000000E+00  0.00000000E+00
  0.00000000E+00  0.00000000E+00  0.00000000E+00
  0.00000000E+00  0.00000000E+00  0.00000000E+00
  0.00000000E+00  0.00000000E+00  0.00000000E+00
  0.00000000E+00  0.00000000E+00  0.00000000E+00
  0.00000000E+00  0.00000000E+00  0.00000000E+00
  0.00000000E+00  0.00000000E+00  0.00000000E+00
  0.00000000E+00  0.00000000E+00  0.00000000E+00
  0.00000000E+00  0.00000000E+00  0.00000000E+00
