Mg4 Tl4 Br2                             
   1.0000000000000000     
     3.5277542266229780    0.7064718156915651    0.5663505887481273
    -0.9582976280199285    4.8322952069284284   -0.0749725394985011
     2.1391559012070789    0.6860956794610773   16.9719722421053270
   Tl   Mg   Br
     4     4     2
Direct
  0.3976903527463804  0.7486994132025941  0.0781993989211998
  0.3784140219480250  0.7481152967406430  0.4435723394841489
  0.6165046338897895  0.2507910183658097  0.5563211773438823
  0.6073259207340769  0.2525715110620581  0.9217147815976432
  0.8910065836049128  0.2483056436572326  0.0840124998783480
  0.0089820799507763  0.2468188331170751  0.3733085400686207
  0.9879214514425954  0.7519681341071802  0.6266342279120423
  0.1141007341939542  0.7530809835866918  0.9159049870646001
  0.6705286942786230  0.2493706085938712  0.2524762971988892
  0.3275255272108240  0.7502785575668582  0.7474497505305990

  0.00000000E+00  0.00000000E+00  0.00000000E+00
  0.00000000E+00  0.00000000E+00  0.00000000E+00
  0.00000000E+00  0.00000000E+00  0.00000000E+00
  0.00000000E+00  0.00000000E+00  0.00000000E+00
  0.00000000E+00  0.00000000E+00  0.00000000E+00
  0.00000000E+00  0.00000000E+00  0.00000000E+00
  0.00000000E+00  0.00000000E+00  0.00000000E+00
  0.00000000E+00  0.00000000E+00  0.00000000E+00
  0.00000000E+00  0.00000000E+00  0.00000000E+00
  0.00000000E+00  0.00000000E+00  0.00000000E+00
