Be8 In12                                
   1.00000000000000     
     8.0956460742960612   -0.0000000000000084   -0.0000001461532873
    -0.0000000000000082    8.0956460742960612   -0.0000001461532874
    -4.0478226660907257   -4.0478226660907248    6.4511328096795708
   Be   In
     8    12
Direct
  0.3054355542832141  0.6582135497184822  0.6108711090038668
  0.3054355539206242  0.9526575584853560  0.6108711082786868
  0.2026575584853560  0.0554355539206242  0.1108711082786868
  0.9445644460793758  0.7973424415146440  0.8891288917213132
  0.9445644457167859  0.0917864502815178  0.8891288909961332
  0.9082135497184822  0.0554355542832141  0.1108711090038668
  0.0473424415146440  0.6945644460793758  0.3891288917213132
  0.3417864502815178  0.6945644457167859  0.3891288909961332
  0.7396927566031621  0.9553804157358172  0.4793855128991495
  0.7396927567604550  0.5240060976278400  0.4793855132137423
  0.7740060976278400  0.4896927567604621  0.9793855132137423
  0.5103072432395450  0.2259939023721671  0.0206144867862648
  0.5103072433968379  0.7946195842641828  0.0206144871008505
  0.2053804157358172  0.4896927566031692  0.9793855128991424
  0.4759939023721671  0.2603072432395379  0.5206144867862577
  0.0446195842641828  0.2603072433968308  0.5206144871008576
  0.1250000000000000  0.3750000000000000  0.2500000000000000
  0.1250000000000000  0.8750000000000000  0.2500000000000000
  0.1250000000000000  0.8750000000000000  0.7500000000000000
  0.6250000000000000  0.8750000000000000  0.7500000000000000
 
  0.00000000E+00  0.00000000E+00  0.00000000E+00
  0.00000000E+00  0.00000000E+00  0.00000000E+00
  0.00000000E+00  0.00000000E+00  0.00000000E+00
  0.00000000E+00  0.00000000E+00  0.00000000E+00
  0.00000000E+00  0.00000000E+00  0.00000000E+00
  0.00000000E+00  0.00000000E+00  0.00000000E+00
  0.00000000E+00  0.00000000E+00  0.00000000E+00
  0.00000000E+00  0.00000000E+00  0.00000000E+00
  0.00000000E+00  0.00000000E+00  0.00000000E+00
  0.00000000E+00  0.00000000E+00  0.00000000E+00
  0.00000000E+00  0.00000000E+00  0.00000000E+00
  0.00000000E+00  0.00000000E+00  0.00000000E+00
  0.00000000E+00  0.00000000E+00  0.00000000E+00
  0.00000000E+00  0.00000000E+00  0.00000000E+00
  0.00000000E+00  0.00000000E+00  0.00000000E+00
  0.00000000E+00  0.00000000E+00  0.00000000E+00
  0.00000000E+00  0.00000000E+00  0.00000000E+00
  0.00000000E+00  0.00000000E+00  0.00000000E+00
  0.00000000E+00  0.00000000E+00  0.00000000E+00
  0.00000000E+00  0.00000000E+00  0.00000000E+00
