Ba10 In4 Br32                           
   1.0000000000000000     
     5.0935348004826926   -8.6493950060097688    0.0000000000000000
     5.0935348004826926    8.6493950060097688    0.0000000000000000
     0.0000000000000000    0.0000000000000000   19.2839043884164170
   Ba   In   Br
    10     4    32
Direct
  0.0000000000000000  0.0000000000000000  0.7161568930653246
  0.0000000000000000  0.0000000000000000  0.2838431069346754
  0.5000000000000000  0.5000000000000000  0.7838431069346754
  0.5000000000000000  0.5000000000000000  0.2161568930653246
  0.5000000000000000  0.5000000000000000  0.5000000000000000
  0.0000000000000000  0.0000000000000000  0.0000000000000000
  0.0000000000000000  0.5000000000000000  0.6432086757478359
  0.5000000000000000  0.0000000000000000  0.3567913242521641
  0.5000000000000000  0.0000000000000000  0.8567913242521641
  0.0000000000000000  0.5000000000000000  0.1432086757478359
  0.5000000000000000  0.0000000000000000  0.6112668953650200
  0.0000000000000000  0.5000000000000000  0.3887331046349800
  0.0000000000000000  0.5000000000000000  0.8887331046349800
  0.5000000000000000  0.0000000000000000  0.1112668953650200
  0.5462574309398605  0.2061399082874544  0.7106425144263468
  0.4537425690601395  0.7938600917125456  0.7106425144263468
  0.2061399082874544  0.5462574309398605  0.2893574855736532
  0.7938600917125456  0.4537425690601395  0.2893574855736532
  0.9537425690601395  0.2938600917125456  0.7893574855736532
  0.0462574309398605  0.7061399082874544  0.7893574855736532
  0.2938600917125456  0.9537425690601395  0.2106425144263468
  0.7061399082874544  0.0462574309398605  0.2106425144263468
  0.1836010308025422  0.8740586246437516  0.6113854514833221
  0.8163989691974578  0.1259413753562484  0.6113854514833221
  0.8740586246437516  0.1836010308025422  0.3886145485166708
  0.1259413753562484  0.8163989691974578  0.3886145485166708
  0.3163989691974578  0.6259413753562484  0.8886145485166779
  0.6836010308025422  0.3740586246437445  0.8886145485166779
  0.6652103323078364  0.9782161362932484  0.0069289043521295
  0.3347896676921636  0.0217838637067516  0.0069289043521295
  0.9782161362932484  0.6652103323078364  0.9930710956478705
  0.0217838637067516  0.3347896676921636  0.9930710956478705
  0.8347896676921636  0.5217838637067516  0.4930710956478705
  0.1652103323078364  0.4782161362932484  0.4930710956478705
  0.5217838637067516  0.8347896676921636  0.5069289043521295
  0.4782161362932484  0.1652103323078364  0.5069289043521295
  0.8558873038125725  0.7611630193943739  0.1516878124723249
  0.1441126961874275  0.2388369806056261  0.1516878124723249
  0.7611630193943739  0.8558873038125725  0.8483121875276751
  0.2388369806056261  0.1441126961874275  0.8483121875276751
  0.6441126961874275  0.7388369806056261  0.3483121875276751
  0.3558873038125725  0.2611630193943739  0.3483121875276751
  0.7388369806056261  0.6441126961874275  0.6516878124723249
  0.2611630193943739  0.3558873038125725  0.6516878124723249
  0.3740586246437445  0.6836010308025422  0.1113854514833221
  0.6259413753562484  0.3163989691974578  0.1113854514833221

  0.00000000E+00  0.00000000E+00  0.00000000E+00
  0.00000000E+00  0.00000000E+00  0.00000000E+00
  0.00000000E+00  0.00000000E+00  0.00000000E+00
  0.00000000E+00  0.00000000E+00  0.00000000E+00
  0.00000000E+00  0.00000000E+00  0.00000000E+00
  0.00000000E+00  0.00000000E+00  0.00000000E+00
  0.00000000E+00  0.00000000E+00  0.00000000E+00
  0.00000000E+00  0.00000000E+00  0.00000000E+00
  0.00000000E+00  0.00000000E+00  0.00000000E+00
  0.00000000E+00  0.00000000E+00  0.00000000E+00
  0.00000000E+00  0.00000000E+00  0.00000000E+00
  0.00000000E+00  0.00000000E+00  0.00000000E+00
  0.00000000E+00  0.00000000E+00  0.00000000E+00
  0.00000000E+00  0.00000000E+00  0.00000000E+00
  0.00000000E+00  0.00000000E+00  0.00000000E+00
  0.00000000E+00  0.00000000E+00  0.00000000E+00
  0.00000000E+00  0.00000000E+00  0.00000000E+00
  0.00000000E+00  0.00000000E+00  0.00000000E+00
  0.00000000E+00  0.00000000E+00  0.00000000E+00
  0.00000000E+00  0.00000000E+00  0.00000000E+00
  0.00000000E+00  0.00000000E+00  0.00000000E+00
  0.00000000E+00  0.00000000E+00  0.00000000E+00
  0.00000000E+00  0.00000000E+00  0.00000000E+00
  0.00000000E+00  0.00000000E+00  0.00000000E+00
  0.00000000E+00  0.00000000E+00  0.00000000E+00
  0.00000000E+00  0.00000000E+00  0.00000000E+00
  0.00000000E+00  0.00000000E+00  0.00000000E+00
  0.00000000E+00  0.00000000E+00  0.00000000E+00
  0.00000000E+00  0.00000000E+00  0.00000000E+00
  0.00000000E+00  0.00000000E+00  0.00000000E+00
  0.00000000E+00  0.00000000E+00  0.00000000E+00
  0.00000000E+00  0.00000000E+00  0.00000000E+00
  0.00000000E+00  0.00000000E+00  0.00000000E+00
  0.00000000E+00  0.00000000E+00  0.00000000E+00
  0.00000000E+00  0.00000000E+00  0.00000000E+00
  0.00000000E+00  0.00000000E+00  0.00000000E+00
  0.00000000E+00  0.00000000E+00  0.00000000E+00
  0.00000000E+00  0.00000000E+00  0.00000000E+00
  0.00000000E+00  0.00000000E+00  0.00000000E+00
  0.00000000E+00  0.00000000E+00  0.00000000E+00
  0.00000000E+00  0.00000000E+00  0.00000000E+00
  0.00000000E+00  0.00000000E+00  0.00000000E+00
  0.00000000E+00  0.00000000E+00  0.00000000E+00
  0.00000000E+00  0.00000000E+00  0.00000000E+00
  0.00000000E+00  0.00000000E+00  0.00000000E+00
  0.00000000E+00  0.00000000E+00  0.00000000E+00
