Ga2 Br8                                 
   1.00000000000000     
     7.8891516592018212    0.6117262497107726   -0.3527624016344931
     4.4265570107704360    8.2591295137602216    0.0141686890267612
     0.0185804948194524    0.3109909267063838    7.6324013217038909
   Ga   Br
     2     8
Direct
  0.7561891866376982  0.8674153707509547  0.0261792826301885
  0.2437636522044073  0.1326121189873604  0.9736793100006551
  0.5175582309961513  0.1671959417559421  0.0916621364276864
  0.0448213593260007  0.1531158336751517  0.1927204812297489
  0.8891144897355190  0.7016905702139127  0.2867926524570095
  0.3387161313638174  0.5631700369159915  0.4281451065542541
  0.6613580961546290  0.4368429981259183  0.5713954654528948
  0.1108138700463073  0.2984932295242260  0.7131356645581803
  0.9554086286226990  0.8469220953945822  0.8074159198501221
  0.4824163549127647  0.8328418046559634  0.9080739808392622
 
  0.00000000E+00  0.00000000E+00  0.00000000E+00
  0.00000000E+00  0.00000000E+00  0.00000000E+00
  0.00000000E+00  0.00000000E+00  0.00000000E+00
  0.00000000E+00  0.00000000E+00  0.00000000E+00
  0.00000000E+00  0.00000000E+00  0.00000000E+00
  0.00000000E+00  0.00000000E+00  0.00000000E+00
  0.00000000E+00  0.00000000E+00  0.00000000E+00
  0.00000000E+00  0.00000000E+00  0.00000000E+00
  0.00000000E+00  0.00000000E+00  0.00000000E+00
  0.00000000E+00  0.00000000E+00  0.00000000E+00
