Mg4 Ga4 Cl20                            
   1.0000000000000000     
    12.4422649788667954    0.0000000000000000    0.0000000000000000
     0.0000000000000000    6.9606091112782611    1.6438260546976688
     0.0000000000000000    5.3741719016605254   12.0446233192021754
   Mg   Ga   Cl
     4     4    20
Direct
  0.8949022896451098  0.5873243642868502  0.4002547855342655
  0.3949022896451169  0.4126756357131569  0.0997452144657345
  0.1050977103548831  0.4126756357131569  0.5997452144657274
  0.6050977103548831  0.5873243642868502  0.9002547855342726
  0.6778543459745450  0.1352137815010508  0.6469131820456298
  0.1778543459745521  0.8647862184989421  0.8530868179543702
  0.3221456540254479  0.8647862184989421  0.3530868179543702
  0.8221456540254550  0.1352137815010508  0.1469131820456298
  0.6211252954251876  0.4260843898756832  0.6398615720547269
  0.1211252954251805  0.5739156101243168  0.8601384279452731
  0.3788747045748195  0.5739156101243168  0.3601384279452660
  0.8788747045748124  0.4260843898756832  0.1398615720547340
  0.7718953461301723  0.2487417244651198  0.4730888750065034
  0.2718953461301794  0.7512582755348802  0.0269111249934966
  0.2281046538698206  0.7512582755348802  0.5269111249935037
  0.7281046538698277  0.2487417244651198  0.9730888750064963
  0.2702912706282561  0.1350726955358255  0.6786706084671010
  0.7702912706282561  0.8649273044641745  0.8213293915328990
  0.7297087293717439  0.8649273044641745  0.3213293915328919
  0.2297087293717439  0.1350726955358255  0.1786706084671081
  0.5466201662582151  0.8938478437717166  0.6730035213576997
  0.0466201662582151  0.1061521562282763  0.8269964786423003
  0.4533798337417849  0.1061521562282763  0.3269964786423003
  0.9533798337417849  0.8938478437717166  0.1730035213577068
  0.4420330952026106  0.3655801429895078  0.9421234200575768
  0.9420330952026106  0.6344198570104922  0.5578765799424232
  0.5579669047973894  0.6344198570104922  0.0578765799424161
  0.0579669047973752  0.3655801429895078  0.4421234200575839

  0.00000000E+00  0.00000000E+00  0.00000000E+00
  0.00000000E+00  0.00000000E+00  0.00000000E+00
  0.00000000E+00  0.00000000E+00  0.00000000E+00
  0.00000000E+00  0.00000000E+00  0.00000000E+00
  0.00000000E+00  0.00000000E+00  0.00000000E+00
  0.00000000E+00  0.00000000E+00  0.00000000E+00
  0.00000000E+00  0.00000000E+00  0.00000000E+00
  0.00000000E+00  0.00000000E+00  0.00000000E+00
  0.00000000E+00  0.00000000E+00  0.00000000E+00
  0.00000000E+00  0.00000000E+00  0.00000000E+00
  0.00000000E+00  0.00000000E+00  0.00000000E+00
  0.00000000E+00  0.00000000E+00  0.00000000E+00
  0.00000000E+00  0.00000000E+00  0.00000000E+00
  0.00000000E+00  0.00000000E+00  0.00000000E+00
  0.00000000E+00  0.00000000E+00  0.00000000E+00
  0.00000000E+00  0.00000000E+00  0.00000000E+00
  0.00000000E+00  0.00000000E+00  0.00000000E+00
  0.00000000E+00  0.00000000E+00  0.00000000E+00
  0.00000000E+00  0.00000000E+00  0.00000000E+00
  0.00000000E+00  0.00000000E+00  0.00000000E+00
  0.00000000E+00  0.00000000E+00  0.00000000E+00
  0.00000000E+00  0.00000000E+00  0.00000000E+00
  0.00000000E+00  0.00000000E+00  0.00000000E+00
  0.00000000E+00  0.00000000E+00  0.00000000E+00
  0.00000000E+00  0.00000000E+00  0.00000000E+00
  0.00000000E+00  0.00000000E+00  0.00000000E+00
  0.00000000E+00  0.00000000E+00  0.00000000E+00
  0.00000000E+00  0.00000000E+00  0.00000000E+00
