Mg4 In4 F20                             
   1.0000000000000000     
     4.8093697164486420    0.0000000000000000    0.0000000000000003
    -0.0000000000000003    5.5623934865489710    0.0000000000000003
    -0.0000000000000000   -0.0000000000000000   12.8337672348114005
   Mg   In   F 
     4     4    20
Direct
  0.7496557564402053  0.3414883085344584  0.3982634641624472
  0.2496557564402053  0.1585116914655416  0.6017365358375599
  0.2503442435597876  0.8414883085344584  0.1017365358375528
  0.7503442435597876  0.6585116914655416  0.8982634641624401
  0.2387844141718389  0.8449137087814762  0.3801867118999169
  0.7387844141718389  0.6550862912185238  0.6198132881000760
  0.7612155858281611  0.3449137087814833  0.1198132881000760
  0.2612155858281611  0.1550862912185167  0.8801867118999098
  0.9069560971940405  0.6557280446615152  0.4555854183456916
  0.4069560971940334  0.8442719553384848  0.5444145816543084
  0.0930439028059595  0.1557280446615152  0.0444145816543084
  0.5930439028059595  0.3442719553384848  0.9555854183456916
  0.0784160641583043  0.9082703102526537  0.2360030910795743
  0.5784160641583043  0.5917296897473463  0.7639969089204257
  0.9215839358416957  0.4082703102526537  0.2639969089204257
  0.4215839358416957  0.0917296897473534  0.7360030910795743
  0.9177029372751448  0.6618618415943516  0.0460137982345188
  0.4177029372751448  0.8381381584056484  0.9539862017654812
  0.0822970627248552  0.1618618415943516  0.4539862017654812
  0.5822970627248552  0.3381381584056413  0.5460137982345188
  0.3991369275831431  0.5347007677805351  0.1419055958005799
  0.8991369275831431  0.9652992322194649  0.8580944041994201
  0.6008630724168569  0.0347007677805351  0.3580944041994201
  0.1008630724168569  0.4652992322194649  0.6419055958005799
  0.0807422368571693  0.4812099433823747  0.8597440121663738
  0.5807422368571693  0.0187900566176253  0.1402559878336262
  0.9192577631428307  0.9812099433823747  0.6402559878336262
  0.4192577631428307  0.5187900566176253  0.3597440121663738

  0.00000000E+00  0.00000000E+00  0.00000000E+00
  0.00000000E+00  0.00000000E+00  0.00000000E+00
  0.00000000E+00  0.00000000E+00  0.00000000E+00
  0.00000000E+00  0.00000000E+00  0.00000000E+00
  0.00000000E+00  0.00000000E+00  0.00000000E+00
  0.00000000E+00  0.00000000E+00  0.00000000E+00
  0.00000000E+00  0.00000000E+00  0.00000000E+00
  0.00000000E+00  0.00000000E+00  0.00000000E+00
  0.00000000E+00  0.00000000E+00  0.00000000E+00
  0.00000000E+00  0.00000000E+00  0.00000000E+00
  0.00000000E+00  0.00000000E+00  0.00000000E+00
  0.00000000E+00  0.00000000E+00  0.00000000E+00
  0.00000000E+00  0.00000000E+00  0.00000000E+00
  0.00000000E+00  0.00000000E+00  0.00000000E+00
  0.00000000E+00  0.00000000E+00  0.00000000E+00
  0.00000000E+00  0.00000000E+00  0.00000000E+00
  0.00000000E+00  0.00000000E+00  0.00000000E+00
  0.00000000E+00  0.00000000E+00  0.00000000E+00
  0.00000000E+00  0.00000000E+00  0.00000000E+00
  0.00000000E+00  0.00000000E+00  0.00000000E+00
  0.00000000E+00  0.00000000E+00  0.00000000E+00
  0.00000000E+00  0.00000000E+00  0.00000000E+00
  0.00000000E+00  0.00000000E+00  0.00000000E+00
  0.00000000E+00  0.00000000E+00  0.00000000E+00
  0.00000000E+00  0.00000000E+00  0.00000000E+00
  0.00000000E+00  0.00000000E+00  0.00000000E+00
  0.00000000E+00  0.00000000E+00  0.00000000E+00
  0.00000000E+00  0.00000000E+00  0.00000000E+00
