Mg18 B11                                
   1.00000000000000     
     7.1171121895966616   -3.4749215827601758    3.1088447366598366
     0.5642920662257910    7.8022542996702926    3.1312531029694326
    -7.3346044038534473   -4.1550921152179541    2.5709016175060380
   B    Mg
    11    18
Direct
  0.7385493428519894  0.9471351604687399  0.0036138569032502
  0.2098531820061709  0.3086731540581198  0.1203396641846268
  0.8755718594496216  0.1786811558980190  0.1276925620810729
  0.3607166757279074  0.0715537627840490  0.3006051488246158
  0.2738179237835396  0.2204798361242837  0.2655797529320409
  0.1108222565982757  0.3105660258920722  0.2582414956378543
  0.8504088167466577  0.0545351599201283  0.7464936194361087
  0.0005488908035431  0.9526574981333411  0.7354103699305767
  0.0576202895876179  0.7737425762173871  0.6940319110254762
  0.7447873412968704  0.0549204668769718  0.8762801793257609
  0.0875677013442058  0.1874393790799829  0.8739806203024543
  0.2971466033484447  0.0631789821745343  0.0021380837131701
  0.6147833150029243  0.2646191739840660  0.0092831394862358
  0.1451712217274164  0.7175033046492629  0.9809062421803318
  0.7064156779816742  0.6408346501159770  0.9970105766983863
  0.9515806160826230  0.3840356299762178  0.9995116494024430
  0.3539719225044351  0.4625690180512620  0.9947231510386558
  0.7659129741335633  0.7531880303958616  0.4030811694506085
  0.6171134210010294  0.9859136913995741  0.2162870790934974
  0.9953999146603607  0.4873897066313475  0.4408323830199663
  0.0325455019222858  0.0067784422549195  0.2557594340197156
  0.3579643832646795  0.6128990722611718  0.3803911775105888
  0.6120116240754783  0.3674142441465378  0.4088893746247422
  0.2084824302927473  0.0077702542049352  0.6244123203160257
  0.9592310496432503  0.2370862250167960  0.6146995122015610
  0.7651666340552055  0.7541188525238312  0.7409469972522515
  0.5436320666025694  0.0385091257645485  0.5604578560245983
  0.4086210976047013  0.7927817494796017  0.7749593321543529
  0.3547872659002067  0.3630626715164951  0.5934413412290311
 
  0.00000000E+00  0.00000000E+00  0.00000000E+00
  0.00000000E+00  0.00000000E+00  0.00000000E+00
  0.00000000E+00  0.00000000E+00  0.00000000E+00
  0.00000000E+00  0.00000000E+00  0.00000000E+00
  0.00000000E+00  0.00000000E+00  0.00000000E+00
  0.00000000E+00  0.00000000E+00  0.00000000E+00
  0.00000000E+00  0.00000000E+00  0.00000000E+00
  0.00000000E+00  0.00000000E+00  0.00000000E+00
  0.00000000E+00  0.00000000E+00  0.00000000E+00
  0.00000000E+00  0.00000000E+00  0.00000000E+00
  0.00000000E+00  0.00000000E+00  0.00000000E+00
  0.00000000E+00  0.00000000E+00  0.00000000E+00
  0.00000000E+00  0.00000000E+00  0.00000000E+00
  0.00000000E+00  0.00000000E+00  0.00000000E+00
  0.00000000E+00  0.00000000E+00  0.00000000E+00
  0.00000000E+00  0.00000000E+00  0.00000000E+00
  0.00000000E+00  0.00000000E+00  0.00000000E+00
  0.00000000E+00  0.00000000E+00  0.00000000E+00
  0.00000000E+00  0.00000000E+00  0.00000000E+00
  0.00000000E+00  0.00000000E+00  0.00000000E+00
  0.00000000E+00  0.00000000E+00  0.00000000E+00
  0.00000000E+00  0.00000000E+00  0.00000000E+00
  0.00000000E+00  0.00000000E+00  0.00000000E+00
  0.00000000E+00  0.00000000E+00  0.00000000E+00
  0.00000000E+00  0.00000000E+00  0.00000000E+00
  0.00000000E+00  0.00000000E+00  0.00000000E+00
  0.00000000E+00  0.00000000E+00  0.00000000E+00
  0.00000000E+00  0.00000000E+00  0.00000000E+00
  0.00000000E+00  0.00000000E+00  0.00000000E+00
