Ca1                                     
   1.00000000000000     
     3.5399329393988173    0.0000000000000000    0.0000000000000000
     0.0000000000000000    3.5399329393988173    0.0000000000000000
     0.0000000000000000    0.0000000000000000    3.5399329393988173
   Ca
     1
Direct
  0.0000000000000000  0.0000000000000000  0.0000000000000000
 
  0.00000000E+00  0.00000000E+00  0.00000000E+00
