Mg22 In14                               
   1.00000000000000     
    -7.5224655737451211    6.7074435202851914    0.8413234571650352
     8.4201410837795585    0.0000000000000000   -9.4977115688538589
    -7.5224655737451211   -6.7074435202851914    0.8413234571650352
   Mg   In
    22    14
Direct
  0.9971908027213772  0.0041366641418463  0.9971908027213772
  0.3928449312639302  0.1948250511283618  0.0772045227280884
  0.8588407760617400  0.2046132767721147  0.1586814216931813
  0.7901830922936597  0.7401392051591102  0.0699698185318169
  0.5295228463638750  0.1351896770482455  0.2899908145922012
  0.0853310726854275  0.4716310207783749  0.0853310726854275
  0.4611200563663189  0.6683966076082157  0.1967359442412473
  0.0772045227280884  0.1948250511283618  0.3928449312639302
  0.2899908145922012  0.1351896770482455  0.5295228463638750
  0.5565465432650498  0.0161049860454625  0.5565465432650498
  0.8636623230723615  0.9290465349055737  0.4549428723375826
  0.4608122284776996  0.4176862825141470  0.4608122284776996
  0.8667691684526631  0.3402813738955999  0.5325666064128143
  0.1967359442412473  0.6683966076082157  0.4611200563663189
  0.5213498256104643  0.7163495787159562  0.5213498256104643
  0.8554567298362770  0.7602939222998302  0.6098058376954114
  0.4549428723375826  0.9290465349055737  0.8636623230723615
  0.5325666064128143  0.3402813738955999  0.8667691684526631
  0.9244091405948964  0.5345237539726853  0.9244091405948964
  0.1586814216931813  0.2046132767721147  0.8588407760617400
  0.0699698185318169  0.7401392051591102  0.7901830922936597
  0.6098058376954114  0.7602939222998302  0.8554567298362770
  0.7115412604584535  0.2607871386598077  0.9632042572964750
  0.1705934410560843  0.9675462047937771  0.1705934410560843
  0.7003903152498481  0.9803242829305674  0.2528914337430663
  0.2347099573090006  0.3846922370438932  0.2347099573090006
  0.8087709457381607  0.4558600831680053  0.3567576228133689
  0.6508983677693081  0.5579633986526176  0.2401564946380290
  0.0501719536958447  0.7590552605721612  0.3121861420621670
  0.9632042572964750  0.2607871386598077  0.7115412604584535
  0.3567576228133689  0.4558600831680053  0.8087709457381607
  0.2401564946380290  0.5579633986526176  0.6508983677693081
  0.2528914337430663  0.9803242829305674  0.7003903152498481
  0.7951983625886143  0.0145860091056065  0.7951983625886143
  0.6981920702835396  0.4991916372878507  0.6981920702835396
  0.3121861420621670  0.7590552605721612  0.0501719536958447
 
  0.00000000E+00  0.00000000E+00  0.00000000E+00
  0.00000000E+00  0.00000000E+00  0.00000000E+00
  0.00000000E+00  0.00000000E+00  0.00000000E+00
  0.00000000E+00  0.00000000E+00  0.00000000E+00
  0.00000000E+00  0.00000000E+00  0.00000000E+00
  0.00000000E+00  0.00000000E+00  0.00000000E+00
  0.00000000E+00  0.00000000E+00  0.00000000E+00
  0.00000000E+00  0.00000000E+00  0.00000000E+00
  0.00000000E+00  0.00000000E+00  0.00000000E+00
  0.00000000E+00  0.00000000E+00  0.00000000E+00
  0.00000000E+00  0.00000000E+00  0.00000000E+00
  0.00000000E+00  0.00000000E+00  0.00000000E+00
  0.00000000E+00  0.00000000E+00  0.00000000E+00
  0.00000000E+00  0.00000000E+00  0.00000000E+00
  0.00000000E+00  0.00000000E+00  0.00000000E+00
  0.00000000E+00  0.00000000E+00  0.00000000E+00
  0.00000000E+00  0.00000000E+00  0.00000000E+00
  0.00000000E+00  0.00000000E+00  0.00000000E+00
  0.00000000E+00  0.00000000E+00  0.00000000E+00
  0.00000000E+00  0.00000000E+00  0.00000000E+00
  0.00000000E+00  0.00000000E+00  0.00000000E+00
  0.00000000E+00  0.00000000E+00  0.00000000E+00
  0.00000000E+00  0.00000000E+00  0.00000000E+00
  0.00000000E+00  0.00000000E+00  0.00000000E+00
  0.00000000E+00  0.00000000E+00  0.00000000E+00
  0.00000000E+00  0.00000000E+00  0.00000000E+00
  0.00000000E+00  0.00000000E+00  0.00000000E+00
  0.00000000E+00  0.00000000E+00  0.00000000E+00
  0.00000000E+00  0.00000000E+00  0.00000000E+00
  0.00000000E+00  0.00000000E+00  0.00000000E+00
  0.00000000E+00  0.00000000E+00  0.00000000E+00
  0.00000000E+00  0.00000000E+00  0.00000000E+00
  0.00000000E+00  0.00000000E+00  0.00000000E+00
  0.00000000E+00  0.00000000E+00  0.00000000E+00
  0.00000000E+00  0.00000000E+00  0.00000000E+00
  0.00000000E+00  0.00000000E+00  0.00000000E+00
