Ba4 In4 F20                             
   1.0000000000000000     
     4.7391636272663442    0.0000000000000000    0.0000000000000003
    -0.0000000000000003    6.0599249090335752    0.0000000000000003
     0.0000000000000000    0.0000000000000000   14.3053560104451503
   Ba   In   F 
     4     4    20
Direct
  0.8403766176111205  0.6351805241841504  0.6616313947836261
  0.3403766176111205  0.8648194758158496  0.3383686052163739
  0.1596233823888795  0.1351805241841504  0.8383686052163739
  0.6596233823888795  0.3648194758158496  0.1616313947836261
  0.4504196565494922  0.1135546503508706  0.5892755098694451
  0.9504196565494922  0.3864453496491294  0.4107244901305549
  0.5495803434505078  0.6135546503508706  0.9107244901305549
  0.0495803434505078  0.8864453496491294  0.0892755098694451
  0.1186525183157769  0.6289919804026169  0.4949609692049250
  0.6186525183157769  0.8710080195973831  0.5050390307950750
  0.8813474816842231  0.1289919804026169  0.0050390307950750
  0.3813474816842231  0.3710080195973831  0.9949609692049250
  0.8151682195272798  0.6318520080194006  0.3189210179051898
  0.3151682195272798  0.8681479919805994  0.6810789820948031
  0.1848317804727202  0.1318520080194006  0.1810789820948031
  0.6848317804727202  0.3681479919805994  0.8189210179051898
  0.3046495220103296  0.3701758754893021  0.6723319514850274
  0.8046495220103296  0.1298241245106979  0.3276680485149726
  0.6953504779896704  0.8701758754893021  0.8276680485149726
  0.1953504779896704  0.6298241245106979  0.1723319514850274
  0.8312079065916080  0.1094994456332259  0.6641674936076285
  0.3312079065916080  0.3905005543667741  0.3358325063923786
  0.1687920934083920  0.6094994456332259  0.8358325063923715
  0.6687920934083920  0.8905005543667741  0.1641674936076214
  0.6343199910710808  0.3826320876941764  0.5141809591105186
  0.1343199910710808  0.1173679123058236  0.4858190408894814
  0.3656800089289192  0.8826320876941764  0.9858190408894814
  0.8656800089289192  0.6173679123058236  0.0141809591105186

  0.00000000E+00  0.00000000E+00  0.00000000E+00
  0.00000000E+00  0.00000000E+00  0.00000000E+00
  0.00000000E+00  0.00000000E+00  0.00000000E+00
  0.00000000E+00  0.00000000E+00  0.00000000E+00
  0.00000000E+00  0.00000000E+00  0.00000000E+00
  0.00000000E+00  0.00000000E+00  0.00000000E+00
  0.00000000E+00  0.00000000E+00  0.00000000E+00
  0.00000000E+00  0.00000000E+00  0.00000000E+00
  0.00000000E+00  0.00000000E+00  0.00000000E+00
  0.00000000E+00  0.00000000E+00  0.00000000E+00
  0.00000000E+00  0.00000000E+00  0.00000000E+00
  0.00000000E+00  0.00000000E+00  0.00000000E+00
  0.00000000E+00  0.00000000E+00  0.00000000E+00
  0.00000000E+00  0.00000000E+00  0.00000000E+00
  0.00000000E+00  0.00000000E+00  0.00000000E+00
  0.00000000E+00  0.00000000E+00  0.00000000E+00
  0.00000000E+00  0.00000000E+00  0.00000000E+00
  0.00000000E+00  0.00000000E+00  0.00000000E+00
  0.00000000E+00  0.00000000E+00  0.00000000E+00
  0.00000000E+00  0.00000000E+00  0.00000000E+00
  0.00000000E+00  0.00000000E+00  0.00000000E+00
  0.00000000E+00  0.00000000E+00  0.00000000E+00
  0.00000000E+00  0.00000000E+00  0.00000000E+00
  0.00000000E+00  0.00000000E+00  0.00000000E+00
  0.00000000E+00  0.00000000E+00  0.00000000E+00
  0.00000000E+00  0.00000000E+00  0.00000000E+00
  0.00000000E+00  0.00000000E+00  0.00000000E+00
  0.00000000E+00  0.00000000E+00  0.00000000E+00
