Ca1 Ga2 Br10                            
   1.00000000000000     
     5.9326645948748569    5.5609790263844330    1.6556718166121889
    -5.9326645948748569    5.5609790263844321    1.6556718166121891
     0.0000000000000002    6.1674229384112538    9.8682489355060117
   Ca   Ga   Br
     1     2    10
Direct
  0.6045505920733305  0.3954494079266695  0.0000000000000000
  0.9484703253956397  0.0978952398809696  0.6712461776220593
  0.9021047601190304  0.0515296746043603  0.3287538223779478
  0.2623588735725235  0.3936995077054561  0.4732065325708277
  0.6063004922945439  0.7376411264274765  0.5267934674291723
  0.9077858177952933  0.7864996314497787  0.8971000308706465
  0.2135003685502213  0.0922141822047067  0.1028999691293464
  0.8269042155526023  0.1730957844474048  0.0000000000000000
  0.0315255658063833  0.9684744341936096  0.5000000000000000
  0.6770624361229167  0.1972248079991985  0.7165131744378215
  0.8027751920008015  0.3229375638770762  0.2834868255621785
  0.4332010104554342  0.6725406497387283  0.8596716541642309
  0.3274593502612788  0.5667989895445658  0.1403283458357691
 
  0.00000000E+00  0.00000000E+00  0.00000000E+00
  0.00000000E+00  0.00000000E+00  0.00000000E+00
  0.00000000E+00  0.00000000E+00  0.00000000E+00
  0.00000000E+00  0.00000000E+00  0.00000000E+00
  0.00000000E+00  0.00000000E+00  0.00000000E+00
  0.00000000E+00  0.00000000E+00  0.00000000E+00
  0.00000000E+00  0.00000000E+00  0.00000000E+00
  0.00000000E+00  0.00000000E+00  0.00000000E+00
  0.00000000E+00  0.00000000E+00  0.00000000E+00
  0.00000000E+00  0.00000000E+00  0.00000000E+00
  0.00000000E+00  0.00000000E+00  0.00000000E+00
  0.00000000E+00  0.00000000E+00  0.00000000E+00
  0.00000000E+00  0.00000000E+00  0.00000000E+00
