Ca4 B4 Br20                             
   1.0000000000000000     
     7.4581086016322304    0.0000000000000000    0.0000000000000007
    -0.0000000000000006    7.0317416319647723    0.0000000000000006
     0.0000000000000006    0.0000000000000003   21.1691949844274312
   Ca   B    Br
     4     4    20
Direct
  0.7114596635580881  0.4451367507379942  0.2179976798066292
  0.2114596635580881  0.0548632492620058  0.7820023201933708
  0.2885403364419048  0.9451367507379942  0.2820023201933708
  0.7885403364419048  0.5548632492620058  0.7179976798066292
  0.0080481847106384  0.7616261191149292  0.3775769979895855
  0.5080481847106384  0.7383738808850708  0.6224230020104073
  0.9919518152893616  0.2616261191149363  0.1224230020104073
  0.4919518152893616  0.2383738808850637  0.8775769979895855
  0.8365023138761956  0.6453533329211183  0.4353632547535113
  0.3365023138761885  0.8546466670788817  0.5646367452464887
  0.1634976861238044  0.1453533329211183  0.0646367452464887
  0.6634976861238044  0.3546466670788817  0.9353632547535113
  0.9008444437987322  0.7762573207218253  0.2836785054820439
  0.4008444437987322  0.7237426792781747  0.7163214945179561
  0.0991555562012678  0.2762573207218182  0.2163214945179561
  0.5991555562012678  0.2237426792781747  0.7836785054820439
  0.9314879679199137  0.5385387083993365  0.1026747542796400
  0.4314879679199137  0.9614612916006635  0.8973252457203600
  0.0685120320800863  0.0385387083993365  0.3973252457203600
  0.5685120320800863  0.4614612916006635  0.6026747542796400
  0.4457032160279368  0.7148226301857719  0.1894540800427720
  0.9457032160279368  0.7851773698142281  0.8105459199572280
  0.5542967839720632  0.2148226301857719  0.3105459199572280
  0.0542967839720632  0.2851773698142281  0.6894540800427720
  0.2562471529370711  0.3841118362685663  0.8699531675080650
  0.7562471529370711  0.1158881637314337  0.1300468324919350
  0.7437528470629289  0.8841118362685663  0.6300468324919350
  0.2437528470629289  0.6158881637314337  0.3699531675080650

  0.00000000E+00  0.00000000E+00  0.00000000E+00
  0.00000000E+00  0.00000000E+00  0.00000000E+00
  0.00000000E+00  0.00000000E+00  0.00000000E+00
  0.00000000E+00  0.00000000E+00  0.00000000E+00
  0.00000000E+00  0.00000000E+00  0.00000000E+00
  0.00000000E+00  0.00000000E+00  0.00000000E+00
  0.00000000E+00  0.00000000E+00  0.00000000E+00
  0.00000000E+00  0.00000000E+00  0.00000000E+00
  0.00000000E+00  0.00000000E+00  0.00000000E+00
  0.00000000E+00  0.00000000E+00  0.00000000E+00
  0.00000000E+00  0.00000000E+00  0.00000000E+00
  0.00000000E+00  0.00000000E+00  0.00000000E+00
  0.00000000E+00  0.00000000E+00  0.00000000E+00
  0.00000000E+00  0.00000000E+00  0.00000000E+00
  0.00000000E+00  0.00000000E+00  0.00000000E+00
  0.00000000E+00  0.00000000E+00  0.00000000E+00
  0.00000000E+00  0.00000000E+00  0.00000000E+00
  0.00000000E+00  0.00000000E+00  0.00000000E+00
  0.00000000E+00  0.00000000E+00  0.00000000E+00
  0.00000000E+00  0.00000000E+00  0.00000000E+00
  0.00000000E+00  0.00000000E+00  0.00000000E+00
  0.00000000E+00  0.00000000E+00  0.00000000E+00
  0.00000000E+00  0.00000000E+00  0.00000000E+00
  0.00000000E+00  0.00000000E+00  0.00000000E+00
  0.00000000E+00  0.00000000E+00  0.00000000E+00
  0.00000000E+00  0.00000000E+00  0.00000000E+00
  0.00000000E+00  0.00000000E+00  0.00000000E+00
  0.00000000E+00  0.00000000E+00  0.00000000E+00
