B6 Br24                                 
   1.00000000000000     
     0.0000000000000000    8.8718810923169755    8.8718810923169755
     8.8718810923169755    0.0000000000000000    8.8718810923169755
     8.8718810923169755    8.8718810923169755    0.0000000000000000
   B    Br
     6    24
Direct
  0.7500000000000000  0.2500000000000000  0.2500000000000000
  0.7500000000000000  0.7500000000000000  0.2500000000000000
  0.2500000000000000  0.7500000000000000  0.7500000000000000
  0.7500000000000000  0.2500000000000000  0.7500000000000000
  0.2500000000000000  0.2500000000000000  0.7500000000000000
  0.2500000000000000  0.7500000000000000  0.2500000000000000
  0.2788760488134017  0.9078318221226098  0.0921681778773902
  0.0921681778773902  0.9078318221226098  0.7211239511865983
  0.7211239511865983  0.9078318221226098  0.2788760488134017
  0.9078318221226098  0.0921681778773902  0.2788760488134017
  0.0921681778773902  0.2788760488134017  0.9078318221226098
  0.7211239511865983  0.0921681778773902  0.9078318221226098
  0.9078318221226098  0.2788760488134017  0.7211239511865983
  0.2211239511865983  0.7788760488134017  0.4078318221226098
  0.9078318221226098  0.7211239511865983  0.0921681778773902
  0.2788760488134017  0.7211239511865983  0.9078318221226098
  0.4078318221226098  0.2211239511865983  0.7788760488134017
  0.7788760488134017  0.4078318221226098  0.2211239511865983
  0.2788760488134017  0.0921681778773902  0.7211239511865983
  0.7211239511865983  0.2788760488134017  0.0921681778773902
  0.5921681778773902  0.7788760488134017  0.2211239511865983
  0.4078318221226098  0.7788760488134017  0.5921681778773902
  0.0921681778773902  0.7211239511865983  0.2788760488134017
  0.7788760488134017  0.2211239511865983  0.5921681778773902
  0.5921681778773902  0.4078318221226098  0.7788760488134017
  0.5921681778773902  0.2211239511865983  0.4078318221226098
  0.2211239511865983  0.4078318221226098  0.5921681778773902
  0.2211239511865983  0.5921681778773902  0.7788760488134017
  0.7788760488134017  0.5921681778773902  0.4078318221226098
  0.4078318221226098  0.5921681778773902  0.2211239511865983
 
  0.00000000E+00  0.00000000E+00  0.00000000E+00
  0.00000000E+00  0.00000000E+00  0.00000000E+00
  0.00000000E+00  0.00000000E+00  0.00000000E+00
  0.00000000E+00  0.00000000E+00  0.00000000E+00
  0.00000000E+00  0.00000000E+00  0.00000000E+00
  0.00000000E+00  0.00000000E+00  0.00000000E+00
  0.00000000E+00  0.00000000E+00  0.00000000E+00
  0.00000000E+00  0.00000000E+00  0.00000000E+00
  0.00000000E+00  0.00000000E+00  0.00000000E+00
  0.00000000E+00  0.00000000E+00  0.00000000E+00
  0.00000000E+00  0.00000000E+00  0.00000000E+00
  0.00000000E+00  0.00000000E+00  0.00000000E+00
  0.00000000E+00  0.00000000E+00  0.00000000E+00
  0.00000000E+00  0.00000000E+00  0.00000000E+00
  0.00000000E+00  0.00000000E+00  0.00000000E+00
  0.00000000E+00  0.00000000E+00  0.00000000E+00
  0.00000000E+00  0.00000000E+00  0.00000000E+00
  0.00000000E+00  0.00000000E+00  0.00000000E+00
  0.00000000E+00  0.00000000E+00  0.00000000E+00
  0.00000000E+00  0.00000000E+00  0.00000000E+00
  0.00000000E+00  0.00000000E+00  0.00000000E+00
  0.00000000E+00  0.00000000E+00  0.00000000E+00
  0.00000000E+00  0.00000000E+00  0.00000000E+00
  0.00000000E+00  0.00000000E+00  0.00000000E+00
  0.00000000E+00  0.00000000E+00  0.00000000E+00
  0.00000000E+00  0.00000000E+00  0.00000000E+00
  0.00000000E+00  0.00000000E+00  0.00000000E+00
  0.00000000E+00  0.00000000E+00  0.00000000E+00
  0.00000000E+00  0.00000000E+00  0.00000000E+00
  0.00000000E+00  0.00000000E+00  0.00000000E+00
