Be28 In11                               
   1.00000000000000     
     3.7448214797292949    0.0000000052768221   -0.3220929560451501
    -0.0699730333491450    6.7004160776932853   -0.8135428430436531
    -0.0504063280301759   -0.8088933413728225   21.3446221259967999
   Be   In
    28    11
Direct
  0.8093771305100432  0.7632714729280607  0.6187542609994878
  0.5616799515433186  0.2101153073633171  0.1233609032486029
  0.7053562526519670  0.0077519268810562  0.4107115052483650
  0.6587314888328564  0.0922186044047990  0.3174629776450146
  0.3061517139890171  0.9666851613053140  0.6123034280584747
  0.8586059241220667  0.6561063014476005  0.7172118479683860
  0.5300870038471572  0.9241399610405949  0.0601730077206497
  0.0000000000002132  0.8432644391389132  0.0000000000277822
  0.5927848360419929  0.4977644139801214  0.1855686722385741
  0.8891324354624288  0.4240032313795794  0.7782658711989967
  0.2805056227549940  0.2766773386656283  0.5610112452231348
  0.2946437473731720  0.5970404212030047  0.5892884947141681
  0.9206395541062022  0.1922068786499196  0.8412781079565192
  0.3412685111710019  0.7747566269122288  0.6825370223590284
  0.4699129961224031  0.8639669530664236  0.9398269923089586
  0.6938482860819732  0.3543817331761900  0.3876965718709755
  0.4383200484909651  0.0867544041665198  0.8766390967334701
  0.1413940758050458  0.9388954533612051  0.2827891520873038
  0.0793604459005692  0.3509287702828559  0.1587218921077991
  0.7797033701404033  0.4432469993004631  0.5594067408083347
  0.4072151640102533  0.3121957418619417  0.8144313277307802
  0.4999999999611617  0.6337718394421401  0.0000000000428528
  0.7194943772075391  0.7156670930331757  0.4389887547936766
  0.9583855984638632  0.0124156746986941  0.9167711972995320
  0.1108675645440798  0.6457373606642562  0.2217341287501569
  0.2202966297803073  0.8838402587564218  0.4405932592301198
  0.1906228694716887  0.1445172119133318  0.3812457389613542
  0.0416144016082853  0.0956454776312654  0.0832288026669588
  0.6596880634649125  0.6930850147965515  0.3193761270237587
  0.1388743934840235  0.3192092301032474  0.2777487867826238
  0.7680514244199870  0.0309222002219443  0.5361038488708445
  0.9572429076025557  0.5191459422589020  0.9144858151702593
  0.3403119365805978  0.3737098878323479  0.6806238729641407
  0.8611256065211563  0.0414594432083746  0.7222512132256256
  0.0427570923796878  0.6046611268994226  0.0855141848268275
  0.5964792476706577  0.9212810026140232  0.1929574952684803
  0.4035207523313247  0.7283235072706731  0.8070425047128822
  0.2319485755832673  0.4948183512120394  0.4638961511501662
  0.4999999999668745  0.2494162369274733  0.0000000000049880
 
  0.00000000E+00  0.00000000E+00  0.00000000E+00
  0.00000000E+00  0.00000000E+00  0.00000000E+00
  0.00000000E+00  0.00000000E+00  0.00000000E+00
  0.00000000E+00  0.00000000E+00  0.00000000E+00
  0.00000000E+00  0.00000000E+00  0.00000000E+00
  0.00000000E+00  0.00000000E+00  0.00000000E+00
  0.00000000E+00  0.00000000E+00  0.00000000E+00
  0.00000000E+00  0.00000000E+00  0.00000000E+00
  0.00000000E+00  0.00000000E+00  0.00000000E+00
  0.00000000E+00  0.00000000E+00  0.00000000E+00
  0.00000000E+00  0.00000000E+00  0.00000000E+00
  0.00000000E+00  0.00000000E+00  0.00000000E+00
  0.00000000E+00  0.00000000E+00  0.00000000E+00
  0.00000000E+00  0.00000000E+00  0.00000000E+00
  0.00000000E+00  0.00000000E+00  0.00000000E+00
  0.00000000E+00  0.00000000E+00  0.00000000E+00
  0.00000000E+00  0.00000000E+00  0.00000000E+00
  0.00000000E+00  0.00000000E+00  0.00000000E+00
  0.00000000E+00  0.00000000E+00  0.00000000E+00
  0.00000000E+00  0.00000000E+00  0.00000000E+00
  0.00000000E+00  0.00000000E+00  0.00000000E+00
  0.00000000E+00  0.00000000E+00  0.00000000E+00
  0.00000000E+00  0.00000000E+00  0.00000000E+00
  0.00000000E+00  0.00000000E+00  0.00000000E+00
  0.00000000E+00  0.00000000E+00  0.00000000E+00
  0.00000000E+00  0.00000000E+00  0.00000000E+00
  0.00000000E+00  0.00000000E+00  0.00000000E+00
  0.00000000E+00  0.00000000E+00  0.00000000E+00
  0.00000000E+00  0.00000000E+00  0.00000000E+00
  0.00000000E+00  0.00000000E+00  0.00000000E+00
  0.00000000E+00  0.00000000E+00  0.00000000E+00
  0.00000000E+00  0.00000000E+00  0.00000000E+00
  0.00000000E+00  0.00000000E+00  0.00000000E+00
  0.00000000E+00  0.00000000E+00  0.00000000E+00
  0.00000000E+00  0.00000000E+00  0.00000000E+00
  0.00000000E+00  0.00000000E+00  0.00000000E+00
  0.00000000E+00  0.00000000E+00  0.00000000E+00
  0.00000000E+00  0.00000000E+00  0.00000000E+00
  0.00000000E+00  0.00000000E+00  0.00000000E+00
