Mg10 Tl4 Br32                           
   1.0000000000000000     
     6.1335242868836373   -6.1834622235951198    0.0000000000000000
     6.1335242868836373    6.1834622235951198    0.0000000000000000
     0.0000000000000000    0.0000000000000000   21.2895842276016474
   Mg   Tl   Br
    10     4    32
Direct
  0.0000000000000000  0.0000000000000000  0.7590390201116932
  0.0000000000000000  0.0000000000000000  0.2409609798883068
  0.5000000000000000  0.5000000000000000  0.7409609798883068
  0.5000000000000000  0.5000000000000000  0.2590390201116932
  0.5000000000000000  0.5000000000000000  0.5000000000000000
  0.0000000000000000  0.0000000000000000  0.0000000000000000
  0.0000000000000000  0.5000000000000000  0.6758654745543140
  0.5000000000000000  0.0000000000000000  0.3241345254456860
  0.5000000000000000  0.0000000000000000  0.8241345254456860
  0.0000000000000000  0.5000000000000000  0.1758654745543140
  0.5000000000000000  0.0000000000000000  0.6262198129492518
  0.0000000000000000  0.5000000000000000  0.3737801870507482
  0.0000000000000000  0.5000000000000000  0.8737801870507482
  0.5000000000000000  0.0000000000000000  0.1262198129492518
  0.5186501480106784  0.2086307818752360  0.7399954485760105
  0.4813498519893216  0.7913692181247640  0.7399954485760105
  0.2086307818752360  0.5186501480106784  0.2600045514239895
  0.7913692181247640  0.4813498519893216  0.2600045514239895
  0.9813498519893216  0.2913692181247640  0.7600045514239895
  0.0186501480106784  0.7086307818752360  0.7600045514239895
  0.2913692181247640  0.9813498519893216  0.2399954485760105
  0.7086307818752360  0.0186501480106784  0.2399954485760105
  0.1884485908516282  0.0107365209007995  0.6446154201912080
  0.8115514091483718  0.9892634790992005  0.6446154201912080
  0.0107365209007995  0.1884485908516282  0.3553845798087920
  0.9892634790992005  0.8115514091483718  0.3553845798087920
  0.3115514091483718  0.4892634790992005  0.8553845798087920
  0.6884485908516282  0.5107365209007995  0.8553845798087920
  0.7087849415229357  0.0033264754483042  0.0267793520155308
  0.2912150584770643  0.9966735245516958  0.0267793520155308
  0.0033264754483042  0.7087849415229357  0.9732206479844692
  0.9966735245516958  0.2912150584770643  0.9732206479844692
  0.7912150584770643  0.4966735245516958  0.4732206479844692
  0.2087849415229357  0.5033264754483042  0.4732206479844692
  0.4966735245516958  0.7912150584770643  0.5267793520155308
  0.5033264754483042  0.2087849415229357  0.5267793520155308
  0.9889146330752183  0.7801451615645547  0.1460640276854903
  0.0110853669247817  0.2198548384354453  0.1460640276854903
  0.7801451615645547  0.9889146330752183  0.8539359723145097
  0.2198548384354453  0.0110853669247817  0.8539359723145097
  0.5110853669247817  0.7198548384354453  0.3539359723145097
  0.4889146330752183  0.2801451615645547  0.3539359723145097
  0.7198548384354453  0.5110853669247817  0.6460640276854903
  0.2801451615645547  0.4889146330752183  0.6460640276854903
  0.5107365209007995  0.6884485908516282  0.1446154201912080
  0.4892634790992005  0.3115514091483718  0.1446154201912080

  0.00000000E+00  0.00000000E+00  0.00000000E+00
  0.00000000E+00  0.00000000E+00  0.00000000E+00
  0.00000000E+00  0.00000000E+00  0.00000000E+00
  0.00000000E+00  0.00000000E+00  0.00000000E+00
  0.00000000E+00  0.00000000E+00  0.00000000E+00
  0.00000000E+00  0.00000000E+00  0.00000000E+00
  0.00000000E+00  0.00000000E+00  0.00000000E+00
  0.00000000E+00  0.00000000E+00  0.00000000E+00
  0.00000000E+00  0.00000000E+00  0.00000000E+00
  0.00000000E+00  0.00000000E+00  0.00000000E+00
  0.00000000E+00  0.00000000E+00  0.00000000E+00
  0.00000000E+00  0.00000000E+00  0.00000000E+00
  0.00000000E+00  0.00000000E+00  0.00000000E+00
  0.00000000E+00  0.00000000E+00  0.00000000E+00
  0.00000000E+00  0.00000000E+00  0.00000000E+00
  0.00000000E+00  0.00000000E+00  0.00000000E+00
  0.00000000E+00  0.00000000E+00  0.00000000E+00
  0.00000000E+00  0.00000000E+00  0.00000000E+00
  0.00000000E+00  0.00000000E+00  0.00000000E+00
  0.00000000E+00  0.00000000E+00  0.00000000E+00
  0.00000000E+00  0.00000000E+00  0.00000000E+00
  0.00000000E+00  0.00000000E+00  0.00000000E+00
  0.00000000E+00  0.00000000E+00  0.00000000E+00
  0.00000000E+00  0.00000000E+00  0.00000000E+00
  0.00000000E+00  0.00000000E+00  0.00000000E+00
  0.00000000E+00  0.00000000E+00  0.00000000E+00
  0.00000000E+00  0.00000000E+00  0.00000000E+00
  0.00000000E+00  0.00000000E+00  0.00000000E+00
  0.00000000E+00  0.00000000E+00  0.00000000E+00
  0.00000000E+00  0.00000000E+00  0.00000000E+00
  0.00000000E+00  0.00000000E+00  0.00000000E+00
  0.00000000E+00  0.00000000E+00  0.00000000E+00
  0.00000000E+00  0.00000000E+00  0.00000000E+00
  0.00000000E+00  0.00000000E+00  0.00000000E+00
  0.00000000E+00  0.00000000E+00  0.00000000E+00
  0.00000000E+00  0.00000000E+00  0.00000000E+00
  0.00000000E+00  0.00000000E+00  0.00000000E+00
  0.00000000E+00  0.00000000E+00  0.00000000E+00
  0.00000000E+00  0.00000000E+00  0.00000000E+00
  0.00000000E+00  0.00000000E+00  0.00000000E+00
  0.00000000E+00  0.00000000E+00  0.00000000E+00
  0.00000000E+00  0.00000000E+00  0.00000000E+00
  0.00000000E+00  0.00000000E+00  0.00000000E+00
  0.00000000E+00  0.00000000E+00  0.00000000E+00
  0.00000000E+00  0.00000000E+00  0.00000000E+00
  0.00000000E+00  0.00000000E+00  0.00000000E+00
