In3 I1                                  
   1.00000000000000     
    -2.4049926243937310    2.4049926243937310    5.7370159905196854
     2.4049926243937310   -2.4049926243937310    5.7370159905196854
     2.4049926243937310    2.4049926243937310   -5.7370159905196854
   I    In
     1     3
Direct
  0.0000000000000000  0.0000000000000000  0.0000000000000000
  0.7500000000000000  0.2500000000000000  0.5000000000000000
  0.2500000000000000  0.7500000000000000  0.5000000000000000
  0.5000000000000000  0.5000000000000000  0.0000000000000000
 
  0.00000000E+00  0.00000000E+00  0.00000000E+00
  0.00000000E+00  0.00000000E+00  0.00000000E+00
  0.00000000E+00  0.00000000E+00  0.00000000E+00
  0.00000000E+00  0.00000000E+00  0.00000000E+00
