Sr21 In40                               
   1.0000000000000000     
     5.4862087856954078   -9.5023922862027295    0.0000000000000000
     5.4862087856954078    9.5023922862027295    0.0000000000000000
    -0.0000000000000000    0.0000000000000000   18.2889179953338044
   Sr   In
    21    40
Direct
  0.0000000000004690  0.3361008021419920  0.3849106098937298
  0.6666669999999968  0.3333330000000032  0.3131239906199781
  0.6772344661459897  0.0000000000001776  0.6766570740942228
  0.3227655338538327  0.3227655338538327  0.6766570740942228
  0.0000000000000000  0.0000000000000000  0.1185233341563148
  0.0000000000012719  0.3366241527296694  0.5969100581775706
  0.3280107746637384  0.0000000000000639  0.0124916241092308
  0.0000000000001776  0.6772344661459897  0.6766570740942228
  0.6638991978575461  0.6638991978575461  0.3849106098937298
  0.3366241527296694  0.0000000000012719  0.5969100581775706
  0.3333330000000032  0.6666669999999968  0.1051182731577711
  0.9999999999998224  0.6549811202449689  0.8892019840121392
  0.6633758472690445  0.6633758472690445  0.5969100581775706
  0.3450188797552087  0.3450188797552087  0.8892019840121392
  0.6666669999999968  0.3333330000000032  0.1051182731577711
  0.3333330000000032  0.6666669999999968  0.3131239906199781
  0.0000000000000639  0.3280107746637384  0.0124916241092308
  0.3361008021419920  0.0000000000004690  0.3849106098937298
  0.6719892253362190  0.6719892253362190  0.0124916241092308
  0.6549811202449689  0.9999999999998224  0.8892019840121392
  0.0000000000000000  0.0000000000000000  0.3160273878803963
  0.3354608365447049  0.5017078603817993  0.4916466783196398
  0.1616760097092609  0.3343793868916975  0.2077563822826534
  0.5032195351263624  0.1648135900148446  0.7767345454607621
  0.8272966228170660  0.6656206131078051  0.2077563822826534
  0.4917596631988701  0.0000000000000568  0.2032626945397027
  0.0000000000000000  0.0000000000000000  0.6011377653699626
  0.3333330000000032  0.6666669999999968  0.9179439999129855
  0.1727033771829412  0.8383239902912081  0.2077563822826534
  0.2165299733323778  0.0000000000003979  0.8338436758854755
  0.9999999999998082  0.6583763523009196  0.3411675418588587
  0.3343793868916975  0.1616760097092609  0.2077563822826534
  0.1751139229335124  0.1751139229335124  0.4804410408166504
  0.7834700266672172  0.7834700266672172  0.8338436758854755
  0.6666669999999968  0.3333330000000032  0.9179439999129855
  0.0000000000014069  0.8248860770650808  0.4804410408166504
  0.5082403368010873  0.5082403368010873  0.2032626945397027
  0.8337529761648241  0.4982921396182149  0.4916466783196398
  0.4967804648731260  0.6615940548885959  0.7767345454607621
  0.0000000000000568  0.4917596631988701  0.2032626945397027
  0.8383239902912081  0.1727033771829412  0.2077563822826534
  0.0000000000004263  0.6687343184350212  0.0734890525822962
  0.3416236476992793  0.3416236476992793  0.3411675418588587
  0.3333330000000032  0.6666669999999968  0.6361620352327293
  0.0000000000003979  0.2165299733323778  0.8338436758854755
  0.6666669999999968  0.3333330000000032  0.6361620352327293
  0.1648135900148446  0.5032195351263624  0.7767345454607621
  0.4982921396182149  0.8337529761648241  0.4916466783196398
  0.1662470238370801  0.6645391634533837  0.4916466783196398
  0.6687343184350212  0.0000000000004263  0.0734890525822962
  0.3312656815645667  0.3312656815645667  0.0734890525822962
  0.8351864099850488  0.3384059451120365  0.7767345454607621
  0.6583763523009196  0.9999999999998082  0.3411675418588587
  0.5017078603817993  0.3354608365447049  0.4916466783196398
  0.6656206131078051  0.8272966228170660  0.2077563822826534
  0.8248860770650808  0.0000000000014069  0.4804410408166504
  0.6645391634533837  0.1662470238370801  0.4916466783196398
  0.3384059451120365  0.8351864099850488  0.7767345454607621
  0.0000000000000000  0.0000000000000000  0.9409405572038594
  0.6615940548885959  0.4967804648731260  0.7767345454607621
  0.0000000000000000  0.0000000000000000  0.7484876532544931

  0.00000000E+00  0.00000000E+00  0.00000000E+00
  0.00000000E+00  0.00000000E+00  0.00000000E+00
  0.00000000E+00  0.00000000E+00  0.00000000E+00
  0.00000000E+00  0.00000000E+00  0.00000000E+00
  0.00000000E+00  0.00000000E+00  0.00000000E+00
  0.00000000E+00  0.00000000E+00  0.00000000E+00
  0.00000000E+00  0.00000000E+00  0.00000000E+00
  0.00000000E+00  0.00000000E+00  0.00000000E+00
  0.00000000E+00  0.00000000E+00  0.00000000E+00
  0.00000000E+00  0.00000000E+00  0.00000000E+00
  0.00000000E+00  0.00000000E+00  0.00000000E+00
  0.00000000E+00  0.00000000E+00  0.00000000E+00
  0.00000000E+00  0.00000000E+00  0.00000000E+00
  0.00000000E+00  0.00000000E+00  0.00000000E+00
  0.00000000E+00  0.00000000E+00  0.00000000E+00
  0.00000000E+00  0.00000000E+00  0.00000000E+00
  0.00000000E+00  0.00000000E+00  0.00000000E+00
  0.00000000E+00  0.00000000E+00  0.00000000E+00
  0.00000000E+00  0.00000000E+00  0.00000000E+00
  0.00000000E+00  0.00000000E+00  0.00000000E+00
  0.00000000E+00  0.00000000E+00  0.00000000E+00
  0.00000000E+00  0.00000000E+00  0.00000000E+00
  0.00000000E+00  0.00000000E+00  0.00000000E+00
  0.00000000E+00  0.00000000E+00  0.00000000E+00
  0.00000000E+00  0.00000000E+00  0.00000000E+00
  0.00000000E+00  0.00000000E+00  0.00000000E+00
  0.00000000E+00  0.00000000E+00  0.00000000E+00
  0.00000000E+00  0.00000000E+00  0.00000000E+00
  0.00000000E+00  0.00000000E+00  0.00000000E+00
  0.00000000E+00  0.00000000E+00  0.00000000E+00
  0.00000000E+00  0.00000000E+00  0.00000000E+00
  0.00000000E+00  0.00000000E+00  0.00000000E+00
  0.00000000E+00  0.00000000E+00  0.00000000E+00
  0.00000000E+00  0.00000000E+00  0.00000000E+00
  0.00000000E+00  0.00000000E+00  0.00000000E+00
  0.00000000E+00  0.00000000E+00  0.00000000E+00
  0.00000000E+00  0.00000000E+00  0.00000000E+00
  0.00000000E+00  0.00000000E+00  0.00000000E+00
  0.00000000E+00  0.00000000E+00  0.00000000E+00
  0.00000000E+00  0.00000000E+00  0.00000000E+00
  0.00000000E+00  0.00000000E+00  0.00000000E+00
  0.00000000E+00  0.00000000E+00  0.00000000E+00
  0.00000000E+00  0.00000000E+00  0.00000000E+00
  0.00000000E+00  0.00000000E+00  0.00000000E+00
  0.00000000E+00  0.00000000E+00  0.00000000E+00
  0.00000000E+00  0.00000000E+00  0.00000000E+00
  0.00000000E+00  0.00000000E+00  0.00000000E+00
  0.00000000E+00  0.00000000E+00  0.00000000E+00
  0.00000000E+00  0.00000000E+00  0.00000000E+00
  0.00000000E+00  0.00000000E+00  0.00000000E+00
  0.00000000E+00  0.00000000E+00  0.00000000E+00
  0.00000000E+00  0.00000000E+00  0.00000000E+00
  0.00000000E+00  0.00000000E+00  0.00000000E+00
  0.00000000E+00  0.00000000E+00  0.00000000E+00
  0.00000000E+00  0.00000000E+00  0.00000000E+00
  0.00000000E+00  0.00000000E+00  0.00000000E+00
  0.00000000E+00  0.00000000E+00  0.00000000E+00
  0.00000000E+00  0.00000000E+00  0.00000000E+00
  0.00000000E+00  0.00000000E+00  0.00000000E+00
  0.00000000E+00  0.00000000E+00  0.00000000E+00
  0.00000000E+00  0.00000000E+00  0.00000000E+00
