Ba2Ga                                   
   1.00000000000000     
     5.1481169902543495    2.9718980985053043    8.4069600090094241
    -5.1481169902543495    2.9718980985053043    8.4069600090094241
     0.0000000000000000   -5.9446946079814884    8.4069229148392495
   Ba   Ga
     4     2
Direct
  0.8750000000000000  0.3750000000000000  0.3750000000000000
  0.3750000000000000  0.8750000000000000  0.3750000000000000
  0.3750000000000000  0.3750000000000000  0.3750000000000000
  0.3750000000000000  0.3750000000000000  0.8750000000000000
  0.2499954677530525  0.2499954677530525  0.2499942122340144
  0.5000045322469475  0.5000045322469475  0.5000057877659856
 
  0.00000000E+00  0.00000000E+00  0.00000000E+00
  0.00000000E+00  0.00000000E+00  0.00000000E+00
  0.00000000E+00  0.00000000E+00  0.00000000E+00
  0.00000000E+00  0.00000000E+00  0.00000000E+00
  0.00000000E+00  0.00000000E+00  0.00000000E+00
  0.00000000E+00  0.00000000E+00  0.00000000E+00
