Ca1 B3 I6                               
   1.00000000000000     
     9.1974917974957915    0.1733158373036822    1.1399735013643810
     0.1733158373036824    9.1974917974957862    1.1399735013643815
     5.2674828610962550    5.2674828610962541    7.6432388749133136
   I    Ca   B 
     6     1     3
Direct
  0.7704724998430166  0.2295275001569834  0.0000000000000000
  0.1499007204475333  0.1499007204475333  0.1245083675358387
  0.2295275001569834  0.7704724998430166  0.0000000000000000
  0.8500992795524667  0.8500992795524667  0.8754916324641613
  0.6972166993807818  0.6972166993807818  0.6781273313641663
  0.3027833006192182  0.3027833006192182  0.3218726686358337
  0.0000000000000000  0.0000000000000000  0.0000000000000000
  0.5000000000000000  0.5000000000000000  0.0000000000000000
  0.0633984141930952  0.9366015858069048  0.5000000000000000
  0.9366015858069048  0.0633984141930952  0.5000000000000000
 
  0.00000000E+00  0.00000000E+00  0.00000000E+00
  0.00000000E+00  0.00000000E+00  0.00000000E+00
  0.00000000E+00  0.00000000E+00  0.00000000E+00
  0.00000000E+00  0.00000000E+00  0.00000000E+00
  0.00000000E+00  0.00000000E+00  0.00000000E+00
  0.00000000E+00  0.00000000E+00  0.00000000E+00
  0.00000000E+00  0.00000000E+00  0.00000000E+00
  0.00000000E+00  0.00000000E+00  0.00000000E+00
  0.00000000E+00  0.00000000E+00  0.00000000E+00
  0.00000000E+00  0.00000000E+00  0.00000000E+00
