Mg1 Ga2 Cl6                             
   1.00000000000000     
     3.4279641549864235    1.9788570750037950    5.5997173929456077
    -3.4279641549864235    1.9788570750037950    5.5997173929456077
     0.0000000000000000   -3.9561563166711489    5.5991663270866603
   Mg   Cl   Ga
     1     6     2
Direct
  0.0000000000000000  0.0000000000000000  0.0000000000000000
  0.7476192439802745  0.7476192439802745  0.2523801573581039
  0.7476339083195569  0.2523668240337429  0.2523653964484538
  0.2523668240337429  0.7476339083195569  0.2523653964484538
  0.2523807560197255  0.2523807560197255  0.7476198426418961
  0.7476331759662571  0.2523660916804431  0.7476346035515462
  0.2523660916804431  0.7476331759662571  0.7476346035515462
  0.2500051045515619  0.2500051045515619  0.2499924679404728
  0.7499948954484381  0.7499948954484381  0.7500075320595272
 
  0.00000000E+00  0.00000000E+00  0.00000000E+00
  0.00000000E+00  0.00000000E+00  0.00000000E+00
  0.00000000E+00  0.00000000E+00  0.00000000E+00
  0.00000000E+00  0.00000000E+00  0.00000000E+00
  0.00000000E+00  0.00000000E+00  0.00000000E+00
  0.00000000E+00  0.00000000E+00  0.00000000E+00
  0.00000000E+00  0.00000000E+00  0.00000000E+00
  0.00000000E+00  0.00000000E+00  0.00000000E+00
  0.00000000E+00  0.00000000E+00  0.00000000E+00
