Mg4 In4 Cl20                            
   1.0000000000000000     
    11.5305478677437367    0.0000000000000000    0.0000000000000000
     0.0000000000000000    6.7396603090576468   -0.9954874792314974
     0.0000000000000000    1.1824535792750741   12.1666359827880406
   Mg   In   Cl
     4     4    20
Direct
  0.9969243074730869  0.3868050063943471  0.3710040478359460
  0.4969243074730869  0.6131949936056600  0.1289959521640540
  0.0030756925269131  0.6131949936056600  0.6289959521640540
  0.5030756925269131  0.3868050063943471  0.8710040478359460
  0.6657844376026958  0.8782888737920942  0.7246470040203903
  0.1657844376026887  0.1217111262079058  0.7753529959796097
  0.3342155623972971  0.1217111262079058  0.2753529959796168
  0.8342155623973042  0.8782888737920942  0.2246470040203903
  0.6479099696974444  0.0716870850380289  0.5741925234365368
  0.1479099696974444  0.9283129149619711  0.9258074765634632
  0.3520900303025556  0.9283129149619711  0.4258074765634632
  0.8520900303025556  0.0716870850380289  0.0741925234365368
  0.8971742014625477  0.0704687565760835  0.3885511061186762
  0.3971742014625477  0.9295312434239165  0.1114488938813167
  0.1028257985374523  0.9295312434239165  0.6114488938813167
  0.6028257985374523  0.0704687565760835  0.8885511061186833
  0.3596467425759400  0.2220014914175579  0.7277346117638714
  0.8596467425759329  0.7779985085824350  0.7722653882361286
  0.6403532574240671  0.7779985085824350  0.2722653882361286
  0.1403532574240600  0.2220014914175579  0.2277346117638714
  0.5409779641347825  0.5887085523803179  0.7103050474185366
  0.0409779641347825  0.4112914476196821  0.7896949525814634
  0.4590220358652175  0.4112914476196821  0.2896949525814634
  0.9590220358652175  0.5887085523803179  0.2103050474185366
  0.3572535422862586  0.4422511242549874  0.0066160026986068
  0.8572535422862586  0.5577488757450126  0.4933839973013932
  0.6427464577137414  0.5577488757450126  0.9933839973013932
  0.1427464577137414  0.4422511242549874  0.5066160026986068

  0.00000000E+00  0.00000000E+00  0.00000000E+00
  0.00000000E+00  0.00000000E+00  0.00000000E+00
  0.00000000E+00  0.00000000E+00  0.00000000E+00
  0.00000000E+00  0.00000000E+00  0.00000000E+00
  0.00000000E+00  0.00000000E+00  0.00000000E+00
  0.00000000E+00  0.00000000E+00  0.00000000E+00
  0.00000000E+00  0.00000000E+00  0.00000000E+00
  0.00000000E+00  0.00000000E+00  0.00000000E+00
  0.00000000E+00  0.00000000E+00  0.00000000E+00
  0.00000000E+00  0.00000000E+00  0.00000000E+00
  0.00000000E+00  0.00000000E+00  0.00000000E+00
  0.00000000E+00  0.00000000E+00  0.00000000E+00
  0.00000000E+00  0.00000000E+00  0.00000000E+00
  0.00000000E+00  0.00000000E+00  0.00000000E+00
  0.00000000E+00  0.00000000E+00  0.00000000E+00
  0.00000000E+00  0.00000000E+00  0.00000000E+00
  0.00000000E+00  0.00000000E+00  0.00000000E+00
  0.00000000E+00  0.00000000E+00  0.00000000E+00
  0.00000000E+00  0.00000000E+00  0.00000000E+00
  0.00000000E+00  0.00000000E+00  0.00000000E+00
  0.00000000E+00  0.00000000E+00  0.00000000E+00
  0.00000000E+00  0.00000000E+00  0.00000000E+00
  0.00000000E+00  0.00000000E+00  0.00000000E+00
  0.00000000E+00  0.00000000E+00  0.00000000E+00
  0.00000000E+00  0.00000000E+00  0.00000000E+00
  0.00000000E+00  0.00000000E+00  0.00000000E+00
  0.00000000E+00  0.00000000E+00  0.00000000E+00
  0.00000000E+00  0.00000000E+00  0.00000000E+00
