Ba6 I4                                  
   1.00000000000000     
    -8.7316204566277804   -0.2482833944297818   -0.6933559816915811
     4.1598788294647537   -7.6807273161311986    0.6851779719704462
    -3.8101755044906702    2.1917329434571089    7.1702234784048695
   I    Ba
     4     6
Direct
  0.6258841130299047  0.2621101931493968  0.0248959868753786
  0.7621340131115417  0.1258996884606987  0.4750731580620595
  0.2378031279072914  0.8740309140081592  0.5249698829692306
  0.3740528043701374  0.7378412377558945  0.9751096572318687
  0.5629417912814176  0.6585600160821272  0.2738082493829737
  0.9813491653299167  0.4813102461669914  0.2499885371761579
  0.1585715780986092  0.0629304267361874  0.2262051539988263
  0.8414266204162288  0.9370212990647033  0.7737836903965842
  0.0186257287892317  0.5186829280257044  0.7500176212784311
  0.4370110576657282  0.3414130505501376  0.7261480626284822
 
  0.00000000E+00  0.00000000E+00  0.00000000E+00
  0.00000000E+00  0.00000000E+00  0.00000000E+00
  0.00000000E+00  0.00000000E+00  0.00000000E+00
  0.00000000E+00  0.00000000E+00  0.00000000E+00
  0.00000000E+00  0.00000000E+00  0.00000000E+00
  0.00000000E+00  0.00000000E+00  0.00000000E+00
  0.00000000E+00  0.00000000E+00  0.00000000E+00
  0.00000000E+00  0.00000000E+00  0.00000000E+00
  0.00000000E+00  0.00000000E+00  0.00000000E+00
  0.00000000E+00  0.00000000E+00  0.00000000E+00
