Be41 Al67                               
   1.00000000000000     
    11.4143991260216922    0.0000000000000000    0.0000000000000000
     0.0000000000000000   11.4143991260216922    0.0000000000000000
     0.0000000000000000    0.0000000000000000   11.4143991260216922
   Al   Be
    67    41
Direct
  0.3234982048695443  0.1639254520743165  0.0000000000000000
  0.6765017951304557  0.1639254520743165  0.0000000000000000
  0.5000000000000000  0.3313344507283986  0.0000000000000000
  0.1639254520743165  0.3234982048695443  0.0000000000000000
  0.8360745479256835  0.3234982048695443  0.0000000000000000
  0.3313344507283986  0.5000000000000000  0.0000000000000000
  0.6686655492716014  0.5000000000000000  0.0000000000000000
  0.1639254520743165  0.6765017951304557  0.0000000000000000
  0.8360745479256835  0.6765017951304557  0.0000000000000000
  0.5000000000000000  0.6686655492716014  0.0000000000000000
  0.3234982048695443  0.8360745479256835  0.0000000000000000
  0.6765017951304557  0.8360745479256835  0.0000000000000000
  0.5000000000000000  0.1631332475019320  0.1631332475019320
  0.1631332475019320  0.5000000000000000  0.1631332475019320
  0.8368667524980680  0.5000000000000000  0.1631332475019320
  0.5000000000000000  0.8368667524980680  0.1631332475019320
  0.5000000000000000  0.5000000000000000  0.1662364723915104
  0.3234982048695443  0.0000000000000000  0.1639254520743165
  0.6765017951304557  0.0000000000000000  0.1639254520743165
  0.0000000000000000  0.3234982048695443  0.1639254520743165
  0.0000000000000000  0.6765017951304557  0.1639254520743165
  0.5000000000000000  0.0000000000000000  0.3313344507283986
  0.0000000000000000  0.5000000000000000  0.3313344507283986
  0.5000000000000000  0.3251632993063680  0.3251632993063680
  0.3251632993063680  0.5000000000000000  0.3251632993063680
  0.6748367006936320  0.5000000000000000  0.3251632993063680
  0.5000000000000000  0.6748367006936320  0.3251632993063680
  0.1639254520743165  0.0000000000000000  0.3234982048695443
  0.8360745479256835  0.0000000000000000  0.3234982048695443
  0.0000000000000000  0.1639254520743165  0.3234982048695443
  0.0000000000000000  0.8360745479256835  0.3234982048695443
  0.3313344507283986  0.0000000000000000  0.5000000000000000
  0.6686655492716014  0.0000000000000000  0.5000000000000000
  0.1631332475019320  0.1631332475019320  0.5000000000000000
  0.8368667524980680  0.1631332475019320  0.5000000000000000
  0.5000000000000000  0.1662364723915104  0.5000000000000000
  0.0000000000000000  0.3313344507283986  0.5000000000000000
  0.3251632993063680  0.3251632993063680  0.5000000000000000
  0.6748367006936320  0.3251632993063680  0.5000000000000000
  0.1662364723915104  0.5000000000000000  0.5000000000000000
  0.5000000000000000  0.5000000000000000  0.5000000000000000
  0.8337635276084896  0.5000000000000000  0.5000000000000000
  0.3251632993063680  0.6748367006936320  0.5000000000000000
  0.6748367006936320  0.6748367006936320  0.5000000000000000
  0.0000000000000000  0.6686655492716014  0.5000000000000000
  0.5000000000000000  0.8337635276084896  0.5000000000000000
  0.1631332475019320  0.8368667524980680  0.5000000000000000
  0.8368667524980680  0.8368667524980680  0.5000000000000000
  0.1639254520743165  0.0000000000000000  0.6765017951304557
  0.8360745479256835  0.0000000000000000  0.6765017951304557
  0.0000000000000000  0.1639254520743165  0.6765017951304557
  0.0000000000000000  0.8360745479256835  0.6765017951304557
  0.5000000000000000  0.3251632993063680  0.6748367006936320
  0.3251632993063680  0.5000000000000000  0.6748367006936320
  0.6748367006936320  0.5000000000000000  0.6748367006936320
  0.5000000000000000  0.6748367006936320  0.6748367006936320
  0.5000000000000000  0.0000000000000000  0.6686655492716014
  0.0000000000000000  0.5000000000000000  0.6686655492716014
  0.3234982048695443  0.0000000000000000  0.8360745479256835
  0.6765017951304557  0.0000000000000000  0.8360745479256835
  0.0000000000000000  0.3234982048695443  0.8360745479256835
  0.0000000000000000  0.6765017951304557  0.8360745479256835
  0.5000000000000000  0.5000000000000000  0.8337635276084896
  0.5000000000000000  0.1631332475019320  0.8368667524980680
  0.1631332475019320  0.5000000000000000  0.8368667524980680
  0.8368667524980680  0.5000000000000000  0.8368667524980680
  0.5000000000000000  0.8368667524980680  0.8368667524980680
  0.1530043032202713  0.0000000000000000  0.0000000000000000
  0.5000000000000000  0.0000000000000000  0.0000000000000000
  0.8469956967797287  0.0000000000000000  0.0000000000000000
  0.0000000000000000  0.1530043032202713  0.0000000000000000
  0.0000000000000000  0.5000000000000000  0.0000000000000000
  0.0000000000000000  0.8469956967797287  0.0000000000000000
  0.3168010650549817  0.3168010650549817  0.1733595073641183
  0.6831989349450183  0.3168010650549817  0.1733595073641183
  0.3168010650549817  0.6831989349450183  0.1733595073641183
  0.6831989349450183  0.6831989349450183  0.1733595073641183
  0.1680566620267925  0.1680566620267925  0.1680566620267925
  0.8319433379732075  0.1680566620267925  0.1680566620267925
  0.1680566620267925  0.8319433379732075  0.1680566620267925
  0.8319433379732075  0.8319433379732075  0.1680566620267925
  0.0000000000000000  0.0000000000000000  0.1530043032202713
  0.3168010650549817  0.1733595073641183  0.3168010650549817
  0.6831989349450183  0.1733595073641183  0.3168010650549817
  0.1733595073641183  0.3168010650549817  0.3168010650549817
  0.8266404926358817  0.3168010650549817  0.3168010650549817
  0.1733595073641183  0.6831989349450183  0.3168010650549817
  0.8266404926358817  0.6831989349450183  0.3168010650549817
  0.3168010650549817  0.8266404926358817  0.3168010650549817
  0.6831989349450183  0.8266404926358817  0.3168010650549817
  0.0000000000000000  0.0000000000000000  0.5000000000000000
  0.3168010650549817  0.1733595073641183  0.6831989349450183
  0.6831989349450183  0.1733595073641183  0.6831989349450183
  0.1733595073641183  0.3168010650549817  0.6831989349450183
  0.8266404926358817  0.3168010650549817  0.6831989349450183
  0.1733595073641183  0.6831989349450183  0.6831989349450183
  0.8266404926358817  0.6831989349450183  0.6831989349450183
  0.3168010650549817  0.8266404926358817  0.6831989349450183
  0.6831989349450183  0.8266404926358817  0.6831989349450183
  0.0000000000000000  0.0000000000000000  0.8469956967797287
  0.1680566620267925  0.1680566620267925  0.8319433379732075
  0.8319433379732075  0.1680566620267925  0.8319433379732075
  0.1680566620267925  0.8319433379732075  0.8319433379732075
  0.8319433379732075  0.8319433379732075  0.8319433379732075
  0.3168010650549817  0.3168010650549817  0.8266404926358817
  0.6831989349450183  0.3168010650549817  0.8266404926358817
  0.3168010650549817  0.6831989349450183  0.8266404926358817
  0.6831989349450183  0.6831989349450183  0.8266404926358817
 
  0.00000000E+00  0.00000000E+00  0.00000000E+00
  0.00000000E+00  0.00000000E+00  0.00000000E+00
  0.00000000E+00  0.00000000E+00  0.00000000E+00
  0.00000000E+00  0.00000000E+00  0.00000000E+00
  0.00000000E+00  0.00000000E+00  0.00000000E+00
  0.00000000E+00  0.00000000E+00  0.00000000E+00
  0.00000000E+00  0.00000000E+00  0.00000000E+00
  0.00000000E+00  0.00000000E+00  0.00000000E+00
  0.00000000E+00  0.00000000E+00  0.00000000E+00
  0.00000000E+00  0.00000000E+00  0.00000000E+00
  0.00000000E+00  0.00000000E+00  0.00000000E+00
  0.00000000E+00  0.00000000E+00  0.00000000E+00
  0.00000000E+00  0.00000000E+00  0.00000000E+00
  0.00000000E+00  0.00000000E+00  0.00000000E+00
  0.00000000E+00  0.00000000E+00  0.00000000E+00
  0.00000000E+00  0.00000000E+00  0.00000000E+00
  0.00000000E+00  0.00000000E+00  0.00000000E+00
  0.00000000E+00  0.00000000E+00  0.00000000E+00
  0.00000000E+00  0.00000000E+00  0.00000000E+00
  0.00000000E+00  0.00000000E+00  0.00000000E+00
  0.00000000E+00  0.00000000E+00  0.00000000E+00
  0.00000000E+00  0.00000000E+00  0.00000000E+00
  0.00000000E+00  0.00000000E+00  0.00000000E+00
  0.00000000E+00  0.00000000E+00  0.00000000E+00
  0.00000000E+00  0.00000000E+00  0.00000000E+00
  0.00000000E+00  0.00000000E+00  0.00000000E+00
  0.00000000E+00  0.00000000E+00  0.00000000E+00
  0.00000000E+00  0.00000000E+00  0.00000000E+00
  0.00000000E+00  0.00000000E+00  0.00000000E+00
  0.00000000E+00  0.00000000E+00  0.00000000E+00
  0.00000000E+00  0.00000000E+00  0.00000000E+00
  0.00000000E+00  0.00000000E+00  0.00000000E+00
  0.00000000E+00  0.00000000E+00  0.00000000E+00
  0.00000000E+00  0.00000000E+00  0.00000000E+00
  0.00000000E+00  0.00000000E+00  0.00000000E+00
  0.00000000E+00  0.00000000E+00  0.00000000E+00
  0.00000000E+00  0.00000000E+00  0.00000000E+00
  0.00000000E+00  0.00000000E+00  0.00000000E+00
  0.00000000E+00  0.00000000E+00  0.00000000E+00
  0.00000000E+00  0.00000000E+00  0.00000000E+00
  0.00000000E+00  0.00000000E+00  0.00000000E+00
  0.00000000E+00  0.00000000E+00  0.00000000E+00
  0.00000000E+00  0.00000000E+00  0.00000000E+00
  0.00000000E+00  0.00000000E+00  0.00000000E+00
  0.00000000E+00  0.00000000E+00  0.00000000E+00
  0.00000000E+00  0.00000000E+00  0.00000000E+00
  0.00000000E+00  0.00000000E+00  0.00000000E+00
  0.00000000E+00  0.00000000E+00  0.00000000E+00
  0.00000000E+00  0.00000000E+00  0.00000000E+00
  0.00000000E+00  0.00000000E+00  0.00000000E+00
  0.00000000E+00  0.00000000E+00  0.00000000E+00
  0.00000000E+00  0.00000000E+00  0.00000000E+00
  0.00000000E+00  0.00000000E+00  0.00000000E+00
  0.00000000E+00  0.00000000E+00  0.00000000E+00
  0.00000000E+00  0.00000000E+00  0.00000000E+00
  0.00000000E+00  0.00000000E+00  0.00000000E+00
  0.00000000E+00  0.00000000E+00  0.00000000E+00
  0.00000000E+00  0.00000000E+00  0.00000000E+00
  0.00000000E+00  0.00000000E+00  0.00000000E+00
  0.00000000E+00  0.00000000E+00  0.00000000E+00
  0.00000000E+00  0.00000000E+00  0.00000000E+00
  0.00000000E+00  0.00000000E+00  0.00000000E+00
  0.00000000E+00  0.00000000E+00  0.00000000E+00
  0.00000000E+00  0.00000000E+00  0.00000000E+00
  0.00000000E+00  0.00000000E+00  0.00000000E+00
  0.00000000E+00  0.00000000E+00  0.00000000E+00
  0.00000000E+00  0.00000000E+00  0.00000000E+00
  0.00000000E+00  0.00000000E+00  0.00000000E+00
  0.00000000E+00  0.00000000E+00  0.00000000E+00
  0.00000000E+00  0.00000000E+00  0.00000000E+00
  0.00000000E+00  0.00000000E+00  0.00000000E+00
  0.00000000E+00  0.00000000E+00  0.00000000E+00
  0.00000000E+00  0.00000000E+00  0.00000000E+00
  0.00000000E+00  0.00000000E+00  0.00000000E+00
  0.00000000E+00  0.00000000E+00  0.00000000E+00
  0.00000000E+00  0.00000000E+00  0.00000000E+00
  0.00000000E+00  0.00000000E+00  0.00000000E+00
  0.00000000E+00  0.00000000E+00  0.00000000E+00
  0.00000000E+00  0.00000000E+00  0.00000000E+00
  0.00000000E+00  0.00000000E+00  0.00000000E+00
  0.00000000E+00  0.00000000E+00  0.00000000E+00
  0.00000000E+00  0.00000000E+00  0.00000000E+00
  0.00000000E+00  0.00000000E+00  0.00000000E+00
  0.00000000E+00  0.00000000E+00  0.00000000E+00
  0.00000000E+00  0.00000000E+00  0.00000000E+00
  0.00000000E+00  0.00000000E+00  0.00000000E+00
  0.00000000E+00  0.00000000E+00  0.00000000E+00
  0.00000000E+00  0.00000000E+00  0.00000000E+00
  0.00000000E+00  0.00000000E+00  0.00000000E+00
  0.00000000E+00  0.00000000E+00  0.00000000E+00
  0.00000000E+00  0.00000000E+00  0.00000000E+00
  0.00000000E+00  0.00000000E+00  0.00000000E+00
  0.00000000E+00  0.00000000E+00  0.00000000E+00
  0.00000000E+00  0.00000000E+00  0.00000000E+00
  0.00000000E+00  0.00000000E+00  0.00000000E+00
  0.00000000E+00  0.00000000E+00  0.00000000E+00
  0.00000000E+00  0.00000000E+00  0.00000000E+00
  0.00000000E+00  0.00000000E+00  0.00000000E+00
  0.00000000E+00  0.00000000E+00  0.00000000E+00
  0.00000000E+00  0.00000000E+00  0.00000000E+00
  0.00000000E+00  0.00000000E+00  0.00000000E+00
  0.00000000E+00  0.00000000E+00  0.00000000E+00
  0.00000000E+00  0.00000000E+00  0.00000000E+00
  0.00000000E+00  0.00000000E+00  0.00000000E+00
  0.00000000E+00  0.00000000E+00  0.00000000E+00
  0.00000000E+00  0.00000000E+00  0.00000000E+00
  0.00000000E+00  0.00000000E+00  0.00000000E+00
  0.00000000E+00  0.00000000E+00  0.00000000E+00
