Be4 B4 I20                              
   1.0000000000000000     
     0.0000000000000000   11.1497088737435384    0.3815993539095096
    15.1484998900668764    0.0000000000000000    0.0000000000000000
     0.0000000000000000   -0.6859593144925007   -9.3716391024692456
   Be   B    I 
     4     4    20
Direct
  0.5368612368038157  0.4009141407170276  0.4474116996182360
  0.4631387631961772  0.9009141407170276  0.5525883003817640
  0.0353328008649711  0.0801584610582040  0.0488375386582902
  0.9646671991350289  0.5801584610582040  0.9511624613417098
  0.6632818101032996  0.6847187986816508  0.0656821252731561
  0.3367181898967004  0.1847187986816508  0.9343178747268510
  0.1328452071052553  0.8458437884167864  0.4116109723072086
  0.8671547928947518  0.3458437884167793  0.5883890276927914
  0.2701602044436697  0.9505149378300217  0.4131666105996956
  0.3921312372532455  0.4914219409395244  0.5127455257475333
  0.6078687627467545  0.9914219409395244  0.4872544742524596
  0.8234854454030014  0.7097219989994485  0.9552913632907618
  0.9207095663291298  0.4524875922466265  0.0519263105243439
  0.4295695691942143  0.0642450216285297  0.9596184365831490
  0.8194741102439806  0.2167092806127400  0.6406176747501178
  0.6118560987604553  0.7893859774263845  0.1947824815405355
  0.0792904336708702  0.9524875922466407  0.9480736894756561
  0.9595462813323223  0.8843913517512476  0.4550913711733529
  0.5704304308057857  0.5642450216285368  0.0403815634168510
  0.7298397955563374  0.4505149378300288  0.5868333894002973
  0.4521144419208341  0.7926029589428296  0.7112862754432498
  0.8829313923878956  0.1344827307489851  0.1598482585798067
  0.0404537186676919  0.3843913517512405  0.5449086288266471
  0.1805258897560265  0.7167092806127400  0.3593823252498751
  0.1765145545969844  0.2097219989994414  0.0447086367092311
  0.1170686076121044  0.6344827307489851  0.8401517414201862
  0.3881439012395447  0.2893859774263916  0.8052175184594645
  0.5478855580791659  0.2926029589428296  0.2887137245567430

  0.00000000E+00  0.00000000E+00  0.00000000E+00
  0.00000000E+00  0.00000000E+00  0.00000000E+00
  0.00000000E+00  0.00000000E+00  0.00000000E+00
  0.00000000E+00  0.00000000E+00  0.00000000E+00
  0.00000000E+00  0.00000000E+00  0.00000000E+00
  0.00000000E+00  0.00000000E+00  0.00000000E+00
  0.00000000E+00  0.00000000E+00  0.00000000E+00
  0.00000000E+00  0.00000000E+00  0.00000000E+00
  0.00000000E+00  0.00000000E+00  0.00000000E+00
  0.00000000E+00  0.00000000E+00  0.00000000E+00
  0.00000000E+00  0.00000000E+00  0.00000000E+00
  0.00000000E+00  0.00000000E+00  0.00000000E+00
  0.00000000E+00  0.00000000E+00  0.00000000E+00
  0.00000000E+00  0.00000000E+00  0.00000000E+00
  0.00000000E+00  0.00000000E+00  0.00000000E+00
  0.00000000E+00  0.00000000E+00  0.00000000E+00
  0.00000000E+00  0.00000000E+00  0.00000000E+00
  0.00000000E+00  0.00000000E+00  0.00000000E+00
  0.00000000E+00  0.00000000E+00  0.00000000E+00
  0.00000000E+00  0.00000000E+00  0.00000000E+00
  0.00000000E+00  0.00000000E+00  0.00000000E+00
  0.00000000E+00  0.00000000E+00  0.00000000E+00
  0.00000000E+00  0.00000000E+00  0.00000000E+00
  0.00000000E+00  0.00000000E+00  0.00000000E+00
  0.00000000E+00  0.00000000E+00  0.00000000E+00
  0.00000000E+00  0.00000000E+00  0.00000000E+00
  0.00000000E+00  0.00000000E+00  0.00000000E+00
  0.00000000E+00  0.00000000E+00  0.00000000E+00
