Be4 Al2 Br10                            
   1.00000000000000     
     8.8106883348714469   -4.4993588463616598   -0.8419216746464817
     8.8400111709004356    4.5492655656937293   -0.8296910106025962
    -5.4363752614254386   -0.0031148384588336    8.4888692163779726
   Br   Al   Be
    10     2     4
Direct
  0.5037286696933521  0.9821138450094082  0.0294860708291367
  0.0682375230476637  0.1655268291361125  0.0369900585811180
  0.5049052669426075  0.7443097465863460  0.2011793210232042
  0.3305456636810717  0.4297301945694940  0.2938389157479122
  0.7791327918167141  0.9923053242141222  0.4594561418980589
  0.9806767603765891  0.5051022180483784  0.5302811479842049
  0.1688583084444275  0.0709080155643278  0.5381442181783882
  0.7460747323489159  0.5024954424442285  0.7033745273312419
  0.4320857116395374  0.3342342453410154  0.7946818531736426
  0.9920250041199736  0.7785508111056814  0.9599978125045183
  0.7555661173235038  0.2408871848418386  0.3679097699017504
  0.2399679357459945  0.7555990069624414  0.8663494813888235
  0.6041993529896317  0.8984377526919616  0.2369220134100871
  0.2830441028641744  0.2109205307934374  0.1212341126424477
  0.8987025789965486  0.6034612747412353  0.7383840001524504
  0.2125494799692902  0.2857175779499812  0.6220705552530106
 
  0.00000000E+00  0.00000000E+00  0.00000000E+00
  0.00000000E+00  0.00000000E+00  0.00000000E+00
  0.00000000E+00  0.00000000E+00  0.00000000E+00
  0.00000000E+00  0.00000000E+00  0.00000000E+00
  0.00000000E+00  0.00000000E+00  0.00000000E+00
  0.00000000E+00  0.00000000E+00  0.00000000E+00
  0.00000000E+00  0.00000000E+00  0.00000000E+00
  0.00000000E+00  0.00000000E+00  0.00000000E+00
  0.00000000E+00  0.00000000E+00  0.00000000E+00
  0.00000000E+00  0.00000000E+00  0.00000000E+00
  0.00000000E+00  0.00000000E+00  0.00000000E+00
  0.00000000E+00  0.00000000E+00  0.00000000E+00
  0.00000000E+00  0.00000000E+00  0.00000000E+00
  0.00000000E+00  0.00000000E+00  0.00000000E+00
  0.00000000E+00  0.00000000E+00  0.00000000E+00
  0.00000000E+00  0.00000000E+00  0.00000000E+00
