In10 F18                                
   1.00000000000000     
    -0.1783591508068061   -6.2935030060109209    4.1079607502429329
     5.8726325870712790   -3.4352369990256526   -4.5375210973095292
     5.3132182554759053    3.2925343714514681    4.1322071666736129
   F    In
    18    10
Direct
  0.1472447129635768  0.0644896269638409  0.0761810595795893
  0.8688270709193731  0.2679475807207226  0.1179100893797198
  0.3738489691514815  0.7753854165592386  0.1663378747219753
  0.4757182938768665  0.4475613766454174  0.3326037530117105
  0.1195625005225196  0.5808278437098053  0.2271086524234462
  0.8260618916960141  0.8133238465861297  0.2486143001537329
  0.1579846103852915  0.8652170807660440  0.4142953976361170
  0.8198492292125934  0.4606362916316726  0.4086406248931169
  0.5385275405966539  0.8347112818262019  0.4854258883518554
  0.4614790483849873  0.1652944127115816  0.5145813257360246
  0.1801559387141580  0.5393707279341271  0.5913666623297331
  0.8420237148974863  0.1347911153623684  0.5857112134194580
  0.1739462381983117  0.1866825145414381  0.7513920553338593
  0.8804435588587509  0.4191803821693085  0.7728979153978699
  0.5242864335051109  0.5524443383083550  0.6674044483981305
  0.6261584393151409  0.2246206891732712  0.8336693844557459
  0.1311809149125054  0.7320618627386395  0.8820959617132544
  0.8527644770546132  0.9355192357472859  0.9238272284886122
  0.7103184487442817  0.5297956681612490  0.0922991279505823
  0.0670184283299875  0.8263844990307376  0.1267612107584952
  0.5689933661166435  0.0196265759158791  0.2234571682737396
  0.3471989044579971  0.6585859746734428  0.4275697089386341
  0.1134671362261415  0.2590219785844852  0.3942894457647199
  0.8865401838597720  0.7409838649295537  0.6057175009428590
  0.6528069376252930  0.3414204110617760  0.5724376208277349
  0.4310149211514442  0.9803792698927651  0.7765503312304318
  0.9329899879202301  0.1736240913253582  0.8732455011571645
  0.2896881024027849  0.4702120423292655  0.9077085487316907
 
  0.00000000E+00  0.00000000E+00  0.00000000E+00
  0.00000000E+00  0.00000000E+00  0.00000000E+00
  0.00000000E+00  0.00000000E+00  0.00000000E+00
  0.00000000E+00  0.00000000E+00  0.00000000E+00
  0.00000000E+00  0.00000000E+00  0.00000000E+00
  0.00000000E+00  0.00000000E+00  0.00000000E+00
  0.00000000E+00  0.00000000E+00  0.00000000E+00
  0.00000000E+00  0.00000000E+00  0.00000000E+00
  0.00000000E+00  0.00000000E+00  0.00000000E+00
  0.00000000E+00  0.00000000E+00  0.00000000E+00
  0.00000000E+00  0.00000000E+00  0.00000000E+00
  0.00000000E+00  0.00000000E+00  0.00000000E+00
  0.00000000E+00  0.00000000E+00  0.00000000E+00
  0.00000000E+00  0.00000000E+00  0.00000000E+00
  0.00000000E+00  0.00000000E+00  0.00000000E+00
  0.00000000E+00  0.00000000E+00  0.00000000E+00
  0.00000000E+00  0.00000000E+00  0.00000000E+00
  0.00000000E+00  0.00000000E+00  0.00000000E+00
  0.00000000E+00  0.00000000E+00  0.00000000E+00
  0.00000000E+00  0.00000000E+00  0.00000000E+00
  0.00000000E+00  0.00000000E+00  0.00000000E+00
  0.00000000E+00  0.00000000E+00  0.00000000E+00
  0.00000000E+00  0.00000000E+00  0.00000000E+00
  0.00000000E+00  0.00000000E+00  0.00000000E+00
  0.00000000E+00  0.00000000E+00  0.00000000E+00
  0.00000000E+00  0.00000000E+00  0.00000000E+00
  0.00000000E+00  0.00000000E+00  0.00000000E+00
  0.00000000E+00  0.00000000E+00  0.00000000E+00
