Ca2Cl3                                  
   1.00000000000000     
    -7.3049242261335676   -0.0034423824070017   -0.0111391180096171
     3.6494769327130219   -6.3287766252281452    0.0107356808004317
    -3.6417658672396702    2.1035825506088486    5.9633183523769668
   Ca   Cl
     4     6
Direct
  0.6468031210543685  0.3517636623537328  0.0583299651270792
  0.8518851743522191  0.1468335021981986  0.4416548437932164
  0.1480364679041131  0.8531256114107748  0.5584478051849828
  0.3531342783254985  0.6481397329363077  0.9417785847643145
  0.9488261813029197  0.4488273548617201  0.2500328207665135
  0.5515005253156247  0.7485939628065665  0.2512010921416064
  0.2486591874481903  0.0515478465884343  0.2489957652305677
  0.7512057017768896  0.9483417653766324  0.7510783412766244
  0.4484153017704315  0.2513048699952307  0.7489138108587454
  0.0511340607497530  0.5511216914723960  0.7500669708563521
 
  0.00000000E+00  0.00000000E+00  0.00000000E+00
  0.00000000E+00  0.00000000E+00  0.00000000E+00
  0.00000000E+00  0.00000000E+00  0.00000000E+00
  0.00000000E+00  0.00000000E+00  0.00000000E+00
  0.00000000E+00  0.00000000E+00  0.00000000E+00
  0.00000000E+00  0.00000000E+00  0.00000000E+00
  0.00000000E+00  0.00000000E+00  0.00000000E+00
  0.00000000E+00  0.00000000E+00  0.00000000E+00
  0.00000000E+00  0.00000000E+00  0.00000000E+00
  0.00000000E+00  0.00000000E+00  0.00000000E+00
