Ba10 Al6 Cl38                           
   1.00000000000000     
    -8.9756900418821068    8.9756901140877332    4.6623349165370236
     8.9756900418821068   -8.9756901140877332    4.6623349165370236
     8.9756901140877332    8.9756900418821068   -4.6623349165370236
   Ba   Al   Cl
    10     6    38
Direct
  0.7856296999510519  0.0473782055346419  0.8330079054856938
  0.2143703000489481  0.9526217944653581  0.1669920945143062
  0.0473782055346419  0.2143703000489481  0.2617485055835900
  0.9526217944653581  0.7856296999510519  0.7382514944164100
  0.5685265849538439  0.2488409539649581  0.8173675389188020
  0.4314734150461561  0.7511590460350419  0.1826324610811980
  0.2488409539649581  0.4314734150461561  0.6803143690111142
  0.7511590460350419  0.5685265849538439  0.3196856309888858
  0.7500000000000000  0.2500000000000000  0.5000000000000000
  0.2500000000000000  0.7500000000000000  0.5000000000000000
  0.8200752643403959  0.3417354630663070  0.1618097274066983
  0.1799247356596041  0.6582645369336930  0.8381902725933017
  0.3417354630663070  0.1799247356596041  0.5216601987259182
  0.6582645369336930  0.8200752643403959  0.4783398012740818
  0.7476415077177521  0.7476415077177521  0.0000000000000000
  0.2523584922822479  0.2523584922822479  0.0000000000000000
  0.4273646771117470  0.7723617003272949  0.8551804332552422
  0.5726353228882530  0.2276382996727051  0.1448195667447578
  0.9171802670720623  0.5721842438565048  0.1448195667447578
  0.7723617003272949  0.9171802670720623  0.3449970232155550
  0.0828197329279377  0.4278157561434952  0.8551804332552422
  0.2276382996727051  0.0828197329279377  0.6550029767844450
  0.5721842438565048  0.4273646771117470  0.6550029767844450
  0.4278157561434952  0.5726353228882530  0.3449970232155550
  0.7082303038934867  0.8784960820970014  0.0659944770784762
  0.2917696961065133  0.1215039179029986  0.9340055229215309
  0.8125016050185323  0.6422358268150177  0.9340055229215309
  0.8784960820970014  0.8125016050185323  0.1702657782035217
  0.1874983949814677  0.3577641731849823  0.0659944770784762
  0.1215039179029986  0.1874983949814677  0.8297342217964783
  0.6422358268150177  0.7082303038934867  0.8297342217964783
  0.3577641731849823  0.2917696961065133  0.1702657782035217
  0.6207884502401484  0.0751902297014411  0.6959786799415895
  0.3792115497598516  0.9248097702985589  0.3040213200584105
  0.0751902297014411  0.3792115497598516  0.4544017794612927
  0.9248097702985589  0.6207884502401484  0.5455982205387073
  0.0000000000000000  0.0000000000000000  0.0000000000000000
  0.8898269190988444  0.4537248020795630  0.3435517211784145
  0.1101730809011556  0.5462751979204370  0.6564482788215855
  0.4537248020795630  0.1101730809011556  0.5638968829807212
  0.5462751979204370  0.8898269190988444  0.4361031170192788
  0.7309356936705242  0.1232726044571066  0.2036715189271590
  0.2690643063294758  0.8767273955428934  0.7963284810728410
  0.9196010855299406  0.5272641747433582  0.7963284810728410
  0.1232726044571066  0.9196010855299406  0.3923379107865870
  0.0803989144700594  0.4727358252566418  0.2036715189271590
  0.8767273955428934  0.0803989144700594  0.6076620892134130
  0.5272641747433582  0.7309356936705242  0.6076620892134130
  0.4727358252566418  0.2690643063294758  0.3923379107865870
  0.7517448064223657  0.2342851028530433  0.9860299092754161
  0.2482551935776343  0.7657148971469567  0.0139700907245839
  0.2342851028530433  0.2482551935776343  0.4825402964306775
  0.7657148971469567  0.7517448064223657  0.5174597035693225
  0.5000000000000000  0.5000000000000000  0.0000000000000000
 
  0.00000000E+00  0.00000000E+00  0.00000000E+00
  0.00000000E+00  0.00000000E+00  0.00000000E+00
  0.00000000E+00  0.00000000E+00  0.00000000E+00
  0.00000000E+00  0.00000000E+00  0.00000000E+00
  0.00000000E+00  0.00000000E+00  0.00000000E+00
  0.00000000E+00  0.00000000E+00  0.00000000E+00
  0.00000000E+00  0.00000000E+00  0.00000000E+00
  0.00000000E+00  0.00000000E+00  0.00000000E+00
  0.00000000E+00  0.00000000E+00  0.00000000E+00
  0.00000000E+00  0.00000000E+00  0.00000000E+00
  0.00000000E+00  0.00000000E+00  0.00000000E+00
  0.00000000E+00  0.00000000E+00  0.00000000E+00
  0.00000000E+00  0.00000000E+00  0.00000000E+00
  0.00000000E+00  0.00000000E+00  0.00000000E+00
  0.00000000E+00  0.00000000E+00  0.00000000E+00
  0.00000000E+00  0.00000000E+00  0.00000000E+00
  0.00000000E+00  0.00000000E+00  0.00000000E+00
  0.00000000E+00  0.00000000E+00  0.00000000E+00
  0.00000000E+00  0.00000000E+00  0.00000000E+00
  0.00000000E+00  0.00000000E+00  0.00000000E+00
  0.00000000E+00  0.00000000E+00  0.00000000E+00
  0.00000000E+00  0.00000000E+00  0.00000000E+00
  0.00000000E+00  0.00000000E+00  0.00000000E+00
  0.00000000E+00  0.00000000E+00  0.00000000E+00
  0.00000000E+00  0.00000000E+00  0.00000000E+00
  0.00000000E+00  0.00000000E+00  0.00000000E+00
  0.00000000E+00  0.00000000E+00  0.00000000E+00
  0.00000000E+00  0.00000000E+00  0.00000000E+00
  0.00000000E+00  0.00000000E+00  0.00000000E+00
  0.00000000E+00  0.00000000E+00  0.00000000E+00
  0.00000000E+00  0.00000000E+00  0.00000000E+00
  0.00000000E+00  0.00000000E+00  0.00000000E+00
  0.00000000E+00  0.00000000E+00  0.00000000E+00
  0.00000000E+00  0.00000000E+00  0.00000000E+00
  0.00000000E+00  0.00000000E+00  0.00000000E+00
  0.00000000E+00  0.00000000E+00  0.00000000E+00
  0.00000000E+00  0.00000000E+00  0.00000000E+00
  0.00000000E+00  0.00000000E+00  0.00000000E+00
  0.00000000E+00  0.00000000E+00  0.00000000E+00
  0.00000000E+00  0.00000000E+00  0.00000000E+00
  0.00000000E+00  0.00000000E+00  0.00000000E+00
  0.00000000E+00  0.00000000E+00  0.00000000E+00
  0.00000000E+00  0.00000000E+00  0.00000000E+00
  0.00000000E+00  0.00000000E+00  0.00000000E+00
  0.00000000E+00  0.00000000E+00  0.00000000E+00
  0.00000000E+00  0.00000000E+00  0.00000000E+00
  0.00000000E+00  0.00000000E+00  0.00000000E+00
  0.00000000E+00  0.00000000E+00  0.00000000E+00
  0.00000000E+00  0.00000000E+00  0.00000000E+00
  0.00000000E+00  0.00000000E+00  0.00000000E+00
  0.00000000E+00  0.00000000E+00  0.00000000E+00
  0.00000000E+00  0.00000000E+00  0.00000000E+00
  0.00000000E+00  0.00000000E+00  0.00000000E+00
  0.00000000E+00  0.00000000E+00  0.00000000E+00
