Be13 B16                                
   1.00000000000000     
    -3.8199636839950726   -3.8199636839950721    3.8199636839950730
    -3.8199636839950726    3.8199636839950721   -3.8199636839950730
     3.8199636839950726   -3.8199636839950717   -3.8199636839950726
   B    Be
    16    13
Direct
  0.7183912280348750  0.0000000000000000  0.0000000000000000
  0.3304459023136630  0.1666228672932988  0.0000000000000000
  0.1666228672932988  0.3304459023136630  0.0000000000000000
  0.0000000000000000  0.7183912280348750  0.0000000000000000
  0.8333771327067012  0.8333771327067012  0.1638230350203500
  0.3304459023136630  0.0000000000000000  0.1666228672932988
  0.0000000000000000  0.3304459023136630  0.1666228672932988
  0.2816087719651250  0.2816087719651250  0.2816087719651250
  0.1666228672932988  0.0000000000000000  0.3304459023136630
  0.0000000000000000  0.1666228672932988  0.3304459023136630
  0.8361769649796500  0.6695540976863441  0.6695540976863441
  0.6695540976863441  0.8361769649796500  0.6695540976863441
  0.0000000000000000  0.0000000000000000  0.7183912280348750
  0.8333771327067012  0.1638230350203500  0.8333771327067012
  0.1638230350203500  0.8333771327067012  0.8333771327067012
  0.6695540976863441  0.6695540976863441  0.8361769649796500
  0.0000000000000000  0.0000000000000000  0.0000000000000000
  0.6468725417659229  0.2792313122713992  0.0000000000000000
  0.2792313122713992  0.6468725417659229  0.0000000000000000
  0.7207686877286008  0.7207686877286008  0.3676412294945166
  0.6323587705054834  0.3531274582340771  0.3531274582340771
  0.3531274582340771  0.6323587705054834  0.3531274582340771
  0.6468725417659229  0.0000000000000000  0.2792313122713992
  0.0000000000000000  0.6468725417659229  0.2792313122713992
  0.7207686877286008  0.3676412294945166  0.7207686877286008
  0.3676412294945166  0.7207686877286008  0.7207686877286008
  0.2792313122713992  0.0000000000000000  0.6468725417659229
  0.0000000000000000  0.2792313122713992  0.6468725417659229
  0.3531274582340771  0.3531274582340771  0.6323587705054834
 
  0.00000000E+00  0.00000000E+00  0.00000000E+00
  0.00000000E+00  0.00000000E+00  0.00000000E+00
  0.00000000E+00  0.00000000E+00  0.00000000E+00
  0.00000000E+00  0.00000000E+00  0.00000000E+00
  0.00000000E+00  0.00000000E+00  0.00000000E+00
  0.00000000E+00  0.00000000E+00  0.00000000E+00
  0.00000000E+00  0.00000000E+00  0.00000000E+00
  0.00000000E+00  0.00000000E+00  0.00000000E+00
  0.00000000E+00  0.00000000E+00  0.00000000E+00
  0.00000000E+00  0.00000000E+00  0.00000000E+00
  0.00000000E+00  0.00000000E+00  0.00000000E+00
  0.00000000E+00  0.00000000E+00  0.00000000E+00
  0.00000000E+00  0.00000000E+00  0.00000000E+00
  0.00000000E+00  0.00000000E+00  0.00000000E+00
  0.00000000E+00  0.00000000E+00  0.00000000E+00
  0.00000000E+00  0.00000000E+00  0.00000000E+00
  0.00000000E+00  0.00000000E+00  0.00000000E+00
  0.00000000E+00  0.00000000E+00  0.00000000E+00
  0.00000000E+00  0.00000000E+00  0.00000000E+00
  0.00000000E+00  0.00000000E+00  0.00000000E+00
  0.00000000E+00  0.00000000E+00  0.00000000E+00
  0.00000000E+00  0.00000000E+00  0.00000000E+00
  0.00000000E+00  0.00000000E+00  0.00000000E+00
  0.00000000E+00  0.00000000E+00  0.00000000E+00
  0.00000000E+00  0.00000000E+00  0.00000000E+00
  0.00000000E+00  0.00000000E+00  0.00000000E+00
  0.00000000E+00  0.00000000E+00  0.00000000E+00
  0.00000000E+00  0.00000000E+00  0.00000000E+00
  0.00000000E+00  0.00000000E+00  0.00000000E+00
