Ca2 In2 I6                              
   1.0000000000000000     
     2.2953276454310934   -7.6569775114043352    0.0000000000000000
     2.2953276454310934    7.6569775114043352   -0.0000000000000000
     0.0000000000000000   -0.0000000000000000   11.7317613163801866
   Ca   In   I 
     2     2     6
Direct
  0.0000000000000000  0.0000000000000000  0.0000000000000000
  0.0000000000000000  0.0000000000000000  0.5000000000000000
  0.2598781769840883  0.7401218230159117  0.2500000000000000
  0.7401218230159117  0.2598781769840883  0.7500000000000000
  0.6356949666318954  0.3643050333681046  0.0537330236894320
  0.3643050333681046  0.6356949666318954  0.9462669763105609
  0.3643050333681046  0.6356949666318954  0.5537330236894391
  0.6356949666318954  0.3643050333681046  0.4462669763105609
  0.9243523972028029  0.0756476027971971  0.2500000000000000
  0.0756476027971971  0.9243523972028029  0.7500000000000000

  0.00000000E+00  0.00000000E+00  0.00000000E+00
  0.00000000E+00  0.00000000E+00  0.00000000E+00
  0.00000000E+00  0.00000000E+00  0.00000000E+00
  0.00000000E+00  0.00000000E+00  0.00000000E+00
  0.00000000E+00  0.00000000E+00  0.00000000E+00
  0.00000000E+00  0.00000000E+00  0.00000000E+00
  0.00000000E+00  0.00000000E+00  0.00000000E+00
  0.00000000E+00  0.00000000E+00  0.00000000E+00
  0.00000000E+00  0.00000000E+00  0.00000000E+00
  0.00000000E+00  0.00000000E+00  0.00000000E+00
