Ba6 B33                                 
   1.00000000000000     
     8.2570074275769265    0.0000000000000000    0.0000000000000000
     0.0000000000000000    8.2570074275769247    0.0000000000000000
     0.0000000000000000    0.0000000000000000    8.2570074275769265
   Ba   B 
     6    33
Direct
  0.3021513041232922  0.5000000000000000  0.0000000000000000
  0.6978486958767078  0.5000000000000000  0.0000000000000000
  0.5000000000000000  0.0000000000000000  0.3021513041232922
  0.0000000000000000  0.3021513041232922  0.5000000000000000
  0.0000000000000000  0.6978486958767078  0.5000000000000000
  0.5000000000000000  0.0000000000000000  0.6978486958767078
  0.0000000000000000  0.0000000000000000  0.0000000000000000
  0.1920658970535172  0.1100344127801591  0.0000000000000000
  0.8079341029464828  0.1100344127801591  0.0000000000000000
  0.5000000000000000  0.1023128672490969  0.0000000000000000
  0.5000000000000000  0.8976871327509031  0.0000000000000000
  0.1920658970535172  0.8899655872198409  0.0000000000000000
  0.8079341029464828  0.8899655872198409  0.0000000000000000
  0.0000000000000000  0.1920658970535172  0.1100344127801591
  0.0000000000000000  0.8079341029464828  0.1100344127801591
  0.5000000000000000  0.5000000000000000  0.2607021491538930
  0.1100344127801591  0.0000000000000000  0.1920658970535172
  0.8899655872198409  0.0000000000000000  0.1920658970535172
  0.3822227615829092  0.3822227615829092  0.3822227615829092
  0.6177772384170908  0.3822227615829092  0.3822227615829092
  0.3822227615829092  0.6177772384170908  0.3822227615829092
  0.6177772384170908  0.6177772384170908  0.3822227615829092
  0.0000000000000000  0.5000000000000000  0.1023128672490969
  0.1023128672490969  0.0000000000000000  0.5000000000000000
  0.8976871327509031  0.0000000000000000  0.5000000000000000
  0.5000000000000000  0.2607021491538930  0.5000000000000000
  0.2607021491538930  0.5000000000000000  0.5000000000000000
  0.7392978508461070  0.5000000000000000  0.5000000000000000
  0.5000000000000000  0.7392978508461070  0.5000000000000000
  0.0000000000000000  0.5000000000000000  0.8976871327509031
  0.3822227615829092  0.3822227615829092  0.6177772384170908
  0.6177772384170908  0.3822227615829092  0.6177772384170908
  0.3822227615829092  0.6177772384170908  0.6177772384170908
  0.6177772384170908  0.6177772384170908  0.6177772384170908
  0.1100344127801591  0.0000000000000000  0.8079341029464828
  0.8899655872198409  0.0000000000000000  0.8079341029464828
  0.5000000000000000  0.5000000000000000  0.7392978508461070
  0.0000000000000000  0.1920658970535172  0.8899655872198409
  0.0000000000000000  0.8079341029464828  0.8899655872198409
 
  0.00000000E+00  0.00000000E+00  0.00000000E+00
  0.00000000E+00  0.00000000E+00  0.00000000E+00
  0.00000000E+00  0.00000000E+00  0.00000000E+00
  0.00000000E+00  0.00000000E+00  0.00000000E+00
  0.00000000E+00  0.00000000E+00  0.00000000E+00
  0.00000000E+00  0.00000000E+00  0.00000000E+00
  0.00000000E+00  0.00000000E+00  0.00000000E+00
  0.00000000E+00  0.00000000E+00  0.00000000E+00
  0.00000000E+00  0.00000000E+00  0.00000000E+00
  0.00000000E+00  0.00000000E+00  0.00000000E+00
  0.00000000E+00  0.00000000E+00  0.00000000E+00
  0.00000000E+00  0.00000000E+00  0.00000000E+00
  0.00000000E+00  0.00000000E+00  0.00000000E+00
  0.00000000E+00  0.00000000E+00  0.00000000E+00
  0.00000000E+00  0.00000000E+00  0.00000000E+00
  0.00000000E+00  0.00000000E+00  0.00000000E+00
  0.00000000E+00  0.00000000E+00  0.00000000E+00
  0.00000000E+00  0.00000000E+00  0.00000000E+00
  0.00000000E+00  0.00000000E+00  0.00000000E+00
  0.00000000E+00  0.00000000E+00  0.00000000E+00
  0.00000000E+00  0.00000000E+00  0.00000000E+00
  0.00000000E+00  0.00000000E+00  0.00000000E+00
  0.00000000E+00  0.00000000E+00  0.00000000E+00
  0.00000000E+00  0.00000000E+00  0.00000000E+00
  0.00000000E+00  0.00000000E+00  0.00000000E+00
  0.00000000E+00  0.00000000E+00  0.00000000E+00
  0.00000000E+00  0.00000000E+00  0.00000000E+00
  0.00000000E+00  0.00000000E+00  0.00000000E+00
  0.00000000E+00  0.00000000E+00  0.00000000E+00
  0.00000000E+00  0.00000000E+00  0.00000000E+00
  0.00000000E+00  0.00000000E+00  0.00000000E+00
  0.00000000E+00  0.00000000E+00  0.00000000E+00
  0.00000000E+00  0.00000000E+00  0.00000000E+00
  0.00000000E+00  0.00000000E+00  0.00000000E+00
  0.00000000E+00  0.00000000E+00  0.00000000E+00
  0.00000000E+00  0.00000000E+00  0.00000000E+00
  0.00000000E+00  0.00000000E+00  0.00000000E+00
  0.00000000E+00  0.00000000E+00  0.00000000E+00
  0.00000000E+00  0.00000000E+00  0.00000000E+00
