Mg2 B2 I6                               
   1.00000000000000     
     8.6443986924798804    0.0154463492129223    0.0000000000000000
    -4.3591025466656061    7.4384252491325586    0.0000000000000000
     0.0000000000000000    0.0000000000000000    7.1512763910795609
   I    Mg   B 
     6     2     2
Direct
  0.1486631018883600  0.3176924928019176  0.2500000000000000
  0.1362024350658402  0.8374121650109743  0.2500000000000000
  0.6864800019759727  0.8812324807653127  0.2500000000000000
  0.3135199980240273  0.1187675192346873  0.7500000000000000
  0.8637975649341598  0.1625878349890257  0.7500000000000000
  0.8513368981116400  0.6823075071980824  0.7500000000000000
  0.0000000000000000  0.0000000000000000  0.0000000000000000
  0.0000000000000000  0.0000000000000000  0.5000000000000000
  0.8212427242607205  0.2168867349721069  0.2500000000000000
  0.1787572757392795  0.7831132650278931  0.7500000000000000
 
  0.00000000E+00  0.00000000E+00  0.00000000E+00
  0.00000000E+00  0.00000000E+00  0.00000000E+00
  0.00000000E+00  0.00000000E+00  0.00000000E+00
  0.00000000E+00  0.00000000E+00  0.00000000E+00
  0.00000000E+00  0.00000000E+00  0.00000000E+00
  0.00000000E+00  0.00000000E+00  0.00000000E+00
  0.00000000E+00  0.00000000E+00  0.00000000E+00
  0.00000000E+00  0.00000000E+00  0.00000000E+00
  0.00000000E+00  0.00000000E+00  0.00000000E+00
  0.00000000E+00  0.00000000E+00  0.00000000E+00
