Sr2 In4 F16                             
   1.0000000000000000     
     5.9314373716033781    3.7842563608690516    0.4457762909842152
    -5.9314373716033781    3.7842563608690516    0.4457762909842152
     0.0000000000000000    1.2932880445890638    6.9269726297032133
   Sr   In   F 
     2     4    16
Direct
  0.5522819550418490  0.4477180449581510  0.7500000000000000
  0.4477180449581510  0.5522819550418490  0.2500000000000000
  0.8847515239415031  0.1152484760584969  0.7500000000000000
  0.1152484760584969  0.8847515239415031  0.2500000000000000
  0.5000000000000000  0.0000000000000000  0.5000000000000000
  0.0000000000000000  0.5000000000000000  0.0000000000000000
  0.7403015336454288  0.7890470787964929  0.8450776060983571
  0.2596984663545641  0.2109529212035071  0.1549223939016500
  0.2109529212035071  0.2596984663545641  0.6549223939016429
  0.7890470787964929  0.7403015336454288  0.3450776060983500
  0.5520139398571402  0.0705968935718246  0.7806157624115713
  0.4479860601428598  0.9294031064281754  0.2193842375884145
  0.9294031064281754  0.4479860601428598  0.7193842375884287
  0.0705968935718246  0.5520139398571402  0.2806157624115855
  0.1621801388466579  0.8985382095358787  0.5378077232599665
  0.8378198611533421  0.1014617904641284  0.4621922767400335
  0.1014617904641284  0.8378198611533421  0.9621922767400335
  0.8985382095358787  0.1621801388466579  0.0378077232599665
  0.4252233591139429  0.6805874452059015  0.5585986549742401
  0.5747766408860571  0.3194125547940985  0.4414013450257599
  0.3194125547940985  0.5747766408860571  0.9414013450257599
  0.6805874452059015  0.4252233591139429  0.0585986549742401

  0.00000000E+00  0.00000000E+00  0.00000000E+00
  0.00000000E+00  0.00000000E+00  0.00000000E+00
  0.00000000E+00  0.00000000E+00  0.00000000E+00
  0.00000000E+00  0.00000000E+00  0.00000000E+00
  0.00000000E+00  0.00000000E+00  0.00000000E+00
  0.00000000E+00  0.00000000E+00  0.00000000E+00
  0.00000000E+00  0.00000000E+00  0.00000000E+00
  0.00000000E+00  0.00000000E+00  0.00000000E+00
  0.00000000E+00  0.00000000E+00  0.00000000E+00
  0.00000000E+00  0.00000000E+00  0.00000000E+00
  0.00000000E+00  0.00000000E+00  0.00000000E+00
  0.00000000E+00  0.00000000E+00  0.00000000E+00
  0.00000000E+00  0.00000000E+00  0.00000000E+00
  0.00000000E+00  0.00000000E+00  0.00000000E+00
  0.00000000E+00  0.00000000E+00  0.00000000E+00
  0.00000000E+00  0.00000000E+00  0.00000000E+00
  0.00000000E+00  0.00000000E+00  0.00000000E+00
  0.00000000E+00  0.00000000E+00  0.00000000E+00
  0.00000000E+00  0.00000000E+00  0.00000000E+00
  0.00000000E+00  0.00000000E+00  0.00000000E+00
  0.00000000E+00  0.00000000E+00  0.00000000E+00
  0.00000000E+00  0.00000000E+00  0.00000000E+00
