Mg4 In4 Br20                            
   1.0000000000000000     
    11.0330634177250566    0.0000000000000000    0.0000000000000000
     0.0000000000000000    8.4129457363060016    0.0012619987436903
     0.0000000000000000    5.0808078071425982   12.4339178193079203
   Mg   In   Br
     4     4    20
Direct
  0.9079810347043917  0.5186601412160030  0.3910265195377036
  0.4079810347043917  0.4813398587839970  0.1089734804622893
  0.0920189652956083  0.4813398587839970  0.6089734804622893
  0.5920189652956083  0.5186601412160030  0.8910265195377107
  0.8463957327142921  0.0832673535584689  0.7280070936098113
  0.3463957327142992  0.9167326464415311  0.7719929063901887
  0.1536042672857008  0.9167326464415311  0.2719929063901887
  0.6536042672857079  0.0832673535584689  0.2280070936098113
  0.5774619894137416  0.7342858206013005  0.4202671346828879
  0.0774619894137416  0.2657141793986995  0.0797328653171121
  0.4225380105862584  0.2657141793986995  0.5797328653171192
  0.9225380105862584  0.7342858206013005  0.9202671346828808
  0.8038472112243440  0.2439019977202364  0.4011665508051294
  0.3038472112243440  0.7560980022797636  0.0988334491948706
  0.1961527887756560  0.7560980022797636  0.5988334491948706
  0.6961527887756560  0.2439019977202364  0.9011665508051294
  0.5475269405282432  0.2581960370431133  0.7318110518453338
  0.0475269405282361  0.7418039629568867  0.7681889481546662
  0.4524730594717568  0.7418039629568867  0.2681889481546662
  0.9524730594717568  0.2581960370431133  0.2318110518453338
  0.6053016060981733  0.7863825346241384  0.7294755822384573
  0.1053016060981733  0.2136174653758616  0.7705244177615427
  0.3946983939018267  0.2136174653758616  0.2705244177615498
  0.8946983939018267  0.7863825346241384  0.2294755822384502
  0.3643706270129385  0.4552637641652808  0.9285729527464355
  0.8643706270129385  0.5447362358347192  0.5714270472535645
  0.6356293729870615  0.5447362358347192  0.0714270472535645
  0.1356293729870615  0.4552637641652808  0.4285729527464355

  0.00000000E+00  0.00000000E+00  0.00000000E+00
  0.00000000E+00  0.00000000E+00  0.00000000E+00
  0.00000000E+00  0.00000000E+00  0.00000000E+00
  0.00000000E+00  0.00000000E+00  0.00000000E+00
  0.00000000E+00  0.00000000E+00  0.00000000E+00
  0.00000000E+00  0.00000000E+00  0.00000000E+00
  0.00000000E+00  0.00000000E+00  0.00000000E+00
  0.00000000E+00  0.00000000E+00  0.00000000E+00
  0.00000000E+00  0.00000000E+00  0.00000000E+00
  0.00000000E+00  0.00000000E+00  0.00000000E+00
  0.00000000E+00  0.00000000E+00  0.00000000E+00
  0.00000000E+00  0.00000000E+00  0.00000000E+00
  0.00000000E+00  0.00000000E+00  0.00000000E+00
  0.00000000E+00  0.00000000E+00  0.00000000E+00
  0.00000000E+00  0.00000000E+00  0.00000000E+00
  0.00000000E+00  0.00000000E+00  0.00000000E+00
  0.00000000E+00  0.00000000E+00  0.00000000E+00
  0.00000000E+00  0.00000000E+00  0.00000000E+00
  0.00000000E+00  0.00000000E+00  0.00000000E+00
  0.00000000E+00  0.00000000E+00  0.00000000E+00
  0.00000000E+00  0.00000000E+00  0.00000000E+00
  0.00000000E+00  0.00000000E+00  0.00000000E+00
  0.00000000E+00  0.00000000E+00  0.00000000E+00
  0.00000000E+00  0.00000000E+00  0.00000000E+00
  0.00000000E+00  0.00000000E+00  0.00000000E+00
  0.00000000E+00  0.00000000E+00  0.00000000E+00
  0.00000000E+00  0.00000000E+00  0.00000000E+00
  0.00000000E+00  0.00000000E+00  0.00000000E+00
