Mg1 Al2 Cl10                            
   1.00000000000000     
     3.6926407236497130    5.2979034214069367    0.1500863070073115
    -3.6926407236497130    5.2979034214069367    0.1500863070073115
     0.0000000000000000    3.9665074852183548    8.5020931966526909
   Mg   Al   Cl
     1     2    10
Direct
  0.5334297907423817  0.4665702092576183  0.0000000000000000
  0.9994803197309849  0.0012899506035566  0.7381521844454610
  0.9987100493964434  0.0005196802690151  0.2618478155545390
  0.1983787322471287  0.2693850238385096  0.6274423824912176
  0.7306149761614904  0.8016212677528713  0.3725576175087824
  0.8045010364852843  0.7168621107699664  0.8906602478848100
  0.2831378892300336  0.1954989635147157  0.1093397521151900
  0.8793210096067341  0.1206789903932659  0.0000000000000000
  0.1129696511200819  0.8870303488799181  0.5000000000000000
  0.6835438955935231  0.2686059536935801  0.6966524492728539
  0.7313940463064199  0.3164561044064769  0.3033475507271461
  0.3282120523649610  0.7396944489854889  0.7951601018270651
  0.2603055510145111  0.6717879476350390  0.2048398981729349
 
  0.00000000E+00  0.00000000E+00  0.00000000E+00
  0.00000000E+00  0.00000000E+00  0.00000000E+00
  0.00000000E+00  0.00000000E+00  0.00000000E+00
  0.00000000E+00  0.00000000E+00  0.00000000E+00
  0.00000000E+00  0.00000000E+00  0.00000000E+00
  0.00000000E+00  0.00000000E+00  0.00000000E+00
  0.00000000E+00  0.00000000E+00  0.00000000E+00
  0.00000000E+00  0.00000000E+00  0.00000000E+00
  0.00000000E+00  0.00000000E+00  0.00000000E+00
  0.00000000E+00  0.00000000E+00  0.00000000E+00
  0.00000000E+00  0.00000000E+00  0.00000000E+00
  0.00000000E+00  0.00000000E+00  0.00000000E+00
  0.00000000E+00  0.00000000E+00  0.00000000E+00
