Sr1 Al13                                
   1.00000000000000     
     5.6752046691885587   -3.9873111160285060   -0.0998465648113998
     5.6752046691885587    3.9873111160285046   -0.0998465648113998
    -1.2145378071686908    0.0000000000000001    6.0164269045474521
   Sr   Al
     1    13
Direct
  0.0000134532884815  0.0000134532884815  0.0001198478597360
  0.7584643805709774  0.7584643805709774  0.1321230978148691
  0.5984522065653977  0.2436249492231184  0.1834411870884907
  0.2436249492231184  0.5984522065653977  0.1834411870884907
  0.9942417565796546  0.3826865870219507  0.2999086497012158
  0.3826865870219507  0.9942417565796546  0.2999086497012158
  0.6166749670897786  0.6166749670897786  0.4443917937731499
  0.0002648044243969  0.0002648044243969  0.5002204189676505
  0.3832428237661887  0.3832428237661887  0.5555552377090862
  0.6174359252189561  0.0056941316969841  0.7001617218459018
  0.0056941316969841  0.6174359252189561  0.7001617218459018
  0.7562621298741732  0.4013931059171156  0.8164286786713433
  0.4013931059171156  0.7562621298741732  0.8164286786713433
  0.2414377787628226  0.2414377787628226  0.8677091292616055
 
  0.00000000E+00  0.00000000E+00  0.00000000E+00
  0.00000000E+00  0.00000000E+00  0.00000000E+00
  0.00000000E+00  0.00000000E+00  0.00000000E+00
  0.00000000E+00  0.00000000E+00  0.00000000E+00
  0.00000000E+00  0.00000000E+00  0.00000000E+00
  0.00000000E+00  0.00000000E+00  0.00000000E+00
  0.00000000E+00  0.00000000E+00  0.00000000E+00
  0.00000000E+00  0.00000000E+00  0.00000000E+00
  0.00000000E+00  0.00000000E+00  0.00000000E+00
  0.00000000E+00  0.00000000E+00  0.00000000E+00
  0.00000000E+00  0.00000000E+00  0.00000000E+00
  0.00000000E+00  0.00000000E+00  0.00000000E+00
  0.00000000E+00  0.00000000E+00  0.00000000E+00
  0.00000000E+00  0.00000000E+00  0.00000000E+00
