Ba1 In2 Cl6                             
   1.0000000000000000     
     3.7360173135361241    2.1570984061882630    6.1011430579437906
    -3.7360173135361241    2.1570984061882630    6.1011430579437906
     0.0000000000000000   -4.3138386307143328    6.1010164240879954
   Ba   Cl   In
     1     6     2
Direct
  0.0000000000000000  0.0000000000000000  0.0000000000000000
  0.7240551360194232  0.7240551360194232  0.2759493682600151
  0.7240405143316408  0.2759553383309736  0.2759603517119942
  0.2759553383309736  0.7240405143316408  0.2759603517119942
  0.2759448639805768  0.2759448639805768  0.7240506317399849
  0.7240446616690264  0.2759594856683592  0.7240396482880058
  0.2759594856683592  0.7240446616690264  0.7240396482880058
  0.2500135252339248  0.2500135252339248  0.2499955393540532
  0.7499864747660752  0.7499864747660752  0.7500044606459468

  0.00000000E+00  0.00000000E+00  0.00000000E+00
  0.00000000E+00  0.00000000E+00  0.00000000E+00
  0.00000000E+00  0.00000000E+00  0.00000000E+00
  0.00000000E+00  0.00000000E+00  0.00000000E+00
  0.00000000E+00  0.00000000E+00  0.00000000E+00
  0.00000000E+00  0.00000000E+00  0.00000000E+00
  0.00000000E+00  0.00000000E+00  0.00000000E+00
  0.00000000E+00  0.00000000E+00  0.00000000E+00
  0.00000000E+00  0.00000000E+00  0.00000000E+00
