KPOINTS created by pkha_vasp_utils
0
Auto
25
0 0 0