Ca8Al3                                  
   1.00000000000000     
     9.4584558023635186   -0.0000718437438536    0.0057549475719789
    -4.7182716097544484    8.2874001150396541    0.0009547299020122
    -1.8561803938903860   -2.7779639761722241    9.0063965236609818
   Al   Ca
     6    16
Direct
  0.0001096954018109  0.4999649784652078  0.0000230262456995
  0.6757106597863825  0.8398328152157077  0.0260854854091903
  0.8270038712177765  0.6625307305434021  0.4998470455113946
  0.4999669738130521  0.9999520692071826  0.4999765638543892
  0.1730548062592163  0.3375154639137463  0.5002041929645813
  0.3242297392122069  0.1601148195032565  0.9739304007546252
  0.0802851688216251  0.2305553482235183  0.1070883191029779
  0.7016577147548020  0.4975278819789111  0.1108984737927088
  0.3325584540592885  0.8791336081661498  0.1106978664635108
  0.5438300224761790  0.7101608909100818  0.2966474283808154
  0.7743336363904021  0.1520341944419599  0.2992871625039726
  0.0395135438920278  0.9390335714891336  0.3303002647238458
  0.4682240820864152  0.2982958306404271  0.3507162752644675
  0.1214273871814413  0.5990247979857344  0.3523217634787912
  0.8786069200724569  0.4009680879606989  0.6477127713709834
  0.5318341466634138  0.7017084870019232  0.6493129607431811
  0.9605616800969230  0.0609822381654297  0.6697865801756109
  0.2256948725930812  0.8479101475784248  0.7007641900200383
  0.4561670132625366  0.2897817007513197  0.7033521787876609
  0.6674852625800369  0.1208607787401661  0.8893313068729967
  0.2984013023173446  0.5024202799825659  0.8891308978371271
  0.9197430470615870  0.7693912791350570  0.8929848457414167
 
  0.00000000E+00  0.00000000E+00  0.00000000E+00
  0.00000000E+00  0.00000000E+00  0.00000000E+00
  0.00000000E+00  0.00000000E+00  0.00000000E+00
  0.00000000E+00  0.00000000E+00  0.00000000E+00
  0.00000000E+00  0.00000000E+00  0.00000000E+00
  0.00000000E+00  0.00000000E+00  0.00000000E+00
  0.00000000E+00  0.00000000E+00  0.00000000E+00
  0.00000000E+00  0.00000000E+00  0.00000000E+00
  0.00000000E+00  0.00000000E+00  0.00000000E+00
  0.00000000E+00  0.00000000E+00  0.00000000E+00
  0.00000000E+00  0.00000000E+00  0.00000000E+00
  0.00000000E+00  0.00000000E+00  0.00000000E+00
  0.00000000E+00  0.00000000E+00  0.00000000E+00
  0.00000000E+00  0.00000000E+00  0.00000000E+00
  0.00000000E+00  0.00000000E+00  0.00000000E+00
  0.00000000E+00  0.00000000E+00  0.00000000E+00
  0.00000000E+00  0.00000000E+00  0.00000000E+00
  0.00000000E+00  0.00000000E+00  0.00000000E+00
  0.00000000E+00  0.00000000E+00  0.00000000E+00
  0.00000000E+00  0.00000000E+00  0.00000000E+00
  0.00000000E+00  0.00000000E+00  0.00000000E+00
  0.00000000E+00  0.00000000E+00  0.00000000E+00
