Ca8 Al6                                 
   1.00000000000000     
     6.6906554208251627    7.7278769853347073    0.0000000000000000
    -3.3457467847647968    9.6584088792561111    0.0000000000000000
     0.0000000000000000    0.0000000000000000    4.6745716290998445
   Al   Ca
     6     8
Direct
  0.1823924541041251  0.2246940423420867  0.0000000000000000
  0.3073937962051474  0.6110064010118421  0.0000000000000000
  0.7961183462816734  0.7359182975759495  0.0000000000000000
  0.3413399720942394  0.1561599109062612  0.5000000000000000
  0.7275793472755794  0.6454360686736891  0.5000000000000000
  0.2167348491888674  0.7699798464172360  0.5000000000000000
  0.4811371603796246  0.2423065510657025  0.0000000000000000
  0.8136186480839882  0.4195640242894427  0.0000000000000000
  0.4286588648193899  0.8572200057765968  0.0000000000000000
  0.9909515482393800  0.9097175937490292  0.0000000000000000
  0.0424164496990826  0.1387488163832415  0.5000000000000000
  0.5332396336529897  0.4709920882556631  0.5000000000000000
  0.0952356773592626  0.5238208344667328  0.5000000000000000
  0.7102432526166638  0.9617355190865169  0.5000000000000000
 
  0.00000000E+00  0.00000000E+00  0.00000000E+00
  0.00000000E+00  0.00000000E+00  0.00000000E+00
  0.00000000E+00  0.00000000E+00  0.00000000E+00
  0.00000000E+00  0.00000000E+00  0.00000000E+00
  0.00000000E+00  0.00000000E+00  0.00000000E+00
  0.00000000E+00  0.00000000E+00  0.00000000E+00
  0.00000000E+00  0.00000000E+00  0.00000000E+00
  0.00000000E+00  0.00000000E+00  0.00000000E+00
  0.00000000E+00  0.00000000E+00  0.00000000E+00
  0.00000000E+00  0.00000000E+00  0.00000000E+00
  0.00000000E+00  0.00000000E+00  0.00000000E+00
  0.00000000E+00  0.00000000E+00  0.00000000E+00
  0.00000000E+00  0.00000000E+00  0.00000000E+00
  0.00000000E+00  0.00000000E+00  0.00000000E+00
