Sr1 In3 Cl6                             
   1.00000000000000     
     7.8725703658246973    0.0011894719375895    0.0009285750120888
     0.0011894719375895    7.8725703658246964    0.0009285750120888
     3.9375342245244340    3.9375342245244336    5.5640419922075797
   Cl   Sr   In
     6     1     3
Direct
  0.7455393638402299  0.2544606361597701  0.0000000000000000
  0.2545209970243079  0.2545209970243079  0.9998021204629026
  0.2544606361597701  0.7455393638402299  0.0000000000000000
  0.7454790029756921  0.7454790029756921  0.0001978795370974
  0.7460553583852274  0.7460553583852274  0.5092138677909333
  0.2539446416147726  0.2539446416147726  0.4907861322090667
  0.0000000000000000  0.0000000000000000  0.0000000000000000
  0.5000000000000000  0.5000000000000000  0.0000000000000000
  0.2499400962432858  0.7500599037567142  0.5000000000000000
  0.7500599037567142  0.2499400962432858  0.5000000000000000
 
  0.00000000E+00  0.00000000E+00  0.00000000E+00
  0.00000000E+00  0.00000000E+00  0.00000000E+00
  0.00000000E+00  0.00000000E+00  0.00000000E+00
  0.00000000E+00  0.00000000E+00  0.00000000E+00
  0.00000000E+00  0.00000000E+00  0.00000000E+00
  0.00000000E+00  0.00000000E+00  0.00000000E+00
  0.00000000E+00  0.00000000E+00  0.00000000E+00
  0.00000000E+00  0.00000000E+00  0.00000000E+00
  0.00000000E+00  0.00000000E+00  0.00000000E+00
  0.00000000E+00  0.00000000E+00  0.00000000E+00
