Ca12 Tl4 Br36                           
   1.0000000000000000     
    15.2831535195151496   -0.1914592931064387    0.0964559620256468
    -0.0983808581242757    7.5628337092404863    0.3982970815463689
     0.1009473348077390    0.8903665795157805   17.1644369342154128
   Tl   Ca   Br
     4    12    36
Direct
  0.4359701216598140  0.3059461264188528  0.1943868412966125
  0.9353031829765328  0.2428718345253102  0.3072656519092760
  0.0650988938745201  0.7647058401029412  0.6927205429553496
  0.5638999372348223  0.6915554084309790  0.8054285175397098
  0.7391723604404703  0.7683051459491779  0.9947221278028096
  0.9862013345843579  0.2363974424881619  0.0859415027351034
  0.1827357604269153  0.7615552237658818  0.1874989893803658
  0.6778540383529474  0.7715570462799306  0.3143760071607886
  0.4843159276053797  0.2634032503776353  0.4150650167403001
  0.2416057480288600  0.7116917284450821  0.5062852662162456
  0.7587534217566301  0.2862060347544784  0.4937507994671009
  0.5157204494554506  0.7366201694567849  0.5848031385403232
  0.3213768471718410  0.2292886667545275  0.6855007565696880
  0.8192915391300204  0.2370091498716747  0.8129638368928056
  0.0138178372760507  0.7640385494943516  0.9144588764718122
  0.2600841880462141  0.2275625878786798  0.0050570682772104
  0.1083805627958725  0.4310636413153759  0.9783217437039013
  0.1217852509344937  0.9399520924770997  0.0281209452521551
  0.3340659575895231  0.9950127206820270  0.1281756561713721
  0.3034144648586121  0.5098636363530815  0.1065604046843731
  0.5407559216001445  0.3090101108220651  0.0780241348395805
  0.6965366942419067  0.7795872923828568  0.1505458003994917
  0.3279134292749433  0.2310165565773943  0.3132499726496150
  0.5739259183787624  0.0866414442559957  0.2980479315599283
  0.5057531412860570  0.5685381792859516  0.2888697622637650
  0.0358426160009628  0.9902447244786785  0.2215683145915932
  0.0445401483761714  0.4855973575586887  0.1967381792675340
  0.8277183242409052  0.2215304370824924  0.1901254526088820
  0.2023493716940195  0.6929920378108108  0.3505424267182207
  0.0300663667464960  0.2373232318035434  0.4286386532839188
  0.8047880783678423  0.9976673785708954  0.4023668282969481
  0.8271830181145319  0.5243810350077993  0.3623475451874896
  0.6240932623944175  0.5719044515506226  0.4701935699383668
  0.6001647722240619  0.0925096943031463  0.5298609668233922
  0.3997867964896358  0.9071357723179929  0.4699842108855279
  0.3759504790753923  0.4274638107039550  0.5297393530011263
  0.1716203955466966  0.4763652486793717  0.6371768924215857
  0.1953744844326764  0.0023762629506905  0.5973652549171504
  0.9679912822084660  0.7682158983407348  0.5729217669624802
  0.7989581550580382  0.2978415550680751  0.6497663133692910
  0.1728936832166426  0.7671320193050875  0.8106356559448500
  0.9466041698094259  0.5320438749980880  0.8016712982344387
  0.9750609371120973  0.0274204009329324  0.7800651212233873
  0.4930821350948378  0.4313122853270031  0.7111412521378924
  0.4264203635155610  0.9152071632324947  0.7010913576999798
  0.6722754734384893  0.7641811206874891  0.6865383029037915
  0.3033937169727494  0.2185346294226562  0.8493389033075971
  0.4586234847291308  0.6962080746418593  0.9209995155001280
  0.6935237051895839  0.4846968095636228  0.8945142497163872
  0.6684555725226033  0.0015684261801709  0.8704407052999272
  0.8790249564970622  0.0553242475852755  0.9723126021509643
  0.8902813219503400  0.5640021727494400  0.0203740161274411

  0.00000000E+00  0.00000000E+00  0.00000000E+00
  0.00000000E+00  0.00000000E+00  0.00000000E+00
  0.00000000E+00  0.00000000E+00  0.00000000E+00
  0.00000000E+00  0.00000000E+00  0.00000000E+00
  0.00000000E+00  0.00000000E+00  0.00000000E+00
  0.00000000E+00  0.00000000E+00  0.00000000E+00
  0.00000000E+00  0.00000000E+00  0.00000000E+00
  0.00000000E+00  0.00000000E+00  0.00000000E+00
  0.00000000E+00  0.00000000E+00  0.00000000E+00
  0.00000000E+00  0.00000000E+00  0.00000000E+00
  0.00000000E+00  0.00000000E+00  0.00000000E+00
  0.00000000E+00  0.00000000E+00  0.00000000E+00
  0.00000000E+00  0.00000000E+00  0.00000000E+00
  0.00000000E+00  0.00000000E+00  0.00000000E+00
  0.00000000E+00  0.00000000E+00  0.00000000E+00
  0.00000000E+00  0.00000000E+00  0.00000000E+00
  0.00000000E+00  0.00000000E+00  0.00000000E+00
  0.00000000E+00  0.00000000E+00  0.00000000E+00
  0.00000000E+00  0.00000000E+00  0.00000000E+00
  0.00000000E+00  0.00000000E+00  0.00000000E+00
  0.00000000E+00  0.00000000E+00  0.00000000E+00
  0.00000000E+00  0.00000000E+00  0.00000000E+00
  0.00000000E+00  0.00000000E+00  0.00000000E+00
  0.00000000E+00  0.00000000E+00  0.00000000E+00
  0.00000000E+00  0.00000000E+00  0.00000000E+00
  0.00000000E+00  0.00000000E+00  0.00000000E+00
  0.00000000E+00  0.00000000E+00  0.00000000E+00
  0.00000000E+00  0.00000000E+00  0.00000000E+00
  0.00000000E+00  0.00000000E+00  0.00000000E+00
  0.00000000E+00  0.00000000E+00  0.00000000E+00
  0.00000000E+00  0.00000000E+00  0.00000000E+00
  0.00000000E+00  0.00000000E+00  0.00000000E+00
  0.00000000E+00  0.00000000E+00  0.00000000E+00
  0.00000000E+00  0.00000000E+00  0.00000000E+00
  0.00000000E+00  0.00000000E+00  0.00000000E+00
  0.00000000E+00  0.00000000E+00  0.00000000E+00
  0.00000000E+00  0.00000000E+00  0.00000000E+00
  0.00000000E+00  0.00000000E+00  0.00000000E+00
  0.00000000E+00  0.00000000E+00  0.00000000E+00
  0.00000000E+00  0.00000000E+00  0.00000000E+00
  0.00000000E+00  0.00000000E+00  0.00000000E+00
  0.00000000E+00  0.00000000E+00  0.00000000E+00
  0.00000000E+00  0.00000000E+00  0.00000000E+00
  0.00000000E+00  0.00000000E+00  0.00000000E+00
  0.00000000E+00  0.00000000E+00  0.00000000E+00
  0.00000000E+00  0.00000000E+00  0.00000000E+00
  0.00000000E+00  0.00000000E+00  0.00000000E+00
  0.00000000E+00  0.00000000E+00  0.00000000E+00
  0.00000000E+00  0.00000000E+00  0.00000000E+00
  0.00000000E+00  0.00000000E+00  0.00000000E+00
  0.00000000E+00  0.00000000E+00  0.00000000E+00
  0.00000000E+00  0.00000000E+00  0.00000000E+00
