F4                                      
   1.00000000000000     
     1.6086176488702784    2.6281311463519241    0.3157989841892250
    -1.6086176488702784    2.6281311463519241    0.3157989841892250
     0.0000000000000000    1.5760231620081331    5.1959784736760275
   F 
     4
Direct
  0.2379281219693823  0.2883953780335418  0.7038170514959958
  0.7116046219664582  0.7620718780306106  0.7961829485040042
  0.7620718780306106  0.7116046219664582  0.2961829485040042
  0.2883953780335418  0.2379281219693823  0.2038170514959958
 
  0.00000000E+00  0.00000000E+00  0.00000000E+00
  0.00000000E+00  0.00000000E+00  0.00000000E+00
  0.00000000E+00  0.00000000E+00  0.00000000E+00
  0.00000000E+00  0.00000000E+00  0.00000000E+00
