Ca21 Tl40                               
   1.0000000000000000     
     5.3736964390514439   -9.3075156716070033    0.0000000000000000
     5.3736964390514439    9.3075156716070033    0.0000000000000000
    -0.0000000000000001    0.0000000000000000   19.4314568053641175
   Ca   Tl
    21    40
Direct
  0.9999999999958362  0.3324097277141220  0.3874920755298206
  0.6666669999999968  0.3333330000000032  0.3028130114752869
  0.6580585501575200  0.0000000000205418  0.6722038505207095
  0.3419414498219453  0.3419414498219453  0.6722038505207095
  0.0000000000000000  0.0000000000000000  0.1415661555392660
  0.9999999999932072  0.3245400685824009  0.5854368250313016
  0.3267351789923438  0.0000000000032685  0.0297637010997320
  0.0000000000205418  0.6580585501575200  0.6722038505207095
  0.6675902722900346  0.6675902722900346  0.3874920755298206
  0.3245400685824009  0.9999999999932072  0.5854368250313016
  0.3333330000000032  0.6666669999999968  0.1067514977465791
  0.0000000000276401  0.6214924599982226  0.8752085468648474
  0.6754599314243848  0.6754599314243848  0.5854368250313016
  0.3785075399741373  0.3785075399741373  0.8752085468648474
  0.6666669999999968  0.3333330000000032  0.1067514977465791
  0.3333330000000032  0.6666669999999968  0.3028130114752869
  0.0000000000032685  0.3267351789923438  0.0297637010997320
  0.3324097277141220  0.9999999999958362  0.3874920755298206
  0.6732648210044019  0.6732648210044019  0.0297637010997320
  0.6214924599982226  0.0000000000276401  0.8752085468648474
  0.0000000000000000  0.0000000000000000  0.3176745002061594
  0.3333456250021882  0.4989797833080516  0.4940086365323992
  0.1673083214254021  0.3386490360139689  0.2125706661566582
  0.4696374831381860  0.1728771061114855  0.7710507741108827
  0.8286592854233916  0.6613509639985296  0.2125706661566582
  0.4968214563823068  0.0000000000066009  0.1765798532541609
  0.0000000000000000  0.0000000000000000  0.6090264536511683
  0.3333330000000032  0.6666669999999968  0.9340103743742958
  0.1713407145760755  0.8326916785626324  0.2125706661566582
  0.2117539414711800  0.9999999999715570  0.8752011185239468
  0.0000000000434426  0.6257820283057782  0.3394408758001219
  0.3386490360139689  0.1673083214254021  0.2125706661566582
  0.1682347505897539  0.1682347505897539  0.4690098206773001
  0.7882460585572559  0.7882460585572559  0.8752011185239468
  0.6666669999999968  0.3333330000000032  0.9340103743742958
  0.9999999999559748  0.8317652494542713  0.4690098206773001
  0.5031785436111136  0.5031785436111136  0.1765798532541609
  0.8343658416539341  0.5010202166540978  0.4940086365323992
  0.5303625168268269  0.7032396229214939  0.7710507741108827
  0.0000000000066009  0.4968214563823068  0.1765798532541609
  0.8326916785626324  0.1713407145760755  0.2125706661566582
  0.9999999999837783  0.6807753556329530  0.0434755093643133
  0.3742179716507792  0.3742179716507792  0.3394408758001219
  0.3333330000000032  0.6666669999999968  0.6367109236381836
  0.9999999999715570  0.2117539414711800  0.8752011185239468
  0.6666669999999968  0.3333330000000032  0.6367109236381836
  0.1728771061114855  0.4696374831381860  0.7710507741108827
  0.5010202166540978  0.8343658416539341  0.4940086365323992
  0.1656341583436856  0.6666543750380427  0.4940086365323992
  0.6807753556329530  0.9999999999837783  0.0434755093643133
  0.3192246443832545  0.3192246443832545  0.0434755093643133
  0.8271228939403343  0.2967603770617018  0.7710507741108827
  0.6257820283057782  0.0000000000434426  0.3394408758001219
  0.4989797833080516  0.3333456250021882  0.4940086365323992
  0.6613509639985296  0.8286592854233916  0.2125706661566582
  0.8317652494542713  0.9999999999559748  0.4690098206773001
  0.6666543750380427  0.1656341583436856  0.4940086365323992
  0.2967603770617018  0.8271228939403343  0.7710507741108827
  0.0000000000000000  0.0000000000000000  0.9866679572159640
  0.7032396229214939  0.5303625168268269  0.7710507741108827
  0.0000000000000000  0.0000000000000000  0.7610413281206121

  0.00000000E+00  0.00000000E+00  0.00000000E+00
  0.00000000E+00  0.00000000E+00  0.00000000E+00
  0.00000000E+00  0.00000000E+00  0.00000000E+00
  0.00000000E+00  0.00000000E+00  0.00000000E+00
  0.00000000E+00  0.00000000E+00  0.00000000E+00
  0.00000000E+00  0.00000000E+00  0.00000000E+00
  0.00000000E+00  0.00000000E+00  0.00000000E+00
  0.00000000E+00  0.00000000E+00  0.00000000E+00
  0.00000000E+00  0.00000000E+00  0.00000000E+00
  0.00000000E+00  0.00000000E+00  0.00000000E+00
  0.00000000E+00  0.00000000E+00  0.00000000E+00
  0.00000000E+00  0.00000000E+00  0.00000000E+00
  0.00000000E+00  0.00000000E+00  0.00000000E+00
  0.00000000E+00  0.00000000E+00  0.00000000E+00
  0.00000000E+00  0.00000000E+00  0.00000000E+00
  0.00000000E+00  0.00000000E+00  0.00000000E+00
  0.00000000E+00  0.00000000E+00  0.00000000E+00
  0.00000000E+00  0.00000000E+00  0.00000000E+00
  0.00000000E+00  0.00000000E+00  0.00000000E+00
  0.00000000E+00  0.00000000E+00  0.00000000E+00
  0.00000000E+00  0.00000000E+00  0.00000000E+00
  0.00000000E+00  0.00000000E+00  0.00000000E+00
  0.00000000E+00  0.00000000E+00  0.00000000E+00
  0.00000000E+00  0.00000000E+00  0.00000000E+00
  0.00000000E+00  0.00000000E+00  0.00000000E+00
  0.00000000E+00  0.00000000E+00  0.00000000E+00
  0.00000000E+00  0.00000000E+00  0.00000000E+00
  0.00000000E+00  0.00000000E+00  0.00000000E+00
  0.00000000E+00  0.00000000E+00  0.00000000E+00
  0.00000000E+00  0.00000000E+00  0.00000000E+00
  0.00000000E+00  0.00000000E+00  0.00000000E+00
  0.00000000E+00  0.00000000E+00  0.00000000E+00
  0.00000000E+00  0.00000000E+00  0.00000000E+00
  0.00000000E+00  0.00000000E+00  0.00000000E+00
  0.00000000E+00  0.00000000E+00  0.00000000E+00
  0.00000000E+00  0.00000000E+00  0.00000000E+00
  0.00000000E+00  0.00000000E+00  0.00000000E+00
  0.00000000E+00  0.00000000E+00  0.00000000E+00
  0.00000000E+00  0.00000000E+00  0.00000000E+00
  0.00000000E+00  0.00000000E+00  0.00000000E+00
  0.00000000E+00  0.00000000E+00  0.00000000E+00
  0.00000000E+00  0.00000000E+00  0.00000000E+00
  0.00000000E+00  0.00000000E+00  0.00000000E+00
  0.00000000E+00  0.00000000E+00  0.00000000E+00
  0.00000000E+00  0.00000000E+00  0.00000000E+00
  0.00000000E+00  0.00000000E+00  0.00000000E+00
  0.00000000E+00  0.00000000E+00  0.00000000E+00
  0.00000000E+00  0.00000000E+00  0.00000000E+00
  0.00000000E+00  0.00000000E+00  0.00000000E+00
  0.00000000E+00  0.00000000E+00  0.00000000E+00
  0.00000000E+00  0.00000000E+00  0.00000000E+00
  0.00000000E+00  0.00000000E+00  0.00000000E+00
  0.00000000E+00  0.00000000E+00  0.00000000E+00
  0.00000000E+00  0.00000000E+00  0.00000000E+00
  0.00000000E+00  0.00000000E+00  0.00000000E+00
  0.00000000E+00  0.00000000E+00  0.00000000E+00
  0.00000000E+00  0.00000000E+00  0.00000000E+00
  0.00000000E+00  0.00000000E+00  0.00000000E+00
  0.00000000E+00  0.00000000E+00  0.00000000E+00
  0.00000000E+00  0.00000000E+00  0.00000000E+00
  0.00000000E+00  0.00000000E+00  0.00000000E+00
