Be16 Ga12 Br1                           
   1.00000000000000     
     5.8257022573762347   -3.3698178853809679    2.9442080716866474
     1.3340962689446858    8.5649098688952208    2.2601129708565053
    -6.7374123514428224   -5.4379606839053034    2.2800771391137653
   Ga   Br   Be
    12     1    16
Direct
  0.8549713950789268  0.4731449522018778  0.0465904427767825
  0.6506263625218267  0.7764997313121285  0.9927308406771544
  0.4205554803087637  0.4975761760830437  0.2678867338673570
  0.1847254106017431  0.8351478845095315  0.2255257490654827
  0.8174496439488621  0.2269543861277938  0.2283823334411537
  0.4226824597908134  0.2697005676800899  0.4977026644948594
  0.2402629120148205  0.5316235507138884  0.5320944355126684
  0.8550453307594807  0.0468899206258868  0.4731238516460579
  0.9631120494739918  0.7843634892940727  0.4856222577504141
  0.6499123363864001  0.9927299249220596  0.7766228938691881
  0.9655827462293232  0.4854550457510456  0.7850769583207793
  0.1839427426809053  0.2235731627461774  0.8340268339946704
  0.1776146889670400  0.9267848594585288  0.9269862342682629
  0.5320737713251944  0.2625138543335908  0.0088425406932728
  0.3659325423936224  0.6316259021640036  0.0171233842533951
  0.8936329926217468  0.9569542721387450  0.9565733068052538
  0.0324615499657668  0.2969847839333326  0.0719097860634506
  0.6529723305351496  0.6510052564708744  0.1923912049302814
  0.5326441376304203  0.0087369731741660  0.2625376909193093
  0.1921613838561385  0.6527694791131253  0.3500193908816840
  0.0336430898320543  0.0717751431944151  0.2969352935111402
  0.5013382562807038  0.8415591801168318  0.3883891174587220
  0.6061127456728315  0.3580448138288403  0.3561203570210907
  0.3659083472170792  0.0171016996431561  0.6323198130890262
  0.1935464717589142  0.3489382562206629  0.6528284450024273
  0.6284298030743756  0.6442219392283732  0.6432365205992738
  0.6525424997821219  0.1926468705840705  0.6500129379774648
  0.9276213104791680  0.6066962888527314  0.6071085805135255
  0.5016952088118245  0.3879826355769396  0.8412814005958396
 
  0.00000000E+00  0.00000000E+00  0.00000000E+00
  0.00000000E+00  0.00000000E+00  0.00000000E+00
  0.00000000E+00  0.00000000E+00  0.00000000E+00
  0.00000000E+00  0.00000000E+00  0.00000000E+00
  0.00000000E+00  0.00000000E+00  0.00000000E+00
  0.00000000E+00  0.00000000E+00  0.00000000E+00
  0.00000000E+00  0.00000000E+00  0.00000000E+00
  0.00000000E+00  0.00000000E+00  0.00000000E+00
  0.00000000E+00  0.00000000E+00  0.00000000E+00
  0.00000000E+00  0.00000000E+00  0.00000000E+00
  0.00000000E+00  0.00000000E+00  0.00000000E+00
  0.00000000E+00  0.00000000E+00  0.00000000E+00
  0.00000000E+00  0.00000000E+00  0.00000000E+00
  0.00000000E+00  0.00000000E+00  0.00000000E+00
  0.00000000E+00  0.00000000E+00  0.00000000E+00
  0.00000000E+00  0.00000000E+00  0.00000000E+00
  0.00000000E+00  0.00000000E+00  0.00000000E+00
  0.00000000E+00  0.00000000E+00  0.00000000E+00
  0.00000000E+00  0.00000000E+00  0.00000000E+00
  0.00000000E+00  0.00000000E+00  0.00000000E+00
  0.00000000E+00  0.00000000E+00  0.00000000E+00
  0.00000000E+00  0.00000000E+00  0.00000000E+00
  0.00000000E+00  0.00000000E+00  0.00000000E+00
  0.00000000E+00  0.00000000E+00  0.00000000E+00
  0.00000000E+00  0.00000000E+00  0.00000000E+00
  0.00000000E+00  0.00000000E+00  0.00000000E+00
  0.00000000E+00  0.00000000E+00  0.00000000E+00
  0.00000000E+00  0.00000000E+00  0.00000000E+00
  0.00000000E+00  0.00000000E+00  0.00000000E+00
