Sr4 In4 Cl20                            
   1.0000000000000000     
     0.0000000000000000    6.7502667102792921   -1.3548626613576995
     9.4990955363602847    0.0000000000000000    0.0000000000000000
     0.0000000000000000    2.3141441952875539  -15.8037307317952820
   Sr   In   Cl
     4     4    20
Direct
  0.4663202902140995  0.4819633933752669  0.5704567954668249
  0.5336797097859076  0.9819633933752812  0.4295432045331751
  0.2357490927525987  0.9819481094334748  0.1970123863980717
  0.7642509072474013  0.4819481094334748  0.8029876136019212
  0.5410425840424864  0.4820099446642843  0.1248254222856389
  0.4589574159575278  0.9820099446642914  0.8751745777143540
  0.9998912338801844  0.7319886772197535  0.5000162472149796
  0.0001087661198085  0.2319886772197677  0.4999837527850204
  0.2714369237320540  0.1619366217760145  0.3527336363342854
  0.2544720450839080  0.7858438132328942  0.5750436540748538
  0.7455279549160920  0.2858438132328942  0.4249563459251391
  0.6709791475172864  0.7781828357773293  0.8760611859229570
  0.8146339794975006  0.4820299398809595  0.9813063585718069
  0.3289426436429963  0.6857830189683369  0.1239016008951666
  0.7287401409147876  0.3019096417911129  0.6472867027964000
  0.7452916972433670  0.6781527881604958  0.4249269302813659
  0.1853660205025065  0.9820299398809667  0.0186936414282073
  0.8285446553383267  0.9819837303384702  0.5335198000717938
  0.6710573563569966  0.1857830189683369  0.8760983991048334
  0.7285630762679460  0.6619366217760216  0.6472663636657217
  0.3167724579487583  0.9819219095785598  0.7615216158273128
  0.8063046053062664  0.9819445558030395  0.2524624110726563
  0.1714553446616875  0.4819837303384702  0.4664801999281991
  0.2712598590852124  0.8019096417911058  0.3527132972036071
  0.3290208524827065  0.2781828357773293  0.1239388140770359
  0.1936953946937336  0.4819445558030466  0.7475375889273437
  0.2547083027566401  0.1781527881605101  0.5750730697186341
  0.6832275420512417  0.4819219095785598  0.2384783841726872

  0.00000000E+00  0.00000000E+00  0.00000000E+00
  0.00000000E+00  0.00000000E+00  0.00000000E+00
  0.00000000E+00  0.00000000E+00  0.00000000E+00
  0.00000000E+00  0.00000000E+00  0.00000000E+00
  0.00000000E+00  0.00000000E+00  0.00000000E+00
  0.00000000E+00  0.00000000E+00  0.00000000E+00
  0.00000000E+00  0.00000000E+00  0.00000000E+00
  0.00000000E+00  0.00000000E+00  0.00000000E+00
  0.00000000E+00  0.00000000E+00  0.00000000E+00
  0.00000000E+00  0.00000000E+00  0.00000000E+00
  0.00000000E+00  0.00000000E+00  0.00000000E+00
  0.00000000E+00  0.00000000E+00  0.00000000E+00
  0.00000000E+00  0.00000000E+00  0.00000000E+00
  0.00000000E+00  0.00000000E+00  0.00000000E+00
  0.00000000E+00  0.00000000E+00  0.00000000E+00
  0.00000000E+00  0.00000000E+00  0.00000000E+00
  0.00000000E+00  0.00000000E+00  0.00000000E+00
  0.00000000E+00  0.00000000E+00  0.00000000E+00
  0.00000000E+00  0.00000000E+00  0.00000000E+00
  0.00000000E+00  0.00000000E+00  0.00000000E+00
  0.00000000E+00  0.00000000E+00  0.00000000E+00
  0.00000000E+00  0.00000000E+00  0.00000000E+00
  0.00000000E+00  0.00000000E+00  0.00000000E+00
  0.00000000E+00  0.00000000E+00  0.00000000E+00
  0.00000000E+00  0.00000000E+00  0.00000000E+00
  0.00000000E+00  0.00000000E+00  0.00000000E+00
  0.00000000E+00  0.00000000E+00  0.00000000E+00
  0.00000000E+00  0.00000000E+00  0.00000000E+00
