Ba17 Ga11 Br1                           
   1.00000000000000     
    10.4186470354193297   -5.8510490074298858    3.7108091428868528
    -0.1797379266593858   11.6623288559848515    3.8907336131897416
    -9.5593615106902678   -5.2702917226937123    2.6901575424556179
   Ga   Br   Ba
    11     1    17
Direct
  0.7080548332219081  0.9539971823377371  0.0918076572331756
  0.3876801751560350  0.3870802570687104  0.3027425003188000
  0.0987461421783422  0.6836021548434275  0.0895318611889309
  0.7109720593578501  0.1830036679905831  0.1675321564010019
  0.2686955777916964  0.5028861321411924  0.4744850175643975
  0.4177104776552483  0.1905642945044761  0.3148690817569531
  0.1159864470213350  0.8831609829294393  0.6147165306163487
  0.6941788849526418  0.0129381732196521  0.6722843038289597
  0.6688681949009023  0.1012464513118729  0.8986315189074290
  0.1297273327922994  0.5733740236524056  0.8789159496395484
  0.1504165379490132  0.1030816752304773  0.6117598841580758
  0.6648421319178084  0.4979818158878331  0.0178162112700022
  0.0834960112041472  0.2542946258133725  0.8649834261911167
  0.4408654005092103  0.6044102529708368  0.9555350627101262
  0.1240447670361959  0.8787479859763465  0.9355212173384047
  0.4441552758181047  0.2320490499122840  0.0062591044202875
  0.0045833783530256  0.1597625037233072  0.1155522312259265
  0.7932520877701350  0.8340741682887014  0.4780791675912255
  0.9756913835658025  0.5301588810744988  0.2935476511366133
  0.5493522493176499  0.0010266667452328  0.2955594270619599
  0.9375572177136178  0.8394928445052514  0.1988587491023210
  0.3466760083267388  0.6339434700614817  0.2901239772503672
  0.7686335812811009  0.4658921476382005  0.5099326852061026
  0.3466300901978840  0.9747529585147490  0.5082819148372906
  0.0118663448424172  0.2850972177934779  0.5081126846888395
  0.6423979237204378  0.7444853644033813  0.7260067876785072
  0.3493206558181541  0.7996667992142008  0.7721787339329893
  0.7798628954740536  0.3558645443895259  0.8154517805849011
  0.3861499341562222  0.3315197078571899  0.5909227261594623
 
  0.00000000E+00  0.00000000E+00  0.00000000E+00
  0.00000000E+00  0.00000000E+00  0.00000000E+00
  0.00000000E+00  0.00000000E+00  0.00000000E+00
  0.00000000E+00  0.00000000E+00  0.00000000E+00
  0.00000000E+00  0.00000000E+00  0.00000000E+00
  0.00000000E+00  0.00000000E+00  0.00000000E+00
  0.00000000E+00  0.00000000E+00  0.00000000E+00
  0.00000000E+00  0.00000000E+00  0.00000000E+00
  0.00000000E+00  0.00000000E+00  0.00000000E+00
  0.00000000E+00  0.00000000E+00  0.00000000E+00
  0.00000000E+00  0.00000000E+00  0.00000000E+00
  0.00000000E+00  0.00000000E+00  0.00000000E+00
  0.00000000E+00  0.00000000E+00  0.00000000E+00
  0.00000000E+00  0.00000000E+00  0.00000000E+00
  0.00000000E+00  0.00000000E+00  0.00000000E+00
  0.00000000E+00  0.00000000E+00  0.00000000E+00
  0.00000000E+00  0.00000000E+00  0.00000000E+00
  0.00000000E+00  0.00000000E+00  0.00000000E+00
  0.00000000E+00  0.00000000E+00  0.00000000E+00
  0.00000000E+00  0.00000000E+00  0.00000000E+00
  0.00000000E+00  0.00000000E+00  0.00000000E+00
  0.00000000E+00  0.00000000E+00  0.00000000E+00
  0.00000000E+00  0.00000000E+00  0.00000000E+00
  0.00000000E+00  0.00000000E+00  0.00000000E+00
  0.00000000E+00  0.00000000E+00  0.00000000E+00
  0.00000000E+00  0.00000000E+00  0.00000000E+00
  0.00000000E+00  0.00000000E+00  0.00000000E+00
  0.00000000E+00  0.00000000E+00  0.00000000E+00
  0.00000000E+00  0.00000000E+00  0.00000000E+00
