Sr40 Ga4                                
   1.00000000000000     
     0.0000000000000000   10.5001848819666481   10.5001848819666481
    10.5001848819666481    0.0000000000000000   10.5001848819666481
    10.5001848819666481   10.5001848819666481    0.0000000000000000
   Sr   Ga
    40     4
Direct
  0.6182317860852606  0.6182317860852606  0.8817682139147394
  0.3682317860852606  0.6317682139147394  0.6317682139147394
  0.6317682139147394  0.3682317860852606  0.3682317860852606
  0.3682317860852606  0.3682317860852606  0.6317682139147394
  0.3682317860852606  0.6317682139147394  0.3682317860852606
  0.6317682139147394  0.3682317860852606  0.6317682139147394
  0.8817682139147394  0.6182317860852606  0.8817682139147394
  0.8817682139147394  0.6182317860852606  0.6182317860852606
  0.6182317860852606  0.8817682139147394  0.8817682139147394
  0.6182317860852606  0.8817682139147394  0.6182317860852606
  0.6317682139147394  0.6317682139147394  0.3682317860852606
  0.8817682139147394  0.8817682139147394  0.6182317860852606
  0.7922594035973134  0.0699256228622218  0.3455545699431397
  0.4577405964026866  0.4577405964026866  0.1800743771377782
  0.1800743771377782  0.9044454300568603  0.4577405964026866
  0.4577405964026866  0.9044454300568603  0.4577405964026866
  0.9044454300568603  0.4577405964026866  0.1800743771377782
  0.9044454300568603  0.4577405964026866  0.4577405964026866
  0.1800743771377782  0.4577405964026866  0.4577405964026866
  0.3455545699431397  0.0699256228622218  0.7922594035973134
  0.7922594035973134  0.0699256228622218  0.7922594035973134
  0.0699256228622218  0.7922594035973134  0.3455545699431397
  0.7922594035973134  0.7922594035973134  0.3455545699431397
  0.0699256228622218  0.3455545699431397  0.7922594035973134
  0.3455545699431397  0.7922594035973134  0.0699256228622218
  0.7922594035973134  0.7922594035973134  0.0699256228622218
  0.7922594035973134  0.3455545699431397  0.7922594035973134
  0.1800743771377782  0.4577405964026866  0.9044454300568603
  0.4577405964026866  0.4577405964026866  0.9044454300568603
  0.4577405964026866  0.9044454300568603  0.1800743771377782
  0.4577405964026866  0.1800743771377782  0.9044454300568603
  0.9044454300568603  0.1800743771377782  0.4577405964026866
  0.4577405964026866  0.1800743771377782  0.4577405964026866
  0.3455545699431397  0.7922594035973134  0.7922594035973134
  0.0699256228622218  0.7922594035973134  0.7922594035973134
  0.7922594035973134  0.3455545699431397  0.0699256228622218
  0.1250000000000000  0.1250000000000000  0.1250000000000000
  0.6250000000000000  0.1250000000000000  0.1250000000000000
  0.1250000000000000  0.1250000000000000  0.6250000000000000
  0.1250000000000000  0.6250000000000000  0.1250000000000000
  0.6250000000000000  0.6250000000000000  0.6250000000000000
  0.1250000000000000  0.6250000000000000  0.6250000000000000
  0.6250000000000000  0.6250000000000000  0.1250000000000000
  0.6250000000000000  0.1250000000000000  0.6250000000000000
 
  0.00000000E+00  0.00000000E+00  0.00000000E+00
  0.00000000E+00  0.00000000E+00  0.00000000E+00
  0.00000000E+00  0.00000000E+00  0.00000000E+00
  0.00000000E+00  0.00000000E+00  0.00000000E+00
  0.00000000E+00  0.00000000E+00  0.00000000E+00
  0.00000000E+00  0.00000000E+00  0.00000000E+00
  0.00000000E+00  0.00000000E+00  0.00000000E+00
  0.00000000E+00  0.00000000E+00  0.00000000E+00
  0.00000000E+00  0.00000000E+00  0.00000000E+00
  0.00000000E+00  0.00000000E+00  0.00000000E+00
  0.00000000E+00  0.00000000E+00  0.00000000E+00
  0.00000000E+00  0.00000000E+00  0.00000000E+00
  0.00000000E+00  0.00000000E+00  0.00000000E+00
  0.00000000E+00  0.00000000E+00  0.00000000E+00
  0.00000000E+00  0.00000000E+00  0.00000000E+00
  0.00000000E+00  0.00000000E+00  0.00000000E+00
  0.00000000E+00  0.00000000E+00  0.00000000E+00
  0.00000000E+00  0.00000000E+00  0.00000000E+00
  0.00000000E+00  0.00000000E+00  0.00000000E+00
  0.00000000E+00  0.00000000E+00  0.00000000E+00
  0.00000000E+00  0.00000000E+00  0.00000000E+00
  0.00000000E+00  0.00000000E+00  0.00000000E+00
  0.00000000E+00  0.00000000E+00  0.00000000E+00
  0.00000000E+00  0.00000000E+00  0.00000000E+00
  0.00000000E+00  0.00000000E+00  0.00000000E+00
  0.00000000E+00  0.00000000E+00  0.00000000E+00
  0.00000000E+00  0.00000000E+00  0.00000000E+00
  0.00000000E+00  0.00000000E+00  0.00000000E+00
  0.00000000E+00  0.00000000E+00  0.00000000E+00
  0.00000000E+00  0.00000000E+00  0.00000000E+00
  0.00000000E+00  0.00000000E+00  0.00000000E+00
  0.00000000E+00  0.00000000E+00  0.00000000E+00
  0.00000000E+00  0.00000000E+00  0.00000000E+00
  0.00000000E+00  0.00000000E+00  0.00000000E+00
  0.00000000E+00  0.00000000E+00  0.00000000E+00
  0.00000000E+00  0.00000000E+00  0.00000000E+00
  0.00000000E+00  0.00000000E+00  0.00000000E+00
  0.00000000E+00  0.00000000E+00  0.00000000E+00
  0.00000000E+00  0.00000000E+00  0.00000000E+00
  0.00000000E+00  0.00000000E+00  0.00000000E+00
  0.00000000E+00  0.00000000E+00  0.00000000E+00
  0.00000000E+00  0.00000000E+00  0.00000000E+00
  0.00000000E+00  0.00000000E+00  0.00000000E+00
  0.00000000E+00  0.00000000E+00  0.00000000E+00
