Ba17 Al11 I1                            
   1.00000000000000     
     9.5285326760704532   -6.1421274784029096    3.6618079210058405
    -0.5456683470591759   11.3940658064948561    3.6967287923800805
    -9.0856374935721025   -5.2762752209079640    3.8216992502534288
   Al   I    Ba
    11     1    17
Direct
  0.7383690781602752  0.9840498846127872  0.0000847991009252
  0.3571227562228287  0.3590824384666575  0.2806401747773819
  0.9181814297161068  0.2221391733783449  0.2528047458288896
  0.3217865613713116  0.9950238193096723  0.2809869220645140
  0.2144136070410809  0.3716150445276725  0.4283650297447110
  0.3485841504833758  0.2301844932425539  0.4361547529406238
  0.9127081737058234  0.7942665855220810  0.5642467390729138
  0.7861994422541869  0.9435865094270994  0.5718407070200584
  0.0404403086651470  0.7134431712097040  0.7186957380606955
  0.6653205452751223  0.9690502571412480  0.7473473153691046
  0.0764990228297293  0.0786640726178263  0.7194064248574321
  0.7791812918194765  0.6118042378561555  0.0002403515661058
  0.0563353187224536  0.2876701388672771  0.0000598108225702
  0.3511687899503997  0.0931662376145113  0.9995159434683245
  0.7223629340367523  0.2727097824072757  0.9998921903809475
  0.0205942709139464  0.9709788121397267  0.0001361127742712
  0.0911787886999420  0.6573190088813448  0.0000935676477525
  0.6089633027201273  0.5943438865856905  0.2214671227377281
  0.5938173474057962  0.9598139635458764  0.2272810425640515
  0.0213123687110652  0.5718278360124742  0.3825795871831659
  0.9730205618624836  0.9802540129089152  0.3351521804836324
  0.4025231485685197  0.7077149786591761  0.3867708846482572
  0.6859774585037499  0.3941342607950986  0.4183484951767937
  0.2676432690269337  0.9760742589059035  0.5813162315624893
  0.0161259612052334  0.3216400101426871  0.6134986781327996
  0.6380656367827555  0.6449470718215835  0.6649671362790457
  0.6388810950246793  0.1884142281868719  0.6169242470809877
  0.3665349030029788  0.7324425996055979  0.7724021011718705
  0.3876444773177212  0.3729792256082050  0.7787819674819545
 
  0.00000000E+00  0.00000000E+00  0.00000000E+00
  0.00000000E+00  0.00000000E+00  0.00000000E+00
  0.00000000E+00  0.00000000E+00  0.00000000E+00
  0.00000000E+00  0.00000000E+00  0.00000000E+00
  0.00000000E+00  0.00000000E+00  0.00000000E+00
  0.00000000E+00  0.00000000E+00  0.00000000E+00
  0.00000000E+00  0.00000000E+00  0.00000000E+00
  0.00000000E+00  0.00000000E+00  0.00000000E+00
  0.00000000E+00  0.00000000E+00  0.00000000E+00
  0.00000000E+00  0.00000000E+00  0.00000000E+00
  0.00000000E+00  0.00000000E+00  0.00000000E+00
  0.00000000E+00  0.00000000E+00  0.00000000E+00
  0.00000000E+00  0.00000000E+00  0.00000000E+00
  0.00000000E+00  0.00000000E+00  0.00000000E+00
  0.00000000E+00  0.00000000E+00  0.00000000E+00
  0.00000000E+00  0.00000000E+00  0.00000000E+00
  0.00000000E+00  0.00000000E+00  0.00000000E+00
  0.00000000E+00  0.00000000E+00  0.00000000E+00
  0.00000000E+00  0.00000000E+00  0.00000000E+00
  0.00000000E+00  0.00000000E+00  0.00000000E+00
  0.00000000E+00  0.00000000E+00  0.00000000E+00
  0.00000000E+00  0.00000000E+00  0.00000000E+00
  0.00000000E+00  0.00000000E+00  0.00000000E+00
  0.00000000E+00  0.00000000E+00  0.00000000E+00
  0.00000000E+00  0.00000000E+00  0.00000000E+00
  0.00000000E+00  0.00000000E+00  0.00000000E+00
  0.00000000E+00  0.00000000E+00  0.00000000E+00
  0.00000000E+00  0.00000000E+00  0.00000000E+00
  0.00000000E+00  0.00000000E+00  0.00000000E+00
