Be1 Al2 I10                             
   1.00000000000000     
     4.8205648724387560    7.8055096086303362   -1.1891502405232790
    -4.8205648724387560    7.8055096086303362   -1.1891502405232790
     0.0000000000000000    3.6254195974009029    8.5953638697818064
   Be   Al   I 
     1     2    10
Direct
  0.4195133040760624  0.5804866959239376  0.0000000000000000
  0.0789930484172885  0.0427989482737914  0.7153308741615874
  0.9572010517262086  0.9210069515827115  0.2846691258384126
  0.1395282118761543  0.2858779852162598  0.6165758510295305
  0.7141220147837402  0.8604717881238528  0.3834241489704695
  0.6619428740320501  0.5694772450140491  0.0585963650520256
  0.4305227549859509  0.3380571259679499  0.9414036349479744
  0.9193252984746891  0.0806747015253109  0.0000000000000000
  0.1493993282799977  0.8506006717200023  0.5000000000000000
  0.7299864079413538  0.2089290826725829  0.6592687522962137
  0.7910709173274100  0.2700135920586462  0.3407312477037863
  0.3717969710648958  0.8194031829858162  0.8013475460900210
  0.1805968170141838  0.6282030289350971  0.1986524539099861
 
  0.00000000E+00  0.00000000E+00  0.00000000E+00
  0.00000000E+00  0.00000000E+00  0.00000000E+00
  0.00000000E+00  0.00000000E+00  0.00000000E+00
  0.00000000E+00  0.00000000E+00  0.00000000E+00
  0.00000000E+00  0.00000000E+00  0.00000000E+00
  0.00000000E+00  0.00000000E+00  0.00000000E+00
  0.00000000E+00  0.00000000E+00  0.00000000E+00
  0.00000000E+00  0.00000000E+00  0.00000000E+00
  0.00000000E+00  0.00000000E+00  0.00000000E+00
  0.00000000E+00  0.00000000E+00  0.00000000E+00
  0.00000000E+00  0.00000000E+00  0.00000000E+00
  0.00000000E+00  0.00000000E+00  0.00000000E+00
  0.00000000E+00  0.00000000E+00  0.00000000E+00
