Be4 Ga4 I20                             
   1.0000000000000000     
     6.4033683489885087   -0.0000000000000001    0.0000000000000006
    -0.0000000000000006   10.5449917096712369    0.0000000000000007
     0.0000000000000003    0.0000000000000008   23.3913737618551387
   Be   Ga   I 
     4     4    20
Direct
  0.0757573397973204  0.6439865454008924  0.6246635403913956
  0.5757573397973204  0.8560134545991076  0.3753364596086044
  0.9242426602026796  0.1439865454008924  0.8753364596086044
  0.4242426602026796  0.3560134545991076  0.1246635403913956
  0.2293674355362540  0.2615710583583137  0.5653021662486211
  0.7293674355362540  0.2384289416416863  0.4346978337513789
  0.7706325644637460  0.7615710583583137  0.9346978337513789
  0.2706325644637460  0.7384289416416863  0.0653021662486211
  0.3063823169941955  0.7175419837574140  0.5609654449308650
  0.8063823169941955  0.7824580162425860  0.4390345550691350
  0.6936176830058045  0.2175419837574140  0.9390345550691350
  0.1936176830058045  0.2824580162425860  0.0609654449308650
  0.3735499914992815  0.7728864557073081  0.3065998142942661
  0.8735499914992815  0.7271135442926919  0.6934001857057268
  0.6264500085007185  0.2728864557073081  0.1934001857057268
  0.1264500085007185  0.2271135442926919  0.8065998142942661
  0.9922566525971135  0.4136671433711143  0.6254865471941713
  0.4922566525971135  0.0863328566288857  0.3745134528058287
  0.0077433474028865  0.9136671433711143  0.8745134528058287
  0.5077433474028865  0.5863328566288857  0.1254865471941713
  0.4372235590116134  0.1088007285272141  0.6244413662280408
  0.9372235590116134  0.3911992714727859  0.3755586337719663
  0.5627764409883866  0.6088007285272141  0.8755586337719592
  0.0627764409883866  0.8911992714727859  0.1244413662280337
  0.4727364292536720  0.3962315125158682  0.4942385279049120
  0.9727364292536720  0.1037684874841318  0.5057614720950880
  0.5272635707463280  0.8962315125158682  0.0057614720950880
  0.0272635707463280  0.6037684874841318  0.9942385279049120

  0.00000000E+00  0.00000000E+00  0.00000000E+00
  0.00000000E+00  0.00000000E+00  0.00000000E+00
  0.00000000E+00  0.00000000E+00  0.00000000E+00
  0.00000000E+00  0.00000000E+00  0.00000000E+00
  0.00000000E+00  0.00000000E+00  0.00000000E+00
  0.00000000E+00  0.00000000E+00  0.00000000E+00
  0.00000000E+00  0.00000000E+00  0.00000000E+00
  0.00000000E+00  0.00000000E+00  0.00000000E+00
  0.00000000E+00  0.00000000E+00  0.00000000E+00
  0.00000000E+00  0.00000000E+00  0.00000000E+00
  0.00000000E+00  0.00000000E+00  0.00000000E+00
  0.00000000E+00  0.00000000E+00  0.00000000E+00
  0.00000000E+00  0.00000000E+00  0.00000000E+00
  0.00000000E+00  0.00000000E+00  0.00000000E+00
  0.00000000E+00  0.00000000E+00  0.00000000E+00
  0.00000000E+00  0.00000000E+00  0.00000000E+00
  0.00000000E+00  0.00000000E+00  0.00000000E+00
  0.00000000E+00  0.00000000E+00  0.00000000E+00
  0.00000000E+00  0.00000000E+00  0.00000000E+00
  0.00000000E+00  0.00000000E+00  0.00000000E+00
  0.00000000E+00  0.00000000E+00  0.00000000E+00
  0.00000000E+00  0.00000000E+00  0.00000000E+00
  0.00000000E+00  0.00000000E+00  0.00000000E+00
  0.00000000E+00  0.00000000E+00  0.00000000E+00
  0.00000000E+00  0.00000000E+00  0.00000000E+00
  0.00000000E+00  0.00000000E+00  0.00000000E+00
  0.00000000E+00  0.00000000E+00  0.00000000E+00
  0.00000000E+00  0.00000000E+00  0.00000000E+00
