Be2 Tl2 I6                              
   1.0000000000000000     
     7.7905258286091019    0.0008428024352296    0.0000000000000000
    -3.8945331219517900    6.7477124818503800    0.0000000000000000
     0.0000000000000000    0.0000000000000000    6.5763105350042030
   I    Be   Tl
     6     2     2
Direct
  0.1578068434061990  0.3156484059299203  0.2500000000000000
  0.1579350926527212  0.8420594209809806  0.2500000000000000
  0.6842740159891392  0.8421008539710826  0.2500000000000000
  0.3157259840108608  0.1578991460289174  0.7500000000000000
  0.8420649073472788  0.1579405790190194  0.7500000000000000
  0.8421931565938010  0.6843515940700797  0.7500000000000000
  0.0000000000000000  0.0000000000000000  0.0000000000000000
  0.0000000000000000  0.0000000000000000  0.5000000000000000
  0.6675773585820863  0.3324109124986236  0.2500000000000000
  0.3324226414179137  0.6675890875013764  0.7500000000000000

  0.00000000E+00  0.00000000E+00  0.00000000E+00
  0.00000000E+00  0.00000000E+00  0.00000000E+00
  0.00000000E+00  0.00000000E+00  0.00000000E+00
  0.00000000E+00  0.00000000E+00  0.00000000E+00
  0.00000000E+00  0.00000000E+00  0.00000000E+00
  0.00000000E+00  0.00000000E+00  0.00000000E+00
  0.00000000E+00  0.00000000E+00  0.00000000E+00
  0.00000000E+00  0.00000000E+00  0.00000000E+00
  0.00000000E+00  0.00000000E+00  0.00000000E+00
  0.00000000E+00  0.00000000E+00  0.00000000E+00
