Be1 Ga2 Cl6                             
   1.00000000000000     
     3.2701509147780312    1.8873330107822808    5.3476124993030849
    -3.2701509147780312    1.8873330107822808    5.3476124993030849
     0.0000000000000000   -3.7691329483706744    5.3456571814498286
   Be   Cl   Ga
     1     6     2
Direct
  0.0000000000000000  0.0000000000000000  0.0000000000000000
  0.7603378853946055  0.7603378853946055  0.2396219199340095
  0.7603306906441389  0.2396506426086660  0.2396683538013917
  0.2396506426086660  0.7603306906441389  0.2396683538013917
  0.2396621146053945  0.2396621146053945  0.7603780800659905
  0.7603493573913340  0.2396693093558611  0.7603316461986083
  0.2396693093558611  0.7603493573913340  0.7603316461986083
  0.2500021058567512  0.2500021058567512  0.2500091847962196
  0.7499978941432488  0.7499978941432488  0.7499908152037804
 
  0.00000000E+00  0.00000000E+00  0.00000000E+00
  0.00000000E+00  0.00000000E+00  0.00000000E+00
  0.00000000E+00  0.00000000E+00  0.00000000E+00
  0.00000000E+00  0.00000000E+00  0.00000000E+00
  0.00000000E+00  0.00000000E+00  0.00000000E+00
  0.00000000E+00  0.00000000E+00  0.00000000E+00
  0.00000000E+00  0.00000000E+00  0.00000000E+00
  0.00000000E+00  0.00000000E+00  0.00000000E+00
  0.00000000E+00  0.00000000E+00  0.00000000E+00
