Sr1 Al2 Cl10                            
   1.00000000000000     
     4.0053840917708188    5.8081583642135000    0.2147958714528919
    -4.0053840917708188    5.8081583642135000    0.2147958714528919
     0.0000000000000000    4.4427658348016470    8.3670412123608049
   Sr   Al   Cl
     1     2    10
Direct
  0.5580203530276222  0.4419796469723778  0.0000000000000000
  0.0059758870771418  0.0091861640850937  0.7372232035439907
  0.9908138359149063  0.9940241129228582  0.2627767964560235
  0.2076770623786430  0.2494879493913658  0.6065517043832500
  0.7505120506086342  0.7923229376213641  0.3934482956167500
  0.7983723293349101  0.7635604725445262  0.8885038700502932
  0.2364395274554738  0.2016276706650899  0.1114961299497068
  0.9248242094943819  0.0751757905056181  0.0000000000000000
  0.0820194898415068  0.9179805101584932  0.5000000000000000
  0.7144532639579637  0.2789891895782191  0.7054511138524902
  0.7210108104217809  0.2855467360420363  0.2945488861475098
  0.3042228962408160  0.7503427157537672  0.7797264405244846
  0.2496572842462328  0.6957771037591911  0.2202735594755154
 
  0.00000000E+00  0.00000000E+00  0.00000000E+00
  0.00000000E+00  0.00000000E+00  0.00000000E+00
  0.00000000E+00  0.00000000E+00  0.00000000E+00
  0.00000000E+00  0.00000000E+00  0.00000000E+00
  0.00000000E+00  0.00000000E+00  0.00000000E+00
  0.00000000E+00  0.00000000E+00  0.00000000E+00
  0.00000000E+00  0.00000000E+00  0.00000000E+00
  0.00000000E+00  0.00000000E+00  0.00000000E+00
  0.00000000E+00  0.00000000E+00  0.00000000E+00
  0.00000000E+00  0.00000000E+00  0.00000000E+00
  0.00000000E+00  0.00000000E+00  0.00000000E+00
  0.00000000E+00  0.00000000E+00  0.00000000E+00
  0.00000000E+00  0.00000000E+00  0.00000000E+00
