Mg8 In8 I40                             
   1.00000000000000     
    11.6327722381968819    0.0000000000000000    0.0000000000000000
     0.0000000000000000   11.0472416773708755   -0.4443217988485113
     0.0000000000000000    1.2347021314535060   23.3109535537989387
   Mg   In   I 
     8     8    40
Direct
  0.1982105896835904  0.0942844754992223  0.1438182672344936
  0.8017894103164096  0.9057155245007920  0.8561817327654992
  0.6982105896835904  0.9057155245007920  0.3561817327654921
  0.3017894103164096  0.0942844754992223  0.6438182672345008
  0.0474891784917020  0.4062541777884476  0.0584032248242039
  0.9525108215082980  0.5937458222115524  0.9415967751757961
  0.5474891784917020  0.5937458222115524  0.4415967751757961
  0.4525108215082980  0.4062541777884476  0.5584032248242039
  0.7759701481417238  0.3262884709323401  0.3175619042985076
  0.2240298518582691  0.6737115290676456  0.6824380957014853
  0.2759701481417309  0.6737115290676456  0.1824380957014853
  0.7240298518582762  0.3262884709323401  0.8175619042985147
  0.6582739862184042  0.8053595314745934  0.1607877314806245
  0.3417260137815958  0.1946404685254066  0.8392122685193684
  0.1582739862184042  0.1946404685254066  0.3392122685193755
  0.8417260137815958  0.8053595314745934  0.6607877314806316
  0.2100348554498055  0.8457748446699824  0.1007765116619623
  0.7899651445501945  0.1542251553300105  0.8992234883380377
  0.7100348554498055  0.1542251553300105  0.3992234883380377
  0.2899651445501945  0.8457748446699824  0.6007765116619623
  0.8291256698466682  0.4908702980533235  0.0295281635121114
  0.1708743301533460  0.5091297019466694  0.9704718364878815
  0.3291256698466540  0.5091297019466694  0.4704718364878815
  0.6708743301533318  0.4908702980533235  0.5295281635121185
  0.4772020632517737  0.1599851816356335  0.5676418340221048
  0.5227979367482263  0.8400148183643736  0.4323581659778810
  0.9772020632517737  0.8400148183643736  0.9323581659778952
  0.0227979367482263  0.1599851816356335  0.0676418340221190
  0.5723533456085477  0.9428242258215036  0.2529813659834090
  0.4276466543914523  0.0571757741785106  0.7470186340165910
  0.0723533456085477  0.0571757741785106  0.2470186340165839
  0.9276466543914523  0.9428242258215036  0.7529813659834090
  0.8566140213603006  0.6966085459060878  0.1905301946583791
  0.1433859786397065  0.3033914540939122  0.8094698053416138
  0.3566140213602935  0.3033914540939122  0.3094698053416138
  0.6433859786396994  0.6966085459060878  0.6905301946583862
  0.6334375918669650  0.9184933096340657  0.0593834274029348
  0.3665624081330350  0.0815066903659343  0.9406165725970510
  0.1334375918669650  0.0815066903659343  0.4406165725970510
  0.8665624081330350  0.9184933096340657  0.5593834274029490
  0.6295691278378115  0.5293929255637764  0.3321514269831169
  0.3704308721621885  0.4706070744362236  0.6678485730168973
  0.1295691278378115  0.4706070744362236  0.1678485730168831
  0.8704308721621885  0.5293929255637764  0.8321514269831027
  0.7609557670332023  0.2734797248871033  0.2059215660026297
  0.2390442329667977  0.7265202751128967  0.7940784339973774
  0.2609557670331952  0.7265202751128967  0.2940784339973774
  0.7390442329667977  0.2734797248871033  0.7059215660026226
  0.3960440695170959  0.2009918840768066  0.1290157100584679
  0.6039559304829041  0.7990081159232005  0.8709842899415392
  0.8960440695170959  0.7990081159232005  0.3709842899415463
  0.1039559304829041  0.2009918840768066  0.6290157100584608
  0.4992113134936531  0.5943193295214613  0.1527241347906170
  0.5007886865063469  0.4056806704785458  0.8472758652093830
  0.9992113134936531  0.4056806704785458  0.3472758652093830
  0.0007886865063469  0.5943193295214613  0.6527241347906170
 
  0.00000000E+00  0.00000000E+00  0.00000000E+00
  0.00000000E+00  0.00000000E+00  0.00000000E+00
  0.00000000E+00  0.00000000E+00  0.00000000E+00
  0.00000000E+00  0.00000000E+00  0.00000000E+00
  0.00000000E+00  0.00000000E+00  0.00000000E+00
  0.00000000E+00  0.00000000E+00  0.00000000E+00
  0.00000000E+00  0.00000000E+00  0.00000000E+00
  0.00000000E+00  0.00000000E+00  0.00000000E+00
  0.00000000E+00  0.00000000E+00  0.00000000E+00
  0.00000000E+00  0.00000000E+00  0.00000000E+00
  0.00000000E+00  0.00000000E+00  0.00000000E+00
  0.00000000E+00  0.00000000E+00  0.00000000E+00
  0.00000000E+00  0.00000000E+00  0.00000000E+00
  0.00000000E+00  0.00000000E+00  0.00000000E+00
  0.00000000E+00  0.00000000E+00  0.00000000E+00
  0.00000000E+00  0.00000000E+00  0.00000000E+00
  0.00000000E+00  0.00000000E+00  0.00000000E+00
  0.00000000E+00  0.00000000E+00  0.00000000E+00
  0.00000000E+00  0.00000000E+00  0.00000000E+00
  0.00000000E+00  0.00000000E+00  0.00000000E+00
  0.00000000E+00  0.00000000E+00  0.00000000E+00
  0.00000000E+00  0.00000000E+00  0.00000000E+00
  0.00000000E+00  0.00000000E+00  0.00000000E+00
  0.00000000E+00  0.00000000E+00  0.00000000E+00
  0.00000000E+00  0.00000000E+00  0.00000000E+00
  0.00000000E+00  0.00000000E+00  0.00000000E+00
  0.00000000E+00  0.00000000E+00  0.00000000E+00
  0.00000000E+00  0.00000000E+00  0.00000000E+00
  0.00000000E+00  0.00000000E+00  0.00000000E+00
  0.00000000E+00  0.00000000E+00  0.00000000E+00
  0.00000000E+00  0.00000000E+00  0.00000000E+00
  0.00000000E+00  0.00000000E+00  0.00000000E+00
  0.00000000E+00  0.00000000E+00  0.00000000E+00
  0.00000000E+00  0.00000000E+00  0.00000000E+00
  0.00000000E+00  0.00000000E+00  0.00000000E+00
  0.00000000E+00  0.00000000E+00  0.00000000E+00
  0.00000000E+00  0.00000000E+00  0.00000000E+00
  0.00000000E+00  0.00000000E+00  0.00000000E+00
  0.00000000E+00  0.00000000E+00  0.00000000E+00
  0.00000000E+00  0.00000000E+00  0.00000000E+00
  0.00000000E+00  0.00000000E+00  0.00000000E+00
  0.00000000E+00  0.00000000E+00  0.00000000E+00
  0.00000000E+00  0.00000000E+00  0.00000000E+00
  0.00000000E+00  0.00000000E+00  0.00000000E+00
  0.00000000E+00  0.00000000E+00  0.00000000E+00
  0.00000000E+00  0.00000000E+00  0.00000000E+00
  0.00000000E+00  0.00000000E+00  0.00000000E+00
  0.00000000E+00  0.00000000E+00  0.00000000E+00
  0.00000000E+00  0.00000000E+00  0.00000000E+00
  0.00000000E+00  0.00000000E+00  0.00000000E+00
  0.00000000E+00  0.00000000E+00  0.00000000E+00
  0.00000000E+00  0.00000000E+00  0.00000000E+00
  0.00000000E+00  0.00000000E+00  0.00000000E+00
  0.00000000E+00  0.00000000E+00  0.00000000E+00
  0.00000000E+00  0.00000000E+00  0.00000000E+00
  0.00000000E+00  0.00000000E+00  0.00000000E+00
