Ca2 B2 Cl10                             
   1.00000000000000     
     6.5829462337017892   -6.1448736354442035    0.3842967694672944
     6.5829462337017892    6.1448736354442044    0.3842967694672942
    -3.8092710709662772   -0.0000000000000002    6.6518720646968355
   Ca   Cl   B 
     2    10     2
Direct
  0.4606962667967593  0.5254546538197076  0.1932820558561517
  0.5254546538197076  0.4606962667967593  0.6932820558561517
  0.2878597851453648  0.4330018516808352  0.8158322191196845
  0.2582313350967951  0.8175117241257936  0.2099325618368937
  0.8845783500547597  0.2891776847779397  0.3609177123976508
  0.8205325500834491  0.9675821567143217  0.3731475510230382
  0.5482689299227630  0.6974443326402024  0.5709630228680780
  0.4330018516808352  0.2878597851453648  0.3158322191196845
  0.8175117241257936  0.2582313350967951  0.7099325618368937
  0.2891776847779397  0.8845783500547597  0.8609177123976508
  0.9675821567143217  0.8205325500834491  0.8731475510230382
  0.6974443326402024  0.5482689299227630  0.0709630228680780
  0.1700364475217597  0.8392239316195500  0.9759248768985032
  0.8392239316195500  0.1700364475217597  0.4759248768985032
 
  0.00000000E+00  0.00000000E+00  0.00000000E+00
  0.00000000E+00  0.00000000E+00  0.00000000E+00
  0.00000000E+00  0.00000000E+00  0.00000000E+00
  0.00000000E+00  0.00000000E+00  0.00000000E+00
  0.00000000E+00  0.00000000E+00  0.00000000E+00
  0.00000000E+00  0.00000000E+00  0.00000000E+00
  0.00000000E+00  0.00000000E+00  0.00000000E+00
  0.00000000E+00  0.00000000E+00  0.00000000E+00
  0.00000000E+00  0.00000000E+00  0.00000000E+00
  0.00000000E+00  0.00000000E+00  0.00000000E+00
  0.00000000E+00  0.00000000E+00  0.00000000E+00
  0.00000000E+00  0.00000000E+00  0.00000000E+00
  0.00000000E+00  0.00000000E+00  0.00000000E+00
  0.00000000E+00  0.00000000E+00  0.00000000E+00
