Sr4 In4 F20                             
   1.0000000000000000     
     0.0000000000000000    5.3542364858546048    0.0382490899711186
     8.4655109244844411    0.0000000000000000    0.0000000000000000
     0.0000000000000000   -0.2065741763730291   -8.1487059513880116
   Sr   In   F 
     4     4    20
Direct
  0.4964517073215546  0.2606966146379150  0.3013821787033137
  0.5035482926784454  0.7606966146379079  0.6986178212966863
  0.0052452705157080  0.9803898850491137  0.0583854918084867
  0.9947547294842849  0.4803898850491137  0.9416145081915204
  0.4825037711521460  0.7116398561667054  0.1669333175573513
  0.5174962288478540  0.2116398561666983  0.8330666824426487
  0.9875623901072430  0.5911843641888339  0.4264653306463018
  0.0124376098927570  0.0911843641888339  0.5735346693536982
  0.1242583115746569  0.0941021363662742  0.3279923846842436
  0.3433973688039558  0.5503633136895587  0.5175975199749843
  0.6566026311960513  0.0503633136895587  0.4824024800250086
  0.7482015685450349  0.7319391222766285  0.9773965518202417
  0.7493736413062777  0.5215984400106919  0.2042139206831806
  0.5182169698594947  0.9596051450866554  0.1404029617282703
  0.8794999212803774  0.2726273370909951  0.7393682236916774
  0.6660917218556506  0.7467544309652325  0.4003078529907995
  0.2506263586937223  0.0215984400106919  0.7957860793168194
  0.1010247865627889  0.8463907698293553  0.5650610956473372
  0.4817830301405053  0.4596051450866554  0.8595970382717297
  0.8757416884253431  0.5941021363662813  0.6720076153157564
  0.7418086616970285  0.9991051601039800  0.7974120384222871
  0.7538920084959742  0.2312024045380667  0.0508158137415364
  0.8989752134372111  0.3463907698293625  0.4349389043526557
  0.1205000787196226  0.7726273370909951  0.2606317763083226
  0.2517984314549579  0.2319391222766285  0.0226034481797441
  0.2461079915040258  0.7312024045380667  0.9491841862584707
  0.3339082781443423  0.2467544309652325  0.5996921470092005
  0.2581913383029715  0.4991051601039800  0.2025879615777129

  0.00000000E+00  0.00000000E+00  0.00000000E+00
  0.00000000E+00  0.00000000E+00  0.00000000E+00
  0.00000000E+00  0.00000000E+00  0.00000000E+00
  0.00000000E+00  0.00000000E+00  0.00000000E+00
  0.00000000E+00  0.00000000E+00  0.00000000E+00
  0.00000000E+00  0.00000000E+00  0.00000000E+00
  0.00000000E+00  0.00000000E+00  0.00000000E+00
  0.00000000E+00  0.00000000E+00  0.00000000E+00
  0.00000000E+00  0.00000000E+00  0.00000000E+00
  0.00000000E+00  0.00000000E+00  0.00000000E+00
  0.00000000E+00  0.00000000E+00  0.00000000E+00
  0.00000000E+00  0.00000000E+00  0.00000000E+00
  0.00000000E+00  0.00000000E+00  0.00000000E+00
  0.00000000E+00  0.00000000E+00  0.00000000E+00
  0.00000000E+00  0.00000000E+00  0.00000000E+00
  0.00000000E+00  0.00000000E+00  0.00000000E+00
  0.00000000E+00  0.00000000E+00  0.00000000E+00
  0.00000000E+00  0.00000000E+00  0.00000000E+00
  0.00000000E+00  0.00000000E+00  0.00000000E+00
  0.00000000E+00  0.00000000E+00  0.00000000E+00
  0.00000000E+00  0.00000000E+00  0.00000000E+00
  0.00000000E+00  0.00000000E+00  0.00000000E+00
  0.00000000E+00  0.00000000E+00  0.00000000E+00
  0.00000000E+00  0.00000000E+00  0.00000000E+00
  0.00000000E+00  0.00000000E+00  0.00000000E+00
  0.00000000E+00  0.00000000E+00  0.00000000E+00
  0.00000000E+00  0.00000000E+00  0.00000000E+00
  0.00000000E+00  0.00000000E+00  0.00000000E+00
