Ca5Al3                                  
   1.00000000000000     
     9.4038971325444507   -0.0000011738636785    0.0000000000000000
    -4.7014500588344017    8.1442237796220063    0.0000000000000000
     0.0000000000000000    0.0000000000000000    6.4639163649231390
   Al   Ca
     6    10
Direct
  0.6033030959030015  0.9998922064639899  0.2500000000000000
  0.3967291456864928  0.3967293234888345  0.2500000000000000
  0.9998925793513678  0.6033038075116721  0.2500000000000000
  0.3966969040969985  0.0001077935360101  0.7500000000000000
  0.0001074206486322  0.3966961924883279  0.7500000000000000
  0.6032708543135072  0.6032706765111655  0.7500000000000000
  0.6666744721516764  0.3333256768451776  0.9999999834292055
  0.3333255278483236  0.6666743231548224  0.0000000165707945
  0.2634126691231060  0.0000315351468672  0.2500000000000000
  0.0000312581543582  0.2634130229038476  0.2500000000000000
  0.7364893908912080  0.7364893225202920  0.2500000000000000
  0.6666744721516764  0.3333256768451776  0.5000000165707945
  0.3333255278483236  0.6666743231548224  0.4999999834292055
  0.7365873308768940  0.9999684648531328  0.7500000000000000
  0.2635106091087920  0.2635106774797080  0.7500000000000000
  0.9999687418456418  0.7365869770961524  0.7500000000000000
 
  0.00000000E+00  0.00000000E+00  0.00000000E+00
  0.00000000E+00  0.00000000E+00  0.00000000E+00
  0.00000000E+00  0.00000000E+00  0.00000000E+00
  0.00000000E+00  0.00000000E+00  0.00000000E+00
  0.00000000E+00  0.00000000E+00  0.00000000E+00
  0.00000000E+00  0.00000000E+00  0.00000000E+00
  0.00000000E+00  0.00000000E+00  0.00000000E+00
  0.00000000E+00  0.00000000E+00  0.00000000E+00
  0.00000000E+00  0.00000000E+00  0.00000000E+00
  0.00000000E+00  0.00000000E+00  0.00000000E+00
  0.00000000E+00  0.00000000E+00  0.00000000E+00
  0.00000000E+00  0.00000000E+00  0.00000000E+00
  0.00000000E+00  0.00000000E+00  0.00000000E+00
  0.00000000E+00  0.00000000E+00  0.00000000E+00
  0.00000000E+00  0.00000000E+00  0.00000000E+00
  0.00000000E+00  0.00000000E+00  0.00000000E+00
