In1 I6                                  
   1.00000000000000     
     4.3023991741147896    5.2837535780062153    4.9752771768951467
    -5.3024553357089541    2.8415012482572335    6.9138698777845260
    -1.4129306127684520   -4.6819730514377751    4.4078025957598888
   I    In
     6     1
Direct
  0.9647104132531581  0.4250161766745464  0.8973846922101245
  0.5521556667711778  0.9715119186591821  0.1733802969947646
  0.1192183583780491  0.8759262573906312  0.4184588306741617
  0.8296971577695800  0.2546055758727306  0.6574117621489748
  0.5633596261907883  0.9639077774931337  0.6702343335560599
  0.1075822906607726  0.5764210997404646  0.1450936127987816
  0.8636764869764875  0.9330111941693104  0.0384364716171390
 
  0.00000000E+00  0.00000000E+00  0.00000000E+00
  0.00000000E+00  0.00000000E+00  0.00000000E+00
  0.00000000E+00  0.00000000E+00  0.00000000E+00
  0.00000000E+00  0.00000000E+00  0.00000000E+00
  0.00000000E+00  0.00000000E+00  0.00000000E+00
  0.00000000E+00  0.00000000E+00  0.00000000E+00
  0.00000000E+00  0.00000000E+00  0.00000000E+00
