Sr2 Al2 Cl10                            
   1.00000000000000     
     6.5254099963923489    0.0673293206265895    2.4467293098158325
     1.4956850335203760    6.3520409395051862    2.4467296278213393
     0.0531792524610861    0.0425622716818852    9.6028256403226671
   Sr   Al   Cl
     2     2    10
Direct
  0.4393096276631354  0.5606903716019005  0.2500000005066170
  0.5606903723368646  0.4393096283980995  0.7499999994933830
  0.0000000000000000  0.0000000000000000  0.5000000000000000
  0.0000000000000000  0.0000000000000000  0.0000000000000000
  0.7906174950002480  0.7683306013149078  0.6171734235787483
  0.2316694022122618  0.2093815017686325  0.8828265762062060
  0.2093815049997403  0.2316693986850922  0.3828275764212563
  0.7683305977877382  0.7906174982313701  0.1171734237937940
  0.9309591366862833  0.0690408627493753  0.7500000004059544
  0.0690408633137167  0.9309591372506247  0.2499999995940456
  0.7231172181398904  0.2992208058312826  0.0307848735504734
  0.7007791922303426  0.2768827786395818  0.4692151301838194
  0.2768827818601096  0.7007791941687174  0.9692151264495266
  0.2992208077696574  0.7231172213604182  0.5307848698161806
 
  0.00000000E+00  0.00000000E+00  0.00000000E+00
  0.00000000E+00  0.00000000E+00  0.00000000E+00
  0.00000000E+00  0.00000000E+00  0.00000000E+00
  0.00000000E+00  0.00000000E+00  0.00000000E+00
  0.00000000E+00  0.00000000E+00  0.00000000E+00
  0.00000000E+00  0.00000000E+00  0.00000000E+00
  0.00000000E+00  0.00000000E+00  0.00000000E+00
  0.00000000E+00  0.00000000E+00  0.00000000E+00
  0.00000000E+00  0.00000000E+00  0.00000000E+00
  0.00000000E+00  0.00000000E+00  0.00000000E+00
  0.00000000E+00  0.00000000E+00  0.00000000E+00
  0.00000000E+00  0.00000000E+00  0.00000000E+00
  0.00000000E+00  0.00000000E+00  0.00000000E+00
  0.00000000E+00  0.00000000E+00  0.00000000E+00
