Sr1 Ga3 Cl6                             
   1.00000000000000     
     7.7166344920535028    0.0751479467701711    0.2779329688588097
     0.0751479467701711    7.7166344920535028    0.2779329688588099
     4.0848702295027142    4.0848702295027142    5.7942878635518484
   Cl   Sr   Ga
     6     1     3
Direct
  0.7365680144804685  0.2634319855195315  0.0000000000000000
  0.2284951189599695  0.2284951189599695  0.0626087002110225
  0.2634319855195315  0.7365680144804685  0.0000000000000000
  0.7715048810400305  0.7715048810400305  0.9373912997889775
  0.7726012829659012  0.7726012829659012  0.5191849467860905
  0.2273987170340988  0.2273987170340988  0.4808150532139095
  0.0000000000000000  0.0000000000000000  0.0000000000000000
  0.5000000000000000  0.5000000000000000  0.0000000000000000
  0.1619955669830873  0.8380044330169056  0.5000000000000000
  0.8380044330169056  0.1619955669830873  0.5000000000000000
 
  0.00000000E+00  0.00000000E+00  0.00000000E+00
  0.00000000E+00  0.00000000E+00  0.00000000E+00
  0.00000000E+00  0.00000000E+00  0.00000000E+00
  0.00000000E+00  0.00000000E+00  0.00000000E+00
  0.00000000E+00  0.00000000E+00  0.00000000E+00
  0.00000000E+00  0.00000000E+00  0.00000000E+00
  0.00000000E+00  0.00000000E+00  0.00000000E+00
  0.00000000E+00  0.00000000E+00  0.00000000E+00
  0.00000000E+00  0.00000000E+00  0.00000000E+00
  0.00000000E+00  0.00000000E+00  0.00000000E+00
