Ca18 B11                                
   1.00000000000000     
     8.2367994753451423    7.9278743749828609   -1.0247378905280906
    -8.2367994753451423    7.9278743749828609   -1.0247378905280906
     0.0000000000000000    6.2151429365933542    4.8072199082840168
   Ca   B 
    18    11
Direct
  0.9126917107490584  0.9126917107490584  0.4133458693172187
  0.1873245640616830  0.5709656905174256  0.9902001535160494
  0.0300507253558422  0.2738850653904450  0.9273878293572366
  0.2738850653904450  0.0300507253558422  0.9273878293572366
  0.5709656905174256  0.1873245640616830  0.9902001535160494
  0.3983522612662753  0.3983522612662753  0.7129743580186059
  0.5886900637966264  0.5886900637966264  0.8895581993435613
  0.5991650451796318  0.9336976855393999  0.8424744395649810
  0.9336976855393999  0.5991650451796318  0.8424744395649810
  0.0098165585712877  0.0098165585712877  0.8261963314140317
  0.5185505297276407  0.8845687695649787  0.4733290678748077
  0.8845687695649787  0.5185505297276407  0.4733290678748077
  0.9176269708499305  0.2039399217095479  0.4391946329215841
  0.2039399217095479  0.9176269708499305  0.4391946329215841
  0.7295656283346474  0.7295656283346474  0.1718876231526281
  0.2409731130029371  0.6112102851302552  0.3529769148473605
  0.6112102851302552  0.2409731130029371  0.3529769148473605
  0.2783951276660446  0.2783951276660446  0.3180155314385473
  0.7537512775699469  0.0444149705590320  0.9453909681640909
  0.0444149705590320  0.7537512775699469  0.9453909681640909
  0.8806617805273405  0.2059843736849842  0.7852129058890114
  0.2059843736849842  0.8806617805273405  0.7852129058890114
  0.0291885968271757  0.3409461569085082  0.5522829176045647
  0.3409461569085082  0.0291885968271757  0.5522829176045647
  0.7588610496366215  0.0698046249020763  0.3366545511838197
  0.0698046249020763  0.7588610496366215  0.3366545511838197
  0.7779214008329731  0.0795437663633507  0.1119249779223068
  0.0795437663633507  0.7779214008329731  0.1119249779223068
  0.1694522857743124  0.1694522857743124  0.1539643696237647
 
  0.00000000E+00  0.00000000E+00  0.00000000E+00
  0.00000000E+00  0.00000000E+00  0.00000000E+00
  0.00000000E+00  0.00000000E+00  0.00000000E+00
  0.00000000E+00  0.00000000E+00  0.00000000E+00
  0.00000000E+00  0.00000000E+00  0.00000000E+00
  0.00000000E+00  0.00000000E+00  0.00000000E+00
  0.00000000E+00  0.00000000E+00  0.00000000E+00
  0.00000000E+00  0.00000000E+00  0.00000000E+00
  0.00000000E+00  0.00000000E+00  0.00000000E+00
  0.00000000E+00  0.00000000E+00  0.00000000E+00
  0.00000000E+00  0.00000000E+00  0.00000000E+00
  0.00000000E+00  0.00000000E+00  0.00000000E+00
  0.00000000E+00  0.00000000E+00  0.00000000E+00
  0.00000000E+00  0.00000000E+00  0.00000000E+00
  0.00000000E+00  0.00000000E+00  0.00000000E+00
  0.00000000E+00  0.00000000E+00  0.00000000E+00
  0.00000000E+00  0.00000000E+00  0.00000000E+00
  0.00000000E+00  0.00000000E+00  0.00000000E+00
  0.00000000E+00  0.00000000E+00  0.00000000E+00
  0.00000000E+00  0.00000000E+00  0.00000000E+00
  0.00000000E+00  0.00000000E+00  0.00000000E+00
  0.00000000E+00  0.00000000E+00  0.00000000E+00
  0.00000000E+00  0.00000000E+00  0.00000000E+00
  0.00000000E+00  0.00000000E+00  0.00000000E+00
  0.00000000E+00  0.00000000E+00  0.00000000E+00
  0.00000000E+00  0.00000000E+00  0.00000000E+00
  0.00000000E+00  0.00000000E+00  0.00000000E+00
  0.00000000E+00  0.00000000E+00  0.00000000E+00
  0.00000000E+00  0.00000000E+00  0.00000000E+00
