Ca4 Tl4 I20                             
   1.0000000000000000     
     5.0566558199425833   -0.0000000000000001    0.0000000000000004
    -0.0000000000000003    8.9892034699482011    0.0000000000000010
    -0.0000000000000010   -0.0000000000000002   33.7513200976875396
   Ca   Tl   I 
     4     4    20
Direct
  0.0927560924289708  0.2256989056942444  0.3840943365571832
  0.5927560924289708  0.2743010943057556  0.6159056634428168
  0.9072439075710221  0.7256989056942516  0.1159056634428168
  0.4072439075710221  0.7743010943057484  0.8840943365571832
  0.5793402906899985  0.6643668176911177  0.4099591373009162
  0.0793402906899985  0.8356331823088823  0.5900408626990767
  0.4206597093100015  0.1643668176911177  0.0900408626990767
  0.9206597093100015  0.3356331823088823  0.9099591373009162
  0.0834444075385008  0.4559858321215700  0.4487370484377706
  0.5834444075384937  0.0440141678784300  0.5512629515622294
  0.9165555924614992  0.9559858321215700  0.0512629515622294
  0.4165555924614992  0.5440141678784300  0.9487370484377706
  0.4061388175299570  0.8457190916374770  0.1580977548933333
  0.9061388175299570  0.6542809083625230  0.8419022451066667
  0.5938611824700430  0.3457190916374842  0.3419022451066667
  0.0938611824700430  0.1542809083625158  0.6580977548933333
  0.4518625630990769  0.0477979989593180  0.9363611538706991
  0.9518625630990769  0.4522020010406820  0.0636388461293009
  0.5481374369009231  0.5477979989593180  0.5636388461293009
  0.0481374369009231  0.9522020010406820  0.4363611538706991
  0.1423918641632653  0.8987167602527961  0.3412271378438092
  0.6423918641632653  0.6012832397472039  0.6587728621561908
  0.8576081358367347  0.3987167602527961  0.1587728621562050
  0.3576081358367418  0.1012832397472039  0.8412271378438092
  0.7572632288968251  0.6228377381389123  0.7396921568480437
  0.2572632288968251  0.8771622618610877  0.2603078431519563
  0.2427367711031749  0.1228377381389123  0.7603078431519563
  0.7427367711031749  0.3771622618610877  0.2396921568480437

  0.00000000E+00  0.00000000E+00  0.00000000E+00
  0.00000000E+00  0.00000000E+00  0.00000000E+00
  0.00000000E+00  0.00000000E+00  0.00000000E+00
  0.00000000E+00  0.00000000E+00  0.00000000E+00
  0.00000000E+00  0.00000000E+00  0.00000000E+00
  0.00000000E+00  0.00000000E+00  0.00000000E+00
  0.00000000E+00  0.00000000E+00  0.00000000E+00
  0.00000000E+00  0.00000000E+00  0.00000000E+00
  0.00000000E+00  0.00000000E+00  0.00000000E+00
  0.00000000E+00  0.00000000E+00  0.00000000E+00
  0.00000000E+00  0.00000000E+00  0.00000000E+00
  0.00000000E+00  0.00000000E+00  0.00000000E+00
  0.00000000E+00  0.00000000E+00  0.00000000E+00
  0.00000000E+00  0.00000000E+00  0.00000000E+00
  0.00000000E+00  0.00000000E+00  0.00000000E+00
  0.00000000E+00  0.00000000E+00  0.00000000E+00
  0.00000000E+00  0.00000000E+00  0.00000000E+00
  0.00000000E+00  0.00000000E+00  0.00000000E+00
  0.00000000E+00  0.00000000E+00  0.00000000E+00
  0.00000000E+00  0.00000000E+00  0.00000000E+00
  0.00000000E+00  0.00000000E+00  0.00000000E+00
  0.00000000E+00  0.00000000E+00  0.00000000E+00
  0.00000000E+00  0.00000000E+00  0.00000000E+00
  0.00000000E+00  0.00000000E+00  0.00000000E+00
  0.00000000E+00  0.00000000E+00  0.00000000E+00
  0.00000000E+00  0.00000000E+00  0.00000000E+00
  0.00000000E+00  0.00000000E+00  0.00000000E+00
  0.00000000E+00  0.00000000E+00  0.00000000E+00
