Mg2 Ga2 I10                             
   1.00000000000000     
     7.6838227397108545   -3.9732805404635916   -1.6556390469576037
     7.6838227397108527    3.9732805404635911   -1.6556390469576037
    -7.8713109249540070    0.0000000000000006   12.7639152567870422
   Mg   I    Ga
     2    10     2
Direct
  0.3497909924750715  0.4829839361006236  0.3509859250765857
  0.4829839361006236  0.3497909924750715  0.8509859250765857
  0.3746937915539093  0.5001902335575892  0.0287629085543841
  0.2407055967268477  0.1119053844825260  0.1643379394781235
  0.7497221909563905  0.2726769894751726  0.3035870817662314
  0.9168012690326108  0.7359680811217046  0.3334954259248235
  0.3620456119926629  0.8391375690205436  0.3914709081922183
  0.5001902335575892  0.3746937915539093  0.5287629085543841
  0.1119053844825260  0.2407055967268477  0.6643379394781235
  0.2726769894751726  0.7497221909563905  0.8035870817662314
  0.7359680811217046  0.9168012690326108  0.8334954259248235
  0.8391375690205436  0.3620456119926629  0.8914709081922183
  0.0424076822607873  0.0205706712435685  0.9273598110076406
  0.0205706712435685  0.0424076822607873  0.4273598110076406
 
  0.00000000E+00  0.00000000E+00  0.00000000E+00
  0.00000000E+00  0.00000000E+00  0.00000000E+00
  0.00000000E+00  0.00000000E+00  0.00000000E+00
  0.00000000E+00  0.00000000E+00  0.00000000E+00
  0.00000000E+00  0.00000000E+00  0.00000000E+00
  0.00000000E+00  0.00000000E+00  0.00000000E+00
  0.00000000E+00  0.00000000E+00  0.00000000E+00
  0.00000000E+00  0.00000000E+00  0.00000000E+00
  0.00000000E+00  0.00000000E+00  0.00000000E+00
  0.00000000E+00  0.00000000E+00  0.00000000E+00
  0.00000000E+00  0.00000000E+00  0.00000000E+00
  0.00000000E+00  0.00000000E+00  0.00000000E+00
  0.00000000E+00  0.00000000E+00  0.00000000E+00
  0.00000000E+00  0.00000000E+00  0.00000000E+00
