Be6 Tl4 Br24                            
   1.0000000000000000     
    13.3473919937817254   -0.1420220287834674    0.0000000000000000
    -0.1970877351057474   16.5241001069855393    0.0000000000000000
     0.0000000000000000    0.0000000000000000    8.3310227175724503
   Br   Tl   Be
    24     4     6
Direct
  0.6857996030779958  0.1852015609276378  0.0000000000000000
  0.1888804709884440  0.3099950267270373  0.0000000000000000
  0.8896520691982062  0.6893075064902163  0.0000000000000000
  0.3766763312818995  0.8135300858591705  0.0000000000000000
  0.4821571650950176  0.0163595329017951  0.2657560489186181
  0.0003767925164695  0.4765377037754419  0.2656946169007881
  0.1724953106657949  0.0849607954501366  0.2561903649653203
  0.9286643870934554  0.1964623062454862  0.2090406188360774
  0.4313627415738495  0.2993453512495208  0.2089907391448804
  0.6819601671594668  0.4129260083618860  0.2519648421382072
  0.3097254350607415  0.5813904497589206  0.2562780347903413
  0.5970162105357275  0.6726149148429101  0.2556207378651507
  0.1060296874615076  0.8001393285739411  0.2658267177026872
  0.8034241884056357  0.9330144806457099  0.2655111093491200
  0.1724953106657949  0.0849607954501366  0.7438096350346797
  0.9286643870934554  0.1964623062454862  0.7909593811639297
  0.4313627415738495  0.2993453512495208  0.7910092608551196
  0.6819601671594668  0.4129260083618860  0.7480351578617999
  0.3097254350607415  0.5813904497589206  0.7437219652096658
  0.5970162105357275  0.6726149148429101  0.7443792621348493
  0.1060296874615076  0.8001393285739411  0.7341732822973128
  0.8034241884056357  0.9330144806457099  0.7344888906508800
  0.4821571650950176  0.0163595329017951  0.7342439510813819
  0.0003767925164695  0.4765377037754419  0.7343053830992048
  0.1026409489969780  0.1496203731368695  0.0000000000000000
  0.6062583791890859  0.3449348906853587  0.0000000000000000
  0.3388441576618320  0.6629071974855094  0.0000000000000000
  0.7012094186083004  0.6779159341441741  0.0000000000000000
  0.8437934058361591  0.1977616568277369  0.0000000000000000
  0.3460030071587781  0.2983226695737571  0.0000000000000000
  0.8038051573231613  0.9328933744909023  0.5000000000000000
  0.0005420279494075  0.4759730687346817  0.5000000000000000
  0.1094820126076215  0.7970776749112289  0.5000000000000000
  0.4795888389867997  0.0166572363942450  0.5000000000000000

  0.00000000E+00  0.00000000E+00  0.00000000E+00
  0.00000000E+00  0.00000000E+00  0.00000000E+00
  0.00000000E+00  0.00000000E+00  0.00000000E+00
  0.00000000E+00  0.00000000E+00  0.00000000E+00
  0.00000000E+00  0.00000000E+00  0.00000000E+00
  0.00000000E+00  0.00000000E+00  0.00000000E+00
  0.00000000E+00  0.00000000E+00  0.00000000E+00
  0.00000000E+00  0.00000000E+00  0.00000000E+00
  0.00000000E+00  0.00000000E+00  0.00000000E+00
  0.00000000E+00  0.00000000E+00  0.00000000E+00
  0.00000000E+00  0.00000000E+00  0.00000000E+00
  0.00000000E+00  0.00000000E+00  0.00000000E+00
  0.00000000E+00  0.00000000E+00  0.00000000E+00
  0.00000000E+00  0.00000000E+00  0.00000000E+00
  0.00000000E+00  0.00000000E+00  0.00000000E+00
  0.00000000E+00  0.00000000E+00  0.00000000E+00
  0.00000000E+00  0.00000000E+00  0.00000000E+00
  0.00000000E+00  0.00000000E+00  0.00000000E+00
  0.00000000E+00  0.00000000E+00  0.00000000E+00
  0.00000000E+00  0.00000000E+00  0.00000000E+00
  0.00000000E+00  0.00000000E+00  0.00000000E+00
  0.00000000E+00  0.00000000E+00  0.00000000E+00
  0.00000000E+00  0.00000000E+00  0.00000000E+00
  0.00000000E+00  0.00000000E+00  0.00000000E+00
  0.00000000E+00  0.00000000E+00  0.00000000E+00
  0.00000000E+00  0.00000000E+00  0.00000000E+00
  0.00000000E+00  0.00000000E+00  0.00000000E+00
  0.00000000E+00  0.00000000E+00  0.00000000E+00
  0.00000000E+00  0.00000000E+00  0.00000000E+00
  0.00000000E+00  0.00000000E+00  0.00000000E+00
  0.00000000E+00  0.00000000E+00  0.00000000E+00
  0.00000000E+00  0.00000000E+00  0.00000000E+00
  0.00000000E+00  0.00000000E+00  0.00000000E+00
  0.00000000E+00  0.00000000E+00  0.00000000E+00
