MgGa3                                   
   1.00000000000000     
     4.1996553081714261    0.0000000000000000    0.0000000000000000
     0.0000000000000000    4.1996553081714261    0.0000000000000000
     0.0000000000000000    0.0000000000000000    4.1996553081714261
   Ga   Mg
     3     1
Direct
  0.5000000000000000  0.5000000000000000  0.0000000000000000
  0.5000000000000000  0.0000000000000000  0.5000000000000000
  0.0000000000000000  0.5000000000000000  0.5000000000000000
  0.0000000000000000  0.0000000000000000  0.0000000000000000
 
  0.00000000E+00  0.00000000E+00  0.00000000E+00
  0.00000000E+00  0.00000000E+00  0.00000000E+00
  0.00000000E+00  0.00000000E+00  0.00000000E+00
  0.00000000E+00  0.00000000E+00  0.00000000E+00
