Ba1                                     
   1.00000000000000     
     4.2523600547652940    0.0000000000000000    0.0000000000000000
    -2.1261800273826470    3.6825578028392938    0.0000000000000000
     0.0000000000000000    0.0000000000000000    3.9454166115392719
   Ba
     1
Direct
  0.0000000000000000  0.0000000000000000  0.0000000000000000
 
  0.00000000E+00  0.00000000E+00  0.00000000E+00
