Mg18 In11                               
   1.00000000000000     
     7.8486030962792963    5.5451120042843414    0.0173945515799655
    -7.8486030962792963    5.5451120042843414    0.0173945515799655
     0.0000000000000000    5.5439522266147163    7.9021460678135469
   Mg   In
    18    11
Direct
  0.9957046669986980  0.9957046669986980  0.0045076246931615
  0.3125100077871537  0.5937089001524072  0.9955782583273987
  0.9999000863771954  0.3368387995466833  0.9983947578069277
  0.3368387995466833  0.9999000863771954  0.9983947578069277
  0.5937089001524072  0.3125100077871537  0.9955782583273987
  0.3738805938090053  0.3738805938090053  0.8092303536251464
  0.6802417152374574  0.6802417152374574  0.7200771468925495
  0.5954320398124224  0.0020392746815290  0.6892895514993853
  0.0020392746815290  0.5954320398124224  0.6892895514993853
  0.9945814364980947  0.9945814364980947  0.6631793040751859
  0.4062377015711860  0.7196379936950379  0.5967628311614916
  0.7196379936950379  0.4062377015711860  0.5967628311614916
  0.0052650286242084  0.3136220696155689  0.4057555764859586
  0.3136220696155689  0.0052650286242084  0.4057555764859586
  0.6549415267982468  0.6549415267982468  0.3496365334355716
  0.2822572016909675  0.6910301719269967  0.3105142724200078
  0.6910301719269967  0.2822572016909675  0.3105142724200078
  0.4042561384969474  0.4042561384969474  0.2795296147484621
  0.6145565618522966  0.8037827051178041  0.0029572493384791
  0.8037827051178041  0.6145565618522966  0.0029572493384791
  0.8149126657931234  0.1951257281188816  0.8038895079407880
  0.1951257281188816  0.8149126657931234  0.8038895079407880
  0.1951918418598311  0.3901412361746139  0.6107667207364500
  0.3901412361746139  0.1951918418598311  0.6107667207364500
  0.8057180105486097  0.0008191374446440  0.3885123914947712
  0.0008191374446440  0.8057180105486097  0.3885123914947712
  0.6176309088586081  0.0008584468344992  0.1967997550867224
  0.0008584468344992  0.6176309088586081  0.1967997550867224
  0.1991774040772754  0.1991774040772754  0.1753986779331740
 
  0.00000000E+00  0.00000000E+00  0.00000000E+00
  0.00000000E+00  0.00000000E+00  0.00000000E+00
  0.00000000E+00  0.00000000E+00  0.00000000E+00
  0.00000000E+00  0.00000000E+00  0.00000000E+00
  0.00000000E+00  0.00000000E+00  0.00000000E+00
  0.00000000E+00  0.00000000E+00  0.00000000E+00
  0.00000000E+00  0.00000000E+00  0.00000000E+00
  0.00000000E+00  0.00000000E+00  0.00000000E+00
  0.00000000E+00  0.00000000E+00  0.00000000E+00
  0.00000000E+00  0.00000000E+00  0.00000000E+00
  0.00000000E+00  0.00000000E+00  0.00000000E+00
  0.00000000E+00  0.00000000E+00  0.00000000E+00
  0.00000000E+00  0.00000000E+00  0.00000000E+00
  0.00000000E+00  0.00000000E+00  0.00000000E+00
  0.00000000E+00  0.00000000E+00  0.00000000E+00
  0.00000000E+00  0.00000000E+00  0.00000000E+00
  0.00000000E+00  0.00000000E+00  0.00000000E+00
  0.00000000E+00  0.00000000E+00  0.00000000E+00
  0.00000000E+00  0.00000000E+00  0.00000000E+00
  0.00000000E+00  0.00000000E+00  0.00000000E+00
  0.00000000E+00  0.00000000E+00  0.00000000E+00
  0.00000000E+00  0.00000000E+00  0.00000000E+00
  0.00000000E+00  0.00000000E+00  0.00000000E+00
  0.00000000E+00  0.00000000E+00  0.00000000E+00
  0.00000000E+00  0.00000000E+00  0.00000000E+00
  0.00000000E+00  0.00000000E+00  0.00000000E+00
  0.00000000E+00  0.00000000E+00  0.00000000E+00
  0.00000000E+00  0.00000000E+00  0.00000000E+00
  0.00000000E+00  0.00000000E+00  0.00000000E+00
