SrGa2                                   
   1.00000000000000     
     4.3466288069671100    0.0110771402266787    0.0000000000000000
    -2.1637187482583080    3.7701701224375674    0.0000000000000000
     0.0000000000000000    0.0000000000000000    4.8114139274715111
   Ga   Sr
     2     1
Direct
  0.6673416883480456  0.3326158202446976  0.5000000000000000
  0.3326583116519544  0.6673841797553024  0.5000000000000000
  0.0000036200000011  0.0000026499999990  0.0000000000000000
 
  0.00000000E+00  0.00000000E+00  0.00000000E+00
  0.00000000E+00  0.00000000E+00  0.00000000E+00
  0.00000000E+00  0.00000000E+00  0.00000000E+00
