Ca1 Tl3 Cl6                             
   1.0000000000000000     
     7.8640618878796467    0.0351852023986770   -0.0477413536806354
     0.0351852023986770    7.8640618878796467   -0.0477413536806353
     3.9158513426781529    3.9158513426781529    5.5266050186749611
   Cl   Ca   Tl
     6     1     3
Direct
  0.7539163192771809  0.2460836807228191  0.0000000000000000
  0.2230559106522065  0.2230559106522065  0.0434243563315917
  0.2460836807228191  0.7539163192771809  0.0000000000000000
  0.7769440893477935  0.7769440893477935  0.9565756436684083
  0.7815362745970376  0.7815362745970376  0.4893509163048577
  0.2184637254029553  0.2184637254029553  0.5106490836951423
  0.0000000000000000  0.0000000000000000  0.0000000000000000
  0.5000000000000000  0.5000000000000000  0.0000000000000000
  0.1866996342129497  0.8133003657870503  0.5000000000000000
  0.8133003657870503  0.1866996342129497  0.5000000000000000

  0.00000000E+00  0.00000000E+00  0.00000000E+00
  0.00000000E+00  0.00000000E+00  0.00000000E+00
  0.00000000E+00  0.00000000E+00  0.00000000E+00
  0.00000000E+00  0.00000000E+00  0.00000000E+00
  0.00000000E+00  0.00000000E+00  0.00000000E+00
  0.00000000E+00  0.00000000E+00  0.00000000E+00
  0.00000000E+00  0.00000000E+00  0.00000000E+00
  0.00000000E+00  0.00000000E+00  0.00000000E+00
  0.00000000E+00  0.00000000E+00  0.00000000E+00
  0.00000000E+00  0.00000000E+00  0.00000000E+00
