Mg17 B12                                
   1.00000000000000     
    -5.1145457198138189   -5.1145457198138198    5.1147432408981484
    -5.1145457198138189    5.1147432408981492   -5.1145457198138198
     5.1147432408981492   -5.1145457198138207   -5.1145457198138198
   B    Mg
    12    17
Direct
  0.2545125026334460  0.1243015993083745  0.0000216880976254
  0.1243015993083745  0.2545125026334460  0.0000216880976254
  0.8757310301076870  0.8757310301076870  0.1302152072578338
  0.2545125026334460  0.0000216880976254  0.1243015993083745
  0.0000216880976254  0.2545125026334460  0.1243015993083745
  0.1243015993083745  0.0000216880976254  0.2545125026334460
  0.0000216880976254  0.1243015993083745  0.2545125026334460
  0.8697973169784561  0.7455233795761913  0.7455233795761913
  0.7455233795761913  0.8697973169784561  0.7455233795761913
  0.8757310301076870  0.1302152072578338  0.8757310301076870
  0.1302152072578338  0.8757310301076870  0.8757310301076870
  0.7455233795761913  0.7455233795761913  0.8697973169784561
  0.0000225449914453  0.0000225449914453  0.0000225449914453
  0.6899905784529281  0.0000156797894491  0.0000156797894491
  0.7756445704095185  0.3502138974972411  0.9999153197922155
  0.0000156797894491  0.6899905784529281  0.0000156797894491
  0.3502138974972411  0.7756445704095185  0.9999153197922155
  0.6497355328967274  0.6497355328967274  0.4254400198209964
  0.5746096508514924  0.2243250565250818  0.2243250565250818
  0.2243250565250818  0.5746096508514924  0.2243250565250818
  0.3100441683797541  0.3100441683797541  0.3100441683797541
  0.7756445704095185  0.9999153197922155  0.3502138974972411
  0.9999153197922155  0.7756445704095185  0.3502138974972411
  0.6497355328967274  0.4254400198209964  0.6497355328967274
  0.4254400198209964  0.6497355328967274  0.6497355328967274
  0.0000156797894491  0.0000156797894491  0.6899905784529281
  0.3502138974972411  0.9999153197922155  0.7756445704095185
  0.9999153197922155  0.3502138974972411  0.7756445704095185
  0.2243250565250818  0.2243250565250818  0.5746096508514924
 
  0.00000000E+00  0.00000000E+00  0.00000000E+00
  0.00000000E+00  0.00000000E+00  0.00000000E+00
  0.00000000E+00  0.00000000E+00  0.00000000E+00
  0.00000000E+00  0.00000000E+00  0.00000000E+00
  0.00000000E+00  0.00000000E+00  0.00000000E+00
  0.00000000E+00  0.00000000E+00  0.00000000E+00
  0.00000000E+00  0.00000000E+00  0.00000000E+00
  0.00000000E+00  0.00000000E+00  0.00000000E+00
  0.00000000E+00  0.00000000E+00  0.00000000E+00
  0.00000000E+00  0.00000000E+00  0.00000000E+00
  0.00000000E+00  0.00000000E+00  0.00000000E+00
  0.00000000E+00  0.00000000E+00  0.00000000E+00
  0.00000000E+00  0.00000000E+00  0.00000000E+00
  0.00000000E+00  0.00000000E+00  0.00000000E+00
  0.00000000E+00  0.00000000E+00  0.00000000E+00
  0.00000000E+00  0.00000000E+00  0.00000000E+00
  0.00000000E+00  0.00000000E+00  0.00000000E+00
  0.00000000E+00  0.00000000E+00  0.00000000E+00
  0.00000000E+00  0.00000000E+00  0.00000000E+00
  0.00000000E+00  0.00000000E+00  0.00000000E+00
  0.00000000E+00  0.00000000E+00  0.00000000E+00
  0.00000000E+00  0.00000000E+00  0.00000000E+00
  0.00000000E+00  0.00000000E+00  0.00000000E+00
  0.00000000E+00  0.00000000E+00  0.00000000E+00
  0.00000000E+00  0.00000000E+00  0.00000000E+00
  0.00000000E+00  0.00000000E+00  0.00000000E+00
  0.00000000E+00  0.00000000E+00  0.00000000E+00
  0.00000000E+00  0.00000000E+00  0.00000000E+00
  0.00000000E+00  0.00000000E+00  0.00000000E+00
