Mg1 Tl13                                
   1.0000000000000000     
     6.9270219789496501   -5.0427735663493856    0.0109089141078300
     6.9270219789496501    5.0427735663493856    0.0109089141078300
    -1.3396479228625651    0.0000000000000000    6.2103298182565245
   Mg   Tl
     1    13
Direct
  0.9999957692336068  0.9999957692336068  0.9999519838650315
  0.7783958121055576  0.7783958121055576  0.1237670658196564
  0.6285442644845816  0.2119545070192217  0.1996488305952226
  0.2119545070192217  0.6285442644845816  0.1996488305952226
  0.9961778694063526  0.3500628589451296  0.3111185583106675
  0.3500628589451296  0.9961778694063526  0.3111185583106675
  0.6070770561981291  0.6070770561981291  0.3916140861880635
  0.9999945198637192  0.9999945198637192  0.4999767162132045
  0.3928915448263268  0.3928915448263268  0.6083435227626381
  0.6499108403180713  0.0038057678578909  0.6889135261613077
  0.0038057678578909  0.6499108403180713  0.6889135261613077
  0.7880188385532705  0.3714575891612597  0.8003593482819085
  0.3714575891612597  0.7880188385532705  0.8003593482819085
  0.2216017620268858  0.2216017620268858  0.8762660984532218

  0.00000000E+00  0.00000000E+00  0.00000000E+00
  0.00000000E+00  0.00000000E+00  0.00000000E+00
  0.00000000E+00  0.00000000E+00  0.00000000E+00
  0.00000000E+00  0.00000000E+00  0.00000000E+00
  0.00000000E+00  0.00000000E+00  0.00000000E+00
  0.00000000E+00  0.00000000E+00  0.00000000E+00
  0.00000000E+00  0.00000000E+00  0.00000000E+00
  0.00000000E+00  0.00000000E+00  0.00000000E+00
  0.00000000E+00  0.00000000E+00  0.00000000E+00
  0.00000000E+00  0.00000000E+00  0.00000000E+00
  0.00000000E+00  0.00000000E+00  0.00000000E+00
  0.00000000E+00  0.00000000E+00  0.00000000E+00
  0.00000000E+00  0.00000000E+00  0.00000000E+00
  0.00000000E+00  0.00000000E+00  0.00000000E+00
