Mg8 In8 F40                             
   1.00000000000000     
     7.5049786540763836    0.0000000000000000    0.0000000000000000
     0.0000000000000000    6.9339170361036038    0.4359652057006256
     0.0000000000000000    2.1408943959709825   12.4881672865907394
   Mg   In   F 
     8     8    40
Direct
  0.1976799545053396  0.9106182132041170  0.1831365408814563
  0.8023200454946604  0.0893817867958830  0.8168634591185437
  0.6976799545053396  0.0893817867958830  0.3168634591185437
  0.3023200454946604  0.9106182132041170  0.6831365408814563
  0.9142124485260510  0.3481446528173961  0.0991809759346935
  0.0857875514739419  0.6518553471826039  0.9008190240653065
  0.4142124485260581  0.6518553471826039  0.4008190240653065
  0.5857875514739490  0.3481446528173961  0.5991809759346935
  0.9025449385689797  0.5517302572860032  0.3706540382566104
  0.0974550614310274  0.4482697427139826  0.6293459617433896
  0.4025449385689726  0.4482697427139826  0.1293459617433896
  0.5974550614310203  0.5517302572860032  0.8706540382566104
  0.7783619939025570  0.8738995586831493  0.0718695604486612
  0.2216380060974430  0.1261004413168507  0.9281304395513459
  0.2783619939025570  0.1261004413168507  0.4281304395513388
  0.7216380060974430  0.8738995586831493  0.5718695604486541
  0.3518918591833113  0.5926193898853569  0.9581149139489114
  0.6481081408166887  0.4073806101146502  0.0418850860510886
  0.8518918591833113  0.4073806101146502  0.5418850860510886
  0.1481081408166887  0.5926193898853569  0.4581149139489114
  0.9208657162321003  0.6371930001952606  0.0342317019245044
  0.0791342837679068  0.3628069998047394  0.9657682980754956
  0.4208657162320932  0.3628069998047394  0.4657682980754956
  0.5791342837678997  0.6371930001952606  0.5342317019245044
  0.5094926489916816  0.0703729703994043  0.6121665368974760
  0.4905073510083184  0.9296270296005957  0.3878334631025311
  0.0094926489916745  0.9296270296005957  0.8878334631025240
  0.9905073510083184  0.0703729703994043  0.1121665368974689
  0.6631564915472552  0.0128082800146743  0.1834089425039593
  0.3368435084527519  0.9871917199853257  0.8165910574960407
  0.1631564915472481  0.9871917199853257  0.3165910574960478
  0.8368435084527448  0.0128082800146743  0.6834089425039593
  0.9563247554869392  0.7334670353886708  0.2183301630985639
  0.0436752445130608  0.2665329646113221  0.7816698369014432
  0.4563247554869392  0.2665329646113221  0.2816698369014361
  0.5436752445130608  0.7334670353886708  0.7183301630985568
  0.7738655306298057  0.1484725117722476  0.9583140488726514
  0.2261344693701943  0.8515274882277524  0.0416859511273486
  0.2738655306298057  0.8515274882277524  0.5416859511273486
  0.7261344693701943  0.1484725117722476  0.4583140488726514
  0.6393007869223268  0.5862757317459426  0.3359331520308686
  0.3606992130776732  0.4137242682540645  0.6640668479691314
  0.1393007869223268  0.4137242682540645  0.1640668479691385
  0.8606992130776732  0.5862757317459426  0.8359331520308686
  0.8094578703764341  0.3336261889891929  0.2405745708431297
  0.1905421296235659  0.6663738110108071  0.7594254291568703
  0.3094578703764199  0.6663738110108071  0.2594254291568703
  0.6905421296235659  0.3336261889891929  0.7405745708431297
  0.3410778274336153  0.1563634405108516  0.0915771534036480
  0.6589221725663919  0.8436365594891555  0.9084228465963591
  0.8410778274336153  0.8436365594891555  0.4084228465963520
  0.1589221725663847  0.1563634405108516  0.5915771534036409
  0.5567541696675491  0.6997086157249157  0.1207195645359249
  0.4432458303324580  0.3002913842750914  0.8792804354640751
  0.0567541696675420  0.3002913842750914  0.3792804354640751
  0.9432458303324509  0.6997086157249157  0.6207195645359249
 
  0.00000000E+00  0.00000000E+00  0.00000000E+00
  0.00000000E+00  0.00000000E+00  0.00000000E+00
  0.00000000E+00  0.00000000E+00  0.00000000E+00
  0.00000000E+00  0.00000000E+00  0.00000000E+00
  0.00000000E+00  0.00000000E+00  0.00000000E+00
  0.00000000E+00  0.00000000E+00  0.00000000E+00
  0.00000000E+00  0.00000000E+00  0.00000000E+00
  0.00000000E+00  0.00000000E+00  0.00000000E+00
  0.00000000E+00  0.00000000E+00  0.00000000E+00
  0.00000000E+00  0.00000000E+00  0.00000000E+00
  0.00000000E+00  0.00000000E+00  0.00000000E+00
  0.00000000E+00  0.00000000E+00  0.00000000E+00
  0.00000000E+00  0.00000000E+00  0.00000000E+00
  0.00000000E+00  0.00000000E+00  0.00000000E+00
  0.00000000E+00  0.00000000E+00  0.00000000E+00
  0.00000000E+00  0.00000000E+00  0.00000000E+00
  0.00000000E+00  0.00000000E+00  0.00000000E+00
  0.00000000E+00  0.00000000E+00  0.00000000E+00
  0.00000000E+00  0.00000000E+00  0.00000000E+00
  0.00000000E+00  0.00000000E+00  0.00000000E+00
  0.00000000E+00  0.00000000E+00  0.00000000E+00
  0.00000000E+00  0.00000000E+00  0.00000000E+00
  0.00000000E+00  0.00000000E+00  0.00000000E+00
  0.00000000E+00  0.00000000E+00  0.00000000E+00
  0.00000000E+00  0.00000000E+00  0.00000000E+00
  0.00000000E+00  0.00000000E+00  0.00000000E+00
  0.00000000E+00  0.00000000E+00  0.00000000E+00
  0.00000000E+00  0.00000000E+00  0.00000000E+00
  0.00000000E+00  0.00000000E+00  0.00000000E+00
  0.00000000E+00  0.00000000E+00  0.00000000E+00
  0.00000000E+00  0.00000000E+00  0.00000000E+00
  0.00000000E+00  0.00000000E+00  0.00000000E+00
  0.00000000E+00  0.00000000E+00  0.00000000E+00
  0.00000000E+00  0.00000000E+00  0.00000000E+00
  0.00000000E+00  0.00000000E+00  0.00000000E+00
  0.00000000E+00  0.00000000E+00  0.00000000E+00
  0.00000000E+00  0.00000000E+00  0.00000000E+00
  0.00000000E+00  0.00000000E+00  0.00000000E+00
  0.00000000E+00  0.00000000E+00  0.00000000E+00
  0.00000000E+00  0.00000000E+00  0.00000000E+00
  0.00000000E+00  0.00000000E+00  0.00000000E+00
  0.00000000E+00  0.00000000E+00  0.00000000E+00
  0.00000000E+00  0.00000000E+00  0.00000000E+00
  0.00000000E+00  0.00000000E+00  0.00000000E+00
  0.00000000E+00  0.00000000E+00  0.00000000E+00
  0.00000000E+00  0.00000000E+00  0.00000000E+00
  0.00000000E+00  0.00000000E+00  0.00000000E+00
  0.00000000E+00  0.00000000E+00  0.00000000E+00
  0.00000000E+00  0.00000000E+00  0.00000000E+00
  0.00000000E+00  0.00000000E+00  0.00000000E+00
  0.00000000E+00  0.00000000E+00  0.00000000E+00
  0.00000000E+00  0.00000000E+00  0.00000000E+00
  0.00000000E+00  0.00000000E+00  0.00000000E+00
  0.00000000E+00  0.00000000E+00  0.00000000E+00
  0.00000000E+00  0.00000000E+00  0.00000000E+00
  0.00000000E+00  0.00000000E+00  0.00000000E+00
