Be2 Ga2 F10                             
   1.00000000000000     
     4.5375604895333392   -0.6332731215804398    1.8472379333819966
     0.3764907159812953    4.5660424385307925    1.8472379020994216
     0.0621437934512885    0.0497358691993249    7.2244401589924143
   Be   Ga   F 
     2     2    10
Direct
  0.5960931185191498  0.4039068817815448  0.2500000001047269
  0.4039068814808502  0.5960931182184552  0.7499999998952731
  0.0000000000000000  0.0000000000000000  0.5000000000000000
  0.0000000000000000  0.0000000000000000  0.0000000000000000
  0.7382411400292597  0.6623865740408235  0.6653333464159203
  0.3376134262024593  0.2617578598686165  0.8346666536600438
  0.2617578599707429  0.3376134259591907  0.3346676535840842
  0.6623865737975407  0.7382411401313931  0.1653333463399562
  0.9133518767281004  0.0866481230598026  0.7500000000242792
  0.0866481232718996  0.9133518769401974  0.2499999999757208
  0.7584920421660897  0.3028528249464060  0.0580461093028788
  0.6971471749303504  0.2415079579228561  0.4419538913689252
  0.2415079578339103  0.6971471750535940  0.9419538906971212
  0.3028528250696425  0.7584920420771439  0.5580461086310748
 
  0.00000000E+00  0.00000000E+00  0.00000000E+00
  0.00000000E+00  0.00000000E+00  0.00000000E+00
  0.00000000E+00  0.00000000E+00  0.00000000E+00
  0.00000000E+00  0.00000000E+00  0.00000000E+00
  0.00000000E+00  0.00000000E+00  0.00000000E+00
  0.00000000E+00  0.00000000E+00  0.00000000E+00
  0.00000000E+00  0.00000000E+00  0.00000000E+00
  0.00000000E+00  0.00000000E+00  0.00000000E+00
  0.00000000E+00  0.00000000E+00  0.00000000E+00
  0.00000000E+00  0.00000000E+00  0.00000000E+00
  0.00000000E+00  0.00000000E+00  0.00000000E+00
  0.00000000E+00  0.00000000E+00  0.00000000E+00
  0.00000000E+00  0.00000000E+00  0.00000000E+00
  0.00000000E+00  0.00000000E+00  0.00000000E+00
