Be13 Al14                               
   1.00000000000000     
     7.5800649841214218   -3.8160437806304968    0.5582561614387120
     7.5800649841214218    3.8160437806304950    0.5582561614387122
    -2.3417164568818669    0.0000000000000001    6.0791897464622577
   Al   Be
    14    13
Direct
  0.6701115153963428  0.3292594968825142  0.0012530859324613
  0.3292594968825142  0.6701115153963428  0.0012530859324613
  0.8655556907548885  0.4926425954075242  0.0580222133601396
  0.4926425954075242  0.8655556907548885  0.0580222133601396
  0.0825008669881271  0.0825008669881271  0.1876355895663195
  0.8073268919831449  0.8073268919831449  0.3830998475955312
  0.2982392788099091  0.2982392788099091  0.3299381339626208
  0.6768562283508004  0.3262682130873031  0.5003821475951966
  0.3262682130873031  0.6768562283508004  0.5003821475951966
  0.7010158687026760  0.7010158687026760  0.6704537845336205
  0.1904360679434944  0.1904360679434944  0.6155264672320016
  0.9166567375943515  0.9166567375943515  0.8132923538510752
  0.5067363959178266  0.1331464546466137  0.9385164479276753
  0.1331464546466137  0.5067363959178266  0.9385164479276753
  0.1977535054376531  0.1977535054376531  0.9793429827421321
  0.6014679657663606  0.6014679657663606  0.3060070816156681
  0.7920886211141465  0.0622644929282075  0.1980771200876532
  0.0622644929282075  0.7920886211141465  0.1980771200876532
  0.9172134878671585  0.4423962963463737  0.4146270744665514
  0.4423962963463737  0.9172134878671585  0.4146270744665514
  0.9987502612350596  0.9987502612350596  0.5014398990188127
  0.5606640644654490  0.0857404098162178  0.5847250110379321
  0.0857404098162178  0.5606640644654490  0.5847250110379321
  0.9371021995088640  0.2060546217949195  0.8041041974336665
  0.2060546217949195  0.9371021995088640  0.8041041974336665
  0.4004218839200675  0.4004218839200675  0.6933106404217995
  0.8018698873340142  0.8018698873340142  0.0199386237778540
 
  0.00000000E+00  0.00000000E+00  0.00000000E+00
  0.00000000E+00  0.00000000E+00  0.00000000E+00
  0.00000000E+00  0.00000000E+00  0.00000000E+00
  0.00000000E+00  0.00000000E+00  0.00000000E+00
  0.00000000E+00  0.00000000E+00  0.00000000E+00
  0.00000000E+00  0.00000000E+00  0.00000000E+00
  0.00000000E+00  0.00000000E+00  0.00000000E+00
  0.00000000E+00  0.00000000E+00  0.00000000E+00
  0.00000000E+00  0.00000000E+00  0.00000000E+00
  0.00000000E+00  0.00000000E+00  0.00000000E+00
  0.00000000E+00  0.00000000E+00  0.00000000E+00
  0.00000000E+00  0.00000000E+00  0.00000000E+00
  0.00000000E+00  0.00000000E+00  0.00000000E+00
  0.00000000E+00  0.00000000E+00  0.00000000E+00
  0.00000000E+00  0.00000000E+00  0.00000000E+00
  0.00000000E+00  0.00000000E+00  0.00000000E+00
  0.00000000E+00  0.00000000E+00  0.00000000E+00
  0.00000000E+00  0.00000000E+00  0.00000000E+00
  0.00000000E+00  0.00000000E+00  0.00000000E+00
  0.00000000E+00  0.00000000E+00  0.00000000E+00
  0.00000000E+00  0.00000000E+00  0.00000000E+00
  0.00000000E+00  0.00000000E+00  0.00000000E+00
  0.00000000E+00  0.00000000E+00  0.00000000E+00
  0.00000000E+00  0.00000000E+00  0.00000000E+00
  0.00000000E+00  0.00000000E+00  0.00000000E+00
  0.00000000E+00  0.00000000E+00  0.00000000E+00
  0.00000000E+00  0.00000000E+00  0.00000000E+00
