BaF2                                    
   1.00000000000000     
     3.0902030771562154   -3.0902030771562154    0.0000000000000000
    -3.0902030771562154    0.0000000000000000   -3.0902030771562154
     3.0902030771562154    3.0902030771562154    0.0000000000000000
   Ba   F 
     1     2
Direct
  0.0000000000000000  0.0000000000000000  0.0000000000000000
  0.7500000000000000  0.5000000000000000  0.2500000000000000
  0.2500000000000000  0.5000000000000000  0.7500000000000000
 
  0.00000000E+00  0.00000000E+00  0.00000000E+00
  0.00000000E+00  0.00000000E+00  0.00000000E+00
  0.00000000E+00  0.00000000E+00  0.00000000E+00
