Ca9 Al4                                 
   1.00000000000000     
     0.0039092266623690   -0.0073236494378453    5.3198951250252051
    -6.2100627589818664    6.1991015942604948    2.6463053598518740
    -6.2095266070960520   -6.1946450736894301   -2.6556248748494600
   Ca   Al
     9     4
Direct
  0.4999998946320119  0.9999736103396089  0.9999649319428343
  0.8952299832233876  0.2931235461885677  0.0842819378562396
  0.3878700859002038  0.4936403403402991  0.2688592497025084
  0.1877023616908744  0.9159794276112976  0.2931116125192617
  0.8801618816256465  0.7314058705319368  0.4933802708210706
  0.1198508557886768  0.2685631378090321  0.5065605911389071
  0.8123375116377929  0.0839702160788178  0.7068405826568522
  0.6121033399633689  0.5063149110095821  0.7310988918544226
  0.1047396599933492  0.7068312468686457  0.9156810444089984
  0.7378035975716912  0.6645661859889458  0.1385384005899013
  0.5984183868845037  0.1388277420549002  0.3347026476891912
  0.4016307762425058  0.8611059143968447  0.6652293092343271
  0.2621516648459945  0.3353978507815114  0.8614505295855039
 
  0.00000000E+00  0.00000000E+00  0.00000000E+00
  0.00000000E+00  0.00000000E+00  0.00000000E+00
  0.00000000E+00  0.00000000E+00  0.00000000E+00
  0.00000000E+00  0.00000000E+00  0.00000000E+00
  0.00000000E+00  0.00000000E+00  0.00000000E+00
  0.00000000E+00  0.00000000E+00  0.00000000E+00
  0.00000000E+00  0.00000000E+00  0.00000000E+00
  0.00000000E+00  0.00000000E+00  0.00000000E+00
  0.00000000E+00  0.00000000E+00  0.00000000E+00
  0.00000000E+00  0.00000000E+00  0.00000000E+00
  0.00000000E+00  0.00000000E+00  0.00000000E+00
  0.00000000E+00  0.00000000E+00  0.00000000E+00
  0.00000000E+00  0.00000000E+00  0.00000000E+00
