Ba40 Tl4                                
   1.0000000000000000     
     0.0000000000000000   11.0192484491862359   11.0192484491862359
    11.0192484491862359    0.0000000000000000   11.0192484491862359
    11.0192484491862359   11.0192484491862359    0.0000000000000000
   Ba   Tl
    40     4
Direct
  0.6173637308363809  0.6173637308363809  0.8826362691636191
  0.3673637308363809  0.6326362691636191  0.6326362691636191
  0.6326362691636191  0.3673637308363809  0.3673637308363809
  0.3673637308363809  0.3673637308363809  0.6326362691636191
  0.3673637308363809  0.6326362691636191  0.3673637308363809
  0.6326362691636191  0.3673637308363809  0.6326362691636191
  0.8826362691636191  0.6173637308363809  0.8826362691636191
  0.8826362691636191  0.6173637308363809  0.6173637308363809
  0.6173637308363809  0.8826362691636191  0.8826362691636191
  0.6173637308363809  0.8826362691636191  0.6173637308363809
  0.6326362691636191  0.6326362691636191  0.3673637308363809
  0.8826362691636191  0.8826362691636191  0.6173637308363809
  0.7933475879242238  0.0697683933837752  0.3435354307677656
  0.4566524120757762  0.4566524120757762  0.1802316066162248
  0.1802316066162248  0.9064645692322344  0.4566524120757762
  0.4566524120757762  0.9064645692322344  0.4566524120757762
  0.9064645692322344  0.4566524120757762  0.1802316066162248
  0.9064645692322344  0.4566524120757762  0.4566524120757762
  0.1802316066162248  0.4566524120757762  0.4566524120757762
  0.3435354307677656  0.0697683933837752  0.7933475879242238
  0.7933475879242238  0.0697683933837752  0.7933475879242238
  0.0697683933837752  0.7933475879242238  0.3435354307677656
  0.7933475879242238  0.7933475879242238  0.3435354307677656
  0.0697683933837752  0.3435354307677656  0.7933475879242238
  0.3435354307677656  0.7933475879242238  0.0697683933837752
  0.7933475879242238  0.7933475879242238  0.0697683933837752
  0.7933475879242238  0.3435354307677656  0.7933475879242238
  0.1802316066162248  0.4566524120757762  0.9064645692322344
  0.4566524120757762  0.4566524120757762  0.9064645692322344
  0.4566524120757762  0.9064645692322344  0.1802316066162248
  0.4566524120757762  0.1802316066162248  0.9064645692322344
  0.9064645692322344  0.1802316066162248  0.4566524120757762
  0.4566524120757762  0.1802316066162248  0.4566524120757762
  0.3435354307677656  0.7933475879242238  0.7933475879242238
  0.0697683933837752  0.7933475879242238  0.7933475879242238
  0.7933475879242238  0.3435354307677656  0.0697683933837752
  0.1250000000000000  0.1250000000000000  0.1250000000000000
  0.6250000000000000  0.1250000000000000  0.1250000000000000
  0.1250000000000000  0.1250000000000000  0.6250000000000000
  0.1250000000000000  0.6250000000000000  0.1250000000000000
  0.6250000000000000  0.6250000000000000  0.6250000000000000
  0.1250000000000000  0.6250000000000000  0.6250000000000000
  0.6250000000000000  0.6250000000000000  0.1250000000000000
  0.6250000000000000  0.1250000000000000  0.6250000000000000

  0.00000000E+00  0.00000000E+00  0.00000000E+00
  0.00000000E+00  0.00000000E+00  0.00000000E+00
  0.00000000E+00  0.00000000E+00  0.00000000E+00
  0.00000000E+00  0.00000000E+00  0.00000000E+00
  0.00000000E+00  0.00000000E+00  0.00000000E+00
  0.00000000E+00  0.00000000E+00  0.00000000E+00
  0.00000000E+00  0.00000000E+00  0.00000000E+00
  0.00000000E+00  0.00000000E+00  0.00000000E+00
  0.00000000E+00  0.00000000E+00  0.00000000E+00
  0.00000000E+00  0.00000000E+00  0.00000000E+00
  0.00000000E+00  0.00000000E+00  0.00000000E+00
  0.00000000E+00  0.00000000E+00  0.00000000E+00
  0.00000000E+00  0.00000000E+00  0.00000000E+00
  0.00000000E+00  0.00000000E+00  0.00000000E+00
  0.00000000E+00  0.00000000E+00  0.00000000E+00
  0.00000000E+00  0.00000000E+00  0.00000000E+00
  0.00000000E+00  0.00000000E+00  0.00000000E+00
  0.00000000E+00  0.00000000E+00  0.00000000E+00
  0.00000000E+00  0.00000000E+00  0.00000000E+00
  0.00000000E+00  0.00000000E+00  0.00000000E+00
  0.00000000E+00  0.00000000E+00  0.00000000E+00
  0.00000000E+00  0.00000000E+00  0.00000000E+00
  0.00000000E+00  0.00000000E+00  0.00000000E+00
  0.00000000E+00  0.00000000E+00  0.00000000E+00
  0.00000000E+00  0.00000000E+00  0.00000000E+00
  0.00000000E+00  0.00000000E+00  0.00000000E+00
  0.00000000E+00  0.00000000E+00  0.00000000E+00
  0.00000000E+00  0.00000000E+00  0.00000000E+00
  0.00000000E+00  0.00000000E+00  0.00000000E+00
  0.00000000E+00  0.00000000E+00  0.00000000E+00
  0.00000000E+00  0.00000000E+00  0.00000000E+00
  0.00000000E+00  0.00000000E+00  0.00000000E+00
  0.00000000E+00  0.00000000E+00  0.00000000E+00
  0.00000000E+00  0.00000000E+00  0.00000000E+00
  0.00000000E+00  0.00000000E+00  0.00000000E+00
  0.00000000E+00  0.00000000E+00  0.00000000E+00
  0.00000000E+00  0.00000000E+00  0.00000000E+00
  0.00000000E+00  0.00000000E+00  0.00000000E+00
  0.00000000E+00  0.00000000E+00  0.00000000E+00
  0.00000000E+00  0.00000000E+00  0.00000000E+00
  0.00000000E+00  0.00000000E+00  0.00000000E+00
  0.00000000E+00  0.00000000E+00  0.00000000E+00
  0.00000000E+00  0.00000000E+00  0.00000000E+00
  0.00000000E+00  0.00000000E+00  0.00000000E+00
