Ba4 Al4 Br12                            
   1.00000000000000     
     8.7967357549381298    0.0000000000000000   -0.0006569151021140
     0.0000000000000000    4.8743895740454040    0.0000000000000000
    -0.0013932276139792    0.0000000000000000   18.0292508973419849
   Br   Al   Ba
    12     4     4
Direct
  0.1250773870064279  0.2500000000000000  0.0651949799033460
  0.5266490103915018  0.7500000000000000  0.0929974751921989
  0.7741075847343666  0.2500000000000000  0.2186414526336335
  0.2740224198984507  0.2500000000000000  0.2814439325896814
  0.0263107770089235  0.7500000000000000  0.4070369572472785
  0.6247568685329483  0.2500000000000000  0.4348644669640507
  0.3749189145742946  0.7500000000000000  0.5651362241960456
  0.9733274582475744  0.2500000000000000  0.5930211893289297
  0.7258171586028155  0.7500000000000000  0.7185866783312704
  0.2259215406612753  0.7500000000000000  0.7814653898013617
  0.4735743796722076  0.2500000000000000  0.9070542280590459
  0.8751267501923152  0.7500000000000000  0.9348494334155717
  0.0923411358771133  0.7500000000000000  0.2508335131257269
  0.5925685674228234  0.7500000000000000  0.2492377377715371
  0.4074192359305542  0.2500000000000000  0.7507716528937820
  0.9074835865949638  0.2500000000000000  0.7491606858876523
  0.7572888140623064  0.2500000000000000  0.0377817428093010
  0.2569071102203679  0.2500000000000000  0.4622063888351704
  0.7429649328531056  0.7500000000000000  0.5378020430458506
  0.2429163675156616  0.7500000000000000  0.9622438279685497
 
  0.00000000E+00  0.00000000E+00  0.00000000E+00
  0.00000000E+00  0.00000000E+00  0.00000000E+00
  0.00000000E+00  0.00000000E+00  0.00000000E+00
  0.00000000E+00  0.00000000E+00  0.00000000E+00
  0.00000000E+00  0.00000000E+00  0.00000000E+00
  0.00000000E+00  0.00000000E+00  0.00000000E+00
  0.00000000E+00  0.00000000E+00  0.00000000E+00
  0.00000000E+00  0.00000000E+00  0.00000000E+00
  0.00000000E+00  0.00000000E+00  0.00000000E+00
  0.00000000E+00  0.00000000E+00  0.00000000E+00
  0.00000000E+00  0.00000000E+00  0.00000000E+00
  0.00000000E+00  0.00000000E+00  0.00000000E+00
  0.00000000E+00  0.00000000E+00  0.00000000E+00
  0.00000000E+00  0.00000000E+00  0.00000000E+00
  0.00000000E+00  0.00000000E+00  0.00000000E+00
  0.00000000E+00  0.00000000E+00  0.00000000E+00
  0.00000000E+00  0.00000000E+00  0.00000000E+00
  0.00000000E+00  0.00000000E+00  0.00000000E+00
  0.00000000E+00  0.00000000E+00  0.00000000E+00
  0.00000000E+00  0.00000000E+00  0.00000000E+00
