Be4 In4 Cl20                            
   1.0000000000000000     
     6.3392711697364614   -0.0000000000000001    0.0000000000000005
    -0.0000000000000005    7.3369753897792336    0.0000000000000005
     0.0000000000000002    0.0000000000000002   18.4854346617696024
   Be   In   Cl
     4     4    20
Direct
  0.4701272968333257  0.3716054336257528  0.4169553914938007
  0.9701272968333257  0.1283945663742472  0.5830446085061993
  0.5298727031666672  0.8716054336257528  0.0830446085061993
  0.0298727031666672  0.6283945663742472  0.9169553914938007
  0.2288013789505712  0.8698016451159560  0.4173398039668612
  0.7288013789505712  0.6301983548840440  0.5826601960331317
  0.7711986210494288  0.3698016451159560  0.0826601960331317
  0.2711986210494288  0.1301983548840440  0.9173398039668612
  0.9540103274892999  0.6229119205309743  0.4739421602658282
  0.4540103274892928  0.8770880794690257  0.5260578397341718
  0.0459896725107001  0.1229119205309743  0.0260578397341718
  0.5459896725107001  0.3770880794690257  0.9739421602658282
  0.0278658516461263  0.8789806044378494  0.3109364770964902
  0.5278658516461263  0.6210193955621506  0.6890635229035098
  0.9721341483538737  0.3789806044378494  0.1890635229035098
  0.4721341483538737  0.1210193955621506  0.8109364770964902
  0.0116997211844918  0.6293103099565300  0.0217429679640375
  0.5116997211844918  0.8706896900434700  0.9782570320359625
  0.9883002788155082  0.1293103099565300  0.4782570320359625
  0.4883002788155082  0.3706896900434700  0.5217429679640375
  0.5289760230427092  0.6458120728004104  0.1369892214009312
  0.0289760230427092  0.8541879271995896  0.8630107785990688
  0.4710239769572908  0.1458120728004104  0.3630107785990688
  0.9710239769572908  0.3541879271995896  0.6369892214009312
  0.0449913535696922  0.4050665518982512  0.8611127912132162
  0.5449913535696922  0.0949334481017488  0.1388872087867838
  0.9550086464303078  0.9050665518982512  0.6388872087867838
  0.4550086464303078  0.5949334481017488  0.3611127912132162

  0.00000000E+00  0.00000000E+00  0.00000000E+00
  0.00000000E+00  0.00000000E+00  0.00000000E+00
  0.00000000E+00  0.00000000E+00  0.00000000E+00
  0.00000000E+00  0.00000000E+00  0.00000000E+00
  0.00000000E+00  0.00000000E+00  0.00000000E+00
  0.00000000E+00  0.00000000E+00  0.00000000E+00
  0.00000000E+00  0.00000000E+00  0.00000000E+00
  0.00000000E+00  0.00000000E+00  0.00000000E+00
  0.00000000E+00  0.00000000E+00  0.00000000E+00
  0.00000000E+00  0.00000000E+00  0.00000000E+00
  0.00000000E+00  0.00000000E+00  0.00000000E+00
  0.00000000E+00  0.00000000E+00  0.00000000E+00
  0.00000000E+00  0.00000000E+00  0.00000000E+00
  0.00000000E+00  0.00000000E+00  0.00000000E+00
  0.00000000E+00  0.00000000E+00  0.00000000E+00
  0.00000000E+00  0.00000000E+00  0.00000000E+00
  0.00000000E+00  0.00000000E+00  0.00000000E+00
  0.00000000E+00  0.00000000E+00  0.00000000E+00
  0.00000000E+00  0.00000000E+00  0.00000000E+00
  0.00000000E+00  0.00000000E+00  0.00000000E+00
  0.00000000E+00  0.00000000E+00  0.00000000E+00
  0.00000000E+00  0.00000000E+00  0.00000000E+00
  0.00000000E+00  0.00000000E+00  0.00000000E+00
  0.00000000E+00  0.00000000E+00  0.00000000E+00
  0.00000000E+00  0.00000000E+00  0.00000000E+00
  0.00000000E+00  0.00000000E+00  0.00000000E+00
  0.00000000E+00  0.00000000E+00  0.00000000E+00
  0.00000000E+00  0.00000000E+00  0.00000000E+00
