Ba2 In2 I6                              
   1.0000000000000000     
    -4.9535413295410109    0.0029434810788070    0.0005910307282203
    -2.4803358128466209    7.9556261941934094   -0.0024003830163237
     0.0018171564336385    0.0037145211350933  -12.3905147936829376
   I    Ba   In
     6     2     2
Direct
  0.1433706538617940  0.7159053033636340  0.0683627146265380
  0.3989797988732988  0.1996152322102844  0.2499972309330545
  0.1430611923759031  0.7137790709649181  0.4324310138719554
  0.8565123197569591  0.2841550601744700  0.5681405868884042
  0.6011007141827136  0.8003100314304632  0.7500871480373448
  0.8568058844510276  0.2862212381044458  0.9322305574887935
  0.5002538828550769  0.0005965752248258  0.9998652695735828
  0.4996237197705540  0.9993575733382656  0.4998861631137004
  0.7443399682740122  0.5023614728743482  0.2498035863174621
  0.2559518655986679  0.4976984423143520  0.7494957291491744

  0.00000000E+00  0.00000000E+00  0.00000000E+00
  0.00000000E+00  0.00000000E+00  0.00000000E+00
  0.00000000E+00  0.00000000E+00  0.00000000E+00
  0.00000000E+00  0.00000000E+00  0.00000000E+00
  0.00000000E+00  0.00000000E+00  0.00000000E+00
  0.00000000E+00  0.00000000E+00  0.00000000E+00
  0.00000000E+00  0.00000000E+00  0.00000000E+00
  0.00000000E+00  0.00000000E+00  0.00000000E+00
  0.00000000E+00  0.00000000E+00  0.00000000E+00
  0.00000000E+00  0.00000000E+00  0.00000000E+00
