Ba1 Al2 F6                              
   1.00000000000000     
     3.6772172684955962   -0.6838780962000238    7.3055935764670270
    -3.6772172684955962   -0.6838780962000238    7.3055935764670270
     0.0000000000000000   -3.3944875232026290    7.5677733254473400
   Ba   F    Al
     1     6     2
Direct
  0.0000000000000000  0.0000000000000000  0.0000000000000000
  0.5381499184159324  0.5381499184159324  0.5978009648892169
  0.9296010273301292  0.5874044597661623  0.6667413643386695
  0.5874044597661623  0.9296010273301292  0.6667413643386695
  0.4618500815840676  0.4618500815840676  0.4021990351107760
  0.4125955402338377  0.0703989726698708  0.3332586356613305
  0.0703989726698708  0.4125955402338377  0.3332586356613305
  0.2151726584485800  0.2151726584485800  0.2303302344915750
  0.7848273415514200  0.7848273415514200  0.7696697655084250
 
  0.00000000E+00  0.00000000E+00  0.00000000E+00
  0.00000000E+00  0.00000000E+00  0.00000000E+00
  0.00000000E+00  0.00000000E+00  0.00000000E+00
  0.00000000E+00  0.00000000E+00  0.00000000E+00
  0.00000000E+00  0.00000000E+00  0.00000000E+00
  0.00000000E+00  0.00000000E+00  0.00000000E+00
  0.00000000E+00  0.00000000E+00  0.00000000E+00
  0.00000000E+00  0.00000000E+00  0.00000000E+00
  0.00000000E+00  0.00000000E+00  0.00000000E+00
