Sr1 Ga8                                 
   1.00000000000000     
     9.1992041405952172   -0.0028680201616219    0.0000000000000000
    -4.6020855649324979    7.9655223558790587    0.0000000000000000
     0.0000000000000000    0.0000000000000000    3.0329887707365581
   Ga   Sr
     8     1
Direct
  0.3531000712748025  0.1767564728270301  0.0000000000000000
  0.8235564797185759  0.1764377864033975  0.0000000000000000
  0.6668166848112946  0.3332041544774924  0.0000000000000000
  0.1767517530436393  0.3530898925258299  0.0000000000000000
  0.8232482469563607  0.6469101074741701  0.0000000000000000
  0.3331833151887054  0.6667958455225076  0.0000000000000000
  0.1764435202814241  0.8235622135966025  0.0000000000000000
  0.6468999287251975  0.8232435271729699  0.0000000000000000
  0.0000000000000000  0.0000000000000000  0.5000000000000000
 
  0.00000000E+00  0.00000000E+00  0.00000000E+00
  0.00000000E+00  0.00000000E+00  0.00000000E+00
  0.00000000E+00  0.00000000E+00  0.00000000E+00
  0.00000000E+00  0.00000000E+00  0.00000000E+00
  0.00000000E+00  0.00000000E+00  0.00000000E+00
  0.00000000E+00  0.00000000E+00  0.00000000E+00
  0.00000000E+00  0.00000000E+00  0.00000000E+00
  0.00000000E+00  0.00000000E+00  0.00000000E+00
  0.00000000E+00  0.00000000E+00  0.00000000E+00
