Ba2 B2 Cl10                             
   1.00000000000000     
     8.9763739862519571    0.3966476800508951    2.8980923570637604
     2.3541083762969324    8.6712604062227214    2.8980921787358103
     1.4300117859088002    1.1444566108033953    8.8416153229962173
   Ba   B    Cl
     2     2    10
Direct
  0.4364533764182852  0.5635466227858998  0.2500000004896421
  0.5635466235817148  0.4364533772141002  0.7499999995103579
  0.0000000000000000  0.0000000000000000  0.5000000000000000
  0.0000000000000000  0.0000000000000000  0.0000000000000000
  0.9101703961338856  0.8444112037794440  0.6440944781671050
  0.1555887969739160  0.0898286045647723  0.8559055204041570
  0.0898286038661098  0.1555887962205631  0.3559065218328996
  0.8444112030260840  0.9101703954352303  0.1440944795958430
  0.8508742258201494  0.1491257754036468  0.7499999997321467
  0.1491257741798506  0.8508742245963461  0.2500000002678533
  0.7134324277778958  0.5430914083870633  0.9133129522089831
  0.4569085944122548  0.2865675747335672  0.5866870450710380
  0.2865675722221042  0.4569085916129367  0.0866870477910169
  0.5430914055877452  0.7134324252664328  0.4133129549289620
 
  0.00000000E+00  0.00000000E+00  0.00000000E+00
  0.00000000E+00  0.00000000E+00  0.00000000E+00
  0.00000000E+00  0.00000000E+00  0.00000000E+00
  0.00000000E+00  0.00000000E+00  0.00000000E+00
  0.00000000E+00  0.00000000E+00  0.00000000E+00
  0.00000000E+00  0.00000000E+00  0.00000000E+00
  0.00000000E+00  0.00000000E+00  0.00000000E+00
  0.00000000E+00  0.00000000E+00  0.00000000E+00
  0.00000000E+00  0.00000000E+00  0.00000000E+00
  0.00000000E+00  0.00000000E+00  0.00000000E+00
  0.00000000E+00  0.00000000E+00  0.00000000E+00
  0.00000000E+00  0.00000000E+00  0.00000000E+00
  0.00000000E+00  0.00000000E+00  0.00000000E+00
  0.00000000E+00  0.00000000E+00  0.00000000E+00
