Sr10 Ga12                               
   1.00000000000000     
    -3.7508476958913364   -6.4968204808663037    0.0000000000000000
    -3.7508257207936135    6.4968074150910127    0.0000000000000000
     0.0000000000000000    0.0000000000000000  -13.6731519604861127
   Sr   Ga
    10    12
Direct
  0.7054897842127872  0.6666392030729540  0.2500000000000000
  0.9611338659385069  0.2944216632835932  0.2500000000000000
  0.3332730200858762  0.0388037625014235  0.2500000000000000
  0.9609184967862205  0.6666755188752447  0.7500000000000000
  0.3333616958541512  0.2942413634995376  0.7500000000000000
  0.7058113707455149  0.0391332736172600  0.7500000000000000
  0.0000154487805446  0.9999877110669999  0.9999803596153072
  0.0000154487805446  0.9999877110669999  0.5000196403846928
  0.6666672630435713  0.3333503901194703  0.9999679233223162
  0.6666672630435713  0.3333503901194703  0.5000320766776838
  0.5436482925995847  0.8769729967791378  0.0843006075604720
  0.3333294921850793  0.4563912702787007  0.0842995226210590
  0.1230536462241503  0.6666505145155810  0.0842999908173994
  0.5436482925995847  0.8769729967791378  0.4156993924395280
  0.3333294921850793  0.4563912702787007  0.4157004773789410
  0.1230536462241503  0.6666505145155810  0.4157000091826006
  0.3333389256293700  0.8769511197179085  0.5843287409734188
  0.1230395772109674  0.4563593385791549  0.5843376145783878
  0.5436132375151956  0.6666792665180310  0.5843414467580814
  0.3333389256293700  0.8769511197179085  0.9156712590265812
  0.1230395772109674  0.4563593385791549  0.9156623854216122
  0.5436132375151956  0.6666792665180310  0.9156585532419186
 
  0.00000000E+00  0.00000000E+00  0.00000000E+00
  0.00000000E+00  0.00000000E+00  0.00000000E+00
  0.00000000E+00  0.00000000E+00  0.00000000E+00
  0.00000000E+00  0.00000000E+00  0.00000000E+00
  0.00000000E+00  0.00000000E+00  0.00000000E+00
  0.00000000E+00  0.00000000E+00  0.00000000E+00
  0.00000000E+00  0.00000000E+00  0.00000000E+00
  0.00000000E+00  0.00000000E+00  0.00000000E+00
  0.00000000E+00  0.00000000E+00  0.00000000E+00
  0.00000000E+00  0.00000000E+00  0.00000000E+00
  0.00000000E+00  0.00000000E+00  0.00000000E+00
  0.00000000E+00  0.00000000E+00  0.00000000E+00
  0.00000000E+00  0.00000000E+00  0.00000000E+00
  0.00000000E+00  0.00000000E+00  0.00000000E+00
  0.00000000E+00  0.00000000E+00  0.00000000E+00
  0.00000000E+00  0.00000000E+00  0.00000000E+00
  0.00000000E+00  0.00000000E+00  0.00000000E+00
  0.00000000E+00  0.00000000E+00  0.00000000E+00
  0.00000000E+00  0.00000000E+00  0.00000000E+00
  0.00000000E+00  0.00000000E+00  0.00000000E+00
  0.00000000E+00  0.00000000E+00  0.00000000E+00
  0.00000000E+00  0.00000000E+00  0.00000000E+00
