Ba9 Al4                                 
   1.00000000000000     
    -6.9378913395424631    6.9586843487951331    2.9385917946977460
     6.9361817338545420   -6.9605570573024069    2.9396101649729487
     6.9656891581469038    6.9890414288266030   -2.9432037985153903
   Al   Ba
     4     9
Direct
  0.4019331039906362  0.7383281622562095  0.1415945204038209
  0.7341558378581894  0.5961946227278645  0.3364950194439729
  0.2658385332146693  0.4037945460444803  0.6635596348666368
  0.5980815861264546  0.2616836654066290  0.8584767723037459
  0.4999951405569263  0.4999980299416222  0.0000282492106862
  0.1869144314200639  0.8876910688015869  0.0750856144239762
  0.8726439639559658  0.3858883258625596  0.2601812615590475
  0.1097211422595450  0.1866667308240935  0.2980252098151226
  0.6162855900150461  0.8747510006192627  0.4886993502946027
  0.3837193877461331  0.1252544972300527  0.5113645577121844
  0.8902869907163478  0.8133415118259109  0.7020387029937183
  0.1273482751306503  0.6141017987481376  0.7398756579766967
  0.8130760170093723  0.1123060397115907  0.9249754489957738
 
  0.00000000E+00  0.00000000E+00  0.00000000E+00
  0.00000000E+00  0.00000000E+00  0.00000000E+00
  0.00000000E+00  0.00000000E+00  0.00000000E+00
  0.00000000E+00  0.00000000E+00  0.00000000E+00
  0.00000000E+00  0.00000000E+00  0.00000000E+00
  0.00000000E+00  0.00000000E+00  0.00000000E+00
  0.00000000E+00  0.00000000E+00  0.00000000E+00
  0.00000000E+00  0.00000000E+00  0.00000000E+00
  0.00000000E+00  0.00000000E+00  0.00000000E+00
  0.00000000E+00  0.00000000E+00  0.00000000E+00
  0.00000000E+00  0.00000000E+00  0.00000000E+00
  0.00000000E+00  0.00000000E+00  0.00000000E+00
  0.00000000E+00  0.00000000E+00  0.00000000E+00
