Be15 In1                                
   1.00000000000000     
     2.3404297350646033   -4.0537431622450075    0.0000000000000000
     2.3404297350646033    4.0537431622450075    0.0000000000000000
     0.0000000000000000    0.0000000000000000    7.8030366573509378
   Be   In
    15     1
Direct
  0.0000000000000000  0.0000000000000000  0.0000000000000000
  0.9982477913805852  0.4991238957519641  0.5000000000000000
  0.9954821463906072  0.4977410731478358  0.0000000000000000
  0.5008761043713861  0.4991238956286139  0.5000000000000000
  0.5022589267572286  0.4977410732427714  0.0000000000000000
  0.5008761042480359  0.0017522086194219  0.5000000000000000
  0.5022589268521642  0.0045178536093928  0.0000000000000000
  0.1729950054456424  0.3459910110315363  0.2267276713383239
  0.1729950054456424  0.3459910110315363  0.7732723286616761
  0.1729950055858964  0.8270049944141036  0.2267276713383239
  0.1729950055858964  0.8270049944141036  0.7732723286616761
  0.6540089889684637  0.8270049945543576  0.2267276713383239
  0.6540089889684637  0.8270049945543576  0.7732723286616761
  0.6666669999999968  0.3333330000000032  0.2397595669891217
  0.6666669999999968  0.3333330000000032  0.7602404330108783
  0.0000000000000000  0.0000000000000000  0.5000000000000000
 
  0.00000000E+00  0.00000000E+00  0.00000000E+00
  0.00000000E+00  0.00000000E+00  0.00000000E+00
  0.00000000E+00  0.00000000E+00  0.00000000E+00
  0.00000000E+00  0.00000000E+00  0.00000000E+00
  0.00000000E+00  0.00000000E+00  0.00000000E+00
  0.00000000E+00  0.00000000E+00  0.00000000E+00
  0.00000000E+00  0.00000000E+00  0.00000000E+00
  0.00000000E+00  0.00000000E+00  0.00000000E+00
  0.00000000E+00  0.00000000E+00  0.00000000E+00
  0.00000000E+00  0.00000000E+00  0.00000000E+00
  0.00000000E+00  0.00000000E+00  0.00000000E+00
  0.00000000E+00  0.00000000E+00  0.00000000E+00
  0.00000000E+00  0.00000000E+00  0.00000000E+00
  0.00000000E+00  0.00000000E+00  0.00000000E+00
  0.00000000E+00  0.00000000E+00  0.00000000E+00
  0.00000000E+00  0.00000000E+00  0.00000000E+00
