Be3 Ga4                                 
   1.00000000000000     
     1.9436063392245091    0.3059946175996291    5.6677422102529356
    -1.9436063392245091    0.3059946175996291    5.6677422102529356
     0.0000000000000000   -4.1813281686924375    6.3277374592677393
   Ga   Be
     4     3
Direct
  0.0908512328380056  0.0908512328380056  0.2108093925641583
  0.3102742761035202  0.3102742761035202  0.2958613501865699
  0.6857257238964820  0.6857257238964820  0.7001386498134323
  0.9051487671619967  0.9051487671619967  0.7851906074358439
  0.3372925920128154  0.3372925920128154  0.6551605728105940
  0.6587074079871940  0.6587074079871940  0.3408394271894082
  0.9979999999999976  0.9979999999999976  0.9979999999999976
 
  0.00000000E+00  0.00000000E+00  0.00000000E+00
  0.00000000E+00  0.00000000E+00  0.00000000E+00
  0.00000000E+00  0.00000000E+00  0.00000000E+00
  0.00000000E+00  0.00000000E+00  0.00000000E+00
  0.00000000E+00  0.00000000E+00  0.00000000E+00
  0.00000000E+00  0.00000000E+00  0.00000000E+00
  0.00000000E+00  0.00000000E+00  0.00000000E+00
