Ca3 Tl4                                 
   1.0000000000000000     
     2.7275399349138962    1.5752759787196100    8.2082972021156859
    -2.7275399349138962    1.5752759787196100    8.2082972021156859
     0.0000000000000000   -3.1492780121845056    8.2079995711693616
   Tl   Ca
     4     3
Direct
  0.1478646942134105  0.1478646942134105  0.1478914276762850
  0.2919936473031086  0.2919936473031086  0.2918410892881127
  0.7128376680863155  0.7128376680863155  0.7131176782225666
  0.8570711928716648  0.8570711928716648  0.8568319239075919
  0.0024205747059085  0.0024205747059085  0.0024832663533800
  0.4274402422349581  0.4274402422349581  0.4277875206895700
  0.5774319805846417  0.5774319805846417  0.5771070938624874

  0.00000000E+00  0.00000000E+00  0.00000000E+00
  0.00000000E+00  0.00000000E+00  0.00000000E+00
  0.00000000E+00  0.00000000E+00  0.00000000E+00
  0.00000000E+00  0.00000000E+00  0.00000000E+00
  0.00000000E+00  0.00000000E+00  0.00000000E+00
  0.00000000E+00  0.00000000E+00  0.00000000E+00
  0.00000000E+00  0.00000000E+00  0.00000000E+00
