Mg2 In2 Br10                            
   1.00000000000000     
    -5.1486049631413522   -5.3388592903582017    0.5233248899405184
     5.1483013649460929   -5.3300678739766854   -0.5124840362276291
    -4.4930606737608718   -0.0116943611766770    9.4848430285458001
   In   Mg   Br
     2     2    10
Direct
  0.9993950375954554  0.0001901201920660  0.9982852179179815
  0.0000245214826151  0.0005975905901821  0.4982984509130901
  0.6349509144939773  0.6358786808621204  0.2509176306527863
  0.3649883232102411  0.3641948295642194  0.7497252890253421
  0.7872758193082134  0.7079208648141133  0.0228104672762584
  0.6620366282735262  0.2620104437615822  0.1669748209417747
  0.0880185465789083  0.0737026732343367  0.2457348095746639
  0.2610159809701500  0.6605094959717306  0.3421582555587079
  0.7093898336843694  0.7881441196815189  0.4777827812514559
  0.2918058190397375  0.2104976062139414  0.5225763017535741
  0.7390257854439781  0.3398682579363168  0.6586873672970768
  0.9119931223928717  0.9264994758058904  0.7535442839332376
  0.3373626960650071  0.7381090277721185  0.8343725886109112
  0.2126159714609486  0.2917768135998955  0.9778297352931062
 
  0.00000000E+00  0.00000000E+00  0.00000000E+00
  0.00000000E+00  0.00000000E+00  0.00000000E+00
  0.00000000E+00  0.00000000E+00  0.00000000E+00
  0.00000000E+00  0.00000000E+00  0.00000000E+00
  0.00000000E+00  0.00000000E+00  0.00000000E+00
  0.00000000E+00  0.00000000E+00  0.00000000E+00
  0.00000000E+00  0.00000000E+00  0.00000000E+00
  0.00000000E+00  0.00000000E+00  0.00000000E+00
  0.00000000E+00  0.00000000E+00  0.00000000E+00
  0.00000000E+00  0.00000000E+00  0.00000000E+00
  0.00000000E+00  0.00000000E+00  0.00000000E+00
  0.00000000E+00  0.00000000E+00  0.00000000E+00
  0.00000000E+00  0.00000000E+00  0.00000000E+00
  0.00000000E+00  0.00000000E+00  0.00000000E+00
