BeCl2                                   
   1.00000000000000     
     0.0000000000000000    0.0000000000000000    5.2527388624115696
     0.0128737713873977   -5.9137836871848402    0.0000000000000000
     5.4343819392894117    2.9449677084797234   -2.6263694312057848
   Be   Cl
     2     4
Direct
  0.2499810137895935  0.0000661414490750  0.0000148353513367
  0.7500338215617361  0.0000661414490750  0.0000148353513367
  0.6010422615791313  0.2867083548245759  0.2020845231582555
  0.1013070260374960  0.9146171599809421  0.2026140520749919
  0.8986827509849107  0.0855538534409703  0.7973655019698214
  0.3989531260471324  0.7134883488553498  0.7979062520942648
 
  0.00000000E+00  0.00000000E+00  0.00000000E+00
  0.00000000E+00  0.00000000E+00  0.00000000E+00
  0.00000000E+00  0.00000000E+00  0.00000000E+00
  0.00000000E+00  0.00000000E+00  0.00000000E+00
  0.00000000E+00  0.00000000E+00  0.00000000E+00
  0.00000000E+00  0.00000000E+00  0.00000000E+00
