Be1 Al2 Br6                             
   1.00000000000000     
     3.8182008628269171    2.5058737147684615    6.4714752698739542
    -3.8182008628269171    2.5058737147684615    6.4714752698739542
     0.0000000000000000   -4.5666526581664622    5.7828796728688463
   Be   Br   Al
     1     6     2
Direct
  0.0000000000000000  0.0000000000000000  0.0000000000000000
  0.6648728970730389  0.6648728970730389  0.2019301522920500
  0.7269337811030354  0.1335802260110981  0.2810290331585534
  0.1335802260110981  0.7269337811030354  0.2810290331585534
  0.3351271029269611  0.3351271029269611  0.7980698477079500
  0.8664197739889019  0.2730662188969646  0.7189709668414466
  0.2730662188969646  0.8664197739889019  0.7189709668414466
  0.4852210918905797  0.4852210918905797  0.8490408937493612
  0.5147789081094203  0.5147789081094203  0.1509591062506388
 
  0.00000000E+00  0.00000000E+00  0.00000000E+00
  0.00000000E+00  0.00000000E+00  0.00000000E+00
  0.00000000E+00  0.00000000E+00  0.00000000E+00
  0.00000000E+00  0.00000000E+00  0.00000000E+00
  0.00000000E+00  0.00000000E+00  0.00000000E+00
  0.00000000E+00  0.00000000E+00  0.00000000E+00
  0.00000000E+00  0.00000000E+00  0.00000000E+00
  0.00000000E+00  0.00000000E+00  0.00000000E+00
  0.00000000E+00  0.00000000E+00  0.00000000E+00
