Be1 In2 I10                             
   1.00000000000000     
     5.2162168258716077    5.2560787402937708    0.3468417706521811
    -5.2162168258716077    5.2560787402937708    0.3468417706521812
    -0.0000000000000001    4.1550048533962682   10.3350825690912931
   Be   In   I 
     1     2    10
Direct
  0.3932682387023405  0.6067317612976595  0.0000000000000000
  0.9991002045668438  0.9920706615327290  0.7500057499080555
  0.0079293384672710  0.0008997954331562  0.2499942500919445
  0.2852713877384616  0.3128729722387007  0.6307300807328104
  0.6871270277612993  0.7147286122615384  0.3692699192671896
  0.7456635349895322  0.6378339158156265  0.9251771758601990
  0.3621660841843664  0.2543364650104678  0.0748228241398010
  0.8977670024251054  0.1022329975748946  0.0000000000000000
  0.1186785750644361  0.8813214249355639  0.5000000000000000
  0.7277454652696704  0.2539277401434461  0.6827611427479710
  0.7460722598565539  0.2722545347303296  0.3172388572520290
  0.3180651361558020  0.7448552551816903  0.7993396642106774
  0.2551447448183097  0.6819348638441980  0.2006603357893226
 
  0.00000000E+00  0.00000000E+00  0.00000000E+00
  0.00000000E+00  0.00000000E+00  0.00000000E+00
  0.00000000E+00  0.00000000E+00  0.00000000E+00
  0.00000000E+00  0.00000000E+00  0.00000000E+00
  0.00000000E+00  0.00000000E+00  0.00000000E+00
  0.00000000E+00  0.00000000E+00  0.00000000E+00
  0.00000000E+00  0.00000000E+00  0.00000000E+00
  0.00000000E+00  0.00000000E+00  0.00000000E+00
  0.00000000E+00  0.00000000E+00  0.00000000E+00
  0.00000000E+00  0.00000000E+00  0.00000000E+00
  0.00000000E+00  0.00000000E+00  0.00000000E+00
  0.00000000E+00  0.00000000E+00  0.00000000E+00
  0.00000000E+00  0.00000000E+00  0.00000000E+00
