Ba4 Ga2 F10                             
   1.00000000000000     
     7.6854991651454325   -0.0543532472444356    0.0774833580001351
    -0.0562875809064200    7.8091379137889962   -0.5042376410827494
     3.8704857668572741    3.5283180245898156    4.6541438666295267
   F    Ga   Ba
    10     2     4
Direct
  0.0803698141292486  0.0380974960677847  0.0000308748506797
  0.6340287418437356  0.4789955356332243  0.9428506890208439
  0.4333119147320232  0.9807208344668723  0.3212096893865990
  0.0957927686824505  0.3318187951276954  0.2060936381939271
  0.7288815928573200  0.5024476640701820  0.2926822391490944
  0.1030379572192075  0.6634389988711291  0.3403483580308020
  0.8029907725734517  0.1659221750341757  0.7936429744873905
  0.2498997594545855  0.5104282741254451  0.6885380886521091
  0.9494058118163622  0.8675437054892825  0.6639160475228465
  0.5218858998179456  0.9904736872784667  0.7182748488024444
  0.1306114962544385  0.2355021858560562  0.5030818511644171
  0.8360101001910891  0.7536987336940086  0.5118212237245885
  0.4453467393063164  0.2657347970227164  0.8468167165524250
  0.7940472066926176  0.2255658910591052  0.1534805378502355
  0.1677995285264728  0.7535502694030214  0.8704362778170918
  0.5268798959027379  0.7363609568008016  0.1467759447945127
 
  0.00000000E+00  0.00000000E+00  0.00000000E+00
  0.00000000E+00  0.00000000E+00  0.00000000E+00
  0.00000000E+00  0.00000000E+00  0.00000000E+00
  0.00000000E+00  0.00000000E+00  0.00000000E+00
  0.00000000E+00  0.00000000E+00  0.00000000E+00
  0.00000000E+00  0.00000000E+00  0.00000000E+00
  0.00000000E+00  0.00000000E+00  0.00000000E+00
  0.00000000E+00  0.00000000E+00  0.00000000E+00
  0.00000000E+00  0.00000000E+00  0.00000000E+00
  0.00000000E+00  0.00000000E+00  0.00000000E+00
  0.00000000E+00  0.00000000E+00  0.00000000E+00
  0.00000000E+00  0.00000000E+00  0.00000000E+00
  0.00000000E+00  0.00000000E+00  0.00000000E+00
  0.00000000E+00  0.00000000E+00  0.00000000E+00
  0.00000000E+00  0.00000000E+00  0.00000000E+00
  0.00000000E+00  0.00000000E+00  0.00000000E+00
