Ba2 Tl2 Cl6                             
   1.0000000000000000     
     8.0722997344266734   -0.0012382431328528   -0.0068990751412436
    -4.0366272821657807    7.0057276158618844    0.0084157929357234
    -4.0415853663130070   -2.3299843260033652    7.0048119828574018
   Ba   Cl   Tl
     2     6     2
Direct
  0.7026821347368966  0.3510334488904618  0.0545681348910279
  0.2972969349778225  0.6489397495917686  0.9454811105304444
  0.7730455797199909  0.0451949580566193  0.2416165040571912
  0.5151392294646087  0.4693973119020143  0.2420342851316732
  0.1953774406512281  0.7273228855616125  0.2407817163747907
  0.8044131792965743  0.2723452441381085  0.7590733777016112
  0.4846666618899889  0.5304600913093793  0.7578573258123171
  0.2266889842979509  0.9546091546080149  0.7582965183197103
  0.2865998798058413  0.1432218765925910  0.4278133287921619
  0.7140899751590979  0.8570752793494378  0.5719776983890767

  0.00000000E+00  0.00000000E+00  0.00000000E+00
  0.00000000E+00  0.00000000E+00  0.00000000E+00
  0.00000000E+00  0.00000000E+00  0.00000000E+00
  0.00000000E+00  0.00000000E+00  0.00000000E+00
  0.00000000E+00  0.00000000E+00  0.00000000E+00
  0.00000000E+00  0.00000000E+00  0.00000000E+00
  0.00000000E+00  0.00000000E+00  0.00000000E+00
  0.00000000E+00  0.00000000E+00  0.00000000E+00
  0.00000000E+00  0.00000000E+00  0.00000000E+00
  0.00000000E+00  0.00000000E+00  0.00000000E+00
