Sr4 Al4 Cl20                            
   1.0000000000000000     
     6.2830773991909226   -0.0000000000000001    0.0000000000000004
    -0.0000000000000005    6.8483086670311870    0.0000000000000004
     0.0000000000000003    0.0000000000000001   17.1622349470810178
   Sr   Al   Cl
     4     4    20
Direct
  0.7649124014203466  0.4111201155004949  0.3428193266818411
  0.2649124014203466  0.0888798844995051  0.6571806733181589
  0.2350875985796463  0.9111201155004949  0.1571806733181589
  0.7350875985796463  0.5888798844995051  0.8428193266818411
  0.2159716392053141  0.8742656582537691  0.3946725136671105
  0.7159716392053141  0.6257343417462309  0.6053274863328824
  0.7840283607946859  0.3742656582537691  0.1053274863328824
  0.2840283607946859  0.1257343417462309  0.8946725136671105
  0.8901867748953194  0.6105691305593268  0.4890616710475086
  0.3901867748953123  0.8894308694406732  0.5109383289524914
  0.1098132251046806  0.1105691305593339  0.0109383289524914
  0.6098132251046806  0.3894308694406661  0.9890616710475086
  0.9679930611814811  0.7975256210044392  0.2951424798037934
  0.4679930611814811  0.7024743789955608  0.7048575201962066
  0.0320069388185189  0.2975256210044392  0.2048575201962066
  0.5320069388185189  0.2024743789955608  0.7951424798037934
  0.0028761298275981  0.6154261585971952  0.0665712360649451
  0.5028761298275981  0.8845738414028048  0.9334287639350549
  0.9971238701724019  0.1154261585971952  0.4334287639350549
  0.4971238701724019  0.3845738414028048  0.5665712360649451
  0.5588022294160524  0.5347039952921122  0.1844139160371370
  0.0588022294160524  0.9652960047078878  0.8155860839628630
  0.4411977705839476  0.0347039952921122  0.3155860839628630
  0.9411977705839476  0.4652960047078878  0.6844139160371370
  0.1636948000193641  0.4374688686469383  0.8768502829027085
  0.6636948000193641  0.0625311313530617  0.1231497170972915
  0.8363051999806359  0.9374688686469383  0.6231497170972915
  0.3363051999806430  0.5625311313530617  0.3768502829027085

  0.00000000E+00  0.00000000E+00  0.00000000E+00
  0.00000000E+00  0.00000000E+00  0.00000000E+00
  0.00000000E+00  0.00000000E+00  0.00000000E+00
  0.00000000E+00  0.00000000E+00  0.00000000E+00
  0.00000000E+00  0.00000000E+00  0.00000000E+00
  0.00000000E+00  0.00000000E+00  0.00000000E+00
  0.00000000E+00  0.00000000E+00  0.00000000E+00
  0.00000000E+00  0.00000000E+00  0.00000000E+00
  0.00000000E+00  0.00000000E+00  0.00000000E+00
  0.00000000E+00  0.00000000E+00  0.00000000E+00
  0.00000000E+00  0.00000000E+00  0.00000000E+00
  0.00000000E+00  0.00000000E+00  0.00000000E+00
  0.00000000E+00  0.00000000E+00  0.00000000E+00
  0.00000000E+00  0.00000000E+00  0.00000000E+00
  0.00000000E+00  0.00000000E+00  0.00000000E+00
  0.00000000E+00  0.00000000E+00  0.00000000E+00
  0.00000000E+00  0.00000000E+00  0.00000000E+00
  0.00000000E+00  0.00000000E+00  0.00000000E+00
  0.00000000E+00  0.00000000E+00  0.00000000E+00
  0.00000000E+00  0.00000000E+00  0.00000000E+00
  0.00000000E+00  0.00000000E+00  0.00000000E+00
  0.00000000E+00  0.00000000E+00  0.00000000E+00
  0.00000000E+00  0.00000000E+00  0.00000000E+00
  0.00000000E+00  0.00000000E+00  0.00000000E+00
  0.00000000E+00  0.00000000E+00  0.00000000E+00
  0.00000000E+00  0.00000000E+00  0.00000000E+00
  0.00000000E+00  0.00000000E+00  0.00000000E+00
  0.00000000E+00  0.00000000E+00  0.00000000E+00
