Tl12 Cl28                               
   1.0000000000000000     
    13.0235024318164658    0.0044693259071044    0.0034069325228848
     0.0036225626836489   10.0917787285426765   -0.0016996198280378
     0.0030112815225468   -0.0016049615443966   11.4465349559917282
   Cl   Tl
    28    12
Direct
  0.1749312020381808  0.6512923785964020  0.1166853431344279
  0.6742356115448587  0.8494356431322672  0.1161280256789823
  0.7521170598183602  0.2239034557581334  0.1320381898740237
  0.2517854524992629  0.2768165124221156  0.1320483699069399
  0.4755082779978537  0.5474737492087343  0.1354142102025904
  0.9749021262509103  0.9524955533236721  0.1354378762984894
  0.4882759562329255  0.2010601524024409  0.3317674963664743
  0.9879418660259844  0.2985445891876779  0.3324482045835282
  0.7367417263533795  0.5557907328855549  0.3148722570366971
  0.2360115402929495  0.9445336637168040  0.3149830100961140
  0.7859659616819599  0.0030012426992982  0.4205699408901751
  0.2865772612459523  0.4969376985236096  0.4203697930724246
  0.0128452554590055  0.6280831814796528  0.4825096015864929
  0.5126820775802017  0.8702543229307622  0.4807728370233875
  0.3262008536115744  0.1504302635775900  0.6162309210367027
  0.8246613546575432  0.3485320075614666  0.6164515063441058
  0.7479818716188689  0.7233859445670845  0.6321399788468582
  0.2481455417565641  0.7761668772188273  0.6320612722542194
  0.0253029722596381  0.0474132588113818  0.6355340573124124
  0.5245087941632391  0.4526892796540025  0.6351372983174528
  0.0122318945155229  0.7013327304227204  0.8323766719135577
  0.5116052150501744  0.7989714258659220  0.8317600026733274
  0.7636527637921020  0.0556292341953295  0.8147581217598088
  0.2636473993570903  0.4443982720968549  0.8148396810570233
  0.7133092985832121  0.5031027414594007  0.9203331754167721
  0.2140753505469135  0.9971092928914231  0.9205614703118457
  0.4872595316810404  0.1294953469588620  0.9813568698066391
  0.9872789649458085  0.3716838408946259  0.9819679038861864
  0.8765129451543388  0.6556590996473375  0.0856351336538950
  0.3775891278518557  0.8449847043969072  0.0861226947502658
  0.8878142258092296  0.1068678128311973  0.2662779987505246
  0.3881496280506980  0.3930004733507602  0.2656517139560606
  0.8366148581792743  0.5482428369622596  0.4943938662678704
  0.3365624143593919  0.9504837065782610  0.4939793580356735
  0.6221049034849386  0.1550032005480446  0.5857953579108752
  0.1238302810317080  0.3442800691202805  0.5860775402043714
  0.6116905551629372  0.6068562925114946  0.7657703065768686
  0.1122760448715567  0.8931732339187022  0.7663606986935534
  0.6634822725238010  0.0494832713447764  0.9941602553833206
  0.1634095619592131  0.4518019063473915  0.9942209891290759

  0.00000000E+00  0.00000000E+00  0.00000000E+00
  0.00000000E+00  0.00000000E+00  0.00000000E+00
  0.00000000E+00  0.00000000E+00  0.00000000E+00
  0.00000000E+00  0.00000000E+00  0.00000000E+00
  0.00000000E+00  0.00000000E+00  0.00000000E+00
  0.00000000E+00  0.00000000E+00  0.00000000E+00
  0.00000000E+00  0.00000000E+00  0.00000000E+00
  0.00000000E+00  0.00000000E+00  0.00000000E+00
  0.00000000E+00  0.00000000E+00  0.00000000E+00
  0.00000000E+00  0.00000000E+00  0.00000000E+00
  0.00000000E+00  0.00000000E+00  0.00000000E+00
  0.00000000E+00  0.00000000E+00  0.00000000E+00
  0.00000000E+00  0.00000000E+00  0.00000000E+00
  0.00000000E+00  0.00000000E+00  0.00000000E+00
  0.00000000E+00  0.00000000E+00  0.00000000E+00
  0.00000000E+00  0.00000000E+00  0.00000000E+00
  0.00000000E+00  0.00000000E+00  0.00000000E+00
  0.00000000E+00  0.00000000E+00  0.00000000E+00
  0.00000000E+00  0.00000000E+00  0.00000000E+00
  0.00000000E+00  0.00000000E+00  0.00000000E+00
  0.00000000E+00  0.00000000E+00  0.00000000E+00
  0.00000000E+00  0.00000000E+00  0.00000000E+00
  0.00000000E+00  0.00000000E+00  0.00000000E+00
  0.00000000E+00  0.00000000E+00  0.00000000E+00
  0.00000000E+00  0.00000000E+00  0.00000000E+00
  0.00000000E+00  0.00000000E+00  0.00000000E+00
  0.00000000E+00  0.00000000E+00  0.00000000E+00
  0.00000000E+00  0.00000000E+00  0.00000000E+00
  0.00000000E+00  0.00000000E+00  0.00000000E+00
  0.00000000E+00  0.00000000E+00  0.00000000E+00
  0.00000000E+00  0.00000000E+00  0.00000000E+00
  0.00000000E+00  0.00000000E+00  0.00000000E+00
  0.00000000E+00  0.00000000E+00  0.00000000E+00
  0.00000000E+00  0.00000000E+00  0.00000000E+00
  0.00000000E+00  0.00000000E+00  0.00000000E+00
  0.00000000E+00  0.00000000E+00  0.00000000E+00
  0.00000000E+00  0.00000000E+00  0.00000000E+00
  0.00000000E+00  0.00000000E+00  0.00000000E+00
  0.00000000E+00  0.00000000E+00  0.00000000E+00
  0.00000000E+00  0.00000000E+00  0.00000000E+00
