Ba6 Ga4 Cl24                            
   1.00000000000000     
     0.0000000000000000    0.0000000000000000    6.9267616476224383
    12.0605632542963388    0.0000171879662623    0.0000000000000000
     0.0000168309803985   12.0617449823143588    0.0000000000000000
   Ba   Cl   Ga
     6    24     4
Direct
  0.0000000000000000  0.0000308677284551  0.9999993445621271
  0.5000000000000000  0.3601031066450489  0.1402882518096220
  0.5000000000000000  0.8599897582119596  0.3599205990766592
  0.0000000000000000  0.5000316952922290  0.5000259115917061
  0.5000000000000000  0.1400900633845765  0.6400719614193306
  0.5000000000000000  0.6400011936263041  0.8599176474649681
  0.2540882538528138  0.4999772537505294  0.0000201034388283
  0.7459117461471862  0.4999772537505294  0.0000201034388283
  0.2410403496935345  0.7893535691232074  0.0943141332208839
  0.7589596503064655  0.7893535691232074  0.0943141332208839
  0.0000000000000000  0.3386386208872025  0.1613144207755468
  0.2410466145264465  0.0942955197728850  0.2106718561046321
  0.7589533854735535  0.0942955197728850  0.2106718561046321
  0.2410441100545313  0.5942790466281025  0.2893435634963311
  0.7589558899454687  0.5942790466281025  0.2893435634963311
  0.0000000000000000  0.8386306120135387  0.3386849577312816
  0.2410427812439124  0.2893866328758534  0.4056778846976314
  0.7589572187560876  0.2893866328758534  0.4056778846976314
  0.2540879605977082  0.0000215348546959  0.4999972917209519
  0.7459120394022918  0.0000215348546959  0.4999972917209519
  0.2410392933492105  0.7106615058030030  0.5943328777050780
  0.7589607066507895  0.7106615058030030  0.5943328777050780
  0.0000000000000000  0.1613522568486445  0.6612751073762411
  0.2410467526138262  0.4057077630312591  0.7106383200403030
  0.7589532473861738  0.4057077630312591  0.7106383200403030
  0.2410394279760908  0.9057026048862085  0.7893684943045898
  0.7589605720239092  0.9057026048862085  0.7893684943045898
  0.0000000000000000  0.6613229815661299  0.8386876531113217
  0.2410380792399849  0.2106315637673504  0.9056430991069249
  0.7589619207600151  0.2106315637673504  0.9056430991069249
  0.0000000000000000  0.7090045012302966  0.2089891369500165
  0.0000000000000000  0.2090027788450044  0.2909955651610190
  0.0000000000000000  0.7909972460088497  0.7090400594637600
  0.0000000000000000  0.2909703287255567  0.7909741358340838
 
  0.00000000E+00  0.00000000E+00  0.00000000E+00
  0.00000000E+00  0.00000000E+00  0.00000000E+00
  0.00000000E+00  0.00000000E+00  0.00000000E+00
  0.00000000E+00  0.00000000E+00  0.00000000E+00
  0.00000000E+00  0.00000000E+00  0.00000000E+00
  0.00000000E+00  0.00000000E+00  0.00000000E+00
  0.00000000E+00  0.00000000E+00  0.00000000E+00
  0.00000000E+00  0.00000000E+00  0.00000000E+00
  0.00000000E+00  0.00000000E+00  0.00000000E+00
  0.00000000E+00  0.00000000E+00  0.00000000E+00
  0.00000000E+00  0.00000000E+00  0.00000000E+00
  0.00000000E+00  0.00000000E+00  0.00000000E+00
  0.00000000E+00  0.00000000E+00  0.00000000E+00
  0.00000000E+00  0.00000000E+00  0.00000000E+00
  0.00000000E+00  0.00000000E+00  0.00000000E+00
  0.00000000E+00  0.00000000E+00  0.00000000E+00
  0.00000000E+00  0.00000000E+00  0.00000000E+00
  0.00000000E+00  0.00000000E+00  0.00000000E+00
  0.00000000E+00  0.00000000E+00  0.00000000E+00
  0.00000000E+00  0.00000000E+00  0.00000000E+00
  0.00000000E+00  0.00000000E+00  0.00000000E+00
  0.00000000E+00  0.00000000E+00  0.00000000E+00
  0.00000000E+00  0.00000000E+00  0.00000000E+00
  0.00000000E+00  0.00000000E+00  0.00000000E+00
  0.00000000E+00  0.00000000E+00  0.00000000E+00
  0.00000000E+00  0.00000000E+00  0.00000000E+00
  0.00000000E+00  0.00000000E+00  0.00000000E+00
  0.00000000E+00  0.00000000E+00  0.00000000E+00
  0.00000000E+00  0.00000000E+00  0.00000000E+00
  0.00000000E+00  0.00000000E+00  0.00000000E+00
  0.00000000E+00  0.00000000E+00  0.00000000E+00
  0.00000000E+00  0.00000000E+00  0.00000000E+00
  0.00000000E+00  0.00000000E+00  0.00000000E+00
  0.00000000E+00  0.00000000E+00  0.00000000E+00
