Mg2 In2 I10                             
   1.0000000000000000     
     5.6481425001494454   -0.0000000000000003    0.0000000000000003
    -0.0000000000000014   13.3961513944998387    0.0000000000000008
     0.0000000000000002    0.0000000000000004   10.1994111962803995
   Mg   In   I 
     2     2    10
Direct
  0.0000000000000000  0.0000000000000000  0.5000000000000000
  0.5000000000000000  0.5000000000000000  0.0000000000000000
  0.5000000000000000  0.0000000000000000  0.0000000000000000
  0.0000000000000000  0.5000000000000000  0.5000000000000000
  0.5000000000000000  0.7191661927568518  0.5000000000000000
  0.5000000000000000  0.2808338072431482  0.5000000000000000
  0.5000000000000000  0.0000000000000000  0.6766498538909502
  0.5000000000000000  0.0000000000000000  0.3233501461090498
  0.0000000000000000  0.0000000000000000  0.0000000000000000
  0.0000000000000000  0.2191661927568518  0.0000000000000000
  0.0000000000000000  0.7808338072431482  0.0000000000000000
  0.0000000000000000  0.5000000000000000  0.1766498538909573
  0.0000000000000000  0.5000000000000000  0.8233501461090427
  0.5000000000000000  0.5000000000000000  0.5000000000000000

  0.00000000E+00  0.00000000E+00  0.00000000E+00
  0.00000000E+00  0.00000000E+00  0.00000000E+00
  0.00000000E+00  0.00000000E+00  0.00000000E+00
  0.00000000E+00  0.00000000E+00  0.00000000E+00
  0.00000000E+00  0.00000000E+00  0.00000000E+00
  0.00000000E+00  0.00000000E+00  0.00000000E+00
  0.00000000E+00  0.00000000E+00  0.00000000E+00
  0.00000000E+00  0.00000000E+00  0.00000000E+00
  0.00000000E+00  0.00000000E+00  0.00000000E+00
  0.00000000E+00  0.00000000E+00  0.00000000E+00
  0.00000000E+00  0.00000000E+00  0.00000000E+00
  0.00000000E+00  0.00000000E+00  0.00000000E+00
  0.00000000E+00  0.00000000E+00  0.00000000E+00
  0.00000000E+00  0.00000000E+00  0.00000000E+00
