Ca4 Ga4 Cl2                             
   1.00000000000000     
     4.2270635958394127    0.0000217059879597    0.0000000000000000
    -2.1130387620110054    3.6610139572948994    0.0000000000000000
     0.0000000000000000    0.0000000000000000   16.2582623877676795
   Ga   Cl   Ca
     4     2     4
Direct
  0.3333216884740295  0.6666765349410824  0.0148183621871709
  0.3333216884740295  0.6666765349410824  0.4851816378128291
  0.6666783115259705  0.3333234650589176  0.5148183621871709
  0.6666783115259705  0.3333234650589176  0.9851816378128291
  0.6667523408099214  0.3332493399718572  0.2500000000000000
  0.3332476591900786  0.6667506600281428  0.7500000000000000
  0.9999555568051122  0.0000403017052477  0.1252537141325050
  0.9999555568051122  0.0000403017052477  0.3747462858674950
  0.0000444431948878  0.9999596982947523  0.6252537141325050
  0.0000444431948878  0.9999596982947523  0.8747462858674950
 
  0.00000000E+00  0.00000000E+00  0.00000000E+00
  0.00000000E+00  0.00000000E+00  0.00000000E+00
  0.00000000E+00  0.00000000E+00  0.00000000E+00
  0.00000000E+00  0.00000000E+00  0.00000000E+00
  0.00000000E+00  0.00000000E+00  0.00000000E+00
  0.00000000E+00  0.00000000E+00  0.00000000E+00
  0.00000000E+00  0.00000000E+00  0.00000000E+00
  0.00000000E+00  0.00000000E+00  0.00000000E+00
  0.00000000E+00  0.00000000E+00  0.00000000E+00
  0.00000000E+00  0.00000000E+00  0.00000000E+00
