Mg4                                     
   1.00000000000000     
     3.1960383216238162    0.0000000000000000    0.0000000000000000
    -1.5980191608119079    2.7678500149794365    0.0000000000000000
     0.0000000000000000    0.0000000000000000   10.2914769393290086
   Mg
     4
Direct
  0.0000000000000000  0.0000000000000000  0.0000000000000000
  0.3333340000000007  0.6666680000000014  0.2500000000000000
  0.0000000000000000  0.0000000000000000  0.5000000000000000
  0.6666669999999968  0.3333319999999986  0.7500000000000000
 
  0.00000000E+00  0.00000000E+00  0.00000000E+00
  0.00000000E+00  0.00000000E+00  0.00000000E+00
  0.00000000E+00  0.00000000E+00  0.00000000E+00
  0.00000000E+00  0.00000000E+00  0.00000000E+00
