Mg4 Ga4 F12                             
   1.00000000000000     
     7.3946492420426928    0.0000000000000000    0.0000217925635981
     0.0000000000000000    3.0643342985517035    0.0000000000000000
     0.0000648353464848    0.0000000000000000   11.7029755274561111
   F    Ga   Mg
    12     4     4
Direct
  0.1832207417598966  0.2500000000000000  0.0043385666963118
  0.4968657290944236  0.7500000000000000  0.0909902375426981
  0.7854043915064395  0.2500000000000000  0.1962015439712417
  0.2854039443711187  0.2500000000000000  0.3038287524595660
  0.9968611135067746  0.7500000000000000  0.4090424609425725
  0.6832157601121978  0.2500000000000000  0.4956960930747201
  0.3167237067480215  0.7500000000000000  0.5043376743309764
  0.0030800195250791  0.2500000000000000  0.5909883815595833
  0.7145480870641592  0.7500000000000000  0.6962055848244404
  0.2145555856909596  0.7500000000000000  0.8038296794241049
  0.5030862813349870  0.2500000000000000  0.9090440556708401
  0.8167287769478477  0.7500000000000000  0.9956912355759329
  0.0270584807470584  0.7500000000000000  0.1832218347138124
  0.5270576150217963  0.7500000000000000  0.3168134730843732
  0.4728935728849706  0.2500000000000000  0.6832221503517815
  0.9728989436639139  0.2500000000000000  0.8168119697266008
  0.6703218275448606  0.2500000000000000  0.0461556385306992
  0.1703175315577639  0.2500000000000000  0.4538754899634085
  0.8296258480136061  0.7500000000000000  0.5461572826460568
  0.3296320429040804  0.7500000000000000  0.9538778949103346
 
  0.00000000E+00  0.00000000E+00  0.00000000E+00
  0.00000000E+00  0.00000000E+00  0.00000000E+00
  0.00000000E+00  0.00000000E+00  0.00000000E+00
  0.00000000E+00  0.00000000E+00  0.00000000E+00
  0.00000000E+00  0.00000000E+00  0.00000000E+00
  0.00000000E+00  0.00000000E+00  0.00000000E+00
  0.00000000E+00  0.00000000E+00  0.00000000E+00
  0.00000000E+00  0.00000000E+00  0.00000000E+00
  0.00000000E+00  0.00000000E+00  0.00000000E+00
  0.00000000E+00  0.00000000E+00  0.00000000E+00
  0.00000000E+00  0.00000000E+00  0.00000000E+00
  0.00000000E+00  0.00000000E+00  0.00000000E+00
  0.00000000E+00  0.00000000E+00  0.00000000E+00
  0.00000000E+00  0.00000000E+00  0.00000000E+00
  0.00000000E+00  0.00000000E+00  0.00000000E+00
  0.00000000E+00  0.00000000E+00  0.00000000E+00
  0.00000000E+00  0.00000000E+00  0.00000000E+00
  0.00000000E+00  0.00000000E+00  0.00000000E+00
  0.00000000E+00  0.00000000E+00  0.00000000E+00
  0.00000000E+00  0.00000000E+00  0.00000000E+00
