Be8 Tl8 Br40                            
   1.0000000000000000     
    10.8692913128084694    0.0000000000000000    0.0000000000000000
     0.0000000000000000   18.4942525566192408    2.0035712635548388
     0.0000000000000000    5.5925044276072180   13.4719190561986348
   Be   Tl   Br
     8     8    40
Direct
  0.1940741197692617  0.0793662709545799  0.1678906243707559
  0.8059258802307383  0.9206337290454272  0.8321093756292512
  0.6940741197692617  0.9206337290454272  0.3321093756292512
  0.3059258802307383  0.0793662709545799  0.6678906243707488
  0.9228291403409372  0.3808084673195751  0.9486913512319859
  0.0771708596590628  0.6191915326804249  0.0513086487680070
  0.4228291403409372  0.6191915326804249  0.5513086487680141
  0.5771708596590628  0.3808084673195751  0.4486913512319859
  0.8890891064740387  0.5421329114816018  0.3414698645816117
  0.1109108935259613  0.4578670885184053  0.6585301354184026
  0.3890891064740387  0.4578670885184053  0.1585301354183954
  0.6109108935259613  0.5421329114816018  0.8414698645815974
  0.7887769374202946  0.8097181276823164  0.1342433702670078
  0.2112230625797125  0.1902818723176836  0.8657566297330064
  0.2887769374202875  0.1902818723176836  0.3657566297329922
  0.7112230625797054  0.8097181276823164  0.6342433702669936
  0.2334598170803659  0.6102910909933996  0.1387939456171452
  0.7665401829196341  0.3897089090066004  0.8612060543828548
  0.7334598170803659  0.3897089090066004  0.3612060543828548
  0.2665401829196341  0.6102910909933996  0.6387939456171452
  0.8986090782453502  0.5941063696619437  0.1212720310390338
  0.1013909217546498  0.4058936303380563  0.8787279689609662
  0.3986090782453431  0.4058936303380563  0.3787279689609591
  0.6013909217546498  0.5941063696619437  0.6212720310390338
  0.4390908488209533  0.0691581802190129  0.5737273771268718
  0.5609091511790538  0.9308418197809800  0.4262726228731282
  0.9390908488209462  0.9308418197809800  0.9262726228731282
  0.0609091511790538  0.0691581802190129  0.0737273771268718
  0.6636562589467658  0.9433894789237840  0.1809165468644522
  0.3363437410532484  0.0566105210762089  0.8190834531355407
  0.1636562589467516  0.0566105210762089  0.3190834531355407
  0.8363437410532342  0.9433894789237840  0.6809165468644593
  0.0632815310153063  0.6951691752724045  0.2733568111377807
  0.9367184689846937  0.3048308247275955  0.7266431888622193
  0.5632815310153063  0.3048308247275955  0.2266431888622193
  0.4367184689847008  0.6951691752724045  0.7733568111377807
  0.6271421283202301  0.8872370797465976  0.9020287227707726
  0.3728578716797770  0.1127629202534024  0.0979712772292203
  0.1271421283202230  0.1127629202534024  0.5979712772292274
  0.8728578716797699  0.8872370797465976  0.4020287227707868
  0.6864449172259981  0.6081031958965468  0.3525829965803666
  0.3135550827739948  0.3918968041034603  0.6474170034196334
  0.1864449172259981  0.3918968041034603  0.1474170034196334
  0.8135550827740019  0.6081031958965468  0.8525829965803666
  0.9208091942811194  0.3410760888507838  0.1067726522055352
  0.0791908057188806  0.6589239111492233  0.8932273477944648
  0.4208091942811194  0.6589239111492233  0.3932273477944648
  0.5791908057188806  0.3410760888507838  0.6067726522055352
  0.4706363745757045  0.2150885727790239  0.1651846560808821
  0.5293636254243026  0.7849114272209619  0.8348153439191179
  0.9706363745756974  0.7849114272209619  0.3348153439191179
  0.0293636254243026  0.2150885727790239  0.6651846560808821
  0.5729486294834558  0.5533764080505534  0.0792679463191348
  0.4270513705165442  0.4466235919494324  0.9207320536808581
  0.0729486294834558  0.4466235919494324  0.4207320536808510
  0.9270513705165442  0.5533764080505534  0.5792679463191419

  0.00000000E+00  0.00000000E+00  0.00000000E+00
  0.00000000E+00  0.00000000E+00  0.00000000E+00
  0.00000000E+00  0.00000000E+00  0.00000000E+00
  0.00000000E+00  0.00000000E+00  0.00000000E+00
  0.00000000E+00  0.00000000E+00  0.00000000E+00
  0.00000000E+00  0.00000000E+00  0.00000000E+00
  0.00000000E+00  0.00000000E+00  0.00000000E+00
  0.00000000E+00  0.00000000E+00  0.00000000E+00
  0.00000000E+00  0.00000000E+00  0.00000000E+00
  0.00000000E+00  0.00000000E+00  0.00000000E+00
  0.00000000E+00  0.00000000E+00  0.00000000E+00
  0.00000000E+00  0.00000000E+00  0.00000000E+00
  0.00000000E+00  0.00000000E+00  0.00000000E+00
  0.00000000E+00  0.00000000E+00  0.00000000E+00
  0.00000000E+00  0.00000000E+00  0.00000000E+00
  0.00000000E+00  0.00000000E+00  0.00000000E+00
  0.00000000E+00  0.00000000E+00  0.00000000E+00
  0.00000000E+00  0.00000000E+00  0.00000000E+00
  0.00000000E+00  0.00000000E+00  0.00000000E+00
  0.00000000E+00  0.00000000E+00  0.00000000E+00
  0.00000000E+00  0.00000000E+00  0.00000000E+00
  0.00000000E+00  0.00000000E+00  0.00000000E+00
  0.00000000E+00  0.00000000E+00  0.00000000E+00
  0.00000000E+00  0.00000000E+00  0.00000000E+00
  0.00000000E+00  0.00000000E+00  0.00000000E+00
  0.00000000E+00  0.00000000E+00  0.00000000E+00
  0.00000000E+00  0.00000000E+00  0.00000000E+00
  0.00000000E+00  0.00000000E+00  0.00000000E+00
  0.00000000E+00  0.00000000E+00  0.00000000E+00
  0.00000000E+00  0.00000000E+00  0.00000000E+00
  0.00000000E+00  0.00000000E+00  0.00000000E+00
  0.00000000E+00  0.00000000E+00  0.00000000E+00
  0.00000000E+00  0.00000000E+00  0.00000000E+00
  0.00000000E+00  0.00000000E+00  0.00000000E+00
  0.00000000E+00  0.00000000E+00  0.00000000E+00
  0.00000000E+00  0.00000000E+00  0.00000000E+00
  0.00000000E+00  0.00000000E+00  0.00000000E+00
  0.00000000E+00  0.00000000E+00  0.00000000E+00
  0.00000000E+00  0.00000000E+00  0.00000000E+00
  0.00000000E+00  0.00000000E+00  0.00000000E+00
  0.00000000E+00  0.00000000E+00  0.00000000E+00
  0.00000000E+00  0.00000000E+00  0.00000000E+00
  0.00000000E+00  0.00000000E+00  0.00000000E+00
  0.00000000E+00  0.00000000E+00  0.00000000E+00
  0.00000000E+00  0.00000000E+00  0.00000000E+00
  0.00000000E+00  0.00000000E+00  0.00000000E+00
  0.00000000E+00  0.00000000E+00  0.00000000E+00
  0.00000000E+00  0.00000000E+00  0.00000000E+00
  0.00000000E+00  0.00000000E+00  0.00000000E+00
  0.00000000E+00  0.00000000E+00  0.00000000E+00
  0.00000000E+00  0.00000000E+00  0.00000000E+00
  0.00000000E+00  0.00000000E+00  0.00000000E+00
  0.00000000E+00  0.00000000E+00  0.00000000E+00
  0.00000000E+00  0.00000000E+00  0.00000000E+00
  0.00000000E+00  0.00000000E+00  0.00000000E+00
  0.00000000E+00  0.00000000E+00  0.00000000E+00
