Mg4 Tl10 I2                             
   1.0000000000000000     
    11.3147655893465533   -0.2229969880654222   -0.3791141609174138
    -5.9917814153582087    6.5038711151388586    0.4628736175938420
    -5.9537571930091575   -1.7754243612935081    7.0132056973597985
   I    Mg   Tl
     2     4    10
Direct
  0.9098504222089332  0.0633339945381408  0.2531244810923710
  0.0951388825639228  0.9370762268678163  0.7592205909207905
  0.7463564999484547  0.6389076449241955  0.1412581303598444
  0.4671910085349111  0.1574848864970164  0.2036326159626114
  0.5270009886075187  0.8382483484225887  0.7892072184610726
  0.2433377899991314  0.3601752585053930  0.8486573315771437
  0.0003923491288447  0.0037868609589964  0.0018472990454583
  0.3617570316237035  0.7460063175188054  0.0136726212293112
  0.1500298602743371  0.6538209033044211  0.2233411751112300
  0.5385246569438635  0.5077425975252865  0.3480331180997993
  0.6748624978036304  0.9576151407613906  0.5049244130870036
  0.9949298630227190  0.5012263927405982  0.4971732194239848
  0.3261430901851128  0.0430776859181208  0.4919024833572081
  0.4657633501289666  0.4929653889860219  0.6525979279845586
  0.8554145961158568  0.3422485526018306  0.7838409863691851
  0.6433071129100725  0.2560837999293355  0.9873663879184278

  0.00000000E+00  0.00000000E+00  0.00000000E+00
  0.00000000E+00  0.00000000E+00  0.00000000E+00
  0.00000000E+00  0.00000000E+00  0.00000000E+00
  0.00000000E+00  0.00000000E+00  0.00000000E+00
  0.00000000E+00  0.00000000E+00  0.00000000E+00
  0.00000000E+00  0.00000000E+00  0.00000000E+00
  0.00000000E+00  0.00000000E+00  0.00000000E+00
  0.00000000E+00  0.00000000E+00  0.00000000E+00
  0.00000000E+00  0.00000000E+00  0.00000000E+00
  0.00000000E+00  0.00000000E+00  0.00000000E+00
  0.00000000E+00  0.00000000E+00  0.00000000E+00
  0.00000000E+00  0.00000000E+00  0.00000000E+00
  0.00000000E+00  0.00000000E+00  0.00000000E+00
  0.00000000E+00  0.00000000E+00  0.00000000E+00
  0.00000000E+00  0.00000000E+00  0.00000000E+00
  0.00000000E+00  0.00000000E+00  0.00000000E+00
