I4                                      
   1.00000000000000     
     2.3061838548050870   -4.5703914137307473    0.0000000000000000
     2.3061838548050870    4.5703914137307473    0.0000000000000000
     0.0000000000000000    0.0000000000000000    9.8320743359891871
   I 
     4
Direct
  0.6587250719648097  0.6587250719648097  0.1219494832695815
  0.3412749280351903  0.3412749280351903  0.8780505167304113
  0.8412749280351903  0.8412749280351903  0.6219494832695815
  0.1587250719648097  0.1587250719648097  0.3780505167304185
 
  0.00000000E+00  0.00000000E+00  0.00000000E+00
  0.00000000E+00  0.00000000E+00  0.00000000E+00
  0.00000000E+00  0.00000000E+00  0.00000000E+00
  0.00000000E+00  0.00000000E+00  0.00000000E+00
