MgCl2                                   
   1.00000000000000     
     3.6686362252670821    0.0005835883267777    0.0013722984360488
    -1.8343154864487712    3.1771416069296672   -0.0013692125677025
     0.0083057119216792   -0.0047712511683838   25.9157879652674303
   Cl   Mg
     8     4
Direct
  0.6665059555110489  0.3334961920021371  0.0530584417600792
  0.0000181856941097  0.9999895395363652  0.1968580772245332
  0.6666330759693366  0.3333760213327608  0.3029317283468913
  0.9999263518770505  0.0000742649972025  0.4469881763647194
  0.6664861744410118  0.3335148288292089  0.5531229558875665
  0.3336291445876611  0.6663558980516413  0.6969155982512021
  0.6663662848257275  0.3336187358047980  0.8030583330853389
  0.3338207506603439  0.6661919159469107  0.9469262139338994
  0.0001174851258625  0.9998902544125627  0.9999979508130608
  0.3333392339174992  0.6666684181300511  0.2498968120657707
  0.3331447522028839  0.6668550213522835  0.5000605967964091
  0.0000126051874432  0.9999689096040640  0.7499851154705368
 
  0.00000000E+00  0.00000000E+00  0.00000000E+00
  0.00000000E+00  0.00000000E+00  0.00000000E+00
  0.00000000E+00  0.00000000E+00  0.00000000E+00
  0.00000000E+00  0.00000000E+00  0.00000000E+00
  0.00000000E+00  0.00000000E+00  0.00000000E+00
  0.00000000E+00  0.00000000E+00  0.00000000E+00
  0.00000000E+00  0.00000000E+00  0.00000000E+00
  0.00000000E+00  0.00000000E+00  0.00000000E+00
  0.00000000E+00  0.00000000E+00  0.00000000E+00
  0.00000000E+00  0.00000000E+00  0.00000000E+00
  0.00000000E+00  0.00000000E+00  0.00000000E+00
  0.00000000E+00  0.00000000E+00  0.00000000E+00
