Mg4 Tl10 Cl2                            
   1.00000000000000     
     8.2348570219305692   -0.0002374083476830   -0.0003480419521831
    -0.0002299175179624    8.2357618087574505    0.0008772867938291
     4.1163407937574288    4.1182071975333070    6.7728968140493278
   Cl   Mg   Tl
     2     4    10
Direct
  0.7491812869931422  0.7489934334145758  0.5006008242434206
  0.2500924816125547  0.2504924361448602  0.4993602819073573
  0.3604993341846168  0.1416484094461410  0.9987464565192212
  0.8596205170890201  0.3598076027853097  0.9992103636840000
  0.1404576643100484  0.6395996637787249  0.0004996117472373
  0.6398713953746977  0.8592396032712983  0.0015866768368298
  0.0002489020020064  0.9997373405319507  0.0001663977013990
  0.5002306559816532  0.5004291610361591  0.9997622236939492
  0.4978043554217138  0.9995355122685154  0.3174832547498241
  0.9980253373255934  0.1834086734304705  0.3165059447351766
  0.6842733827638199  0.4968947950393670  0.3175849218237019
  0.1835714251383820  0.6863848778098571  0.3170425994466441
  0.8168540445644012  0.3148233041554462  0.6820423309514325
  0.3152669593840827  0.5021436960361214  0.6818242424526275
  0.0015520929054418  0.8162963173205284  0.6838061029893794
  0.5023501649488225  0.0004651735306709  0.6837777665178066
 
  0.00000000E+00  0.00000000E+00  0.00000000E+00
  0.00000000E+00  0.00000000E+00  0.00000000E+00
  0.00000000E+00  0.00000000E+00  0.00000000E+00
  0.00000000E+00  0.00000000E+00  0.00000000E+00
  0.00000000E+00  0.00000000E+00  0.00000000E+00
  0.00000000E+00  0.00000000E+00  0.00000000E+00
  0.00000000E+00  0.00000000E+00  0.00000000E+00
  0.00000000E+00  0.00000000E+00  0.00000000E+00
  0.00000000E+00  0.00000000E+00  0.00000000E+00
  0.00000000E+00  0.00000000E+00  0.00000000E+00
  0.00000000E+00  0.00000000E+00  0.00000000E+00
  0.00000000E+00  0.00000000E+00  0.00000000E+00
  0.00000000E+00  0.00000000E+00  0.00000000E+00
  0.00000000E+00  0.00000000E+00  0.00000000E+00
  0.00000000E+00  0.00000000E+00  0.00000000E+00
  0.00000000E+00  0.00000000E+00  0.00000000E+00
