Mg16 In12 F1                            
   1.00000000000000     
     7.7727007046515562   -4.4876517662016786    3.1705922766623700
     0.0270948212925214    9.0575496891691518    3.2185928433647604
    -7.8293002314114251   -4.5528716269104770    3.2190509231271793
   In   F    Mg
    12     1    16
Direct
  0.7793106336518036  0.5310648912306917  0.0002111773010043
  0.6477556606657089  0.7901242673900555  0.0007038699331190
  0.3642313277052978  0.3844166288822777  0.1923678879831598
  0.1706872989999511  0.8067360769406733  0.1919743688461963
  0.8563605518695141  0.2098120685537950  0.2098481107716381
  0.3641940799556238  0.1923021464620760  0.3842666518163540
  0.2471164233401240  0.4664973618568879  0.4660148504683974
  0.7798363814844649  0.0004154592982175  0.5319995317477506
  0.9803473604242683  0.8088616810681941  0.6161168742785534
  0.6475181084597850  0.0006040842956523  0.7903589578761299
  0.9797499399468919  0.6158463408711015  0.8085684309153010
  0.1710589509359295  0.1923952983656250  0.8067078055525130
  0.4000851442493669  0.9987803369553276  0.9991419852653962
  0.5281727682344481  0.2179712724742515  0.9997700048638691
  0.3110965751222352  0.5910469917137391  0.0000593336201007
  0.0171978033357192  0.0002441740255179  0.0002800543191981
  0.9946418951871578  0.3424549419543652  0.0007365506031860
  0.6801752312244886  0.6566794700348666  0.2631004147592648
  0.5286380528729282  0.9995797128528778  0.2184008483460076
  0.0233642332245481  0.6059585402914962  0.3443638346682434
  0.9946855211310748  0.0007162154560234  0.3427204807235995
  0.4174598429188876  0.7377289075530271  0.3940317223218273
  0.7198334437086373  0.4090974547685278  0.4091439506866124
  0.3112746854810879  0.0002281859886040  0.5912078142048713
  0.0234747709813021  0.3445588010852134  0.6057009621433664
  0.6526968739153176  0.6588466021465322  0.6584069944226840
  0.6799265749962515  0.2626532481286361  0.6564565313806483
  0.3109378550383894  0.7800046009006323  0.7802349564734143
  0.4173720109387560  0.3943752384551331  0.7371070437076028
 
  0.00000000E+00  0.00000000E+00  0.00000000E+00
  0.00000000E+00  0.00000000E+00  0.00000000E+00
  0.00000000E+00  0.00000000E+00  0.00000000E+00
  0.00000000E+00  0.00000000E+00  0.00000000E+00
  0.00000000E+00  0.00000000E+00  0.00000000E+00
  0.00000000E+00  0.00000000E+00  0.00000000E+00
  0.00000000E+00  0.00000000E+00  0.00000000E+00
  0.00000000E+00  0.00000000E+00  0.00000000E+00
  0.00000000E+00  0.00000000E+00  0.00000000E+00
  0.00000000E+00  0.00000000E+00  0.00000000E+00
  0.00000000E+00  0.00000000E+00  0.00000000E+00
  0.00000000E+00  0.00000000E+00  0.00000000E+00
  0.00000000E+00  0.00000000E+00  0.00000000E+00
  0.00000000E+00  0.00000000E+00  0.00000000E+00
  0.00000000E+00  0.00000000E+00  0.00000000E+00
  0.00000000E+00  0.00000000E+00  0.00000000E+00
  0.00000000E+00  0.00000000E+00  0.00000000E+00
  0.00000000E+00  0.00000000E+00  0.00000000E+00
  0.00000000E+00  0.00000000E+00  0.00000000E+00
  0.00000000E+00  0.00000000E+00  0.00000000E+00
  0.00000000E+00  0.00000000E+00  0.00000000E+00
  0.00000000E+00  0.00000000E+00  0.00000000E+00
  0.00000000E+00  0.00000000E+00  0.00000000E+00
  0.00000000E+00  0.00000000E+00  0.00000000E+00
  0.00000000E+00  0.00000000E+00  0.00000000E+00
  0.00000000E+00  0.00000000E+00  0.00000000E+00
  0.00000000E+00  0.00000000E+00  0.00000000E+00
  0.00000000E+00  0.00000000E+00  0.00000000E+00
  0.00000000E+00  0.00000000E+00  0.00000000E+00
