Mg1 In12                                
   1.00000000000000     
    -5.5047887283976245    5.5047887283976245    3.0944802426490594
     5.5047887283976245   -5.5047887283976245    3.0944802426490594
     5.5047887283976245    5.5047887283976245   -3.0944802426490594
   In   Mg
    12     1
Direct
  0.5000000000000000  0.0000000000000000  0.0000000000000000
  0.0000000000000000  0.5000000000000000  0.0000000000000000
  0.7036487914601963  0.5000000000000000  0.2036487914601892
  0.5000000000000000  0.7036487914601963  0.2036487914601892
  0.3535131587698785  0.0000000000000000  0.3535131587698785
  0.0000000000000000  0.3535131587698785  0.3535131587698785
  0.0000000000000000  0.0000000000000000  0.5000000000000000
  0.5000000000000000  0.5000000000000000  0.5000000000000000
  0.6464868412301144  0.0000000000000000  0.6464868412301144
  0.0000000000000000  0.6464868412301144  0.6464868412301144
  0.5000000000000000  0.2963512085398108  0.7963512085398037
  0.2963512085398108  0.5000000000000000  0.7963512085398037
  0.0000000000000000  0.0000000000000000  0.0000000000000000
 
  0.00000000E+00  0.00000000E+00  0.00000000E+00
  0.00000000E+00  0.00000000E+00  0.00000000E+00
  0.00000000E+00  0.00000000E+00  0.00000000E+00
  0.00000000E+00  0.00000000E+00  0.00000000E+00
  0.00000000E+00  0.00000000E+00  0.00000000E+00
  0.00000000E+00  0.00000000E+00  0.00000000E+00
  0.00000000E+00  0.00000000E+00  0.00000000E+00
  0.00000000E+00  0.00000000E+00  0.00000000E+00
  0.00000000E+00  0.00000000E+00  0.00000000E+00
  0.00000000E+00  0.00000000E+00  0.00000000E+00
  0.00000000E+00  0.00000000E+00  0.00000000E+00
  0.00000000E+00  0.00000000E+00  0.00000000E+00
  0.00000000E+00  0.00000000E+00  0.00000000E+00
