Ca13 In16                               
   1.00000000000000     
    -6.0328005964367364   -6.0328005964367364    6.0328005964367364
    -6.0328005964367364    6.0328005964367364   -6.0328005964367364
     6.0328005964367364   -6.0328005964367364   -6.0328005964367364
   In   Ca
    16    13
Direct
  0.6871005099414802  0.0000000000000000  0.0000000000000000
  0.3707648078488077  0.1875767471261796  0.0000000000000000
  0.1875767471261796  0.3707648078488077  0.0000000000000000
  0.0000000000000000  0.6871005099414802  0.0000000000000000
  0.8124232528738204  0.8124232528738204  0.1831880607226353
  0.3707648078488077  0.0000000000000000  0.1875767471261796
  0.0000000000000000  0.3707648078488077  0.1875767471261796
  0.3128994900585198  0.3128994900585198  0.3128994900585198
  0.1875767471261796  0.0000000000000000  0.3707648078488077
  0.0000000000000000  0.1875767471261796  0.3707648078488077
  0.8168119392773647  0.6292351921511923  0.6292351921511923
  0.6292351921511923  0.8168119392773647  0.6292351921511923
  0.0000000000000000  0.0000000000000000  0.6871005099414802
  0.8124232528738204  0.1831880607226353  0.8124232528738204
  0.1831880607226353  0.8124232528738204  0.8124232528738204
  0.6292351921511923  0.6292351921511923  0.8168119392773647
  0.0000000000000000  0.0000000000000000  0.0000000000000000
  0.7152106200582793  0.4308760518311701  0.0000000000000000
  0.4308760518311701  0.7152106200582793  0.0000000000000000
  0.5691239481688299  0.5691239481688299  0.2843345682271092
  0.7156654317728908  0.2847893799417207  0.2847893799417207
  0.2847893799417207  0.7156654317728908  0.2847893799417207
  0.7152106200582793  0.0000000000000000  0.4308760518311701
  0.0000000000000000  0.7152106200582793  0.4308760518311701
  0.5691239481688299  0.2843345682271092  0.5691239481688299
  0.2843345682271092  0.5691239481688299  0.5691239481688299
  0.4308760518311701  0.0000000000000000  0.7152106200582793
  0.0000000000000000  0.4308760518311701  0.7152106200582793
  0.2847893799417207  0.2847893799417207  0.7156654317728908
 
  0.00000000E+00  0.00000000E+00  0.00000000E+00
  0.00000000E+00  0.00000000E+00  0.00000000E+00
  0.00000000E+00  0.00000000E+00  0.00000000E+00
  0.00000000E+00  0.00000000E+00  0.00000000E+00
  0.00000000E+00  0.00000000E+00  0.00000000E+00
  0.00000000E+00  0.00000000E+00  0.00000000E+00
  0.00000000E+00  0.00000000E+00  0.00000000E+00
  0.00000000E+00  0.00000000E+00  0.00000000E+00
  0.00000000E+00  0.00000000E+00  0.00000000E+00
  0.00000000E+00  0.00000000E+00  0.00000000E+00
  0.00000000E+00  0.00000000E+00  0.00000000E+00
  0.00000000E+00  0.00000000E+00  0.00000000E+00
  0.00000000E+00  0.00000000E+00  0.00000000E+00
  0.00000000E+00  0.00000000E+00  0.00000000E+00
  0.00000000E+00  0.00000000E+00  0.00000000E+00
  0.00000000E+00  0.00000000E+00  0.00000000E+00
  0.00000000E+00  0.00000000E+00  0.00000000E+00
  0.00000000E+00  0.00000000E+00  0.00000000E+00
  0.00000000E+00  0.00000000E+00  0.00000000E+00
  0.00000000E+00  0.00000000E+00  0.00000000E+00
  0.00000000E+00  0.00000000E+00  0.00000000E+00
  0.00000000E+00  0.00000000E+00  0.00000000E+00
  0.00000000E+00  0.00000000E+00  0.00000000E+00
  0.00000000E+00  0.00000000E+00  0.00000000E+00
  0.00000000E+00  0.00000000E+00  0.00000000E+00
  0.00000000E+00  0.00000000E+00  0.00000000E+00
  0.00000000E+00  0.00000000E+00  0.00000000E+00
  0.00000000E+00  0.00000000E+00  0.00000000E+00
  0.00000000E+00  0.00000000E+00  0.00000000E+00
