Ca4 Al2 F10                             
   1.00000000000000     
     7.0701503273082826   -0.0238333075166219    0.6086198528768091
     0.0221651686164100    6.1306748089146863    0.0369420288427361
     4.2537751681934228    3.0279404780523316    5.4384302709303807
   F    Al   Ca
    10     2     4
Direct
  0.0000231907028478  0.0000218217848271  0.9999982092704585
  0.5000147174079785  0.5000212240125919  0.0000009325327355
  0.5022381947670738  0.0483774804511086  0.3020757441152000
  0.0022267901255901  0.1492860447225226  0.3020092123994189
  0.7567091505640349  0.4657709843083495  0.2084728539284839
  0.2565517515076650  0.8253138737233456  0.2086242933537505
  0.7434829519835873  0.1747246814230792  0.7913783606319100
  0.2433305260730023  0.5342700041284090  0.7915250245401566
  0.9978090822304750  0.8507489210441861  0.6979931711045069
  0.4978017867839810  0.9516608923385306  0.6979208029072126
  0.2503025717875218  0.1564615674202088  0.4998700943891663
  0.7497349850375841  0.8435725336702760  0.5001306472793772
  0.3974741436309301  0.2286222024953304  0.8609235497915506
  0.8975963156771343  0.4106070756971931  0.8608209401631726
  0.1024422186201832  0.5894265786281281  0.1391819491525652
  0.6025616231003994  0.7714141141519022  0.1390742144403205
 
  0.00000000E+00  0.00000000E+00  0.00000000E+00
  0.00000000E+00  0.00000000E+00  0.00000000E+00
  0.00000000E+00  0.00000000E+00  0.00000000E+00
  0.00000000E+00  0.00000000E+00  0.00000000E+00
  0.00000000E+00  0.00000000E+00  0.00000000E+00
  0.00000000E+00  0.00000000E+00  0.00000000E+00
  0.00000000E+00  0.00000000E+00  0.00000000E+00
  0.00000000E+00  0.00000000E+00  0.00000000E+00
  0.00000000E+00  0.00000000E+00  0.00000000E+00
  0.00000000E+00  0.00000000E+00  0.00000000E+00
  0.00000000E+00  0.00000000E+00  0.00000000E+00
  0.00000000E+00  0.00000000E+00  0.00000000E+00
  0.00000000E+00  0.00000000E+00  0.00000000E+00
  0.00000000E+00  0.00000000E+00  0.00000000E+00
  0.00000000E+00  0.00000000E+00  0.00000000E+00
  0.00000000E+00  0.00000000E+00  0.00000000E+00
