Ca6 Tl4 F24                             
   1.0000000000000000     
     0.0000000000000000    0.0000000000000000    5.5032637674880682
     8.7758634573101411    0.0001920571574246    0.0000000000000000
     0.0001768469032720    8.7771354739885172    0.0000000000000000
   Ca   F    Tl
     6    24     4
Direct
  0.0000000000000000  0.0000325022014778  0.0000138960886460
  0.5000000000000000  0.3199633540190518  0.1802514361762704
  0.5000000000000000  0.8198421719582711  0.3198666646056125
  0.0000000000000000  0.4999783625158827  0.5000142673577983
  0.5000000000000000  0.1800518401363220  0.6802415451771964
  0.5000000000000000  0.6801673785248568  0.8198586921956590
  0.2911698273008838  0.5000805813832656  0.9999769063329396
  0.7088301726991162  0.5000805813832656  0.9999769063329396
  0.2698531815729126  0.8046819848759839  0.0809363685891000
  0.7301468184270874  0.8046819848759839  0.0809363685891000
  0.0000000000000000  0.3417952532283408  0.1583132842009718
  0.2698319747616509  0.0810024394072784  0.1953512939905693
  0.7301680252383491  0.0810024394072784  0.1953512939905693
  0.2698903213866970  0.5809067544102220  0.3046517412371088
  0.7301096786133030  0.5809067544102220  0.3046517412371088
  0.0000000000000000  0.8416315043007714  0.3416180856135540
  0.2698287544687403  0.3046399100997874  0.4190771780289637
  0.7301712455312597  0.3046399100997874  0.4190771780289637
  0.2911692222114439  0.9999310375632220  0.4999765901246320
  0.7088307777885561  0.9999310375632220  0.4999765901246320
  0.2698539562495270  0.6953309225894202  0.5809330533883639
  0.7301460437504730  0.6953309225894202  0.5809330533883639
  0.0000000000000000  0.1582187993779627  0.6583092161362813
  0.2698319039845671  0.4190148102843096  0.6953517917554848
  0.7301680960154329  0.4190148102843096  0.6953517917554848
  0.2698905085925034  0.9191003145608576  0.8046510475672548
  0.7301094914074966  0.9191003145608576  0.8046510475672548
  0.0000000000000000  0.6583805795268916  0.8416169794650656
  0.2698263718365936  0.1953688515599907  0.9190727997161332
  0.7301736281634064  0.1953688515599907  0.9190727997161332
  0.0000000000000000  0.6294311437844584  0.1294399416459555
  0.0000000000000000  0.1293595325485413  0.3706257263406059
  0.0000000000000000  0.8705769547871967  0.6294431193505901
  0.0000000000000000  0.3706554096212855  0.8706296041847637

  0.00000000E+00  0.00000000E+00  0.00000000E+00
  0.00000000E+00  0.00000000E+00  0.00000000E+00
  0.00000000E+00  0.00000000E+00  0.00000000E+00
  0.00000000E+00  0.00000000E+00  0.00000000E+00
  0.00000000E+00  0.00000000E+00  0.00000000E+00
  0.00000000E+00  0.00000000E+00  0.00000000E+00
  0.00000000E+00  0.00000000E+00  0.00000000E+00
  0.00000000E+00  0.00000000E+00  0.00000000E+00
  0.00000000E+00  0.00000000E+00  0.00000000E+00
  0.00000000E+00  0.00000000E+00  0.00000000E+00
  0.00000000E+00  0.00000000E+00  0.00000000E+00
  0.00000000E+00  0.00000000E+00  0.00000000E+00
  0.00000000E+00  0.00000000E+00  0.00000000E+00
  0.00000000E+00  0.00000000E+00  0.00000000E+00
  0.00000000E+00  0.00000000E+00  0.00000000E+00
  0.00000000E+00  0.00000000E+00  0.00000000E+00
  0.00000000E+00  0.00000000E+00  0.00000000E+00
  0.00000000E+00  0.00000000E+00  0.00000000E+00
  0.00000000E+00  0.00000000E+00  0.00000000E+00
  0.00000000E+00  0.00000000E+00  0.00000000E+00
  0.00000000E+00  0.00000000E+00  0.00000000E+00
  0.00000000E+00  0.00000000E+00  0.00000000E+00
  0.00000000E+00  0.00000000E+00  0.00000000E+00
  0.00000000E+00  0.00000000E+00  0.00000000E+00
  0.00000000E+00  0.00000000E+00  0.00000000E+00
  0.00000000E+00  0.00000000E+00  0.00000000E+00
  0.00000000E+00  0.00000000E+00  0.00000000E+00
  0.00000000E+00  0.00000000E+00  0.00000000E+00
  0.00000000E+00  0.00000000E+00  0.00000000E+00
  0.00000000E+00  0.00000000E+00  0.00000000E+00
  0.00000000E+00  0.00000000E+00  0.00000000E+00
  0.00000000E+00  0.00000000E+00  0.00000000E+00
  0.00000000E+00  0.00000000E+00  0.00000000E+00
  0.00000000E+00  0.00000000E+00  0.00000000E+00
