Ca1 Ga5                                 
   1.00000000000000     
    -4.5420639505938860    3.6619976076938543    0.4325173128494453
     0.8975576010618107   -5.7649341284966429   -0.4328527898666647
    -2.0453791666114873    3.5438365669191807    5.7489681851549239
   Ga   Ca
     5     1
Direct
  0.0878194276826960  0.0786286957681313  0.9676156913477953
  0.4115110721025843  0.7549440064805211  0.0328310810272967
  0.0870994559210132  0.0791854270086176  0.3590212635755563
  0.4120740417248854  0.7542182296804043  0.6408617007952273
  0.7501800025561636  0.4161848804345780  0.9994935263521256
  0.7495350000126635  0.4168387606277548  0.5001767369020200
 
  0.00000000E+00  0.00000000E+00  0.00000000E+00
  0.00000000E+00  0.00000000E+00  0.00000000E+00
  0.00000000E+00  0.00000000E+00  0.00000000E+00
  0.00000000E+00  0.00000000E+00  0.00000000E+00
  0.00000000E+00  0.00000000E+00  0.00000000E+00
  0.00000000E+00  0.00000000E+00  0.00000000E+00
