Ca8 In6                                 
   1.00000000000000     
     6.3905862071675923    7.3466654995245477    0.0000000000000000
    -3.3151377413319660    9.2865576718096996    0.0000000000000000
     0.0000000000000000    0.0000000000000000    5.3227245055172592
   In   Ca
     6     8
Direct
  0.1561070454115523  0.2478374533940126  0.0000000000000000
  0.2966263968924849  0.5793003405499206  0.0000000000000000
  0.8265645340383116  0.7373054648273083  0.0000000000000000
  0.3689110365848549  0.1315613733412206  0.5000000000000000
  0.7001553925138850  0.6420892113372219  0.5000000000000000
  0.2211397772787578  0.8028991281035616  0.5000000000000000
  0.5182313345626639  0.1940581290523795  0.0000000000000000
  0.7661047477505107  0.4350619576241002  0.0000000000000000
  0.4315088572075396  0.8559047099150021  0.0000000000000000
  0.0087368617175159  0.9434199793682652  0.0000000000000000
  0.0053603142298186  0.1874568282830609  0.5000000000000000
  0.5130420733832537  0.4410750089345257  0.5000000000000000
  0.0929020294045060  0.5227150796672788  0.5000000000000000
  0.7588095990243673  0.9453153356021531  0.5000000000000000
 
  0.00000000E+00  0.00000000E+00  0.00000000E+00
  0.00000000E+00  0.00000000E+00  0.00000000E+00
  0.00000000E+00  0.00000000E+00  0.00000000E+00
  0.00000000E+00  0.00000000E+00  0.00000000E+00
  0.00000000E+00  0.00000000E+00  0.00000000E+00
  0.00000000E+00  0.00000000E+00  0.00000000E+00
  0.00000000E+00  0.00000000E+00  0.00000000E+00
  0.00000000E+00  0.00000000E+00  0.00000000E+00
  0.00000000E+00  0.00000000E+00  0.00000000E+00
  0.00000000E+00  0.00000000E+00  0.00000000E+00
  0.00000000E+00  0.00000000E+00  0.00000000E+00
  0.00000000E+00  0.00000000E+00  0.00000000E+00
  0.00000000E+00  0.00000000E+00  0.00000000E+00
  0.00000000E+00  0.00000000E+00  0.00000000E+00
