Ba2Al                                   
   1.00000000000000     
     0.0000000000000000    4.1840744680148543    4.1840744680148543
     4.1840744680148543    0.0000000000000000    4.1840744680148543
     4.1840744680148543    4.1840744680148543    0.0000000000000000
   Al   Ba
     1     2
Direct
  0.0000000000000000  0.0000000000000000  0.0000000000000000
  0.2500000000000000  0.2500000000000000  0.2500000000000000
  0.7500000000000000  0.7500000000000000  0.7500000000000000
 
  0.00000000E+00  0.00000000E+00  0.00000000E+00
  0.00000000E+00  0.00000000E+00  0.00000000E+00
  0.00000000E+00  0.00000000E+00  0.00000000E+00
