Ca2 B22                                 
   1.00000000000000     
    -3.9861329594372967    3.5035266900118467    4.0257590917713868
     3.6096121750515628   -3.8881004021346244    4.0570893396502310
     3.7392886525148081    3.6437641980501199   -4.6992321686740413
   B    Ca
    22     2
Direct
  0.6071918965480307  0.6050884782338883  0.0554997501409176
  0.7207212951059390  0.4879472517270571  0.3009453778327611
  0.6289675992673267  0.9749431637685504  0.1133500174248425
  0.8034335619832902  0.2552549224260119  0.1631880336106235
  0.2705548300418101  0.7376751944511497  0.1406680723542522
  0.5232777501661445  0.6672652450177097  0.2663699393172223
  0.7811568326712433  0.4538244155864177  0.0582069912024892
  0.6373255347590501  0.6095673130507038  0.5005181823712732
  0.8035942833403809  0.9378817500265129  0.3596168814723342
  0.1911458320019150  0.4634146883373731  0.4469803883304166
  0.1086529889332155  0.7356277963986670  0.2612840961178904
  0.0579631237674860  0.6368759040904806  0.4234465206172544
  0.0344793313828404  0.8163594722521381  0.6762728384765992
  0.7472345297759375  0.9427699835655829  0.6182979431954720
  0.0660548928972631  0.1318561169779997  0.7076360579501042
  0.4548807366357792  0.4489089379621021  0.5751737869053315
  0.1647469579536036  0.9862466435355870  0.5365873859982315
  0.4078905306093645  0.6360848282847442  0.8073807417484318
  0.6849932063825648  0.1462571944815991  0.8144916564390101
  0.2663597703157805  0.7899234022576707  0.9222886425407282
  0.2704778280933340  0.4814280232204808  0.9157303646565964
  0.4783205274857210  0.2517339072399025  0.6942362669407913
  0.9991252681773588  0.9748788800227715  0.0617580100642243
  0.7916508917046343  0.3277864870849143  0.5804720542922155
 
  0.00000000E+00  0.00000000E+00  0.00000000E+00
  0.00000000E+00  0.00000000E+00  0.00000000E+00
  0.00000000E+00  0.00000000E+00  0.00000000E+00
  0.00000000E+00  0.00000000E+00  0.00000000E+00
  0.00000000E+00  0.00000000E+00  0.00000000E+00
  0.00000000E+00  0.00000000E+00  0.00000000E+00
  0.00000000E+00  0.00000000E+00  0.00000000E+00
  0.00000000E+00  0.00000000E+00  0.00000000E+00
  0.00000000E+00  0.00000000E+00  0.00000000E+00
  0.00000000E+00  0.00000000E+00  0.00000000E+00
  0.00000000E+00  0.00000000E+00  0.00000000E+00
  0.00000000E+00  0.00000000E+00  0.00000000E+00
  0.00000000E+00  0.00000000E+00  0.00000000E+00
  0.00000000E+00  0.00000000E+00  0.00000000E+00
  0.00000000E+00  0.00000000E+00  0.00000000E+00
  0.00000000E+00  0.00000000E+00  0.00000000E+00
  0.00000000E+00  0.00000000E+00  0.00000000E+00
  0.00000000E+00  0.00000000E+00  0.00000000E+00
  0.00000000E+00  0.00000000E+00  0.00000000E+00
  0.00000000E+00  0.00000000E+00  0.00000000E+00
  0.00000000E+00  0.00000000E+00  0.00000000E+00
  0.00000000E+00  0.00000000E+00  0.00000000E+00
  0.00000000E+00  0.00000000E+00  0.00000000E+00
  0.00000000E+00  0.00000000E+00  0.00000000E+00
