BaBr2                                   
   1.00000000000000     
     2.7579538323206307    1.5925398781222935    4.5039942553163836
    -2.7579538323206307    1.5925398781222935    4.5039942553163836
     0.0000000000000000   -3.1851119614730163    4.5040056435182283
   Ba   Br
     1     2
Direct
  0.0000000000000000  0.0000000000000000  0.0000000000000000
  0.2499989739102730  0.2499989739102730  0.2500023803525764
  0.7500010260897270  0.7500010260897270  0.7499976196474236
 
  0.00000000E+00  0.00000000E+00  0.00000000E+00
  0.00000000E+00  0.00000000E+00  0.00000000E+00
  0.00000000E+00  0.00000000E+00  0.00000000E+00
