CaTl2                                   
   1.0000000000000000     
    -2.0318587845923197    2.0318587845923197    5.5440956591017247
     2.0318587845923197   -2.0318587845923197    5.5440956591017247
     2.0318587845923197    2.0318587845923197   -5.5440956591017247
   Ca   Tl
     1     2
Direct
  0.0000000000000000  0.0000000000000000  0.0000000000000000
  0.3270743795386579  0.3270743795386579  0.0000000000000000
  0.6729256204613421  0.6729256204613421  0.0000000000000000

  0.00000000E+00  0.00000000E+00  0.00000000E+00
  0.00000000E+00  0.00000000E+00  0.00000000E+00
  0.00000000E+00  0.00000000E+00  0.00000000E+00
