Ba16 Ga12 F1                            
   1.00000000000000     
     9.4921353077105710   -5.4763515958119040    3.9275361728809814
    -0.1146796629378607   10.4260837180477868    3.4552609449014642
    -9.0883117747203066   -5.1124934086740943    3.4499829361305370
   Ga   F    Ba
    12     1    16
Direct
  0.8512181113870483  0.6287107373686922  0.9972392986111416
  0.6268509865703749  0.8578656234863615  0.0075797765797105
  0.3888608777452234  0.3999573693280141  0.2495838579366989
  0.1425678166531412  0.7536798834371865  0.1496672599604523
  0.7708798345558279  0.1650971424538596  0.1648519868278626
  0.3891386568063382  0.2493971673733597  0.4003796715188699
  0.2406955483221367  0.4008088111537376  0.4008565605021914
  0.8505159465381027  0.9970851302527421  0.6278595871826695
  0.9889104637795540  0.8384508790082705  0.5937410921045512
  0.6263961607194943  0.0078484671675128  0.8573266231352861
  0.9891326398407543  0.5937735394839763  0.8385716317580290
  0.1419775178106022  0.1491871396632476  0.7535204342679336
  0.3602339737601454  0.9890481629351413  0.9892816641493809
  0.4977282190598089  0.2368992869470858  0.9964887036539238
  0.2562142253621076  0.5175049798918394  0.0009838753723201
  0.1437462724218292  0.9875998539411555  0.9879008206586803
  0.9912970741738931  0.2435857165941400  0.0099823639113765
  0.7022914312969064  0.7249570326442978  0.2528091664203131
  0.4984025319143655  0.9963519105050764  0.2371224315229838
  0.9753126296194168  0.5406735488703802  0.2767408043235662
  0.9915613365515910  0.0103309124606383  0.2441500394511351
  0.4518275116451207  0.7559945522723979  0.4673724876768830
  0.7379752619525135  0.4687209195474082  0.4686405763469565
  0.2564029829757999  0.0009829782260908  0.5180672486027049
  0.9754585166406642  0.2770193334207889  0.5407826796212163
  0.7264796642035378  0.7414914175995762  0.7412887905432655
  0.7021362190497413  0.2533475022467684  0.7250239776259164
  0.2727727064733969  0.7458455065020786  0.7459602313041103
  0.4522148821705088  0.4677854952181235  0.7562283584297020
 
  0.00000000E+00  0.00000000E+00  0.00000000E+00
  0.00000000E+00  0.00000000E+00  0.00000000E+00
  0.00000000E+00  0.00000000E+00  0.00000000E+00
  0.00000000E+00  0.00000000E+00  0.00000000E+00
  0.00000000E+00  0.00000000E+00  0.00000000E+00
  0.00000000E+00  0.00000000E+00  0.00000000E+00
  0.00000000E+00  0.00000000E+00  0.00000000E+00
  0.00000000E+00  0.00000000E+00  0.00000000E+00
  0.00000000E+00  0.00000000E+00  0.00000000E+00
  0.00000000E+00  0.00000000E+00  0.00000000E+00
  0.00000000E+00  0.00000000E+00  0.00000000E+00
  0.00000000E+00  0.00000000E+00  0.00000000E+00
  0.00000000E+00  0.00000000E+00  0.00000000E+00
  0.00000000E+00  0.00000000E+00  0.00000000E+00
  0.00000000E+00  0.00000000E+00  0.00000000E+00
  0.00000000E+00  0.00000000E+00  0.00000000E+00
  0.00000000E+00  0.00000000E+00  0.00000000E+00
  0.00000000E+00  0.00000000E+00  0.00000000E+00
  0.00000000E+00  0.00000000E+00  0.00000000E+00
  0.00000000E+00  0.00000000E+00  0.00000000E+00
  0.00000000E+00  0.00000000E+00  0.00000000E+00
  0.00000000E+00  0.00000000E+00  0.00000000E+00
  0.00000000E+00  0.00000000E+00  0.00000000E+00
  0.00000000E+00  0.00000000E+00  0.00000000E+00
  0.00000000E+00  0.00000000E+00  0.00000000E+00
  0.00000000E+00  0.00000000E+00  0.00000000E+00
  0.00000000E+00  0.00000000E+00  0.00000000E+00
  0.00000000E+00  0.00000000E+00  0.00000000E+00
  0.00000000E+00  0.00000000E+00  0.00000000E+00
