Sr8Al7                                  
   1.00000000000000     
    12.7586036247650831   -0.0000913669927143   -0.0000913614849425
    -0.0000913614849425   12.7586036247650831   -0.0000913669927143
    -0.0000913669927143   -0.0000913614849425   12.7586036247650831
   Al   Sr
    28    32
Direct
  0.5688914451783660  0.9311287244275235  0.0688788791627744
  0.7463169540115757  0.8097369382313246  0.0759039447979575
  0.7480167286187083  0.3154073521260585  0.0803491685076878
  0.9196087044688852  0.2480564082544277  0.1845550880188114
  0.5758671357102045  0.7536688666824318  0.1902512294480019
  0.6902424468764323  0.9240861058164143  0.2463373623009986
  0.1845550880188114  0.9196087044688852  0.2480564082544277
  0.8153682269450968  0.4196322409317901  0.2519589072055695
  0.3097131122081578  0.4240700908291259  0.2536248113652420
  0.4240700908291259  0.2536248113652420  0.3097131122081578
  0.0803491685076878  0.7480167286187083  0.3154073521260585
  0.2519589072055695  0.8153682269450968  0.4196322409317901
  0.2536248113652420  0.3097131122081578  0.4240700908291259
  0.4310871420528812  0.4310871420528812  0.4310871420528812
  0.9311287244275235  0.0688788791627744  0.5688914451783660
  0.7536688666824318  0.1902512294480019  0.5758671357102045
  0.7519650749853639  0.6845802200192139  0.5803722504726565
  0.5803722504726565  0.7519650749853639  0.6845802200192139
  0.9240861058164143  0.2463373623009986  0.6902424468764323
  0.8097369382313246  0.0759039447979575  0.7463169540115757
  0.3154073521260585  0.0803491685076878  0.7480167286187083
  0.6845802200192139  0.5803722504726565  0.7519650749853639
  0.1902512294480019  0.5758671357102045  0.7536688666824318
  0.0759039447979575  0.7463169540115757  0.8097369382313246
  0.4196322409317901  0.2519589072055695  0.8153682269450968
  0.2480564082544277  0.1845550880188114  0.9196087044688852
  0.2463373623009986  0.6902424468764323  0.9240861058164143
  0.0688788791627744  0.5688914451783660  0.9311287244275235
  0.8033931142127315  0.5598018483253782  0.0050965389483935
  0.7946091619724527  0.0642117047315551  0.0222605582163524
  0.4948738776900043  0.1965888003755794  0.0597633497622283
  0.0222605582163524  0.7946091619724527  0.0642117047315551
  0.1849487439631119  0.1849487439631119  0.1849487439631119
  0.3124618568166468  0.6874918531540217  0.1875202024039382
  0.0597633497622283  0.4948738776900043  0.1965888003755794
  0.5641921525466245  0.4777155061061364  0.2053672366004804
  0.4357785600452218  0.9776806573318950  0.2946207182541656
  0.9401819959449398  0.9948968949439205  0.3034056667996623
  0.6874918531540217  0.1875202024039382  0.3124618568166468
  0.8150047918721697  0.6849718165725065  0.3150144510370225
  0.9776806573318950  0.2946207182541656  0.4357785600452218
  0.5050985947648812  0.6965873184725666  0.4401989148548466
  0.2053672366004804  0.5641921525466245  0.4777155061061364
  0.1965888003755794  0.0597633497622283  0.4948738776900043
  0.6965873184725666  0.4401989148548466  0.5050985947648812
  0.7053918985799328  0.9357742224914318  0.5222694056038151
  0.0050965389483935  0.8033931142127315  0.5598018483253782
  0.4777155061061364  0.2053672366004804  0.5641921525466245
  0.3150144510370225  0.8150047918721697  0.6849718165725065
  0.1875202024039382  0.3124618568166468  0.6874918531540217
  0.4401989148548466  0.5050985947648812  0.6965873184725666
  0.9357742224914318  0.5222694056038151  0.7053918985799328
  0.0642117047315551  0.0222605582163524  0.7946091619724527
  0.5598018483253782  0.0050965389483935  0.8033931142127315
  0.8124720269516956  0.8124720269516956  0.8124720269516956
  0.6849718165725065  0.3150144510370225  0.8150047918721697
  0.5222694056038151  0.7053918985799328  0.9357742224914318
  0.9948968949439205  0.3034056667996623  0.9401819959449398
  0.2946207182541656  0.4357785600452218  0.9776806573318950
  0.3034056667996623  0.9401819959449398  0.9948968949439205
 
  0.00000000E+00  0.00000000E+00  0.00000000E+00
  0.00000000E+00  0.00000000E+00  0.00000000E+00
  0.00000000E+00  0.00000000E+00  0.00000000E+00
  0.00000000E+00  0.00000000E+00  0.00000000E+00
  0.00000000E+00  0.00000000E+00  0.00000000E+00
  0.00000000E+00  0.00000000E+00  0.00000000E+00
  0.00000000E+00  0.00000000E+00  0.00000000E+00
  0.00000000E+00  0.00000000E+00  0.00000000E+00
  0.00000000E+00  0.00000000E+00  0.00000000E+00
  0.00000000E+00  0.00000000E+00  0.00000000E+00
  0.00000000E+00  0.00000000E+00  0.00000000E+00
  0.00000000E+00  0.00000000E+00  0.00000000E+00
  0.00000000E+00  0.00000000E+00  0.00000000E+00
  0.00000000E+00  0.00000000E+00  0.00000000E+00
  0.00000000E+00  0.00000000E+00  0.00000000E+00
  0.00000000E+00  0.00000000E+00  0.00000000E+00
  0.00000000E+00  0.00000000E+00  0.00000000E+00
  0.00000000E+00  0.00000000E+00  0.00000000E+00
  0.00000000E+00  0.00000000E+00  0.00000000E+00
  0.00000000E+00  0.00000000E+00  0.00000000E+00
  0.00000000E+00  0.00000000E+00  0.00000000E+00
  0.00000000E+00  0.00000000E+00  0.00000000E+00
  0.00000000E+00  0.00000000E+00  0.00000000E+00
  0.00000000E+00  0.00000000E+00  0.00000000E+00
  0.00000000E+00  0.00000000E+00  0.00000000E+00
  0.00000000E+00  0.00000000E+00  0.00000000E+00
  0.00000000E+00  0.00000000E+00  0.00000000E+00
  0.00000000E+00  0.00000000E+00  0.00000000E+00
  0.00000000E+00  0.00000000E+00  0.00000000E+00
  0.00000000E+00  0.00000000E+00  0.00000000E+00
  0.00000000E+00  0.00000000E+00  0.00000000E+00
  0.00000000E+00  0.00000000E+00  0.00000000E+00
  0.00000000E+00  0.00000000E+00  0.00000000E+00
  0.00000000E+00  0.00000000E+00  0.00000000E+00
  0.00000000E+00  0.00000000E+00  0.00000000E+00
  0.00000000E+00  0.00000000E+00  0.00000000E+00
  0.00000000E+00  0.00000000E+00  0.00000000E+00
  0.00000000E+00  0.00000000E+00  0.00000000E+00
  0.00000000E+00  0.00000000E+00  0.00000000E+00
  0.00000000E+00  0.00000000E+00  0.00000000E+00
  0.00000000E+00  0.00000000E+00  0.00000000E+00
  0.00000000E+00  0.00000000E+00  0.00000000E+00
  0.00000000E+00  0.00000000E+00  0.00000000E+00
  0.00000000E+00  0.00000000E+00  0.00000000E+00
  0.00000000E+00  0.00000000E+00  0.00000000E+00
  0.00000000E+00  0.00000000E+00  0.00000000E+00
  0.00000000E+00  0.00000000E+00  0.00000000E+00
  0.00000000E+00  0.00000000E+00  0.00000000E+00
  0.00000000E+00  0.00000000E+00  0.00000000E+00
  0.00000000E+00  0.00000000E+00  0.00000000E+00
  0.00000000E+00  0.00000000E+00  0.00000000E+00
  0.00000000E+00  0.00000000E+00  0.00000000E+00
  0.00000000E+00  0.00000000E+00  0.00000000E+00
  0.00000000E+00  0.00000000E+00  0.00000000E+00
  0.00000000E+00  0.00000000E+00  0.00000000E+00
  0.00000000E+00  0.00000000E+00  0.00000000E+00
  0.00000000E+00  0.00000000E+00  0.00000000E+00
  0.00000000E+00  0.00000000E+00  0.00000000E+00
  0.00000000E+00  0.00000000E+00  0.00000000E+00
  0.00000000E+00  0.00000000E+00  0.00000000E+00
