Ba1 Al2 Br6                             
   1.00000000000000     
     3.9414613756908650    2.2755654418573847    6.4348743054501361
    -3.9414613756908650    2.2755654418573847    6.4348743054501361
     0.0000000000000000   -4.5526006985634817    6.4353936046884597
   Ba   Br   Al
     1     6     2
Direct
  0.0000000000000000  0.0000000000000000  0.0000000000000000
  0.7235020303259319  0.7235020303259319  0.2765091066952294
  0.7234805992695996  0.2765090289329777  0.2765100772289983
  0.2765090289329777  0.7234805992695996  0.2765100772289983
  0.2764979696740681  0.2764979696740681  0.7234908933047706
  0.7234909710670223  0.2765194007304004  0.7234899227709946
  0.2765194007304004  0.7234909710670223  0.7234899227709946
  0.2500174156720689  0.2500174156720689  0.2499887635908564
  0.7499825843279311  0.7499825843279311  0.7500112364091436
 
  0.00000000E+00  0.00000000E+00  0.00000000E+00
  0.00000000E+00  0.00000000E+00  0.00000000E+00
  0.00000000E+00  0.00000000E+00  0.00000000E+00
  0.00000000E+00  0.00000000E+00  0.00000000E+00
  0.00000000E+00  0.00000000E+00  0.00000000E+00
  0.00000000E+00  0.00000000E+00  0.00000000E+00
  0.00000000E+00  0.00000000E+00  0.00000000E+00
  0.00000000E+00  0.00000000E+00  0.00000000E+00
  0.00000000E+00  0.00000000E+00  0.00000000E+00
