Be16 Al12 Cl1                           
   1.00000000000000     
     6.5839978804407995   -3.8013332865639335    2.2583248784273011
     0.3829011207555899    8.1891641016940913    2.2415694738984868
    -6.9006157148204856   -4.4259317455284428    2.2417670443011160
   Al   Cl   Be
    12     1    16
Direct
  0.7629653560010397  0.3740307216040293  0.9626780226399347
  0.6570763144899701  0.7564672841083322  0.9527460100510226
  0.4783955502305801  0.5266589466272720  0.2892621595982590
  0.0625338662868415  0.8241291548616800  0.2118149908272144
  0.8318452772223779  0.2274759015734560  0.2274759318734567
  0.4783955783849621  0.2892621565712830  0.5266590362707788
  0.3079467873749522  0.5169779527145124  0.5169779559496206
  0.7629654409012971  0.9626781594818681  0.3740308461594637
  0.9652720692781287  0.8174357123211706  0.5356066333222458
  0.6570763113325171  0.9527460142202742  0.7564672950677434
  0.9652721120733361  0.5356067590170284  0.8174357418542613
  0.0625337925516831  0.2118149066595620  0.8241290391684828
  0.2987841176483244  0.9449477165886648  0.9449477114245397
  0.0904011367920319  0.3898616742732202  0.1473146852927556
  0.4541739798440076  0.2353605997684838  0.9846079068214948
  0.3791427615916234  0.6112539990255428  0.0250293465733833
  0.0098402470640977  0.0767774621152597  0.0767784691241715
  0.6723192895719308  0.6002308238300529  0.1337526346145523
  0.4541739939777756  0.9846089599417027  0.2353606220284803
  0.1244578598681869  0.6579757055348168  0.3929865478248118
  0.0904011177954942  0.1473146930288820  0.3898616539859461
  0.7097554312058136  0.4165079358006736  0.4165079525810640
  0.3548364873827410  0.7657013111929629  0.3147672026204020
  0.1244578888672621  0.3929865384016367  0.6579757815302187
  0.3791427224264297  0.0250293130263302  0.6112539433405999
  0.7445145018363846  0.6882965055443719  0.6882965705246278
  0.6723192683700532  0.1337526399965299  0.6002308129230585
  0.0873643120713368  0.6193443108745882  0.6193443263874272
  0.3548364275588156  0.3147671412957891  0.7657011696199874
 
  0.00000000E+00  0.00000000E+00  0.00000000E+00
  0.00000000E+00  0.00000000E+00  0.00000000E+00
  0.00000000E+00  0.00000000E+00  0.00000000E+00
  0.00000000E+00  0.00000000E+00  0.00000000E+00
  0.00000000E+00  0.00000000E+00  0.00000000E+00
  0.00000000E+00  0.00000000E+00  0.00000000E+00
  0.00000000E+00  0.00000000E+00  0.00000000E+00
  0.00000000E+00  0.00000000E+00  0.00000000E+00
  0.00000000E+00  0.00000000E+00  0.00000000E+00
  0.00000000E+00  0.00000000E+00  0.00000000E+00
  0.00000000E+00  0.00000000E+00  0.00000000E+00
  0.00000000E+00  0.00000000E+00  0.00000000E+00
  0.00000000E+00  0.00000000E+00  0.00000000E+00
  0.00000000E+00  0.00000000E+00  0.00000000E+00
  0.00000000E+00  0.00000000E+00  0.00000000E+00
  0.00000000E+00  0.00000000E+00  0.00000000E+00
  0.00000000E+00  0.00000000E+00  0.00000000E+00
  0.00000000E+00  0.00000000E+00  0.00000000E+00
  0.00000000E+00  0.00000000E+00  0.00000000E+00
  0.00000000E+00  0.00000000E+00  0.00000000E+00
  0.00000000E+00  0.00000000E+00  0.00000000E+00
  0.00000000E+00  0.00000000E+00  0.00000000E+00
  0.00000000E+00  0.00000000E+00  0.00000000E+00
  0.00000000E+00  0.00000000E+00  0.00000000E+00
  0.00000000E+00  0.00000000E+00  0.00000000E+00
  0.00000000E+00  0.00000000E+00  0.00000000E+00
  0.00000000E+00  0.00000000E+00  0.00000000E+00
  0.00000000E+00  0.00000000E+00  0.00000000E+00
  0.00000000E+00  0.00000000E+00  0.00000000E+00
