Ca4 Ga10 I2                             
   1.00000000000000     
     6.2268100089728540    0.1978048110714474    0.2823024730209442
    -2.8615903958119118    7.9429056915491172    0.8519570946016977
    -2.8566182061166687   -1.8502199517009155    7.7723932151185382
   I    Ca   Ga
     2     4    10
Direct
  0.9998359241118351  0.2909372312971854  0.2092206838819450
  0.0008049414450255  0.7093141545249892  0.7909111577042864
  0.8262178590504021  0.6058294018153774  0.1057157828238786
  0.5029780881767678  0.1617034097937875  0.3404758348567043
  0.5046611475791565  0.8407817013259660  0.6619923785036974
  0.1659431737390591  0.3898327131982242  0.8898940848480592
  0.0013765196667990  0.9980322589083670  0.0040437496940129
  0.5830072140899816  0.8742052672518952  0.0456688040078745
  0.4031383993710662  0.7776619007843735  0.2779082522985306
  0.5834353308458802  0.5457357804770524  0.3742967522309755
  0.8941557209841235  0.8801428350473444  0.3798225594184785
  0.0014096484538371  0.5037933188450410  0.4981233808828236
  0.1092694683757927  0.1180636162508009  0.6181905181055853
  0.4140223607997200  0.4548440108391674  0.6246905488259884
  0.5957723266885822  0.2242567083188405  0.7240639921247691
  0.4139718766219858  0.1246656913216171  0.9547815197923697
 
  0.00000000E+00  0.00000000E+00  0.00000000E+00
  0.00000000E+00  0.00000000E+00  0.00000000E+00
  0.00000000E+00  0.00000000E+00  0.00000000E+00
  0.00000000E+00  0.00000000E+00  0.00000000E+00
  0.00000000E+00  0.00000000E+00  0.00000000E+00
  0.00000000E+00  0.00000000E+00  0.00000000E+00
  0.00000000E+00  0.00000000E+00  0.00000000E+00
  0.00000000E+00  0.00000000E+00  0.00000000E+00
  0.00000000E+00  0.00000000E+00  0.00000000E+00
  0.00000000E+00  0.00000000E+00  0.00000000E+00
  0.00000000E+00  0.00000000E+00  0.00000000E+00
  0.00000000E+00  0.00000000E+00  0.00000000E+00
  0.00000000E+00  0.00000000E+00  0.00000000E+00
  0.00000000E+00  0.00000000E+00  0.00000000E+00
  0.00000000E+00  0.00000000E+00  0.00000000E+00
  0.00000000E+00  0.00000000E+00  0.00000000E+00
