Ba17 B11 I1                             
   1.00000000000000     
    10.8903578591258317   -5.8039953645912998    5.0608364317053001
    -0.4053120964518670    8.2043571843210845    2.5724195976686919
   -10.2148476628794054   -4.3811682807783914    4.7375459622497225
   B    I    Ba
    11     1    17
Direct
  0.8015373332371993  0.1500793682883312  0.1308747807359509
  0.1977609175418849  0.4122260360937418  0.1583155132555092
  0.8633825153353385  0.2472039570752784  0.2844804225401774
  0.2333101726538516  0.0697705591862530  0.2083907427492449
  0.2009144873241766  0.4048000665145395  0.2909985345240500
  0.2156718059533418  0.2413761112021149  0.2012615882655666
  0.0087898329580867  0.7963405178011413  0.7165275153156543
  0.8979352625366559  0.8668573472879615  0.6775966096775790
  0.0350878439528515  0.6273964925872448  0.7045016096311230
  0.7581044422683050  0.0773571730655362  0.9790252118207832
  0.0378592089727547  0.0129422963782417  0.7483752003514468
  0.8114881210427711  0.6549589932130218  0.9969265694842235
  0.9906036881580604  0.4848136688532918  0.1610596339080317
  0.2378632988230223  0.9495772010124099  0.9698176730849113
  0.5928490294520685  0.2274546412759690  0.9216599755363362
  0.9730339668432180  0.0392553451228537  0.9612941395199641
  0.1710556650474544  0.4381738270469313  0.8865598075758996
  0.8579242770376823  0.6123393692372900  0.4238170770078327
  0.6135271280201451  0.0899638268745662  0.2403250324032200
  0.1694358059335173  0.5468087126270262  0.5450890407162206
  0.0200661291333759  0.0599890265883332  0.2803436628287486
  0.3269560381572987  0.8193124852817277  0.3275884280340833
  0.4496491932386277  0.4779637727375388  0.2049921776550221
  0.2126724667671738  0.0362092448304452  0.6625659971055740
  0.9001685589291384  0.1590134881483181  0.5436546512869995
  0.7940757625861750  0.5034842933098673  0.6936380897968561
  0.6750232067899162  0.9247305510709722  0.6780191670530584
  0.5623758140025075  0.7385777432082747  0.9250752219795260
  0.3918340273034246  0.3303638840807892  0.4772269261563977
 
  0.00000000E+00  0.00000000E+00  0.00000000E+00
  0.00000000E+00  0.00000000E+00  0.00000000E+00
  0.00000000E+00  0.00000000E+00  0.00000000E+00
  0.00000000E+00  0.00000000E+00  0.00000000E+00
  0.00000000E+00  0.00000000E+00  0.00000000E+00
  0.00000000E+00  0.00000000E+00  0.00000000E+00
  0.00000000E+00  0.00000000E+00  0.00000000E+00
  0.00000000E+00  0.00000000E+00  0.00000000E+00
  0.00000000E+00  0.00000000E+00  0.00000000E+00
  0.00000000E+00  0.00000000E+00  0.00000000E+00
  0.00000000E+00  0.00000000E+00  0.00000000E+00
  0.00000000E+00  0.00000000E+00  0.00000000E+00
  0.00000000E+00  0.00000000E+00  0.00000000E+00
  0.00000000E+00  0.00000000E+00  0.00000000E+00
  0.00000000E+00  0.00000000E+00  0.00000000E+00
  0.00000000E+00  0.00000000E+00  0.00000000E+00
  0.00000000E+00  0.00000000E+00  0.00000000E+00
  0.00000000E+00  0.00000000E+00  0.00000000E+00
  0.00000000E+00  0.00000000E+00  0.00000000E+00
  0.00000000E+00  0.00000000E+00  0.00000000E+00
  0.00000000E+00  0.00000000E+00  0.00000000E+00
  0.00000000E+00  0.00000000E+00  0.00000000E+00
  0.00000000E+00  0.00000000E+00  0.00000000E+00
  0.00000000E+00  0.00000000E+00  0.00000000E+00
  0.00000000E+00  0.00000000E+00  0.00000000E+00
  0.00000000E+00  0.00000000E+00  0.00000000E+00
  0.00000000E+00  0.00000000E+00  0.00000000E+00
  0.00000000E+00  0.00000000E+00  0.00000000E+00
  0.00000000E+00  0.00000000E+00  0.00000000E+00
