Mg22 Tl14                               
   1.0000000000000000     
     0.0000000000000002    7.8003352952230109    7.8003352952230109
     7.8003352952230101    0.0000000000000000    7.8003352952230109
     7.8003352952230101    7.8003352952230109    0.0000000000000000
   Mg   Tl
    22    14
Direct
  0.7009302112006424  0.2990697887993505  0.0000000000000000
  0.7009302112006424  0.0000000000000000  0.0000000000000000
  0.1153015652449696  0.6282328115850149  0.6282328115850149
  0.0000000000000000  0.7009302112006424  0.2990697887993505
  0.0000000000000000  0.2990697887993505  0.7009302112006424
  0.3717671884149851  0.3717671884149851  0.3717671884149851
  0.0000000000000000  0.7009302112006424  0.0000000000000000
  0.6282328115850149  0.6282328115850149  0.1153015652449696
  0.0000000000000000  0.0000000000000000  0.7009302112006424
  0.6282328115850149  0.1153015652449696  0.6282328115850149
  0.0000000000000000  0.0000000000000000  0.2990697887993505
  0.2990697887993505  0.0000000000000000  0.0000000000000000
  0.0000000000000000  0.2990697887993505  0.0000000000000000
  0.7009302112006424  0.0000000000000000  0.2990697887993505
  0.5000000000000000  0.5000000000000000  0.5000000000000000
  0.3717671884149851  0.8846984347550304  0.3717671884149851
  0.3717671884149851  0.3717671884149851  0.8846984347550304
  0.2990697887993505  0.7009302112006424  0.0000000000000000
  0.2990697887993505  0.0000000000000000  0.7009302112006424
  0.6282328115850149  0.6282328115850149  0.6282328115850149
  0.0000000000000000  0.0000000000000000  0.0000000000000000
  0.8846984347550304  0.3717671884149851  0.3717671884149851
  0.2867697081046288  0.2867697081046288  0.7132302918953712
  0.7132302918953712  0.7132302918953712  0.2867697081046288
  0.8210869113108075  0.5367392660675918  0.8210869113108075
  0.7132302918953712  0.2867697081046288  0.2867697081046288
  0.4632607339324011  0.1789130886891925  0.1789130886891925
  0.2867697081046288  0.7132302918953712  0.7132302918953712
  0.1789130886891925  0.1789130886891925  0.1789130886891925
  0.1789130886891925  0.4632607339324011  0.1789130886891925
  0.5367392660675918  0.8210869113108075  0.8210869113108075
  0.8210869113108075  0.8210869113108075  0.8210869113108075
  0.7132302918953712  0.2867697081046288  0.7132302918953712
  0.1789130886891925  0.1789130886891925  0.4632607339324011
  0.2867697081046288  0.7132302918953712  0.2867697081046288
  0.8210869113108075  0.8210869113108075  0.5367392660675918

  0.00000000E+00  0.00000000E+00  0.00000000E+00
  0.00000000E+00  0.00000000E+00  0.00000000E+00
  0.00000000E+00  0.00000000E+00  0.00000000E+00
  0.00000000E+00  0.00000000E+00  0.00000000E+00
  0.00000000E+00  0.00000000E+00  0.00000000E+00
  0.00000000E+00  0.00000000E+00  0.00000000E+00
  0.00000000E+00  0.00000000E+00  0.00000000E+00
  0.00000000E+00  0.00000000E+00  0.00000000E+00
  0.00000000E+00  0.00000000E+00  0.00000000E+00
  0.00000000E+00  0.00000000E+00  0.00000000E+00
  0.00000000E+00  0.00000000E+00  0.00000000E+00
  0.00000000E+00  0.00000000E+00  0.00000000E+00
  0.00000000E+00  0.00000000E+00  0.00000000E+00
  0.00000000E+00  0.00000000E+00  0.00000000E+00
  0.00000000E+00  0.00000000E+00  0.00000000E+00
  0.00000000E+00  0.00000000E+00  0.00000000E+00
  0.00000000E+00  0.00000000E+00  0.00000000E+00
  0.00000000E+00  0.00000000E+00  0.00000000E+00
  0.00000000E+00  0.00000000E+00  0.00000000E+00
  0.00000000E+00  0.00000000E+00  0.00000000E+00
  0.00000000E+00  0.00000000E+00  0.00000000E+00
  0.00000000E+00  0.00000000E+00  0.00000000E+00
  0.00000000E+00  0.00000000E+00  0.00000000E+00
  0.00000000E+00  0.00000000E+00  0.00000000E+00
  0.00000000E+00  0.00000000E+00  0.00000000E+00
  0.00000000E+00  0.00000000E+00  0.00000000E+00
  0.00000000E+00  0.00000000E+00  0.00000000E+00
  0.00000000E+00  0.00000000E+00  0.00000000E+00
  0.00000000E+00  0.00000000E+00  0.00000000E+00
  0.00000000E+00  0.00000000E+00  0.00000000E+00
  0.00000000E+00  0.00000000E+00  0.00000000E+00
  0.00000000E+00  0.00000000E+00  0.00000000E+00
  0.00000000E+00  0.00000000E+00  0.00000000E+00
  0.00000000E+00  0.00000000E+00  0.00000000E+00
  0.00000000E+00  0.00000000E+00  0.00000000E+00
  0.00000000E+00  0.00000000E+00  0.00000000E+00
