Be4 B4 Br20                             
   1.0000000000000000     
     8.1184372688230688   -0.0000000000000001    0.0000000000000010
    -0.0000000000000007    7.0845844153490818    0.0000000000000007
     0.0000000000000010    0.0000000000000002   23.5141976513286153
   Be   B    Br
     4     4    20
Direct
  0.5158651842801731  0.2835200783663510  0.3460782658627650
  0.0158651842801731  0.2164799216336490  0.6539217341372350
  0.4841348157198198  0.7835200783663510  0.1539217341372350
  0.9841348157198198  0.7164799216336490  0.8460782658627650
  0.0130717066022470  0.8352461913472098  0.3904866350749288
  0.5130717066022470  0.6647538086527902  0.6095133649250641
  0.9869282933977530  0.3352461913472098  0.1095133649250641
  0.4869282933977530  0.1647538086527902  0.8904866350749217
  0.9988498402464430  0.6616453020508928  0.4523298323207428
  0.4988498402464359  0.8383546979491072  0.5476701676792572
  0.0011501597535570  0.1616453020508928  0.0476701676792572
  0.5011501597535570  0.3383546979491072  0.9523298323207428
  0.0149823069412349  0.7449568295578217  0.3141434412296604
  0.5149823069412349  0.7550431704421783  0.6858565587703396
  0.9850176930587651  0.2449568295578217  0.1858565587703396
  0.4850176930587722  0.2550431704421783  0.8141434412296604
  0.9746637305837069  0.6001730798111424  0.0946161041817533
  0.4746637305837069  0.8998269201888576  0.9053838958182467
  0.0253362694162931  0.1001730798111424  0.4053838958182467
  0.5253362694162931  0.3998269201888576  0.5946161041817533
  0.4704636244497067  0.5482542938481245  0.1972608342108728
  0.9704636244497138  0.9517457061518755  0.8027391657891272
  0.5295363755502862  0.0482542938481245  0.3027391657891272
  0.0295363755502933  0.4517457061518755  0.6972608342108728
  0.9976627044183886  0.4900529904407449  0.8931184842641642
  0.4976627044183886  0.0099470095592551  0.1068815157358429
  0.0023372955816114  0.9900529904407378  0.6068815157358358
  0.5023372955816114  0.5099470095592622  0.3931184842641642

  0.00000000E+00  0.00000000E+00  0.00000000E+00
  0.00000000E+00  0.00000000E+00  0.00000000E+00
  0.00000000E+00  0.00000000E+00  0.00000000E+00
  0.00000000E+00  0.00000000E+00  0.00000000E+00
  0.00000000E+00  0.00000000E+00  0.00000000E+00
  0.00000000E+00  0.00000000E+00  0.00000000E+00
  0.00000000E+00  0.00000000E+00  0.00000000E+00
  0.00000000E+00  0.00000000E+00  0.00000000E+00
  0.00000000E+00  0.00000000E+00  0.00000000E+00
  0.00000000E+00  0.00000000E+00  0.00000000E+00
  0.00000000E+00  0.00000000E+00  0.00000000E+00
  0.00000000E+00  0.00000000E+00  0.00000000E+00
  0.00000000E+00  0.00000000E+00  0.00000000E+00
  0.00000000E+00  0.00000000E+00  0.00000000E+00
  0.00000000E+00  0.00000000E+00  0.00000000E+00
  0.00000000E+00  0.00000000E+00  0.00000000E+00
  0.00000000E+00  0.00000000E+00  0.00000000E+00
  0.00000000E+00  0.00000000E+00  0.00000000E+00
  0.00000000E+00  0.00000000E+00  0.00000000E+00
  0.00000000E+00  0.00000000E+00  0.00000000E+00
  0.00000000E+00  0.00000000E+00  0.00000000E+00
  0.00000000E+00  0.00000000E+00  0.00000000E+00
  0.00000000E+00  0.00000000E+00  0.00000000E+00
  0.00000000E+00  0.00000000E+00  0.00000000E+00
  0.00000000E+00  0.00000000E+00  0.00000000E+00
  0.00000000E+00  0.00000000E+00  0.00000000E+00
  0.00000000E+00  0.00000000E+00  0.00000000E+00
  0.00000000E+00  0.00000000E+00  0.00000000E+00
