Be2F                                    
   1.00000000000000     
     5.7037645370597172    0.0000000000000000    0.0000000000000000
     0.0000000000000000    5.7037645370597172    0.0000000000000000
     0.0000000000000000    0.0000000000000000    2.4224897369117899
   Be   F 
     4     2
Direct
  0.1873739443848947  0.1873739443848947  0.0000000000000000
  0.8126260556151053  0.8126260556151053  0.0000000000000000
  0.6873739443848947  0.3126260556151053  0.5000000000000000
  0.3126260556151053  0.6873739443848947  0.5000000000000000
  0.0000000000000000  0.0000000000000000  0.0000000000000000
  0.5000000000000000  0.5000000000000000  0.5000000000000000
 
  0.00000000E+00  0.00000000E+00  0.00000000E+00
  0.00000000E+00  0.00000000E+00  0.00000000E+00
  0.00000000E+00  0.00000000E+00  0.00000000E+00
  0.00000000E+00  0.00000000E+00  0.00000000E+00
  0.00000000E+00  0.00000000E+00  0.00000000E+00
  0.00000000E+00  0.00000000E+00  0.00000000E+00
