AlBr3                                   
   1.00000000000000     
     7.7533270950652788    0.0015493504454421    0.0858493050226593
     0.0013224992232362    8.4324814177876259   -0.0018761581421917
    -1.0476014646998391   -0.0020565851308203   11.0903060270049654
   Al   Br
     4    12
Direct
  0.1865394825574285  0.5809411944332936  0.0564821294051541
  0.8136098195325800  0.0811329075376648  0.4435577553135985
  0.1864266699761359  0.9188636376212287  0.5564326441998517
  0.8133804753316269  0.4190276673075317  0.9434685949170287
  0.2409575352956779  0.8390029901887885  0.0223984746211130
  0.9005925583897678  0.5544346190431853  0.1329693942764649
  0.3787333367587138  0.4312729614554911  0.1700932174246788
  0.6217855147718083  0.9311804650256335  0.3299010653060392
  0.0996464391411038  0.0545481213558361  0.3670795974332606
  0.7593092562784420  0.3392443025693623  0.4778471021859474
  0.2408661806664227  0.6608208848447177  0.5220736290824988
  0.9004313585071628  0.9455246059308990  0.6328967335897175
  0.3781995502778912  0.0688411163320666  0.6701631994695489
  0.6211549428033578  0.5686490987076027  0.8298001673577104
  0.0993112237632161  0.4456063397519330  0.8669605235163047
  0.7588556559486506  0.1610090878947759  0.9775757719010869
 
  0.00000000E+00  0.00000000E+00  0.00000000E+00
  0.00000000E+00  0.00000000E+00  0.00000000E+00
  0.00000000E+00  0.00000000E+00  0.00000000E+00
  0.00000000E+00  0.00000000E+00  0.00000000E+00
  0.00000000E+00  0.00000000E+00  0.00000000E+00
  0.00000000E+00  0.00000000E+00  0.00000000E+00
  0.00000000E+00  0.00000000E+00  0.00000000E+00
  0.00000000E+00  0.00000000E+00  0.00000000E+00
  0.00000000E+00  0.00000000E+00  0.00000000E+00
  0.00000000E+00  0.00000000E+00  0.00000000E+00
  0.00000000E+00  0.00000000E+00  0.00000000E+00
  0.00000000E+00  0.00000000E+00  0.00000000E+00
  0.00000000E+00  0.00000000E+00  0.00000000E+00
  0.00000000E+00  0.00000000E+00  0.00000000E+00
  0.00000000E+00  0.00000000E+00  0.00000000E+00
  0.00000000E+00  0.00000000E+00  0.00000000E+00
