BeTl3                                   
   1.0000000000000000     
     6.5314948306704217    0.0170180176203689    0.0000000000000000
    -3.2505107330670246    5.6627305304329116    0.0000000000000000
     0.0000000000000000    0.0000000000000000    5.7242365747261079
   Be   Tl
     2     6
Direct
  0.3304406596668130  0.6692065169319932  0.7500000000000000
  0.6695593403331870  0.3307934830680068  0.2500000000000000
  0.1706317606923022  0.3405786755144220  0.2500000000000000
  0.6593959689555149  0.8293352144109463  0.2500000000000000
  0.1700488947199545  0.8300190416867679  0.2500000000000000
  0.8293682393076978  0.6594213244855780  0.7500000000000000
  0.3406040310444851  0.1706647855890537  0.7500000000000000
  0.8299511052800455  0.1699809583132321  0.7500000000000000

  0.00000000E+00  0.00000000E+00  0.00000000E+00
  0.00000000E+00  0.00000000E+00  0.00000000E+00
  0.00000000E+00  0.00000000E+00  0.00000000E+00
  0.00000000E+00  0.00000000E+00  0.00000000E+00
  0.00000000E+00  0.00000000E+00  0.00000000E+00
  0.00000000E+00  0.00000000E+00  0.00000000E+00
  0.00000000E+00  0.00000000E+00  0.00000000E+00
  0.00000000E+00  0.00000000E+00  0.00000000E+00
