Ba2 Ga2 F10                             
   1.0000000000000000     
     3.6871832889039076   -0.0000000000000000    0.0000000000000002
    -0.0000000000000006    8.4235960685334312    0.0000000000000005
    -0.0000000000000000   -0.0000000000000000    7.8596543468262681
   Ba   Ga   F 
     2     2    10
Direct
  0.0000000000000000  0.0000000000000000  0.5000000000000000
  0.5000000000000000  0.5000000000000000  0.0000000000000000
  0.5000000000000000  0.0000000000000000  0.0000000000000000
  0.0000000000000000  0.5000000000000000  0.5000000000000000
  0.5000000000000000  0.7882232597363270  0.5000000000000000
  0.5000000000000000  0.2117767402636730  0.5000000000000000
  0.5000000000000000  0.0000000000000000  0.2264261878882792
  0.5000000000000000  0.0000000000000000  0.7735738121117208
  0.0000000000000000  0.0000000000000000  0.0000000000000000
  0.0000000000000000  0.2882232597363199  0.0000000000000000
  0.0000000000000000  0.7117767402636730  0.0000000000000000
  0.0000000000000000  0.5000000000000000  0.7264261878882792
  0.0000000000000000  0.5000000000000000  0.2735738121117208
  0.5000000000000000  0.5000000000000000  0.5000000000000000

  0.00000000E+00  0.00000000E+00  0.00000000E+00
  0.00000000E+00  0.00000000E+00  0.00000000E+00
  0.00000000E+00  0.00000000E+00  0.00000000E+00
  0.00000000E+00  0.00000000E+00  0.00000000E+00
  0.00000000E+00  0.00000000E+00  0.00000000E+00
  0.00000000E+00  0.00000000E+00  0.00000000E+00
  0.00000000E+00  0.00000000E+00  0.00000000E+00
  0.00000000E+00  0.00000000E+00  0.00000000E+00
  0.00000000E+00  0.00000000E+00  0.00000000E+00
  0.00000000E+00  0.00000000E+00  0.00000000E+00
  0.00000000E+00  0.00000000E+00  0.00000000E+00
  0.00000000E+00  0.00000000E+00  0.00000000E+00
  0.00000000E+00  0.00000000E+00  0.00000000E+00
  0.00000000E+00  0.00000000E+00  0.00000000E+00
