Al2 I8                                  
   1.00000000000000     
     7.9997353965364368    1.6520715096504821    1.1555514150278074
     5.4148572713223686    9.3246944396648850    1.2037175931136954
     1.6952360355796499    0.7722563953397829    8.8682239228878661
   Al   I 
     2     8
Direct
  0.7693015378338828  0.0108029659964970  0.1180285406049677
  0.2308904705083421  0.9892141831362764  0.8817553324374217
  0.3755455135105592  0.2547473734748067  0.0945739572825843
  0.9697280986472236  0.1106429869767354  0.1610372428991695
  0.8278010833567606  0.7780604558336464  0.3182752421672461
  0.3102433038545200  0.5830711478070896  0.4435126057141403
  0.6897024675034018  0.4170675450068515  0.5563435196870401
  0.1720416300671275  0.2220990712436688  0.6815727172260537
  0.0303486920030593  0.8894358338238462  0.8387699594251714
  0.6245572027151383  0.7451584367005992  0.9053308825561857
 
  0.00000000E+00  0.00000000E+00  0.00000000E+00
  0.00000000E+00  0.00000000E+00  0.00000000E+00
  0.00000000E+00  0.00000000E+00  0.00000000E+00
  0.00000000E+00  0.00000000E+00  0.00000000E+00
  0.00000000E+00  0.00000000E+00  0.00000000E+00
  0.00000000E+00  0.00000000E+00  0.00000000E+00
  0.00000000E+00  0.00000000E+00  0.00000000E+00
  0.00000000E+00  0.00000000E+00  0.00000000E+00
  0.00000000E+00  0.00000000E+00  0.00000000E+00
  0.00000000E+00  0.00000000E+00  0.00000000E+00
