Sr4 Tl10 Cl2                            
   1.0000000000000000     
     8.3966630332850265   -0.0060934420072246   -0.0245120917476081
    -0.0055682197291813    8.3967195230062011   -0.0238280040274454
     4.1979099317562651    4.1971799415203970    7.2949868014659351
   Cl   Sr   Tl
     2     4    10
Direct
  0.9377632236660602  0.9374153144378496  0.1253995109989035
  0.4374156582240474  0.4377747679943624  0.1254225767676118
  0.2658714632302903  0.1098208789247437  0.1246977285416122
  0.7627785943334757  0.2628390692140954  0.1322001070572156
  0.1121238814850258  0.6120774692774731  0.1181878560116516
  0.6099152867462934  0.7659566152812829  0.1246239161835589
  0.1902235947410347  0.1848948315882950  0.6245288772586264
  0.6849164449688132  0.6902580277424590  0.6245267059569954
  0.3998428875539943  0.8998211667076603  0.4792302411698302
  0.9066627225754260  0.1204307232156197  0.4792929410662907
  0.6204452545040695  0.4067046484364099  0.4792583431523312
  0.1157259707921625  0.6156850119079280  0.4752134345493317
  0.7589924950900695  0.2590447705420544  0.7748224411968039
  0.2537239960427087  0.4683883880911068  0.7710542822510078
  0.9684375926639248  0.7536918169506137  0.7710396252848710
  0.4750609333825864  0.9750964996880143  0.7705014125533509

  0.00000000E+00  0.00000000E+00  0.00000000E+00
  0.00000000E+00  0.00000000E+00  0.00000000E+00
  0.00000000E+00  0.00000000E+00  0.00000000E+00
  0.00000000E+00  0.00000000E+00  0.00000000E+00
  0.00000000E+00  0.00000000E+00  0.00000000E+00
  0.00000000E+00  0.00000000E+00  0.00000000E+00
  0.00000000E+00  0.00000000E+00  0.00000000E+00
  0.00000000E+00  0.00000000E+00  0.00000000E+00
  0.00000000E+00  0.00000000E+00  0.00000000E+00
  0.00000000E+00  0.00000000E+00  0.00000000E+00
  0.00000000E+00  0.00000000E+00  0.00000000E+00
  0.00000000E+00  0.00000000E+00  0.00000000E+00
  0.00000000E+00  0.00000000E+00  0.00000000E+00
  0.00000000E+00  0.00000000E+00  0.00000000E+00
  0.00000000E+00  0.00000000E+00  0.00000000E+00
  0.00000000E+00  0.00000000E+00  0.00000000E+00
