Ca10 Al4 F32                            
   1.00000000000000     
     3.5519957503189183   -5.8919709370319975    0.0000000000000000
     3.5519957503189183    5.8919709370319975    0.0000000000000000
     0.0000000000000000    0.0000000000000000   13.4027320267921581
   Ca   Al   F 
    10     4    32
Direct
  0.0000000000000000  0.0000000000000000  0.7160675925910951
  0.0000000000000000  0.0000000000000000  0.2839324074089049
  0.5000000000000000  0.5000000000000000  0.7839324074089049
  0.5000000000000000  0.5000000000000000  0.2160675925910951
  0.5000000000000000  0.5000000000000000  0.5000000000000000
  0.0000000000000000  0.0000000000000000  0.0000000000000000
  0.0000000000000000  0.5000000000000000  0.6337122183567772
  0.5000000000000000  0.0000000000000000  0.3662877816432228
  0.5000000000000000  0.0000000000000000  0.8662877816432228
  0.0000000000000000  0.5000000000000000  0.1337122183567772
  0.5000000000000000  0.0000000000000000  0.6154212581505192
  0.0000000000000000  0.5000000000000000  0.3845787418494808
  0.0000000000000000  0.5000000000000000  0.8845787418494808
  0.5000000000000000  0.0000000000000000  0.1154212581505192
  0.5316326409265244  0.1941614184447431  0.7117017100260696
  0.4683673590734756  0.8058385815552569  0.7117017100260696
  0.1941614184447431  0.5316326409265244  0.2882982899739304
  0.8058385815552569  0.4683673590734756  0.2882982899739304
  0.9683673590734756  0.3058385815552569  0.7882982899739304
  0.0316326409265244  0.6941614184447431  0.7882982899739304
  0.3058385815552569  0.9683673590734756  0.2117017100260696
  0.6941614184447431  0.0316326409265244  0.2117017100260696
  0.1983095615838693  0.8776276701178176  0.6153846386888517
  0.8016904384161307  0.1223723298821824  0.6153846386888517
  0.8776276701178176  0.1983095615838693  0.3846153613111483
  0.1223723298821824  0.8016904384161307  0.3846153613111483
  0.3016904384161307  0.6223723298821824  0.8846153613111483
  0.6983095615838693  0.3776276701178176  0.8846153613111483
  0.6704114409154869  0.9893032988302366  0.0180589554847046
  0.3295885590845131  0.0106967011697634  0.0180589554847046
  0.9893032988302366  0.6704114409154869  0.9819410445152954
  0.0106967011697634  0.3295885590845131  0.9819410445152954
  0.8295885590845131  0.5106967011697634  0.4819410445152954
  0.1704114409154869  0.4893032988302366  0.4819410445152954
  0.5106967011697634  0.8295885590845131  0.5180589554847046
  0.4893032988302366  0.1704114409154869  0.5180589554847046
  0.8618840732612654  0.7608059486431955  0.1503866004392194
  0.1381159267387346  0.2391940513568045  0.1503866004392194
  0.7608059486431955  0.8618840732612654  0.8496133995607806
  0.2391940513568045  0.1381159267387346  0.8496133995607806
  0.6381159267387346  0.7391940513568045  0.3496133995607806
  0.3618840732612654  0.2608059486431955  0.3496133995607806
  0.7391940513568045  0.6381159267387346  0.6503866004392194
  0.2608059486431955  0.3618840732612654  0.6503866004392194
  0.3776276701178176  0.6983095615838693  0.1153846386888517
  0.6223723298821824  0.3016904384161307  0.1153846386888517
 
  0.00000000E+00  0.00000000E+00  0.00000000E+00
  0.00000000E+00  0.00000000E+00  0.00000000E+00
  0.00000000E+00  0.00000000E+00  0.00000000E+00
  0.00000000E+00  0.00000000E+00  0.00000000E+00
  0.00000000E+00  0.00000000E+00  0.00000000E+00
  0.00000000E+00  0.00000000E+00  0.00000000E+00
  0.00000000E+00  0.00000000E+00  0.00000000E+00
  0.00000000E+00  0.00000000E+00  0.00000000E+00
  0.00000000E+00  0.00000000E+00  0.00000000E+00
  0.00000000E+00  0.00000000E+00  0.00000000E+00
  0.00000000E+00  0.00000000E+00  0.00000000E+00
  0.00000000E+00  0.00000000E+00  0.00000000E+00
  0.00000000E+00  0.00000000E+00  0.00000000E+00
  0.00000000E+00  0.00000000E+00  0.00000000E+00
  0.00000000E+00  0.00000000E+00  0.00000000E+00
  0.00000000E+00  0.00000000E+00  0.00000000E+00
  0.00000000E+00  0.00000000E+00  0.00000000E+00
  0.00000000E+00  0.00000000E+00  0.00000000E+00
  0.00000000E+00  0.00000000E+00  0.00000000E+00
  0.00000000E+00  0.00000000E+00  0.00000000E+00
  0.00000000E+00  0.00000000E+00  0.00000000E+00
  0.00000000E+00  0.00000000E+00  0.00000000E+00
  0.00000000E+00  0.00000000E+00  0.00000000E+00
  0.00000000E+00  0.00000000E+00  0.00000000E+00
  0.00000000E+00  0.00000000E+00  0.00000000E+00
  0.00000000E+00  0.00000000E+00  0.00000000E+00
  0.00000000E+00  0.00000000E+00  0.00000000E+00
  0.00000000E+00  0.00000000E+00  0.00000000E+00
  0.00000000E+00  0.00000000E+00  0.00000000E+00
  0.00000000E+00  0.00000000E+00  0.00000000E+00
  0.00000000E+00  0.00000000E+00  0.00000000E+00
  0.00000000E+00  0.00000000E+00  0.00000000E+00
  0.00000000E+00  0.00000000E+00  0.00000000E+00
  0.00000000E+00  0.00000000E+00  0.00000000E+00
  0.00000000E+00  0.00000000E+00  0.00000000E+00
  0.00000000E+00  0.00000000E+00  0.00000000E+00
  0.00000000E+00  0.00000000E+00  0.00000000E+00
  0.00000000E+00  0.00000000E+00  0.00000000E+00
  0.00000000E+00  0.00000000E+00  0.00000000E+00
  0.00000000E+00  0.00000000E+00  0.00000000E+00
  0.00000000E+00  0.00000000E+00  0.00000000E+00
  0.00000000E+00  0.00000000E+00  0.00000000E+00
  0.00000000E+00  0.00000000E+00  0.00000000E+00
  0.00000000E+00  0.00000000E+00  0.00000000E+00
  0.00000000E+00  0.00000000E+00  0.00000000E+00
  0.00000000E+00  0.00000000E+00  0.00000000E+00
