Ba16 In13                               
   1.0000000000000000     
     9.9258720788139669   -5.0614939174339852    4.2890849401719739
     0.1956433679478862   10.0382062177876481    3.6692367497553668
   -10.0353645638135731   -5.3605443303077687    4.1451546846850604
   In   Ba
    13    16
Direct
  0.6141040918879455  0.8712067778323416  0.9999953200433040
  0.9075871055934357  0.6211940735375947  0.0000235723547419
  0.7074213494930532  0.3718867191415001  0.9999924608702386
  0.2957867561835457  0.3350404339312831  0.2234996268481737
  0.2072354924401409  0.8130595906146567  0.2555506122216045
  0.7486248889749021  0.1996177448876395  0.1759004154942758
  0.3727239996979463  0.1787757019585854  0.3955599641795473
  0.2357458222909727  0.3840820417690551  0.4522712822329424
  0.7834960473827550  0.9319066054295959  0.5477557009626821
  0.9770966101742147  0.7831662624566036  0.6043926654107850
  0.5726656277455078  0.0236908614456866  0.8240565548098431
  0.9516467357385565  0.5575483791273328  0.7444426232617758
  0.0723337351354445  0.1115129202339133  0.7764946461562232
  0.4197016934920370  0.2138346477614874  0.0000107647050385
  0.1507080963382137  0.9283336709114067  0.0000160141675849
  0.9488241583338493  0.2316731954037294  0.9999777207636598
  0.2267314809319529  0.5205925978315449  0.9999870390870171
  0.7143969461369153  0.6982432900521118  0.2152212003180267
  0.5313316021589998  0.9805493796999158  0.2630180097492669
  0.0184895109445620  0.5519667312381102  0.3233526883150972
  0.9871446356686988  0.0077446708814222  0.2165719455710118
  0.6658322698472716  0.4506364533729013  0.4232085064046132
  0.4414082547182687  0.7272641713284784  0.4685237918327161
  0.9728837655676728  0.2587529988714010  0.5314713728888307
  0.2426060869525131  0.0274187433756978  0.5767841079645635
  0.7705572835612031  0.7911704752946846  0.7834303270275029
  0.6951146927542666  0.2286529186576374  0.6766517396567906
  0.2682958150313937  0.7175906649266608  0.7370348704790786
  0.4991754448237984  0.4830472780270298  0.7848074562230067

  0.00000000E+00  0.00000000E+00  0.00000000E+00
  0.00000000E+00  0.00000000E+00  0.00000000E+00
  0.00000000E+00  0.00000000E+00  0.00000000E+00
  0.00000000E+00  0.00000000E+00  0.00000000E+00
  0.00000000E+00  0.00000000E+00  0.00000000E+00
  0.00000000E+00  0.00000000E+00  0.00000000E+00
  0.00000000E+00  0.00000000E+00  0.00000000E+00
  0.00000000E+00  0.00000000E+00  0.00000000E+00
  0.00000000E+00  0.00000000E+00  0.00000000E+00
  0.00000000E+00  0.00000000E+00  0.00000000E+00
  0.00000000E+00  0.00000000E+00  0.00000000E+00
  0.00000000E+00  0.00000000E+00  0.00000000E+00
  0.00000000E+00  0.00000000E+00  0.00000000E+00
  0.00000000E+00  0.00000000E+00  0.00000000E+00
  0.00000000E+00  0.00000000E+00  0.00000000E+00
  0.00000000E+00  0.00000000E+00  0.00000000E+00
  0.00000000E+00  0.00000000E+00  0.00000000E+00
  0.00000000E+00  0.00000000E+00  0.00000000E+00
  0.00000000E+00  0.00000000E+00  0.00000000E+00
  0.00000000E+00  0.00000000E+00  0.00000000E+00
  0.00000000E+00  0.00000000E+00  0.00000000E+00
  0.00000000E+00  0.00000000E+00  0.00000000E+00
  0.00000000E+00  0.00000000E+00  0.00000000E+00
  0.00000000E+00  0.00000000E+00  0.00000000E+00
  0.00000000E+00  0.00000000E+00  0.00000000E+00
  0.00000000E+00  0.00000000E+00  0.00000000E+00
  0.00000000E+00  0.00000000E+00  0.00000000E+00
  0.00000000E+00  0.00000000E+00  0.00000000E+00
  0.00000000E+00  0.00000000E+00  0.00000000E+00
