Mg2 Tl2 Cl10                            
   1.0000000000000000     
     4.7556060548580543   -0.0000000000000001    0.0000000000000003
    -0.0000000000000010   11.4339895440441719    0.0000000000000007
     0.0000000000000001    0.0000000000000003    9.1513732875992826
   Mg   Tl   Cl
     2     2    10
Direct
  0.0000000000000000  0.0000000000000000  0.5000000000000000
  0.5000000000000000  0.5000000000000000  0.0000000000000000
  0.5000000000000000  0.0000000000000000  0.0000000000000000
  0.0000000000000000  0.5000000000000000  0.5000000000000000
  0.5000000000000000  0.7419254631901140  0.5000000000000000
  0.5000000000000000  0.2580745368098860  0.5000000000000000
  0.5000000000000000  0.0000000000000000  0.3315207839708805
  0.5000000000000000  0.0000000000000000  0.6684792160291195
  0.0000000000000000  0.0000000000000000  0.0000000000000000
  0.0000000000000000  0.2419254631901140  0.0000000000000000
  0.0000000000000000  0.7580745368098860  0.0000000000000000
  0.0000000000000000  0.5000000000000000  0.8315207839708805
  0.0000000000000000  0.5000000000000000  0.1684792160291195
  0.5000000000000000  0.5000000000000000  0.5000000000000000

  0.00000000E+00  0.00000000E+00  0.00000000E+00
  0.00000000E+00  0.00000000E+00  0.00000000E+00
  0.00000000E+00  0.00000000E+00  0.00000000E+00
  0.00000000E+00  0.00000000E+00  0.00000000E+00
  0.00000000E+00  0.00000000E+00  0.00000000E+00
  0.00000000E+00  0.00000000E+00  0.00000000E+00
  0.00000000E+00  0.00000000E+00  0.00000000E+00
  0.00000000E+00  0.00000000E+00  0.00000000E+00
  0.00000000E+00  0.00000000E+00  0.00000000E+00
  0.00000000E+00  0.00000000E+00  0.00000000E+00
  0.00000000E+00  0.00000000E+00  0.00000000E+00
  0.00000000E+00  0.00000000E+00  0.00000000E+00
  0.00000000E+00  0.00000000E+00  0.00000000E+00
  0.00000000E+00  0.00000000E+00  0.00000000E+00
