Sr22 Ga14                               
   1.00000000000000     
     0.0000000000000000    8.5832471889887287    8.5832471889887287
     8.5832471889887287    0.0000000000000000    8.5832471889887287
     8.5832471889887287    8.5832471889887287    0.0000000000000000
   Sr   Ga
    22    14
Direct
  0.6635690707756012  0.3364309292243988  0.0000000000000000
  0.6635690707756012  0.0000000000000000  0.0000000000000000
  0.1072747594275683  0.6309084135241463  0.6309084135241463
  0.0000000000000000  0.6635690707756012  0.3364309292243988
  0.0000000000000000  0.3364309292243988  0.6635690707756012
  0.3690915864758537  0.3690915864758537  0.3690915864758537
  0.0000000000000000  0.6635690707756012  0.0000000000000000
  0.6309084135241463  0.6309084135241463  0.1072747594275683
  0.0000000000000000  0.0000000000000000  0.6635690707756012
  0.6309084135241463  0.1072747594275683  0.6309084135241463
  0.0000000000000000  0.0000000000000000  0.3364309292243988
  0.3364309292243988  0.0000000000000000  0.0000000000000000
  0.0000000000000000  0.3364309292243988  0.0000000000000000
  0.6635690707756012  0.0000000000000000  0.3364309292243988
  0.5000000000000000  0.5000000000000000  0.5000000000000000
  0.3690915864758537  0.8927252405724317  0.3690915864758537
  0.3690915864758537  0.3690915864758537  0.8927252405724317
  0.3364309292243988  0.6635690707756012  0.0000000000000000
  0.3364309292243988  0.0000000000000000  0.6635690707756012
  0.6309084135241463  0.6309084135241463  0.6309084135241463
  0.0000000000000000  0.0000000000000000  0.0000000000000000
  0.8927252405724317  0.3690915864758537  0.3690915864758537
  0.2790505731818627  0.2790505731818627  0.7209494268181373
  0.7209494268181373  0.7209494268181373  0.2790505731818627
  0.8065074903752318  0.5804775288743116  0.8065074903752318
  0.7209494268181373  0.2790505731818627  0.2790505731818627
  0.4195224711256813  0.1934925096247682  0.1934925096247682
  0.2790505731818627  0.7209494268181373  0.7209494268181373
  0.1934925096247682  0.1934925096247682  0.1934925096247682
  0.1934925096247682  0.4195224711256813  0.1934925096247682
  0.5804775288743116  0.8065074903752318  0.8065074903752318
  0.8065074903752318  0.8065074903752318  0.8065074903752318
  0.7209494268181373  0.2790505731818627  0.7209494268181373
  0.1934925096247682  0.1934925096247682  0.4195224711256813
  0.2790505731818627  0.7209494268181373  0.2790505731818627
  0.8065074903752318  0.8065074903752318  0.5804775288743116
 
  0.00000000E+00  0.00000000E+00  0.00000000E+00
  0.00000000E+00  0.00000000E+00  0.00000000E+00
  0.00000000E+00  0.00000000E+00  0.00000000E+00
  0.00000000E+00  0.00000000E+00  0.00000000E+00
  0.00000000E+00  0.00000000E+00  0.00000000E+00
  0.00000000E+00  0.00000000E+00  0.00000000E+00
  0.00000000E+00  0.00000000E+00  0.00000000E+00
  0.00000000E+00  0.00000000E+00  0.00000000E+00
  0.00000000E+00  0.00000000E+00  0.00000000E+00
  0.00000000E+00  0.00000000E+00  0.00000000E+00
  0.00000000E+00  0.00000000E+00  0.00000000E+00
  0.00000000E+00  0.00000000E+00  0.00000000E+00
  0.00000000E+00  0.00000000E+00  0.00000000E+00
  0.00000000E+00  0.00000000E+00  0.00000000E+00
  0.00000000E+00  0.00000000E+00  0.00000000E+00
  0.00000000E+00  0.00000000E+00  0.00000000E+00
  0.00000000E+00  0.00000000E+00  0.00000000E+00
  0.00000000E+00  0.00000000E+00  0.00000000E+00
  0.00000000E+00  0.00000000E+00  0.00000000E+00
  0.00000000E+00  0.00000000E+00  0.00000000E+00
  0.00000000E+00  0.00000000E+00  0.00000000E+00
  0.00000000E+00  0.00000000E+00  0.00000000E+00
  0.00000000E+00  0.00000000E+00  0.00000000E+00
  0.00000000E+00  0.00000000E+00  0.00000000E+00
  0.00000000E+00  0.00000000E+00  0.00000000E+00
  0.00000000E+00  0.00000000E+00  0.00000000E+00
  0.00000000E+00  0.00000000E+00  0.00000000E+00
  0.00000000E+00  0.00000000E+00  0.00000000E+00
  0.00000000E+00  0.00000000E+00  0.00000000E+00
  0.00000000E+00  0.00000000E+00  0.00000000E+00
  0.00000000E+00  0.00000000E+00  0.00000000E+00
  0.00000000E+00  0.00000000E+00  0.00000000E+00
  0.00000000E+00  0.00000000E+00  0.00000000E+00
  0.00000000E+00  0.00000000E+00  0.00000000E+00
  0.00000000E+00  0.00000000E+00  0.00000000E+00
  0.00000000E+00  0.00000000E+00  0.00000000E+00
