Be4 Al4 F20                             
   1.0000000000000000     
     5.0076904753763634   -0.0000000000000000    0.0000000000000003
    -0.0000000000000003    5.1423299162721170    0.0000000000000003
    -0.0000000000000001   -0.0000000000000001   10.7220710392549403
   Be   Al   F 
     4     4    20
Direct
  0.8655329885781313  0.6706897619267167  0.6254253180043250
  0.3655329885781313  0.8293102380732833  0.3745746819956750
  0.1344670114218687  0.1706897619267167  0.8745746819956750
  0.6344670114218687  0.3293102380732833  0.1254253180043250
  0.2139553467230186  0.1547020979120717  0.5969796143310191
  0.7139553467230186  0.3452979020879283  0.4030203856689809
  0.7860446532769814  0.6547020979120717  0.9030203856689809
  0.2860446532769814  0.8452979020879283  0.0969796143310191
  0.8128481249630397  0.6425222319486039  0.4807744177277016
  0.3128481249630397  0.8574777680513961  0.5192255822722984
  0.1871518750369603  0.1425222319485897  0.0192255822722984
  0.6871518750369603  0.3574777680514103  0.9807744177277016
  0.4198046751495923  0.5317720076908188  0.3625811247832260
  0.9198046751495852  0.9682279923091812  0.6374188752167669
  0.5801953248504148  0.0317720076908259  0.1374188752167669
  0.0801953248504148  0.4682279923091741  0.8625811247832260
  0.0996702667676956  0.4709132152969389  0.6402870111068779
  0.5996702667676956  0.0290867847030611  0.3597129888931221
  0.9003297332323044  0.9709132152969389  0.8597129888931221
  0.4003297332323044  0.5290867847030611  0.1402870111068779
  0.3244891333231195  0.1074871085982778  0.7587566658953122
  0.8244891333231124  0.3925128914017222  0.2412433341046878
  0.6755108666768876  0.6074871085982778  0.7412433341046878
  0.1755108666768805  0.8925128914017222  0.2587566658953122
  0.5358449597755168  0.2807528146186442  0.5533419262837711
  0.0358449597755168  0.2192471853813558  0.4466580737162360
  0.4641550402244832  0.7807528146186442  0.9466580737162289
  0.9641550402244832  0.7192471853813558  0.0533419262837711

  0.00000000E+00  0.00000000E+00  0.00000000E+00
  0.00000000E+00  0.00000000E+00  0.00000000E+00
  0.00000000E+00  0.00000000E+00  0.00000000E+00
  0.00000000E+00  0.00000000E+00  0.00000000E+00
  0.00000000E+00  0.00000000E+00  0.00000000E+00
  0.00000000E+00  0.00000000E+00  0.00000000E+00
  0.00000000E+00  0.00000000E+00  0.00000000E+00
  0.00000000E+00  0.00000000E+00  0.00000000E+00
  0.00000000E+00  0.00000000E+00  0.00000000E+00
  0.00000000E+00  0.00000000E+00  0.00000000E+00
  0.00000000E+00  0.00000000E+00  0.00000000E+00
  0.00000000E+00  0.00000000E+00  0.00000000E+00
  0.00000000E+00  0.00000000E+00  0.00000000E+00
  0.00000000E+00  0.00000000E+00  0.00000000E+00
  0.00000000E+00  0.00000000E+00  0.00000000E+00
  0.00000000E+00  0.00000000E+00  0.00000000E+00
  0.00000000E+00  0.00000000E+00  0.00000000E+00
  0.00000000E+00  0.00000000E+00  0.00000000E+00
  0.00000000E+00  0.00000000E+00  0.00000000E+00
  0.00000000E+00  0.00000000E+00  0.00000000E+00
  0.00000000E+00  0.00000000E+00  0.00000000E+00
  0.00000000E+00  0.00000000E+00  0.00000000E+00
  0.00000000E+00  0.00000000E+00  0.00000000E+00
  0.00000000E+00  0.00000000E+00  0.00000000E+00
  0.00000000E+00  0.00000000E+00  0.00000000E+00
  0.00000000E+00  0.00000000E+00  0.00000000E+00
  0.00000000E+00  0.00000000E+00  0.00000000E+00
  0.00000000E+00  0.00000000E+00  0.00000000E+00
