Be1 B2 I10                              
   1.00000000000000     
     5.7756689851775063    7.4497555969470399   -1.6918491619722140
    -5.7756689851775063    7.4497555969470399   -1.6918491619722140
     0.0000000000000000    3.1134233374027214    6.6072474186853674
   Be   B    I 
     1     2    10
Direct
  0.3936624080594342  0.6063375919405658  0.0000000000000000
  0.1377020792963961  0.9415485107715611  0.7335736972094224
  0.0584514892284389  0.8622979207036039  0.2664263027905776
  0.3121967748774708  0.0520159343021547  0.6711763116616183
  0.9479840656978453  0.6878032251225292  0.3288236883383817
  0.6243469421713925  0.6498566408278066  0.8974362571464383
  0.3501433591721934  0.3756530578286075  0.1025637428535617
  0.9719850786596780  0.0280149213403220  0.0000000000000000
  0.9765142121567223  0.0234857878432777  0.5000000000000000
  0.5815738011790543  0.3095765193924009  0.6781051223888568
  0.6904234806075991  0.4184261988209457  0.3218948776111432
  0.1967375990041660  0.6977222901103772  0.7779920146667578
  0.3022777098896157  0.8032624009958340  0.2220079853332422
 
  0.00000000E+00  0.00000000E+00  0.00000000E+00
  0.00000000E+00  0.00000000E+00  0.00000000E+00
  0.00000000E+00  0.00000000E+00  0.00000000E+00
  0.00000000E+00  0.00000000E+00  0.00000000E+00
  0.00000000E+00  0.00000000E+00  0.00000000E+00
  0.00000000E+00  0.00000000E+00  0.00000000E+00
  0.00000000E+00  0.00000000E+00  0.00000000E+00
  0.00000000E+00  0.00000000E+00  0.00000000E+00
  0.00000000E+00  0.00000000E+00  0.00000000E+00
  0.00000000E+00  0.00000000E+00  0.00000000E+00
  0.00000000E+00  0.00000000E+00  0.00000000E+00
  0.00000000E+00  0.00000000E+00  0.00000000E+00
  0.00000000E+00  0.00000000E+00  0.00000000E+00
