Be4 In4 Cl20                            
   1.0000000000000000     
     0.0000000000000000    9.9074961653373048   -0.9935316658587483
    10.2567833206875925    0.0000000000000000    0.0000000000000000
     0.0000000000000000    2.0776264582972730   -9.7634261271736502
   Be   In   Cl
     4     4    20
Direct
  0.1426314171180323  0.3998065259955794  0.2999820481993751
  0.8573685828819748  0.8998065259955794  0.7000179518006249
  0.6482053729047195  0.0922391230524156  0.2381135282862843
  0.3517946270952805  0.5922391230524156  0.7618864717137157
  0.7252470706119993  0.8176415499091974  0.1097279237711817
  0.2747529293880007  0.3176415499091974  0.8902720762288183
  0.9757651902485023  0.6725642083532222  0.3783685046268772
  0.0242348097514906  0.1725642083532080  0.6216314953731228
  0.0465079924583094  0.9539738376700271  0.7283804859277865
  0.1682773510728737  0.5292235884013152  0.4417718934040522
  0.8317226489271263  0.0292235884013223  0.5582281065959336
  0.7659799134956344  0.6085362884085370  0.0147940774565711
  0.1567392292030476  0.5292392335021745  0.8597992681268423
  0.5102489070281138  0.9496121983380732  0.2406129960435592
  0.8713262747151731  0.3229955677416996  0.7680647288113747
  0.7369625379102942  0.7422189903855667  0.3543614739198873
  0.8432607707969453  0.0292392335021745  0.1402007318731577
  0.8691078009119977  0.7071042980716413  0.6373771607446130
  0.4897510929718862  0.4496121983380732  0.7593870039564408
  0.9534920075416835  0.4539738376700342  0.2716195140722135
  0.6929264544733442  0.9162729729014671  0.8795320699448510
  0.6033199008634185  0.2561705972690760  0.3131814492810250
  0.1308921990880094  0.2071042980716484  0.3626228392553941
  0.1286737252848198  0.8229955677416996  0.2319352711886253
  0.2340200865043585  0.1085362884085370  0.9852059225434147
  0.3966800991365744  0.7561705972690760  0.6868185507189750
  0.2630374620897058  0.2422189903855667  0.6456385260801198
  0.3070735455266487  0.4162729729014671  0.1204679300551490

  0.00000000E+00  0.00000000E+00  0.00000000E+00
  0.00000000E+00  0.00000000E+00  0.00000000E+00
  0.00000000E+00  0.00000000E+00  0.00000000E+00
  0.00000000E+00  0.00000000E+00  0.00000000E+00
  0.00000000E+00  0.00000000E+00  0.00000000E+00
  0.00000000E+00  0.00000000E+00  0.00000000E+00
  0.00000000E+00  0.00000000E+00  0.00000000E+00
  0.00000000E+00  0.00000000E+00  0.00000000E+00
  0.00000000E+00  0.00000000E+00  0.00000000E+00
  0.00000000E+00  0.00000000E+00  0.00000000E+00
  0.00000000E+00  0.00000000E+00  0.00000000E+00
  0.00000000E+00  0.00000000E+00  0.00000000E+00
  0.00000000E+00  0.00000000E+00  0.00000000E+00
  0.00000000E+00  0.00000000E+00  0.00000000E+00
  0.00000000E+00  0.00000000E+00  0.00000000E+00
  0.00000000E+00  0.00000000E+00  0.00000000E+00
  0.00000000E+00  0.00000000E+00  0.00000000E+00
  0.00000000E+00  0.00000000E+00  0.00000000E+00
  0.00000000E+00  0.00000000E+00  0.00000000E+00
  0.00000000E+00  0.00000000E+00  0.00000000E+00
  0.00000000E+00  0.00000000E+00  0.00000000E+00
  0.00000000E+00  0.00000000E+00  0.00000000E+00
  0.00000000E+00  0.00000000E+00  0.00000000E+00
  0.00000000E+00  0.00000000E+00  0.00000000E+00
  0.00000000E+00  0.00000000E+00  0.00000000E+00
  0.00000000E+00  0.00000000E+00  0.00000000E+00
  0.00000000E+00  0.00000000E+00  0.00000000E+00
  0.00000000E+00  0.00000000E+00  0.00000000E+00
