Sr2 Al4 I16                             
   1.00000000000000     
    14.5111375255561477    0.0000000000000000    0.2926608409090131
     0.0000000000000000    8.1302222103522279    0.0000000000000000
    -1.6171840832988160    0.0000000000000000    9.2505296169999127
   Al   Sr   I 
     4     2    16
Direct
  0.5657524380425301  0.2674025221000420  0.3284330437356147
  0.0657503007114144  0.7325348015857145  0.3284483167918921
  0.9342475619574699  0.2674025221000420  0.6715669562643853
  0.4342496992885856  0.7325348015857145  0.6715516832081079
  0.7500000000000000  0.8689243337066870  0.5000000000000000
  0.2500000000000000  0.1310336233039564  0.5000000000000000
  0.6304745933649301  0.0369359271132126  0.1826809869422945
  0.1304902392229934  0.9630783769549112  0.1826640166821818
  0.8873475445941068  0.7097630581532002  0.2565571931739328
  0.3874062773220857  0.2901746925031858  0.2565494708156209
  0.6297566320665311  0.5492614251224737  0.2683576488766093
  0.1297703358945412  0.4505995044869096  0.2683460652296787
  0.8860498493284723  0.1896913177623887  0.4071528003354956
  0.3860429262901590  0.8102793957126480  0.4070696820967399
  0.6139501506715277  0.1896913177623887  0.5928471996644973
  0.1139570737098410  0.8102793957126480  0.5929303179032601
  0.8702433679334689  0.5492614251224737  0.7316423511233907
  0.3702296641054517  0.4505995044869096  0.7316539347703142
  0.6126524554058932  0.7097630581532002  0.7434428068260672
  0.1125937226779143  0.2901746925031858  0.7434505291843791
  0.8695254066350699  0.0369359271132126  0.8173190130577055
  0.3695097607770066  0.9630783769549112  0.8173359833178182
 
  0.00000000E+00  0.00000000E+00  0.00000000E+00
  0.00000000E+00  0.00000000E+00  0.00000000E+00
  0.00000000E+00  0.00000000E+00  0.00000000E+00
  0.00000000E+00  0.00000000E+00  0.00000000E+00
  0.00000000E+00  0.00000000E+00  0.00000000E+00
  0.00000000E+00  0.00000000E+00  0.00000000E+00
  0.00000000E+00  0.00000000E+00  0.00000000E+00
  0.00000000E+00  0.00000000E+00  0.00000000E+00
  0.00000000E+00  0.00000000E+00  0.00000000E+00
  0.00000000E+00  0.00000000E+00  0.00000000E+00
  0.00000000E+00  0.00000000E+00  0.00000000E+00
  0.00000000E+00  0.00000000E+00  0.00000000E+00
  0.00000000E+00  0.00000000E+00  0.00000000E+00
  0.00000000E+00  0.00000000E+00  0.00000000E+00
  0.00000000E+00  0.00000000E+00  0.00000000E+00
  0.00000000E+00  0.00000000E+00  0.00000000E+00
  0.00000000E+00  0.00000000E+00  0.00000000E+00
  0.00000000E+00  0.00000000E+00  0.00000000E+00
  0.00000000E+00  0.00000000E+00  0.00000000E+00
  0.00000000E+00  0.00000000E+00  0.00000000E+00
  0.00000000E+00  0.00000000E+00  0.00000000E+00
  0.00000000E+00  0.00000000E+00  0.00000000E+00
