Ba4 Tl10 F2                             
   1.0000000000000000     
     9.5338582527564473    0.5458535319943724    0.9830748193937185
    -3.8004860378259178    7.3975463850451320   -2.7740813995427742
    -3.8754840763028300   -4.6871074402072024    7.8977787424067687
   F    Ba   Tl
     2     4    10
Direct
  0.9440976058020212  0.6005044668630575  0.4757864611081217
  0.4309129134384548  0.0870002984500786  0.9616614108822148
  0.7714500925753711  0.5051955995844750  0.1340766409406413
  0.6035728944810401  0.1823104241091187  0.3033787142698969
  0.2838985136624714  0.6755957598555042  0.6219561175313757
  0.0911033238909766  0.0118954558453268  0.8155243808666341
  0.8280201057317598  0.0705067689618346  0.0804276882353605
  0.4339550462725654  0.5899188249610319  0.9651078407308802
  0.2014862481421034  0.6082903338938195  0.1998667471146405
  0.5469342701279913  0.6168631519089800  0.3571069011297183
  0.9410465482882273  0.0975520219691006  0.4724306674845451
  0.0558122602614404  0.5853595106332321  0.8535481462772694
  0.1735490734737155  0.0792087579973639  0.2376028406531745
  0.6668864287872296  0.5737150172993566  0.7321821314275354
  0.7080845616816589  0.1137424733457522  0.7052285402434393
  0.3191901133829944  0.1021411343219754  0.5839147711045527

  0.00000000E+00  0.00000000E+00  0.00000000E+00
  0.00000000E+00  0.00000000E+00  0.00000000E+00
  0.00000000E+00  0.00000000E+00  0.00000000E+00
  0.00000000E+00  0.00000000E+00  0.00000000E+00
  0.00000000E+00  0.00000000E+00  0.00000000E+00
  0.00000000E+00  0.00000000E+00  0.00000000E+00
  0.00000000E+00  0.00000000E+00  0.00000000E+00
  0.00000000E+00  0.00000000E+00  0.00000000E+00
  0.00000000E+00  0.00000000E+00  0.00000000E+00
  0.00000000E+00  0.00000000E+00  0.00000000E+00
  0.00000000E+00  0.00000000E+00  0.00000000E+00
  0.00000000E+00  0.00000000E+00  0.00000000E+00
  0.00000000E+00  0.00000000E+00  0.00000000E+00
  0.00000000E+00  0.00000000E+00  0.00000000E+00
  0.00000000E+00  0.00000000E+00  0.00000000E+00
  0.00000000E+00  0.00000000E+00  0.00000000E+00
