Mg3 B1 F1                               
   1.00000000000000     
     4.1722823662500987    0.0000000000000000    0.0000000000000000
     0.0000000000000000    4.1722823662500987    0.0000000000000000
     0.0000000000000000    0.0000000000000000    4.1722823662500987
   Mg   F    B 
     3     1     1
Direct
  0.5000000000000000  0.5000000000000000  0.0000000000000000
  0.5000000000000000  0.0000000000000000  0.5000000000000000
  0.0000000000000000  0.5000000000000000  0.5000000000000000
  0.5000000000000000  0.5000000000000000  0.5000000000000000
  0.0000000000000000  0.0000000000000000  0.0000000000000000
 
  0.00000000E+00  0.00000000E+00  0.00000000E+00
  0.00000000E+00  0.00000000E+00  0.00000000E+00
  0.00000000E+00  0.00000000E+00  0.00000000E+00
  0.00000000E+00  0.00000000E+00  0.00000000E+00
  0.00000000E+00  0.00000000E+00  0.00000000E+00
