Ba2In                                   
   1.0000000000000000     
     8.3835382424807730    0.0000000000000000    0.0032962434542696
     0.0000000000000000    5.9417764328364333    0.0000000000000000
     0.0043639331009987    0.0000000000000000   11.0611554821952236
   Ba   In
     8     4
Direct
  0.8387558663111960  0.7500000000000000  0.0741264306071869
  0.5241830376715981  0.2500000000000000  0.1867595635077279
  0.0241824540163691  0.2500000000000000  0.3132004895538500
  0.3387901247373506  0.7500000000000000  0.4258240621576732
  0.6613047206978564  0.2500000000000000  0.5741439923158609
  0.9759017135835961  0.7500000000000000  0.6868257053572648
  0.4759058858081104  0.7500000000000000  0.8131721824127922
  0.1612962717860853  0.2500000000000000  0.9258736137389079
  0.2638948581489586  0.7500000000000000  0.1074861150967052
  0.7639173451690979  0.7500000000000000  0.3925030347237666
  0.2362005801343514  0.2500000000000000  0.6074907868406854
  0.7361671419354110  0.2500000000000000  0.8924940236875756

  0.00000000E+00  0.00000000E+00  0.00000000E+00
  0.00000000E+00  0.00000000E+00  0.00000000E+00
  0.00000000E+00  0.00000000E+00  0.00000000E+00
  0.00000000E+00  0.00000000E+00  0.00000000E+00
  0.00000000E+00  0.00000000E+00  0.00000000E+00
  0.00000000E+00  0.00000000E+00  0.00000000E+00
  0.00000000E+00  0.00000000E+00  0.00000000E+00
  0.00000000E+00  0.00000000E+00  0.00000000E+00
  0.00000000E+00  0.00000000E+00  0.00000000E+00
  0.00000000E+00  0.00000000E+00  0.00000000E+00
  0.00000000E+00  0.00000000E+00  0.00000000E+00
  0.00000000E+00  0.00000000E+00  0.00000000E+00
