Mg4 In2 Br10                            
   1.0000000000000000     
    11.5802267391327582    0.0282517101929950   -0.0913810454496875
    -0.0030342669908397    7.2134277797343120   -0.7867955936258799
     5.8306814131524627    3.0543234889924378    6.8330260761625015
   Br   In   Mg
    10     2     4
Direct
  0.1808498153434783  0.8657935329086826  0.8046596902715990
  0.4860375952411928  0.6352651415387456  0.1979044559414760
  0.5363023419547730  0.1201161988536583  0.2483950510777930
  0.0845741467185732  0.1566385020299350  0.2450973129048037
  0.8257690316567263  0.4519399140899196  0.2031292525205757
  0.1470160481271776  0.6688114709999695  0.2174675854051813
  0.8274602393313373  0.3426287407736694  0.7549815535752558
  0.2851067541695400  0.3804591476159942  0.7518070687006144
  0.8635538004595347  0.8295260761169132  0.7827404434727683
  0.5285650599479439  0.0443586650300816  0.7964622177756979
  0.2097682812834094  0.2527508698349692  0.4987914215625935
  0.8216526493615746  0.7525774541412034  0.4985381158528668
  0.2502861678718986  0.0273299003245455  0.9617422695841000
  0.7119385141513206  0.4718924555227133  0.0381794221994696
  0.1057226065132966  0.5079169516153712  0.0302797797208143
  0.6356969478682402  0.9922949786035815  0.9698243594343978

  0.00000000E+00  0.00000000E+00  0.00000000E+00
  0.00000000E+00  0.00000000E+00  0.00000000E+00
  0.00000000E+00  0.00000000E+00  0.00000000E+00
  0.00000000E+00  0.00000000E+00  0.00000000E+00
  0.00000000E+00  0.00000000E+00  0.00000000E+00
  0.00000000E+00  0.00000000E+00  0.00000000E+00
  0.00000000E+00  0.00000000E+00  0.00000000E+00
  0.00000000E+00  0.00000000E+00  0.00000000E+00
  0.00000000E+00  0.00000000E+00  0.00000000E+00
  0.00000000E+00  0.00000000E+00  0.00000000E+00
  0.00000000E+00  0.00000000E+00  0.00000000E+00
  0.00000000E+00  0.00000000E+00  0.00000000E+00
  0.00000000E+00  0.00000000E+00  0.00000000E+00
  0.00000000E+00  0.00000000E+00  0.00000000E+00
  0.00000000E+00  0.00000000E+00  0.00000000E+00
  0.00000000E+00  0.00000000E+00  0.00000000E+00
