Sr4 Al4 Br20                            
   1.0000000000000000     
    13.2664485409177768    0.0000000000000000    0.0000000000000000
     0.0000000000000000   11.3425845881465186    2.5313838987619719
     0.0000000000000000    9.7747658068104020   11.3152158854955029
   Sr   Al   Br
     4     4    20
Direct
  0.0852205102568249  0.5432384868907221  0.3507139985251939
  0.5852205102568320  0.4567615131092779  0.1492860014748132
  0.9147794897431680  0.4567615131092779  0.6492860014748132
  0.4147794897431680  0.5432384868907221  0.8507139985251868
  0.7152929265735750  0.8269915139869539  0.5208418288474306
  0.2152929265735750  0.1730084860130532  0.9791581711525694
  0.2847070734264250  0.1730084860130532  0.4791581711525694
  0.7847070734264250  0.8269915139869539  0.0208418288474306
  0.7491012702707280  0.1262523010554588  0.3984229692581991
  0.2491012702707280  0.8737476989445341  0.1015770307417938
  0.2508987297292720  0.8737476989445341  0.6015770307417938
  0.7508987297292720  0.1262523010554588  0.8984229692582062
  0.7681519114901008  0.8032146748330575  0.3873792953490991
  0.2681519114901079  0.1967853251669354  0.1126207046509080
  0.2318480885098992  0.1967853251669354  0.6126207046509080
  0.7318480885098992  0.8032146748330575  0.8873792953490920
  0.3090488756891361  0.4015311192249342  0.7578094819070742
  0.8090488756891361  0.5984688807750587  0.7421905180929258
  0.6909511243108639  0.5984688807750587  0.2421905180929329
  0.1909511243108639  0.4015311192249342  0.2578094819070671
  0.5417505899562514  0.7662881111337967  0.5611824065519997
  0.0417505899562585  0.2337118888662104  0.9388175934480003
  0.4582494100437415  0.2337118888662104  0.4388175934480003
  0.9582494100437486  0.7662881111337967  0.0611824065519997
  0.4152777778826149  0.6987577211957117  0.9377800577330220
  0.9152777778826149  0.3012422788042883  0.5622199422669780
  0.5847222221173851  0.3012422788042883  0.0622199422669709
  0.0847222221173851  0.6987577211957117  0.4377800577330291

  0.00000000E+00  0.00000000E+00  0.00000000E+00
  0.00000000E+00  0.00000000E+00  0.00000000E+00
  0.00000000E+00  0.00000000E+00  0.00000000E+00
  0.00000000E+00  0.00000000E+00  0.00000000E+00
  0.00000000E+00  0.00000000E+00  0.00000000E+00
  0.00000000E+00  0.00000000E+00  0.00000000E+00
  0.00000000E+00  0.00000000E+00  0.00000000E+00
  0.00000000E+00  0.00000000E+00  0.00000000E+00
  0.00000000E+00  0.00000000E+00  0.00000000E+00
  0.00000000E+00  0.00000000E+00  0.00000000E+00
  0.00000000E+00  0.00000000E+00  0.00000000E+00
  0.00000000E+00  0.00000000E+00  0.00000000E+00
  0.00000000E+00  0.00000000E+00  0.00000000E+00
  0.00000000E+00  0.00000000E+00  0.00000000E+00
  0.00000000E+00  0.00000000E+00  0.00000000E+00
  0.00000000E+00  0.00000000E+00  0.00000000E+00
  0.00000000E+00  0.00000000E+00  0.00000000E+00
  0.00000000E+00  0.00000000E+00  0.00000000E+00
  0.00000000E+00  0.00000000E+00  0.00000000E+00
  0.00000000E+00  0.00000000E+00  0.00000000E+00
  0.00000000E+00  0.00000000E+00  0.00000000E+00
  0.00000000E+00  0.00000000E+00  0.00000000E+00
  0.00000000E+00  0.00000000E+00  0.00000000E+00
  0.00000000E+00  0.00000000E+00  0.00000000E+00
  0.00000000E+00  0.00000000E+00  0.00000000E+00
  0.00000000E+00  0.00000000E+00  0.00000000E+00
  0.00000000E+00  0.00000000E+00  0.00000000E+00
  0.00000000E+00  0.00000000E+00  0.00000000E+00
