Mg1 Ga2 F10                             
   1.00000000000000     
     2.9772721096383812    4.0766200496661718    0.3098327488587573
    -2.9772721096383807    4.0766200496661718    0.3098327488587573
     0.0000000000000002    3.3588794118397525    6.4965075349220465
   Mg   Ga   F 
     1     2    10
Direct
  0.5434878549624926  0.4565121450375145  0.0000000000000000
  0.0343232611750821  0.0160606145084898  0.7349276568569110
  0.9839393854915102  0.9656767388249179  0.2650723431430819
  0.2359922971479378  0.3421521419237408  0.5740259733968784
  0.6578478580762592  0.7640077028520622  0.4259740266031216
  0.8407027506650593  0.6896912396711130  0.9125256539588520
  0.3103087603288870  0.1592972493349478  0.0874743460411480
  0.8912155426517572  0.1087844573482428  0.0000000000000000
  0.0817055563686537  0.9182944436313463  0.5000000000000000
  0.6939813485899506  0.3115208485439283  0.7098690914292618
  0.6884791514560717  0.3060186514100494  0.2901309085707382
  0.3801489914152683  0.7981337583289445  0.7922821071619239
  0.2018662416710555  0.6198510085847317  0.2077178928380761
 
  0.00000000E+00  0.00000000E+00  0.00000000E+00
  0.00000000E+00  0.00000000E+00  0.00000000E+00
  0.00000000E+00  0.00000000E+00  0.00000000E+00
  0.00000000E+00  0.00000000E+00  0.00000000E+00
  0.00000000E+00  0.00000000E+00  0.00000000E+00
  0.00000000E+00  0.00000000E+00  0.00000000E+00
  0.00000000E+00  0.00000000E+00  0.00000000E+00
  0.00000000E+00  0.00000000E+00  0.00000000E+00
  0.00000000E+00  0.00000000E+00  0.00000000E+00
  0.00000000E+00  0.00000000E+00  0.00000000E+00
  0.00000000E+00  0.00000000E+00  0.00000000E+00
  0.00000000E+00  0.00000000E+00  0.00000000E+00
  0.00000000E+00  0.00000000E+00  0.00000000E+00
