Mg2 B2 Cl10                             
   1.00000000000000     
     6.8402573280079002   -0.5059559017269908    3.6248378189604065
     1.0053310926652586    6.7848670357555614    3.6248383279258745
     1.4211519472920286    1.1373670555613031   11.3618682190679259
   Mg   B    Cl
     2     2    10
Direct
  0.3963753319225987  0.6036246684338451  0.2499999992418722
  0.6036246680774013  0.3963753315661549  0.7500000007581278
  0.0000000000000000  0.0000000000000000  0.5000000000000000
  0.0000000000000000  0.0000000000000000  0.0000000000000000
  0.6364667283015493  0.6803643764997673  0.7490753663720895
  0.3196356237733653  0.3635322707720192  0.7509246340066369
  0.3635322716984533  0.3196356235002256  0.2509256336279222
  0.6803643762266347  0.6364667292279833  0.2490753659933631
  0.8487352120698333  0.1512647862946253  0.7500000007552003
  0.1512647879301667  0.8487352137053747  0.2499999992447997
  0.8297368212069571  0.1434475206673156  0.0733098805353904
  0.8565524773863089  0.1702631787155084  0.4266901219276846
  0.1702631787930429  0.8565524793326773  0.9266901194646096
  0.1434475226136911  0.8297368212844916  0.5733098780723154
 
  0.00000000E+00  0.00000000E+00  0.00000000E+00
  0.00000000E+00  0.00000000E+00  0.00000000E+00
  0.00000000E+00  0.00000000E+00  0.00000000E+00
  0.00000000E+00  0.00000000E+00  0.00000000E+00
  0.00000000E+00  0.00000000E+00  0.00000000E+00
  0.00000000E+00  0.00000000E+00  0.00000000E+00
  0.00000000E+00  0.00000000E+00  0.00000000E+00
  0.00000000E+00  0.00000000E+00  0.00000000E+00
  0.00000000E+00  0.00000000E+00  0.00000000E+00
  0.00000000E+00  0.00000000E+00  0.00000000E+00
  0.00000000E+00  0.00000000E+00  0.00000000E+00
  0.00000000E+00  0.00000000E+00  0.00000000E+00
  0.00000000E+00  0.00000000E+00  0.00000000E+00
  0.00000000E+00  0.00000000E+00  0.00000000E+00
