Ca2 B2 Cl10                             
   1.00000000000000     
     8.6617216031122837    0.2904652000461306    2.1101502126218854
     2.1815534243491923    8.3875251616535511    2.1101500824459340
     1.1963101989603644    0.9574223728953049    7.7150630361174706
   Ca   B    Cl
     2     2    10
Direct
  0.4416216045638706  0.5583783948479351  0.2499999998400071
  0.5583783954361294  0.4416216051520649  0.7500000001599929
  0.0000000000000000  0.0000000000000000  0.5000000000000000
  0.0000000000000000  0.0000000000000000  0.0000000000000000
  0.9265699406434749  0.8348609148628015  0.6597195840392445
  0.1651390858474926  0.0734290566081768  0.8402804149891310
  0.0734290593565277  0.1651390851371985  0.3402814159607601
  0.8348609141525074  0.9265699433918257  0.1597195850108690
  0.8198283571684541  0.1801716437462986  0.7500000004021317
  0.1801716428315459  0.8198283562537014  0.2499999995978683
  0.6951822169767823  0.5521868248295831  0.9291213803929068
  0.4478131753035939  0.3048177844435429  0.5708786204363463
  0.3048177830232177  0.4478131751704169  0.0708786196070932
  0.5521868246964061  0.6951822155564571  0.4291213795636537
 
  0.00000000E+00  0.00000000E+00  0.00000000E+00
  0.00000000E+00  0.00000000E+00  0.00000000E+00
  0.00000000E+00  0.00000000E+00  0.00000000E+00
  0.00000000E+00  0.00000000E+00  0.00000000E+00
  0.00000000E+00  0.00000000E+00  0.00000000E+00
  0.00000000E+00  0.00000000E+00  0.00000000E+00
  0.00000000E+00  0.00000000E+00  0.00000000E+00
  0.00000000E+00  0.00000000E+00  0.00000000E+00
  0.00000000E+00  0.00000000E+00  0.00000000E+00
  0.00000000E+00  0.00000000E+00  0.00000000E+00
  0.00000000E+00  0.00000000E+00  0.00000000E+00
  0.00000000E+00  0.00000000E+00  0.00000000E+00
  0.00000000E+00  0.00000000E+00  0.00000000E+00
  0.00000000E+00  0.00000000E+00  0.00000000E+00
