Be24 Tl16                               
   1.0000000000000000     
    -3.9096166498875085    3.5546875591579492   12.6798674039238026
     2.5316780971686805   -3.5292655754626292   12.2512175214635040
     4.8418967922596430    4.5564362058018508  -12.7138817489465463
   Be   Tl
    24    16
Direct
  0.6927870964145839  0.3086092754673047  0.2592826016633865
  0.0609476208082924  0.3629735984742481  0.0613330496007691
  0.8110550161751533  0.5776390160160005  0.0175862247896319
  0.9789889488617689  0.2366485172233013  0.4567336812983314
  0.0864954418919481  0.7439158187121109  0.9835986727491743
  0.0408941052506364  0.1210276001748696  0.9589031761042364
  0.3852910087417953  0.3685213223284336  0.0502030987745599
  0.6525926075401500  0.5175826325052881  0.9655736716209162
  0.0691542514146306  0.9365177906753104  0.2459127555907088
  0.7062527764161288  0.1742012604928078  0.5242191226178505
  0.1251621204522237  0.4827340748230924  0.7119467116302332
  0.8753921427536255  0.5395345415666100  0.6307828268138422
  0.1194048001603107  0.5074228931663214  0.5632174236019551
  0.8949374047716958  0.4145209817902682  0.4005667476133254
  0.2320392767334383  0.6551385916920225  0.1586647865078064
  0.9941669323103781  0.0714824123525304  0.7428043669094748
  0.5221694522755627  0.0834743461332152  0.9670678670256052
  0.5746326925892831  0.4456276158832537  0.7114156049295701
  0.8069525729369218  0.0009386229177579  0.1300766297115032
  0.8076322437635213  0.2798835580031280  0.8167335073390447
  0.1063633541737161  0.4398269835118498  0.8171125881953998
  0.9160750782609952  0.6972741305521595  0.9212942916549665
  0.3656164545319456  0.5808435644690135  0.7428999480287999
  0.1361304362827411  0.8084133888764811  0.7301727452724407
  0.2070311786277870  0.1105509815935051  0.3427737956884513
  0.2459338640427617  0.1628705009363713  0.9142504296848344
  0.5656784138495112  0.6548810452991489  0.3350003103637391
  0.6087193006355633  0.7633428262438713  0.8796362187819042
  0.4543040571927790  0.9426804618786235  0.1088130492644268
  0.0553217790468636  0.6710498514564378  0.1825920700972148
  0.8598628991288706  0.3666046513791770  0.1473079991019759
  0.4325508222464407  0.5012643170369060  0.9142200789495689
  0.2998882542248822  0.0811422959138355  0.6427148650483119
  0.4959098542582225  0.5743610200995519  0.4528411903090230
  0.2743853728616585  0.3979915614558962  0.3841418252349058
  0.8909535665461163  0.7803150225506315  0.3720608320321759
  0.5967127995841892  0.0463086656644123  0.5320345755627969
  0.9976811447096523  0.8342132389017038  0.8097182771295479
  0.8343333410098879  0.2547308724414989  0.5314656483252236
  0.7201995165232375  0.0035401493410490  0.8823267343824810

  0.00000000E+00  0.00000000E+00  0.00000000E+00
  0.00000000E+00  0.00000000E+00  0.00000000E+00
  0.00000000E+00  0.00000000E+00  0.00000000E+00
  0.00000000E+00  0.00000000E+00  0.00000000E+00
  0.00000000E+00  0.00000000E+00  0.00000000E+00
  0.00000000E+00  0.00000000E+00  0.00000000E+00
  0.00000000E+00  0.00000000E+00  0.00000000E+00
  0.00000000E+00  0.00000000E+00  0.00000000E+00
  0.00000000E+00  0.00000000E+00  0.00000000E+00
  0.00000000E+00  0.00000000E+00  0.00000000E+00
  0.00000000E+00  0.00000000E+00  0.00000000E+00
  0.00000000E+00  0.00000000E+00  0.00000000E+00
  0.00000000E+00  0.00000000E+00  0.00000000E+00
  0.00000000E+00  0.00000000E+00  0.00000000E+00
  0.00000000E+00  0.00000000E+00  0.00000000E+00
  0.00000000E+00  0.00000000E+00  0.00000000E+00
  0.00000000E+00  0.00000000E+00  0.00000000E+00
  0.00000000E+00  0.00000000E+00  0.00000000E+00
  0.00000000E+00  0.00000000E+00  0.00000000E+00
  0.00000000E+00  0.00000000E+00  0.00000000E+00
  0.00000000E+00  0.00000000E+00  0.00000000E+00
  0.00000000E+00  0.00000000E+00  0.00000000E+00
  0.00000000E+00  0.00000000E+00  0.00000000E+00
  0.00000000E+00  0.00000000E+00  0.00000000E+00
  0.00000000E+00  0.00000000E+00  0.00000000E+00
  0.00000000E+00  0.00000000E+00  0.00000000E+00
  0.00000000E+00  0.00000000E+00  0.00000000E+00
  0.00000000E+00  0.00000000E+00  0.00000000E+00
  0.00000000E+00  0.00000000E+00  0.00000000E+00
  0.00000000E+00  0.00000000E+00  0.00000000E+00
  0.00000000E+00  0.00000000E+00  0.00000000E+00
  0.00000000E+00  0.00000000E+00  0.00000000E+00
  0.00000000E+00  0.00000000E+00  0.00000000E+00
  0.00000000E+00  0.00000000E+00  0.00000000E+00
  0.00000000E+00  0.00000000E+00  0.00000000E+00
  0.00000000E+00  0.00000000E+00  0.00000000E+00
  0.00000000E+00  0.00000000E+00  0.00000000E+00
  0.00000000E+00  0.00000000E+00  0.00000000E+00
  0.00000000E+00  0.00000000E+00  0.00000000E+00
  0.00000000E+00  0.00000000E+00  0.00000000E+00
