Be1 Ga3 Cl6                             
   1.00000000000000     
     6.8446621144892248   -0.0006595195332918    0.0001474581116378
    -0.0006595195332918    6.8446621144892248    0.0001474581116378
     3.4221091775723691    3.4221091775723691    4.8639013615270024
   Cl   Be   Ga
     6     1     3
Direct
  0.7633996832419712  0.2366003167580288  0.0000000000000000
  0.2370350037805906  0.2370350037805906  0.9991308992330161
  0.2366003167580288  0.7633996832419712  0.0000000000000000
  0.7629649962194094  0.7629649962194094  0.0008691007669839
  0.7631317030844968  0.7631317030844968  0.4742363309372735
  0.2368682969155032  0.2368682969155032  0.5257636690627265
  0.0000000000000000  0.0000000000000000  0.0000000000000000
  0.5000000000000000  0.5000000000000000  0.0000000000000000
  0.2497254442573222  0.7502745557426778  0.5000000000000000
  0.7502745557426778  0.2497254442573222  0.5000000000000000
 
  0.00000000E+00  0.00000000E+00  0.00000000E+00
  0.00000000E+00  0.00000000E+00  0.00000000E+00
  0.00000000E+00  0.00000000E+00  0.00000000E+00
  0.00000000E+00  0.00000000E+00  0.00000000E+00
  0.00000000E+00  0.00000000E+00  0.00000000E+00
  0.00000000E+00  0.00000000E+00  0.00000000E+00
  0.00000000E+00  0.00000000E+00  0.00000000E+00
  0.00000000E+00  0.00000000E+00  0.00000000E+00
  0.00000000E+00  0.00000000E+00  0.00000000E+00
  0.00000000E+00  0.00000000E+00  0.00000000E+00
