Be15 Al1                                
   1.00000000000000     
     2.2944309401607783   -3.9740709672436654    0.0000000000000000
     2.2944309401607783    3.9740709672436654    0.0000000000000000
     0.0000000000000000    0.0000000000000000    7.5577329341579018
   Be   Al
    15     1
Direct
  0.3333330000000032  0.6666669999999968  0.5000000000000000
  0.8362059801579704  0.6724119603212060  0.0000000000000000
  0.8326981657811672  0.6653953315567307  0.5000000000000000
  0.8362059801632356  0.1637940198367644  0.0000000000000000
  0.8326981657755610  0.1673018342244319  0.5000000000000000
  0.3275880396787940  0.1637940198420296  0.0000000000000000
  0.3346046684432693  0.1673018342188328  0.5000000000000000
  0.6701722256018954  0.8350866127914571  0.2619357009545098
  0.6701722256018954  0.8350866127914571  0.7380642990454902
  0.1649133871895643  0.8350866128104357  0.2619357009545098
  0.1649133871895643  0.8350866128104357  0.7380642990454902
  0.1649133872085429  0.3298277743981046  0.2619357009545098
  0.1649133872085429  0.3298277743981046  0.7380642990454902
  0.6666669999999968  0.3333330000000032  0.2509017756452678
  0.6666669999999968  0.3333330000000032  0.7490982243547322
  0.3333330000000032  0.6666669999999968  0.0000000000000000
 
  0.00000000E+00  0.00000000E+00  0.00000000E+00
  0.00000000E+00  0.00000000E+00  0.00000000E+00
  0.00000000E+00  0.00000000E+00  0.00000000E+00
  0.00000000E+00  0.00000000E+00  0.00000000E+00
  0.00000000E+00  0.00000000E+00  0.00000000E+00
  0.00000000E+00  0.00000000E+00  0.00000000E+00
  0.00000000E+00  0.00000000E+00  0.00000000E+00
  0.00000000E+00  0.00000000E+00  0.00000000E+00
  0.00000000E+00  0.00000000E+00  0.00000000E+00
  0.00000000E+00  0.00000000E+00  0.00000000E+00
  0.00000000E+00  0.00000000E+00  0.00000000E+00
  0.00000000E+00  0.00000000E+00  0.00000000E+00
  0.00000000E+00  0.00000000E+00  0.00000000E+00
  0.00000000E+00  0.00000000E+00  0.00000000E+00
  0.00000000E+00  0.00000000E+00  0.00000000E+00
  0.00000000E+00  0.00000000E+00  0.00000000E+00
