Be4 Al4 Cl20                            
   1.0000000000000000     
     8.2427969200615152   -0.0000000000000001    0.0000000000000006
    -0.0000000000000007    6.6400497498683153    0.0000000000000004
     0.0000000000000009    0.0000000000000001   18.0559217347708092
   Be   Al   Cl
     4     4    20
Direct
  0.0220179842861867  0.7428457069783931  0.5682757348885588
  0.5220179842861867  0.7571542930216069  0.4317242651114412
  0.9779820157138133  0.2428457069783931  0.9317242651114412
  0.4779820157138133  0.2571542930216069  0.0682757348885588
  0.1924764653471982  0.2400465379461423  0.5992832722188695
  0.6924764653471982  0.2599534620538577  0.4007167277811305
  0.8075235346528018  0.7400465379461423  0.9007167277811305
  0.3075235346528018  0.7599534620538577  0.0992832722188695
  0.9871753741817244  0.7412491683947096  0.4676441365720549
  0.4871753741817244  0.7587508316052904  0.5323558634279451
  0.0128246258182756  0.2412491683947167  0.0323558634279451
  0.5128246258182756  0.2587508316052833  0.9676441365720549
  0.5203635139109153  0.5125006563661216  0.3654083712755849
  0.0203635139109153  0.9874993436338784  0.6345916287244080
  0.4796364860890776  0.0125006563661216  0.1345916287244080
  0.9796364860890847  0.4874993436338784  0.8654083712755849
  0.0371121633895442  0.5061338279499736  0.6375694171904556
  0.5371121633895442  0.9938661720500264  0.3624305828095444
  0.9628878366104558  0.0061338279499736  0.8624305828095444
  0.4628878366104558  0.4938661720500264  0.1375694171904556
  0.3852328360591528  0.2301615733708573  0.6745352314728947
  0.8852328360591528  0.2698384266291427  0.3254647685271053
  0.6147671639408472  0.7301615733708573  0.8254647685271053
  0.1147671639408472  0.7698384266291427  0.1745352314728947
  0.7186855550636082  0.2566133142650244  0.5154893658899979
  0.2186855550636082  0.2433866857349756  0.4845106341100021
  0.2813144449363918  0.7566133142650244  0.9845106341100021
  0.7813144449363918  0.7433866857349756  0.0154893658899979

  0.00000000E+00  0.00000000E+00  0.00000000E+00
  0.00000000E+00  0.00000000E+00  0.00000000E+00
  0.00000000E+00  0.00000000E+00  0.00000000E+00
  0.00000000E+00  0.00000000E+00  0.00000000E+00
  0.00000000E+00  0.00000000E+00  0.00000000E+00
  0.00000000E+00  0.00000000E+00  0.00000000E+00
  0.00000000E+00  0.00000000E+00  0.00000000E+00
  0.00000000E+00  0.00000000E+00  0.00000000E+00
  0.00000000E+00  0.00000000E+00  0.00000000E+00
  0.00000000E+00  0.00000000E+00  0.00000000E+00
  0.00000000E+00  0.00000000E+00  0.00000000E+00
  0.00000000E+00  0.00000000E+00  0.00000000E+00
  0.00000000E+00  0.00000000E+00  0.00000000E+00
  0.00000000E+00  0.00000000E+00  0.00000000E+00
  0.00000000E+00  0.00000000E+00  0.00000000E+00
  0.00000000E+00  0.00000000E+00  0.00000000E+00
  0.00000000E+00  0.00000000E+00  0.00000000E+00
  0.00000000E+00  0.00000000E+00  0.00000000E+00
  0.00000000E+00  0.00000000E+00  0.00000000E+00
  0.00000000E+00  0.00000000E+00  0.00000000E+00
  0.00000000E+00  0.00000000E+00  0.00000000E+00
  0.00000000E+00  0.00000000E+00  0.00000000E+00
  0.00000000E+00  0.00000000E+00  0.00000000E+00
  0.00000000E+00  0.00000000E+00  0.00000000E+00
  0.00000000E+00  0.00000000E+00  0.00000000E+00
  0.00000000E+00  0.00000000E+00  0.00000000E+00
  0.00000000E+00  0.00000000E+00  0.00000000E+00
  0.00000000E+00  0.00000000E+00  0.00000000E+00
