AlBr                                    
   1.00000000000000     
     4.9218901868003524    0.0267888465840217    0.0000000000000000
    -2.4382361044101373    4.2788055230071640    0.0000000000000000
     0.0000000000000000    0.0000000000000000    5.1927680621211580
   Al   Br
     2     2
Direct
  0.0000000000000000  0.0000000000000000  0.0000000000000000
  0.0000000000000000  0.0000000000000000  0.5000000000000000
  0.6674723465621639  0.3324350377127985  0.2500000000000000
  0.3325276534378361  0.6675649622872086  0.7500000000000000
 
  0.00000000E+00  0.00000000E+00  0.00000000E+00
  0.00000000E+00  0.00000000E+00  0.00000000E+00
  0.00000000E+00  0.00000000E+00  0.00000000E+00
  0.00000000E+00  0.00000000E+00  0.00000000E+00
