Ba32 Al28                               
   1.00000000000000     
    13.3210030229864635    0.0001338186143410    0.0001338272318777
     0.0001338272318777   13.3210030229864635    0.0001338186143410
     0.0001338186143410    0.0001338272318777   13.3210030229864635
   Ba   Al
    32    28
Direct
  0.7998062725571415  0.5582669343891027  0.0015413502153123
  0.7978732942060063  0.0620863241868008  0.0191644182188710
  0.4984477387953561  0.2002042625887199  0.0583385577493303
  0.0191644182188710  0.7978732942060063  0.0620863241868008
  0.3133776234545138  0.6866686393265127  0.1866158211296209
  0.1878292595267226  0.1878292595267226  0.1878292595267226
  0.0583385577493303  0.4984477387953561  0.2002042625887199
  0.5621177900815582  0.4808367957048674  0.2021230949139294
  0.4379547721591379  0.9808293308125400  0.2979042962776361
  0.9417389134647749  0.9984506675086564  0.2997911789439058
  0.8122334588939140  0.6878099882538109  0.3121842903542102
  0.6866686393265127  0.1866158211296209  0.3133776234545138
  0.9808293308125400  0.2979042962776361  0.4379547721591379
  0.5015606300168542  0.7001906326082903  0.4416947368534920
  0.2021230949139294  0.5621177900815582  0.4808367957048674
  0.2002042625887199  0.0583385577493303  0.4984477387953561
  0.7001906326082903  0.4416947368534920  0.5015606300168542
  0.7021064922146607  0.9378910694514744  0.5191500908874715
  0.0015413502153123  0.7998062725571415  0.5582669343891027
  0.4808367957048674  0.2021230949139294  0.5621177900815582
  0.1866158211296209  0.3133776234545138  0.6866686393265127
  0.3121842903542102  0.8122334588939140  0.6878099882538109
  0.4416947368534920  0.5015606300168542  0.7001906326082903
  0.9378910694514744  0.5191500908874715  0.7021064922146607
  0.0620863241868008  0.0191644182188710  0.7978732942060063
  0.5582669343891027  0.0015413502153123  0.7998062725571415
  0.6878099882538109  0.3121842903542102  0.8122334588939140
  0.8133455957360383  0.8133455957360383  0.8133455957360383
  0.5191500908874715  0.7021064922146607  0.9378910694514744
  0.9984506675086564  0.2997911789439058  0.9417389134647749
  0.2979042962776361  0.4379547721591379  0.9808293308125400
  0.2997911789439058  0.9417389134647749  0.9984506675086564
  0.5699415738165499  0.9300322620355885  0.0699071997506877
  0.7382138976988557  0.8087420447379756  0.0765456808917833
  0.7546360994393453  0.3129887430575451  0.0834387520758213
  0.9166878710696551  0.2545965644641086  0.1870699061263039
  0.5765718914621516  0.7617750468257540  0.1912036822013690
  0.6912334229145713  0.9234190422705808  0.2381748958988794
  0.8130442586581452  0.4166301565877220  0.2454613377280879
  0.1870699061263039  0.9166878710696551  0.2545965644641086
  0.3088075042394109  0.4234469951693569  0.2617809116076728
  0.4234469951693569  0.2617809116076728  0.3088075042394109
  0.0834387520758213  0.7546360994393453  0.3129887430575451
  0.2454613377280879  0.8130442586581452  0.4166301565877220
  0.2617809116076728  0.3088075042394109  0.4234469951693569
  0.4300614446834814  0.4300614446834814  0.4300614446834814
  0.9300322620355885  0.0699071997506877  0.5699415738165499
  0.7617750468257540  0.1912036822013690  0.5765718914621516
  0.7454076050965952  0.6870032848983953  0.5833566031123638
  0.5833566031123638  0.7454076050965952  0.6870032848983953
  0.9234190422705808  0.2381748958988794  0.6912334229145713
  0.8087420447379756  0.0765456808917833  0.7382138976988557
  0.6870032848983953  0.5833566031123638  0.7454076050965952
  0.3129887430575451  0.0834387520758213  0.7546360994393453
  0.1912036822013690  0.5765718914621516  0.7617750468257540
  0.0765456808917833  0.7382138976988557  0.8087420447379756
  0.4166301565877220  0.2454613377280879  0.8130442586581452
  0.2545965644641086  0.1870699061263039  0.9166878710696551
  0.2381748958988794  0.6912334229145713  0.9234190422705808
  0.0699071997506877  0.5699415738165499  0.9300322620355885
 
  0.00000000E+00  0.00000000E+00  0.00000000E+00
  0.00000000E+00  0.00000000E+00  0.00000000E+00
  0.00000000E+00  0.00000000E+00  0.00000000E+00
  0.00000000E+00  0.00000000E+00  0.00000000E+00
  0.00000000E+00  0.00000000E+00  0.00000000E+00
  0.00000000E+00  0.00000000E+00  0.00000000E+00
  0.00000000E+00  0.00000000E+00  0.00000000E+00
  0.00000000E+00  0.00000000E+00  0.00000000E+00
  0.00000000E+00  0.00000000E+00  0.00000000E+00
  0.00000000E+00  0.00000000E+00  0.00000000E+00
  0.00000000E+00  0.00000000E+00  0.00000000E+00
  0.00000000E+00  0.00000000E+00  0.00000000E+00
  0.00000000E+00  0.00000000E+00  0.00000000E+00
  0.00000000E+00  0.00000000E+00  0.00000000E+00
  0.00000000E+00  0.00000000E+00  0.00000000E+00
  0.00000000E+00  0.00000000E+00  0.00000000E+00
  0.00000000E+00  0.00000000E+00  0.00000000E+00
  0.00000000E+00  0.00000000E+00  0.00000000E+00
  0.00000000E+00  0.00000000E+00  0.00000000E+00
  0.00000000E+00  0.00000000E+00  0.00000000E+00
  0.00000000E+00  0.00000000E+00  0.00000000E+00
  0.00000000E+00  0.00000000E+00  0.00000000E+00
  0.00000000E+00  0.00000000E+00  0.00000000E+00
  0.00000000E+00  0.00000000E+00  0.00000000E+00
  0.00000000E+00  0.00000000E+00  0.00000000E+00
  0.00000000E+00  0.00000000E+00  0.00000000E+00
  0.00000000E+00  0.00000000E+00  0.00000000E+00
  0.00000000E+00  0.00000000E+00  0.00000000E+00
  0.00000000E+00  0.00000000E+00  0.00000000E+00
  0.00000000E+00  0.00000000E+00  0.00000000E+00
  0.00000000E+00  0.00000000E+00  0.00000000E+00
  0.00000000E+00  0.00000000E+00  0.00000000E+00
  0.00000000E+00  0.00000000E+00  0.00000000E+00
  0.00000000E+00  0.00000000E+00  0.00000000E+00
  0.00000000E+00  0.00000000E+00  0.00000000E+00
  0.00000000E+00  0.00000000E+00  0.00000000E+00
  0.00000000E+00  0.00000000E+00  0.00000000E+00
  0.00000000E+00  0.00000000E+00  0.00000000E+00
  0.00000000E+00  0.00000000E+00  0.00000000E+00
  0.00000000E+00  0.00000000E+00  0.00000000E+00
  0.00000000E+00  0.00000000E+00  0.00000000E+00
  0.00000000E+00  0.00000000E+00  0.00000000E+00
  0.00000000E+00  0.00000000E+00  0.00000000E+00
  0.00000000E+00  0.00000000E+00  0.00000000E+00
  0.00000000E+00  0.00000000E+00  0.00000000E+00
  0.00000000E+00  0.00000000E+00  0.00000000E+00
  0.00000000E+00  0.00000000E+00  0.00000000E+00
  0.00000000E+00  0.00000000E+00  0.00000000E+00
  0.00000000E+00  0.00000000E+00  0.00000000E+00
  0.00000000E+00  0.00000000E+00  0.00000000E+00
  0.00000000E+00  0.00000000E+00  0.00000000E+00
  0.00000000E+00  0.00000000E+00  0.00000000E+00
  0.00000000E+00  0.00000000E+00  0.00000000E+00
  0.00000000E+00  0.00000000E+00  0.00000000E+00
  0.00000000E+00  0.00000000E+00  0.00000000E+00
  0.00000000E+00  0.00000000E+00  0.00000000E+00
  0.00000000E+00  0.00000000E+00  0.00000000E+00
  0.00000000E+00  0.00000000E+00  0.00000000E+00
  0.00000000E+00  0.00000000E+00  0.00000000E+00
  0.00000000E+00  0.00000000E+00  0.00000000E+00
