Ba8 Al4 F28                             
   1.00000000000000     
     8.2824693287021809    0.0015263328368334    0.0007923009979356
     0.0013879083509215    7.5917694392672690    0.0002863144558020
     0.0009773295509468    0.0003955583137010   10.4999338999661767
   Al   Ba   F 
     4     8    28
Direct
  0.3016546270815041  0.2499399337523229  0.0526549449448197
  0.8016766339770314  0.2499988187245066  0.4473065625496133
  0.1983438979550627  0.7499932684681951  0.5526603991243562
  0.6983726859418553  0.7500481814850346  0.9473188880612042
  0.7778333452004205  0.2500016528169411  0.1198584473098734
  0.4187526437293485  0.7498792756904891  0.2404366477341640
  0.9187124656224341  0.7499576344480303  0.2594893032175776
  0.2778794207202040  0.2499640294801750  0.3801580843364292
  0.7221361831746478  0.7500265955571948  0.6198111488738789
  0.0813221681743457  0.2500345031413005  0.7404846714142153
  0.5812767056791941  0.2501081449052904  0.7595333772130388
  0.2221921778960407  0.7499875542838979  0.8801124348873017
  0.4928051070268467  0.7502139048322363  0.0045669863697597
  0.7508645096022022  0.5867700341108844  0.0703732424543801
  0.7509947566076320  0.9132614065084041  0.0702974162786703
  0.1541756057405834  0.7499317355367481  0.1149047001831178
  0.1032681700816767  0.2501413573303566  0.1228248750862022
  0.3640284984390192  0.0798869076417432  0.1680708742893984
  0.3641545506262744  0.4199422140963378  0.1679981698705717
  0.8642938227426455  0.0799911476578714  0.3319427611753554
  0.8641740526851507  0.4200228314170715  0.3319248511186927
  0.6033583270064824  0.2500391528492614  0.3770333071710112
  0.6540947898383465  0.7501169853382308  0.3850632714887894
  0.2510867566193369  0.5867224434183953  0.4297030665434889
  0.2510471224557094  0.9132287726397408  0.4296882877712491
  0.9928448183893011  0.7500202920446029  0.4953336058415871
  0.0071707069656028  0.2499935685784749  0.5046463091427285
  0.7489749541680553  0.0867622476461420  0.5702782190568527
  0.7489066628149175  0.4132706240198729  0.5702550053500630
  0.3459361146641982  0.2498909458992031  0.6149029027003436
  0.3966692421288087  0.7499295696793169  0.6229195911930390
  0.1358431130253877  0.5799741873478226  0.6680449669334081
  0.1357577595054096  0.9200083612124956  0.6680279977187880
  0.6358932089811020  0.5800392261847307  0.8319739993175688
  0.6359828351608172  0.9200948356099090  0.8319021140150085
  0.8967606203313636  0.7498728229157905  0.8771519408637261
  0.8458537296476081  0.2500392706592365  0.8850640852961007
  0.2490135471366273  0.0867253838462929  0.9296828422351666
  0.2491740399606570  0.4132182467855543  0.9295972673735946
  0.5072196224961587  0.2497519314398531  0.9954024334948741
 
  0.00000000E+00  0.00000000E+00  0.00000000E+00
  0.00000000E+00  0.00000000E+00  0.00000000E+00
  0.00000000E+00  0.00000000E+00  0.00000000E+00
  0.00000000E+00  0.00000000E+00  0.00000000E+00
  0.00000000E+00  0.00000000E+00  0.00000000E+00
  0.00000000E+00  0.00000000E+00  0.00000000E+00
  0.00000000E+00  0.00000000E+00  0.00000000E+00
  0.00000000E+00  0.00000000E+00  0.00000000E+00
  0.00000000E+00  0.00000000E+00  0.00000000E+00
  0.00000000E+00  0.00000000E+00  0.00000000E+00
  0.00000000E+00  0.00000000E+00  0.00000000E+00
  0.00000000E+00  0.00000000E+00  0.00000000E+00
  0.00000000E+00  0.00000000E+00  0.00000000E+00
  0.00000000E+00  0.00000000E+00  0.00000000E+00
  0.00000000E+00  0.00000000E+00  0.00000000E+00
  0.00000000E+00  0.00000000E+00  0.00000000E+00
  0.00000000E+00  0.00000000E+00  0.00000000E+00
  0.00000000E+00  0.00000000E+00  0.00000000E+00
  0.00000000E+00  0.00000000E+00  0.00000000E+00
  0.00000000E+00  0.00000000E+00  0.00000000E+00
  0.00000000E+00  0.00000000E+00  0.00000000E+00
  0.00000000E+00  0.00000000E+00  0.00000000E+00
  0.00000000E+00  0.00000000E+00  0.00000000E+00
  0.00000000E+00  0.00000000E+00  0.00000000E+00
  0.00000000E+00  0.00000000E+00  0.00000000E+00
  0.00000000E+00  0.00000000E+00  0.00000000E+00
  0.00000000E+00  0.00000000E+00  0.00000000E+00
  0.00000000E+00  0.00000000E+00  0.00000000E+00
  0.00000000E+00  0.00000000E+00  0.00000000E+00
  0.00000000E+00  0.00000000E+00  0.00000000E+00
  0.00000000E+00  0.00000000E+00  0.00000000E+00
  0.00000000E+00  0.00000000E+00  0.00000000E+00
  0.00000000E+00  0.00000000E+00  0.00000000E+00
  0.00000000E+00  0.00000000E+00  0.00000000E+00
  0.00000000E+00  0.00000000E+00  0.00000000E+00
  0.00000000E+00  0.00000000E+00  0.00000000E+00
  0.00000000E+00  0.00000000E+00  0.00000000E+00
  0.00000000E+00  0.00000000E+00  0.00000000E+00
  0.00000000E+00  0.00000000E+00  0.00000000E+00
  0.00000000E+00  0.00000000E+00  0.00000000E+00
