Sr4 Al2 F10                             
   1.00000000000000     
    -3.5608031643532776    3.5608031643532776    4.8569213376908946
     3.5608031643532776   -3.5608031643532776    4.8569213376908946
     3.5608031643532776    3.5608031643532776   -4.8569213376908946
   Sr   Al   F 
     4     2    10
Direct
  0.8426263595614145  0.3426263595614145  0.1852527191228432
  0.3426263595614145  0.1573736404385855  0.5000000000000000
  0.1573736404385855  0.6573736404385855  0.8147472808771568
  0.6573736404385855  0.8426263595614145  0.5000000000000000
  0.2500000000000000  0.2500000000000000  0.0000000000000000
  0.7500000000000000  0.7500000000000000  0.0000000000000000
  0.5000000000000000  0.5000000000000000  0.0000000000000000
  0.0000000000000000  0.0000000000000000  0.0000000000000000
  0.5081781673163661  0.0081781673163661  0.7915159232760871
  0.0081781673163661  0.2166622440402648  0.5000000000000000
  0.7166622440402648  0.5081781673163661  0.5000000000000000
  0.9918218326836339  0.7833377559597352  0.5000000000000000
  0.2833377559597352  0.4918218326836339  0.5000000000000000
  0.7833377559597352  0.2833377559597352  0.7915159232760871
  0.4918218326836339  0.9918218326836339  0.2084840767239129
  0.2166622440402648  0.7166622440402648  0.2084840767239129
 
  0.00000000E+00  0.00000000E+00  0.00000000E+00
  0.00000000E+00  0.00000000E+00  0.00000000E+00
  0.00000000E+00  0.00000000E+00  0.00000000E+00
  0.00000000E+00  0.00000000E+00  0.00000000E+00
  0.00000000E+00  0.00000000E+00  0.00000000E+00
  0.00000000E+00  0.00000000E+00  0.00000000E+00
  0.00000000E+00  0.00000000E+00  0.00000000E+00
  0.00000000E+00  0.00000000E+00  0.00000000E+00
  0.00000000E+00  0.00000000E+00  0.00000000E+00
  0.00000000E+00  0.00000000E+00  0.00000000E+00
  0.00000000E+00  0.00000000E+00  0.00000000E+00
  0.00000000E+00  0.00000000E+00  0.00000000E+00
  0.00000000E+00  0.00000000E+00  0.00000000E+00
  0.00000000E+00  0.00000000E+00  0.00000000E+00
  0.00000000E+00  0.00000000E+00  0.00000000E+00
  0.00000000E+00  0.00000000E+00  0.00000000E+00
