Ca41 Al67                               
   1.00000000000000     
    13.9614716043899794    0.0000000000000000    0.0000000000000000
     0.0000000000000000   13.9614716043899776    0.0000000000000000
     0.0000000000000000    0.0000000000000000   13.9614716043899794
   Al   Ca
    67    41
Direct
  0.3285440615259887  0.1603439783509657  0.0000000000000000
  0.6714559384740113  0.1603439783509657  0.0000000000000000
  0.5000000000000000  0.2447493167393091  0.0000000000000000
  0.1603439783509657  0.3285440615259887  0.0000000000000000
  0.8396560216490272  0.3285440615259887  0.0000000000000000
  0.2447493167393091  0.5000000000000000  0.0000000000000000
  0.7552506832606909  0.5000000000000000  0.0000000000000000
  0.1603439783509657  0.6714559384740113  0.0000000000000000
  0.8396560216490272  0.6714559384740113  0.0000000000000000
  0.5000000000000000  0.7552506832606909  0.0000000000000000
  0.3285440615259887  0.8396560216490272  0.0000000000000000
  0.6714559384740113  0.8396560216490272  0.0000000000000000
  0.5000000000000000  0.1765911695926192  0.1765911695926192
  0.1765911695926192  0.5000000000000000  0.1765911695926192
  0.8234088304073808  0.5000000000000000  0.1765911695926192
  0.5000000000000000  0.8234088304073808  0.1765911695926192
  0.5000000000000000  0.5000000000000000  0.2558077668473544
  0.3285440615259887  0.0000000000000000  0.1603439783509657
  0.6714559384740113  0.0000000000000000  0.1603439783509657
  0.0000000000000000  0.3285440615259887  0.1603439783509657
  0.0000000000000000  0.6714559384740113  0.1603439783509657
  0.5000000000000000  0.0000000000000000  0.2447493167393091
  0.0000000000000000  0.5000000000000000  0.2447493167393091
  0.5000000000000000  0.3237604478563725  0.3237604478563725
  0.3237604478563725  0.5000000000000000  0.3237604478563725
  0.6762395521436275  0.5000000000000000  0.3237604478563725
  0.5000000000000000  0.6762395521436275  0.3237604478563725
  0.1603439783509657  0.0000000000000000  0.3285440615259887
  0.8396560216490272  0.0000000000000000  0.3285440615259887
  0.0000000000000000  0.1603439783509657  0.3285440615259887
  0.0000000000000000  0.8396560216490272  0.3285440615259887
  0.2447493167393091  0.0000000000000000  0.5000000000000000
  0.7552506832606909  0.0000000000000000  0.5000000000000000
  0.1765911695926192  0.1765911695926192  0.5000000000000000
  0.8234088304073808  0.1765911695926192  0.5000000000000000
  0.5000000000000000  0.2558077668473544  0.5000000000000000
  0.0000000000000000  0.2447493167393091  0.5000000000000000
  0.3237604478563725  0.3237604478563725  0.5000000000000000
  0.6762395521436275  0.3237604478563725  0.5000000000000000
  0.2558077668473544  0.5000000000000000  0.5000000000000000
  0.5000000000000000  0.5000000000000000  0.5000000000000000
  0.7441922331526456  0.5000000000000000  0.5000000000000000
  0.3237604478563725  0.6762395521436275  0.5000000000000000
  0.6762395521436275  0.6762395521436275  0.5000000000000000
  0.0000000000000000  0.7552506832606909  0.5000000000000000
  0.5000000000000000  0.7441922331526456  0.5000000000000000
  0.1765911695926192  0.8234088304073808  0.5000000000000000
  0.8234088304073808  0.8234088304073808  0.5000000000000000
  0.1603439783509657  0.0000000000000000  0.6714559384740113
  0.8396560216490272  0.0000000000000000  0.6714559384740113
  0.0000000000000000  0.1603439783509657  0.6714559384740113
  0.0000000000000000  0.8396560216490272  0.6714559384740113
  0.5000000000000000  0.3237604478563725  0.6762395521436275
  0.3237604478563725  0.5000000000000000  0.6762395521436275
  0.6762395521436275  0.5000000000000000  0.6762395521436275
  0.5000000000000000  0.6762395521436275  0.6762395521436275
  0.5000000000000000  0.0000000000000000  0.7552506832606909
  0.0000000000000000  0.5000000000000000  0.7552506832606909
  0.3285440615259887  0.0000000000000000  0.8396560216490272
  0.6714559384740113  0.0000000000000000  0.8396560216490272
  0.0000000000000000  0.3285440615259887  0.8396560216490272
  0.0000000000000000  0.6714559384740113  0.8396560216490272
  0.5000000000000000  0.5000000000000000  0.7441922331526456
  0.5000000000000000  0.1765911695926192  0.8234088304073808
  0.1765911695926192  0.5000000000000000  0.8234088304073808
  0.8234088304073808  0.5000000000000000  0.8234088304073808
  0.5000000000000000  0.8234088304073808  0.8234088304073808
  0.1824839347488023  0.0000000000000000  0.0000000000000000
  0.5000000000000000  0.0000000000000000  0.0000000000000000
  0.8175160652511977  0.0000000000000000  0.0000000000000000
  0.0000000000000000  0.1824839347488023  0.0000000000000000
  0.0000000000000000  0.5000000000000000  0.0000000000000000
  0.0000000000000000  0.8175160652511977  0.0000000000000000
  0.3660648580342709  0.3660648580342709  0.1349575637619438
  0.6339351419657291  0.3660648580342709  0.1349575637619438
  0.3660648580342709  0.6339351419657291  0.1349575637619438
  0.6339351419657291  0.6339351419657291  0.1349575637619438
  0.1839710744158296  0.1839710744158296  0.1839710744158296
  0.8160289255841704  0.1839710744158296  0.1839710744158296
  0.1839710744158296  0.8160289255841704  0.1839710744158296
  0.8160289255841704  0.8160289255841704  0.1839710744158296
  0.0000000000000000  0.0000000000000000  0.1824839347488023
  0.3660648580342709  0.1349575637619438  0.3660648580342709
  0.6339351419657291  0.1349575637619438  0.3660648580342709
  0.1349575637619438  0.3660648580342709  0.3660648580342709
  0.8650424362380562  0.3660648580342709  0.3660648580342709
  0.1349575637619438  0.6339351419657291  0.3660648580342709
  0.8650424362380562  0.6339351419657291  0.3660648580342709
  0.3660648580342709  0.8650424362380562  0.3660648580342709
  0.6339351419657291  0.8650424362380562  0.3660648580342709
  0.0000000000000000  0.0000000000000000  0.5000000000000000
  0.3660648580342709  0.1349575637619438  0.6339351419657291
  0.6339351419657291  0.1349575637619438  0.6339351419657291
  0.1349575637619438  0.3660648580342709  0.6339351419657291
  0.8650424362380562  0.3660648580342709  0.6339351419657291
  0.1349575637619438  0.6339351419657291  0.6339351419657291
  0.8650424362380562  0.6339351419657291  0.6339351419657291
  0.3660648580342709  0.8650424362380562  0.6339351419657291
  0.6339351419657291  0.8650424362380562  0.6339351419657291
  0.0000000000000000  0.0000000000000000  0.8175160652511977
  0.1839710744158296  0.1839710744158296  0.8160289255841704
  0.8160289255841704  0.1839710744158296  0.8160289255841704
  0.1839710744158296  0.8160289255841704  0.8160289255841704
  0.8160289255841704  0.8160289255841704  0.8160289255841704
  0.3660648580342709  0.3660648580342709  0.8650424362380562
  0.6339351419657291  0.3660648580342709  0.8650424362380562
  0.3660648580342709  0.6339351419657291  0.8650424362380562
  0.6339351419657291  0.6339351419657291  0.8650424362380562
 
  0.00000000E+00  0.00000000E+00  0.00000000E+00
  0.00000000E+00  0.00000000E+00  0.00000000E+00
  0.00000000E+00  0.00000000E+00  0.00000000E+00
  0.00000000E+00  0.00000000E+00  0.00000000E+00
  0.00000000E+00  0.00000000E+00  0.00000000E+00
  0.00000000E+00  0.00000000E+00  0.00000000E+00
  0.00000000E+00  0.00000000E+00  0.00000000E+00
  0.00000000E+00  0.00000000E+00  0.00000000E+00
  0.00000000E+00  0.00000000E+00  0.00000000E+00
  0.00000000E+00  0.00000000E+00  0.00000000E+00
  0.00000000E+00  0.00000000E+00  0.00000000E+00
  0.00000000E+00  0.00000000E+00  0.00000000E+00
  0.00000000E+00  0.00000000E+00  0.00000000E+00
  0.00000000E+00  0.00000000E+00  0.00000000E+00
  0.00000000E+00  0.00000000E+00  0.00000000E+00
  0.00000000E+00  0.00000000E+00  0.00000000E+00
  0.00000000E+00  0.00000000E+00  0.00000000E+00
  0.00000000E+00  0.00000000E+00  0.00000000E+00
  0.00000000E+00  0.00000000E+00  0.00000000E+00
  0.00000000E+00  0.00000000E+00  0.00000000E+00
  0.00000000E+00  0.00000000E+00  0.00000000E+00
  0.00000000E+00  0.00000000E+00  0.00000000E+00
  0.00000000E+00  0.00000000E+00  0.00000000E+00
  0.00000000E+00  0.00000000E+00  0.00000000E+00
  0.00000000E+00  0.00000000E+00  0.00000000E+00
  0.00000000E+00  0.00000000E+00  0.00000000E+00
  0.00000000E+00  0.00000000E+00  0.00000000E+00
  0.00000000E+00  0.00000000E+00  0.00000000E+00
  0.00000000E+00  0.00000000E+00  0.00000000E+00
  0.00000000E+00  0.00000000E+00  0.00000000E+00
  0.00000000E+00  0.00000000E+00  0.00000000E+00
  0.00000000E+00  0.00000000E+00  0.00000000E+00
  0.00000000E+00  0.00000000E+00  0.00000000E+00
  0.00000000E+00  0.00000000E+00  0.00000000E+00
  0.00000000E+00  0.00000000E+00  0.00000000E+00
  0.00000000E+00  0.00000000E+00  0.00000000E+00
  0.00000000E+00  0.00000000E+00  0.00000000E+00
  0.00000000E+00  0.00000000E+00  0.00000000E+00
  0.00000000E+00  0.00000000E+00  0.00000000E+00
  0.00000000E+00  0.00000000E+00  0.00000000E+00
  0.00000000E+00  0.00000000E+00  0.00000000E+00
  0.00000000E+00  0.00000000E+00  0.00000000E+00
  0.00000000E+00  0.00000000E+00  0.00000000E+00
  0.00000000E+00  0.00000000E+00  0.00000000E+00
  0.00000000E+00  0.00000000E+00  0.00000000E+00
  0.00000000E+00  0.00000000E+00  0.00000000E+00
  0.00000000E+00  0.00000000E+00  0.00000000E+00
  0.00000000E+00  0.00000000E+00  0.00000000E+00
  0.00000000E+00  0.00000000E+00  0.00000000E+00
  0.00000000E+00  0.00000000E+00  0.00000000E+00
  0.00000000E+00  0.00000000E+00  0.00000000E+00
  0.00000000E+00  0.00000000E+00  0.00000000E+00
  0.00000000E+00  0.00000000E+00  0.00000000E+00
  0.00000000E+00  0.00000000E+00  0.00000000E+00
  0.00000000E+00  0.00000000E+00  0.00000000E+00
  0.00000000E+00  0.00000000E+00  0.00000000E+00
  0.00000000E+00  0.00000000E+00  0.00000000E+00
  0.00000000E+00  0.00000000E+00  0.00000000E+00
  0.00000000E+00  0.00000000E+00  0.00000000E+00
  0.00000000E+00  0.00000000E+00  0.00000000E+00
  0.00000000E+00  0.00000000E+00  0.00000000E+00
  0.00000000E+00  0.00000000E+00  0.00000000E+00
  0.00000000E+00  0.00000000E+00  0.00000000E+00
  0.00000000E+00  0.00000000E+00  0.00000000E+00
  0.00000000E+00  0.00000000E+00  0.00000000E+00
  0.00000000E+00  0.00000000E+00  0.00000000E+00
  0.00000000E+00  0.00000000E+00  0.00000000E+00
  0.00000000E+00  0.00000000E+00  0.00000000E+00
  0.00000000E+00  0.00000000E+00  0.00000000E+00
  0.00000000E+00  0.00000000E+00  0.00000000E+00
  0.00000000E+00  0.00000000E+00  0.00000000E+00
  0.00000000E+00  0.00000000E+00  0.00000000E+00
  0.00000000E+00  0.00000000E+00  0.00000000E+00
  0.00000000E+00  0.00000000E+00  0.00000000E+00
  0.00000000E+00  0.00000000E+00  0.00000000E+00
  0.00000000E+00  0.00000000E+00  0.00000000E+00
  0.00000000E+00  0.00000000E+00  0.00000000E+00
  0.00000000E+00  0.00000000E+00  0.00000000E+00
  0.00000000E+00  0.00000000E+00  0.00000000E+00
  0.00000000E+00  0.00000000E+00  0.00000000E+00
  0.00000000E+00  0.00000000E+00  0.00000000E+00
  0.00000000E+00  0.00000000E+00  0.00000000E+00
  0.00000000E+00  0.00000000E+00  0.00000000E+00
  0.00000000E+00  0.00000000E+00  0.00000000E+00
  0.00000000E+00  0.00000000E+00  0.00000000E+00
  0.00000000E+00  0.00000000E+00  0.00000000E+00
  0.00000000E+00  0.00000000E+00  0.00000000E+00
  0.00000000E+00  0.00000000E+00  0.00000000E+00
  0.00000000E+00  0.00000000E+00  0.00000000E+00
  0.00000000E+00  0.00000000E+00  0.00000000E+00
  0.00000000E+00  0.00000000E+00  0.00000000E+00
  0.00000000E+00  0.00000000E+00  0.00000000E+00
  0.00000000E+00  0.00000000E+00  0.00000000E+00
  0.00000000E+00  0.00000000E+00  0.00000000E+00
  0.00000000E+00  0.00000000E+00  0.00000000E+00
  0.00000000E+00  0.00000000E+00  0.00000000E+00
  0.00000000E+00  0.00000000E+00  0.00000000E+00
  0.00000000E+00  0.00000000E+00  0.00000000E+00
  0.00000000E+00  0.00000000E+00  0.00000000E+00
  0.00000000E+00  0.00000000E+00  0.00000000E+00
  0.00000000E+00  0.00000000E+00  0.00000000E+00
  0.00000000E+00  0.00000000E+00  0.00000000E+00
  0.00000000E+00  0.00000000E+00  0.00000000E+00
  0.00000000E+00  0.00000000E+00  0.00000000E+00
  0.00000000E+00  0.00000000E+00  0.00000000E+00
  0.00000000E+00  0.00000000E+00  0.00000000E+00
  0.00000000E+00  0.00000000E+00  0.00000000E+00
  0.00000000E+00  0.00000000E+00  0.00000000E+00
