Sr6 Tl33                                
   1.0000000000000000     
    10.8780687046225175    0.0000000000000000    0.0000000000000000
     0.0000000000000000   10.8780687046225175   -0.0000000000000000
     0.0000000000000000   -0.0000000000000000   10.8780687046225175
   Sr   Tl
     6    33
Direct
  0.2116072815799441  0.5000000000000000  0.0000000000000000
  0.7883927184200559  0.5000000000000000  0.0000000000000000
  0.5000000000000000  0.0000000000000000  0.2116072815799441
  0.0000000000000000  0.2116072815799441  0.5000000000000000
  0.0000000000000000  0.7883927184200559  0.5000000000000000
  0.5000000000000000  0.0000000000000000  0.7883927184200559
  0.0000000000000000  0.0000000000000000  0.0000000000000000
  0.2710917369387431  0.1488757103800822  0.0000000000000000
  0.7289082630612569  0.1488757103800822  0.0000000000000000
  0.5000000000000000  0.3282207977330245  0.0000000000000000
  0.5000000000000000  0.6717792022669755  0.0000000000000000
  0.2710917369387431  0.8511242896199178  0.0000000000000000
  0.7289082630612569  0.8511242896199178  0.0000000000000000
  0.0000000000000000  0.2710917369387431  0.1488757103800822
  0.0000000000000000  0.7289082630612569  0.1488757103800822
  0.5000000000000000  0.5000000000000000  0.2603873589157786
  0.1488757103800822  0.0000000000000000  0.2710917369387431
  0.8511242896199178  0.0000000000000000  0.2710917369387431
  0.2842458616332522  0.2842458616332522  0.2842458616332522
  0.7157541383667478  0.2842458616332522  0.2842458616332522
  0.2842458616332522  0.7157541383667478  0.2842458616332522
  0.7157541383667478  0.7157541383667478  0.2842458616332522
  0.0000000000000000  0.5000000000000000  0.3282207977330245
  0.3282207977330245  0.0000000000000000  0.5000000000000000
  0.6717792022669755  0.0000000000000000  0.5000000000000000
  0.5000000000000000  0.2603873589157786  0.5000000000000000
  0.2603873589157786  0.5000000000000000  0.5000000000000000
  0.7396126410842214  0.5000000000000000  0.5000000000000000
  0.5000000000000000  0.7396126410842214  0.5000000000000000
  0.0000000000000000  0.5000000000000000  0.6717792022669755
  0.2842458616332522  0.2842458616332522  0.7157541383667478
  0.7157541383667478  0.2842458616332522  0.7157541383667478
  0.2842458616332522  0.7157541383667478  0.7157541383667478
  0.7157541383667478  0.7157541383667478  0.7157541383667478
  0.1488757103800822  0.0000000000000000  0.7289082630612569
  0.8511242896199178  0.0000000000000000  0.7289082630612569
  0.5000000000000000  0.5000000000000000  0.7396126410842214
  0.0000000000000000  0.2710917369387431  0.8511242896199178
  0.0000000000000000  0.7289082630612569  0.8511242896199178

  0.00000000E+00  0.00000000E+00  0.00000000E+00
  0.00000000E+00  0.00000000E+00  0.00000000E+00
  0.00000000E+00  0.00000000E+00  0.00000000E+00
  0.00000000E+00  0.00000000E+00  0.00000000E+00
  0.00000000E+00  0.00000000E+00  0.00000000E+00
  0.00000000E+00  0.00000000E+00  0.00000000E+00
  0.00000000E+00  0.00000000E+00  0.00000000E+00
  0.00000000E+00  0.00000000E+00  0.00000000E+00
  0.00000000E+00  0.00000000E+00  0.00000000E+00
  0.00000000E+00  0.00000000E+00  0.00000000E+00
  0.00000000E+00  0.00000000E+00  0.00000000E+00
  0.00000000E+00  0.00000000E+00  0.00000000E+00
  0.00000000E+00  0.00000000E+00  0.00000000E+00
  0.00000000E+00  0.00000000E+00  0.00000000E+00
  0.00000000E+00  0.00000000E+00  0.00000000E+00
  0.00000000E+00  0.00000000E+00  0.00000000E+00
  0.00000000E+00  0.00000000E+00  0.00000000E+00
  0.00000000E+00  0.00000000E+00  0.00000000E+00
  0.00000000E+00  0.00000000E+00  0.00000000E+00
  0.00000000E+00  0.00000000E+00  0.00000000E+00
  0.00000000E+00  0.00000000E+00  0.00000000E+00
  0.00000000E+00  0.00000000E+00  0.00000000E+00
  0.00000000E+00  0.00000000E+00  0.00000000E+00
  0.00000000E+00  0.00000000E+00  0.00000000E+00
  0.00000000E+00  0.00000000E+00  0.00000000E+00
  0.00000000E+00  0.00000000E+00  0.00000000E+00
  0.00000000E+00  0.00000000E+00  0.00000000E+00
  0.00000000E+00  0.00000000E+00  0.00000000E+00
  0.00000000E+00  0.00000000E+00  0.00000000E+00
  0.00000000E+00  0.00000000E+00  0.00000000E+00
  0.00000000E+00  0.00000000E+00  0.00000000E+00
  0.00000000E+00  0.00000000E+00  0.00000000E+00
  0.00000000E+00  0.00000000E+00  0.00000000E+00
  0.00000000E+00  0.00000000E+00  0.00000000E+00
  0.00000000E+00  0.00000000E+00  0.00000000E+00
  0.00000000E+00  0.00000000E+00  0.00000000E+00
  0.00000000E+00  0.00000000E+00  0.00000000E+00
  0.00000000E+00  0.00000000E+00  0.00000000E+00
  0.00000000E+00  0.00000000E+00  0.00000000E+00
