F4                                      
   1.00000000000000     
     2.6164476138790871    0.4480312396680263    1.6123127443153633
     2.6164476138790871    0.4480312396680263   -1.6123127443153633
     1.5990555185181237    5.2776367628637351    0.0000000000000000
   F 
     4
Direct
  0.8256438283479568  0.6389683808520559  0.2960533485194077
  0.3610316191479441  0.1743561716520432  0.2039466514805923
  0.1743561716520432  0.3610316191479441  0.7039466514805852
  0.6389683808520559  0.8256438283479568  0.7960533485194148
 
  0.00000000E+00  0.00000000E+00  0.00000000E+00
  0.00000000E+00  0.00000000E+00  0.00000000E+00
  0.00000000E+00  0.00000000E+00  0.00000000E+00
  0.00000000E+00  0.00000000E+00  0.00000000E+00
