Ba4 Ga2 Br10                            
   1.00000000000000     
     9.0316376113403578   -0.1877692976852194    0.2387693897287497
    -0.1966493564774037    9.4432367626052223   -1.1577929167320269
     4.6046644733176949    3.7650954186796524    7.6100069657554448
   Br   Ba   Ga
    10     4     2
Direct
  0.0017889622457048  0.0007178184103083  0.9964987373907306
  0.4961792661284363  0.4979111399645433  0.0067358692785078
  0.4864262879822761  0.0654194839294675  0.2090688212502840
  0.0344933402009957  0.2774370115092424  0.2338713377021904
  0.7467690699428147  0.5422245384016335  0.2616427875807830
  0.1885704233961931  0.6758790016700189  0.3092710854175280
  0.8077424884157978  0.3265369337075157  0.6911759560190802
  0.2570056429441365  0.4596875666251279  0.7391193517178323
  0.9614298215451029  0.7175910463214663  0.7686395529015613
  0.5157109392744772  0.9343861683390173  0.7919195502958871
  0.3632573465651561  0.1980256334890527  0.9380404716385016
  0.8288971935805449  0.3300831435956937  0.0182539267318731
  0.1725763355761174  0.6723694975829275  0.9793654606855497
  0.6366691508398858  0.8011688273163458  0.0639136732386021
  0.1846737700928216  0.3551497525825553  0.4123684436649739
  0.8175099612695433  0.6451124365550811  0.5801149744861220
 
  0.00000000E+00  0.00000000E+00  0.00000000E+00
  0.00000000E+00  0.00000000E+00  0.00000000E+00
  0.00000000E+00  0.00000000E+00  0.00000000E+00
  0.00000000E+00  0.00000000E+00  0.00000000E+00
  0.00000000E+00  0.00000000E+00  0.00000000E+00
  0.00000000E+00  0.00000000E+00  0.00000000E+00
  0.00000000E+00  0.00000000E+00  0.00000000E+00
  0.00000000E+00  0.00000000E+00  0.00000000E+00
  0.00000000E+00  0.00000000E+00  0.00000000E+00
  0.00000000E+00  0.00000000E+00  0.00000000E+00
  0.00000000E+00  0.00000000E+00  0.00000000E+00
  0.00000000E+00  0.00000000E+00  0.00000000E+00
  0.00000000E+00  0.00000000E+00  0.00000000E+00
  0.00000000E+00  0.00000000E+00  0.00000000E+00
  0.00000000E+00  0.00000000E+00  0.00000000E+00
  0.00000000E+00  0.00000000E+00  0.00000000E+00
