Ca10 Tl6 Br38                           
   1.0000000000000000     
    -9.6951268282740060    9.6951158417756673    5.1640319625420510
     9.6951268282740060   -9.6951158417756673    5.1640319625420510
     9.6951158417756673    9.6951268282740060   -5.1640319625420510
   Ca   Tl   Br
    10     6    38
Direct
  0.7741164542013834  0.9725357976027809  0.7466522518041572
  0.2258835457986166  0.0274642023972191  0.2533477481958428
  0.9725357976027809  0.2258835457986166  0.1984193434014188
  0.0274642023972191  0.7741164542013834  0.8015806565985812
  0.5799833248388424  0.2022610643584457  0.7822443891973023
  0.4200166751611576  0.7977389356415543  0.2177556108026977
  0.2022610643584457  0.4200166751611576  0.6222777395195820
  0.7977389356415543  0.5799833248388424  0.3777222604804180
  0.7500000000000000  0.2500000000000000  0.5000000000000000
  0.2500000000000000  0.7500000000000000  0.5000000000000000
  0.7926405778325076  0.3672228358583922  0.1598624136908953
  0.2073594221674924  0.6327771641416078  0.8401375863091047
  0.3672228358583922  0.2073594221674924  0.5745822580259130
  0.6327771641416078  0.7926405778325076  0.4254177419740870
  0.7527107526955135  0.7527107526955135  0.0000000000000000
  0.2472892473044865  0.2472892473044865  0.0000000000000000
  0.4262102225068816  0.7081292877702268  0.7922933033896271
  0.5737897774931184  0.2918707122297732  0.2077066966103800
  0.9158349843806235  0.6339169191172545  0.2077066966103800
  0.7081292877702268  0.9158349843806235  0.2819190652633665
  0.0841650156193765  0.3660830808827455  0.7922933033896271
  0.2918707122297732  0.0841650156193765  0.7180809347366335
  0.6339169191172545  0.4262102225068816  0.7180809347366335
  0.3660830808827455  0.5737897774931184  0.2819190652633665
  0.7162048881788152  0.9190055897204346  0.0512259707653584
  0.2837951118211848  0.0809944102795654  0.9487740292346416
  0.8677796189550833  0.6649789174134497  0.9487740292346416
  0.9190055897204346  0.8677796189550833  0.2028007015416335
  0.1322203810449167  0.3350210825865503  0.0512259707653584
  0.0809944102795654  0.1322203810449167  0.7971992984583665
  0.6649789174134497  0.7162048881788152  0.7971992984583665
  0.3350210825865503  0.2837951118211848  0.2028007015416335
  0.6696267058536236  0.0778413025095617  0.7474680083631711
  0.3303732941463764  0.9221586974904383  0.2525319916368289
  0.0778413025095617  0.3303732941463764  0.4082145966559381
  0.9221586974904383  0.6696267058536236  0.5917854033440619
  0.0000000000000000  0.0000000000000000  0.0000000000000000
  0.9156266070743584  0.4848996776815255  0.4005262847558910
  0.0843733929256487  0.5151003223184745  0.5994737152441090
  0.4848996776815255  0.0843733929256487  0.5692720706071768
  0.5151003223184745  0.9156266070743584  0.4307279293928303
  0.7113163151493822  0.1354010393469594  0.2114472297841843
  0.2886836848506178  0.8645989606530406  0.7885527702158157
  0.9239538095627822  0.4998690853652192  0.7885527702158157
  0.1354010393469594  0.9239538095627822  0.4240857241975746
  0.0760461904372178  0.5001309146347808  0.2114472297841843
  0.8645989606530406  0.0760461904372178  0.5759142758024254
  0.4998690853652192  0.7113163151493822  0.5759142758024254
  0.5001309146347808  0.2886836848506178  0.4240857241975746
  0.7240156050647499  0.2473995290218980  0.9714151340866408
  0.2759843949352572  0.7526004709781020  0.0285848659133592
  0.2473995290218980  0.2759843949352572  0.5233839239571552
  0.7526004709781020  0.7240156050647499  0.4766160760428448
  0.5000000000000000  0.5000000000000000  0.0000000000000000

  0.00000000E+00  0.00000000E+00  0.00000000E+00
  0.00000000E+00  0.00000000E+00  0.00000000E+00
  0.00000000E+00  0.00000000E+00  0.00000000E+00
  0.00000000E+00  0.00000000E+00  0.00000000E+00
  0.00000000E+00  0.00000000E+00  0.00000000E+00
  0.00000000E+00  0.00000000E+00  0.00000000E+00
  0.00000000E+00  0.00000000E+00  0.00000000E+00
  0.00000000E+00  0.00000000E+00  0.00000000E+00
  0.00000000E+00  0.00000000E+00  0.00000000E+00
  0.00000000E+00  0.00000000E+00  0.00000000E+00
  0.00000000E+00  0.00000000E+00  0.00000000E+00
  0.00000000E+00  0.00000000E+00  0.00000000E+00
  0.00000000E+00  0.00000000E+00  0.00000000E+00
  0.00000000E+00  0.00000000E+00  0.00000000E+00
  0.00000000E+00  0.00000000E+00  0.00000000E+00
  0.00000000E+00  0.00000000E+00  0.00000000E+00
  0.00000000E+00  0.00000000E+00  0.00000000E+00
  0.00000000E+00  0.00000000E+00  0.00000000E+00
  0.00000000E+00  0.00000000E+00  0.00000000E+00
  0.00000000E+00  0.00000000E+00  0.00000000E+00
  0.00000000E+00  0.00000000E+00  0.00000000E+00
  0.00000000E+00  0.00000000E+00  0.00000000E+00
  0.00000000E+00  0.00000000E+00  0.00000000E+00
  0.00000000E+00  0.00000000E+00  0.00000000E+00
  0.00000000E+00  0.00000000E+00  0.00000000E+00
  0.00000000E+00  0.00000000E+00  0.00000000E+00
  0.00000000E+00  0.00000000E+00  0.00000000E+00
  0.00000000E+00  0.00000000E+00  0.00000000E+00
  0.00000000E+00  0.00000000E+00  0.00000000E+00
  0.00000000E+00  0.00000000E+00  0.00000000E+00
  0.00000000E+00  0.00000000E+00  0.00000000E+00
  0.00000000E+00  0.00000000E+00  0.00000000E+00
  0.00000000E+00  0.00000000E+00  0.00000000E+00
  0.00000000E+00  0.00000000E+00  0.00000000E+00
  0.00000000E+00  0.00000000E+00  0.00000000E+00
  0.00000000E+00  0.00000000E+00  0.00000000E+00
  0.00000000E+00  0.00000000E+00  0.00000000E+00
  0.00000000E+00  0.00000000E+00  0.00000000E+00
  0.00000000E+00  0.00000000E+00  0.00000000E+00
  0.00000000E+00  0.00000000E+00  0.00000000E+00
  0.00000000E+00  0.00000000E+00  0.00000000E+00
  0.00000000E+00  0.00000000E+00  0.00000000E+00
  0.00000000E+00  0.00000000E+00  0.00000000E+00
  0.00000000E+00  0.00000000E+00  0.00000000E+00
  0.00000000E+00  0.00000000E+00  0.00000000E+00
  0.00000000E+00  0.00000000E+00  0.00000000E+00
  0.00000000E+00  0.00000000E+00  0.00000000E+00
  0.00000000E+00  0.00000000E+00  0.00000000E+00
  0.00000000E+00  0.00000000E+00  0.00000000E+00
  0.00000000E+00  0.00000000E+00  0.00000000E+00
  0.00000000E+00  0.00000000E+00  0.00000000E+00
  0.00000000E+00  0.00000000E+00  0.00000000E+00
  0.00000000E+00  0.00000000E+00  0.00000000E+00
  0.00000000E+00  0.00000000E+00  0.00000000E+00
