Ba2 In2 Cl10                            
   1.00000000000000     
     6.9828605207977583    0.0850280948738470    2.5992035722625744
     1.6132007723085504    6.7944946809753226    2.5992030104448949
    -0.0222176156836385   -0.0177797149067076   10.3583048256730894
   Ba   In   Cl
     2     2    10
Direct
  0.4437723869288419  0.5562276131603099  0.2499999999280220
  0.5562276130711581  0.4437723868396901  0.7500000000719780
  0.0000000000000000  0.0000000000000000  0.5000000000000000
  0.0000000000000000  0.0000000000000000  0.0000000000000000
  0.7918196008437306  0.7613942055953515  0.6141157246532956
  0.2386057945401561  0.2081793990797323  0.8858842752984302
  0.2081793991562790  0.2386057944046485  0.3858852753467161
  0.7613942054598439  0.7918196009202703  0.1141157247015698
  0.9264780629645628  0.0735219369081506  0.7500000000950564
  0.0735219370354372  0.9264780630918494  0.2499999999049436
  0.7169966138723467  0.3076120706287071  0.0264160982621249
  0.6923879292285022  0.2830033860973842  0.4735839018667320
  0.2830033861276533  0.6923879293712929  0.9735839017378751
  0.3076120707714978  0.7169966139026158  0.5264160981332680
 
  0.00000000E+00  0.00000000E+00  0.00000000E+00
  0.00000000E+00  0.00000000E+00  0.00000000E+00
  0.00000000E+00  0.00000000E+00  0.00000000E+00
  0.00000000E+00  0.00000000E+00  0.00000000E+00
  0.00000000E+00  0.00000000E+00  0.00000000E+00
  0.00000000E+00  0.00000000E+00  0.00000000E+00
  0.00000000E+00  0.00000000E+00  0.00000000E+00
  0.00000000E+00  0.00000000E+00  0.00000000E+00
  0.00000000E+00  0.00000000E+00  0.00000000E+00
  0.00000000E+00  0.00000000E+00  0.00000000E+00
  0.00000000E+00  0.00000000E+00  0.00000000E+00
  0.00000000E+00  0.00000000E+00  0.00000000E+00
  0.00000000E+00  0.00000000E+00  0.00000000E+00
  0.00000000E+00  0.00000000E+00  0.00000000E+00
