Ca2 In2 Cl10                            
   1.0000000000000000     
     4.7508708103335788   -0.0000000000000002    0.0000000000000002
    -0.0000000000000009   11.0344357884321322    0.0000000000000006
    -0.0000000000000001   -0.0000000000000000   11.2106082267053164
   Ca   In   Cl
     2     2    10
Direct
  0.0000000000000000  0.0000000000000000  0.5000000000000000
  0.5000000000000000  0.5000000000000000  0.0000000000000000
  0.5000000000000000  0.0000000000000000  0.0000000000000000
  0.0000000000000000  0.5000000000000000  0.5000000000000000
  0.5000000000000000  0.8512962231160301  0.5000000000000000
  0.5000000000000000  0.1487037768839770  0.5000000000000000
  0.5000000000000000  0.0000000000000000  0.7888373790228087
  0.5000000000000000  0.0000000000000000  0.2111626209771913
  0.0000000000000000  0.0000000000000000  0.0000000000000000
  0.0000000000000000  0.3512962231160301  0.0000000000000000
  0.0000000000000000  0.6487037768839699  0.0000000000000000
  0.0000000000000000  0.5000000000000000  0.2888373790228087
  0.0000000000000000  0.5000000000000000  0.7111626209771913
  0.5000000000000000  0.5000000000000000  0.5000000000000000

  0.00000000E+00  0.00000000E+00  0.00000000E+00
  0.00000000E+00  0.00000000E+00  0.00000000E+00
  0.00000000E+00  0.00000000E+00  0.00000000E+00
  0.00000000E+00  0.00000000E+00  0.00000000E+00
  0.00000000E+00  0.00000000E+00  0.00000000E+00
  0.00000000E+00  0.00000000E+00  0.00000000E+00
  0.00000000E+00  0.00000000E+00  0.00000000E+00
  0.00000000E+00  0.00000000E+00  0.00000000E+00
  0.00000000E+00  0.00000000E+00  0.00000000E+00
  0.00000000E+00  0.00000000E+00  0.00000000E+00
  0.00000000E+00  0.00000000E+00  0.00000000E+00
  0.00000000E+00  0.00000000E+00  0.00000000E+00
  0.00000000E+00  0.00000000E+00  0.00000000E+00
  0.00000000E+00  0.00000000E+00  0.00000000E+00
