Sr1 Tl3 I6                              
   1.0000000000000000     
     9.1586121604828250    0.0364330727301137    0.1620397551816750
     0.0364330727301137    9.1586121604828250    0.1620397551816752
     4.7067189614380753    4.7067189614380753    6.6724030101163159
   I    Sr   Tl
     6     1     3
Direct
  0.7489402205556317  0.2510597794443683  0.0000000000000000
  0.2197403848572250  0.2197403848572250  0.0622543761401602
  0.2510597794443683  0.7489402205556317  0.0000000000000000
  0.7802596151427750  0.7802596151427750  0.9377456238598398
  0.7795465852141135  0.7795465852141135  0.5013584814046226
  0.2204534147858865  0.2204534147858865  0.4986415185953774
  0.0000000000000000  0.0000000000000000  0.0000000000000000
  0.5000000000000000  0.5000000000000000  0.0000000000000000
  0.1597055294245564  0.8402944705754436  0.5000000000000000
  0.8402944705754436  0.1597055294245564  0.5000000000000000

  0.00000000E+00  0.00000000E+00  0.00000000E+00
  0.00000000E+00  0.00000000E+00  0.00000000E+00
  0.00000000E+00  0.00000000E+00  0.00000000E+00
  0.00000000E+00  0.00000000E+00  0.00000000E+00
  0.00000000E+00  0.00000000E+00  0.00000000E+00
  0.00000000E+00  0.00000000E+00  0.00000000E+00
  0.00000000E+00  0.00000000E+00  0.00000000E+00
  0.00000000E+00  0.00000000E+00  0.00000000E+00
  0.00000000E+00  0.00000000E+00  0.00000000E+00
  0.00000000E+00  0.00000000E+00  0.00000000E+00
