B1                                      
   1.00000000000000     
     0.0000000000000002   -0.0000000000000001    4.3118914141697093
     1.7145154166664629   -0.0000000039701871    0.0000000000000000
    -0.8572582102843692    1.4848131112176650    0.0000000000000000
   B 
     1
Direct
  0.0000000000000000  0.0000000000000000  0.0000000000000000
 
  0.00000000E+00  0.00000000E+00  0.00000000E+00
