Ba10 B4 F32                             
   1.00000000000000     
     3.7253408445614724   -6.4797360952080973    0.0000000000000000
     3.7253408445614724    6.4797360952080973    0.0000000000000000
     0.0000000000000000    0.0000000000000000   14.4454430720178504
   Ba   B    F 
    10     4    32
Direct
  0.0000000000000000  0.0000000000000000  0.7162970476541304
  0.0000000000000000  0.0000000000000000  0.2837029523458696
  0.5000000000000000  0.5000000000000000  0.7837029523458696
  0.5000000000000000  0.5000000000000000  0.2162970476541375
  0.5000000000000000  0.5000000000000000  0.5000000000000000
  0.0000000000000000  0.0000000000000000  0.0000000000000000
  0.0000000000000000  0.5000000000000000  0.6192230978765068
  0.5000000000000000  0.0000000000000000  0.3807769021234932
  0.5000000000000000  0.0000000000000000  0.8807769021234932
  0.0000000000000000  0.5000000000000000  0.1192230978765068
  0.5000000000000000  0.0000000000000000  0.6279335712133260
  0.0000000000000000  0.5000000000000000  0.3720664287866740
  0.0000000000000000  0.5000000000000000  0.8720664287866740
  0.5000000000000000  0.0000000000000000  0.1279335712133260
  0.5267485076053973  0.1661290178292276  0.7073820008966578
  0.4732514923946027  0.8338709821707724  0.7073820008966578
  0.1661290178292276  0.5267485076053973  0.2926179991033422
  0.8338709821707724  0.4732514923946027  0.2926179991033422
  0.9732514923946027  0.3338709821707724  0.7926179991033422
  0.0267485076053973  0.6661290178292276  0.7926179991033422
  0.3338709821707724  0.9732514923946027  0.2073820008966578
  0.6661290178292276  0.0267485076053973  0.2073820008966578
  0.2444944415673618  0.9068307192033274  0.6256468141653500
  0.7555055584326382  0.0931692807966726  0.6256468141653500
  0.9068307192033274  0.2444944415673618  0.3743531858346500
  0.0931692807966726  0.7555055584326382  0.3743531858346500
  0.2555055584326382  0.5931692807966726  0.8743531858346500
  0.7444944415673618  0.4068307192033274  0.8743531858346500
  0.6661645965508498  0.0270176742725781  0.0491565609725555
  0.3338354034491502  0.9729823257274219  0.0491565609725555
  0.0270176742725781  0.6661645965508498  0.9508434390274374
  0.9729823257274219  0.3338354034491502  0.9508434390274374
  0.8338354034491502  0.4729823257274219  0.4508434390274516
  0.1661645965508498  0.5270176742725781  0.4508434390274516
  0.4729823257274219  0.8338354034491502  0.5491565609725626
  0.5270176742725781  0.1661645965508498  0.5491565609725626
  0.8525797695660984  0.7492889412306596  0.1396778910467731
  0.1474202304339016  0.2507110587693404  0.1396778910467731
  0.7492889412306596  0.8525797695660984  0.8603221089532269
  0.2507110587693404  0.1474202304339016  0.8603221089532269
  0.6474202304339016  0.7507110587693404  0.3603221089532198
  0.3525797695660984  0.2492889412306596  0.3603221089532198
  0.7507110587693404  0.6474202304339016  0.6396778910467731
  0.2492889412306596  0.3525797695660984  0.6396778910467731
  0.4068307192033274  0.7444944415673618  0.1256468141653500
  0.5931692807966726  0.2555055584326382  0.1256468141653500
 
  0.00000000E+00  0.00000000E+00  0.00000000E+00
  0.00000000E+00  0.00000000E+00  0.00000000E+00
  0.00000000E+00  0.00000000E+00  0.00000000E+00
  0.00000000E+00  0.00000000E+00  0.00000000E+00
  0.00000000E+00  0.00000000E+00  0.00000000E+00
  0.00000000E+00  0.00000000E+00  0.00000000E+00
  0.00000000E+00  0.00000000E+00  0.00000000E+00
  0.00000000E+00  0.00000000E+00  0.00000000E+00
  0.00000000E+00  0.00000000E+00  0.00000000E+00
  0.00000000E+00  0.00000000E+00  0.00000000E+00
  0.00000000E+00  0.00000000E+00  0.00000000E+00
  0.00000000E+00  0.00000000E+00  0.00000000E+00
  0.00000000E+00  0.00000000E+00  0.00000000E+00
  0.00000000E+00  0.00000000E+00  0.00000000E+00
  0.00000000E+00  0.00000000E+00  0.00000000E+00
  0.00000000E+00  0.00000000E+00  0.00000000E+00
  0.00000000E+00  0.00000000E+00  0.00000000E+00
  0.00000000E+00  0.00000000E+00  0.00000000E+00
  0.00000000E+00  0.00000000E+00  0.00000000E+00
  0.00000000E+00  0.00000000E+00  0.00000000E+00
  0.00000000E+00  0.00000000E+00  0.00000000E+00
  0.00000000E+00  0.00000000E+00  0.00000000E+00
  0.00000000E+00  0.00000000E+00  0.00000000E+00
  0.00000000E+00  0.00000000E+00  0.00000000E+00
  0.00000000E+00  0.00000000E+00  0.00000000E+00
  0.00000000E+00  0.00000000E+00  0.00000000E+00
  0.00000000E+00  0.00000000E+00  0.00000000E+00
  0.00000000E+00  0.00000000E+00  0.00000000E+00
  0.00000000E+00  0.00000000E+00  0.00000000E+00
  0.00000000E+00  0.00000000E+00  0.00000000E+00
  0.00000000E+00  0.00000000E+00  0.00000000E+00
  0.00000000E+00  0.00000000E+00  0.00000000E+00
  0.00000000E+00  0.00000000E+00  0.00000000E+00
  0.00000000E+00  0.00000000E+00  0.00000000E+00
  0.00000000E+00  0.00000000E+00  0.00000000E+00
  0.00000000E+00  0.00000000E+00  0.00000000E+00
  0.00000000E+00  0.00000000E+00  0.00000000E+00
  0.00000000E+00  0.00000000E+00  0.00000000E+00
  0.00000000E+00  0.00000000E+00  0.00000000E+00
  0.00000000E+00  0.00000000E+00  0.00000000E+00
  0.00000000E+00  0.00000000E+00  0.00000000E+00
  0.00000000E+00  0.00000000E+00  0.00000000E+00
  0.00000000E+00  0.00000000E+00  0.00000000E+00
  0.00000000E+00  0.00000000E+00  0.00000000E+00
  0.00000000E+00  0.00000000E+00  0.00000000E+00
  0.00000000E+00  0.00000000E+00  0.00000000E+00
