Mg6 In4 Br24                            
   1.0000000000000000     
     0.0000000000000000    0.0000000000000000    7.3357353699719692
    13.8508309163280590   -0.0065581804462459    0.0000000000000000
     0.0006478903552493   14.8796802402953929    0.0000000000000000
   Mg   Br   In
     6    24     4
Direct
  0.0000000000000000  0.0800753890446941  0.7858915717254504
  0.5000000000000000  0.4734901412821202  0.1721131183996079
  0.5000000000000000  0.9732324200509339  0.3280048476234185
  0.0000000000000000  0.5800209865376118  0.7140608076202781
  0.5000000000000000  0.1438773862262863  0.4531002781911440
  0.5000000000000000  0.6439167347933790  0.0468772027261153
  0.2670890861736765  0.5029068680417268  0.0423998185612362
  0.7329109138263235  0.5029068680417268  0.0423998185612362
  0.2496876434497182  0.7555489887331888  0.1114796522234585
  0.7503123565502818  0.7555489887331888  0.1114796522234585
  0.0000000000000000  0.2773188946140266  0.1522085580560670
  0.2519994827579026  0.0321842099587570  0.2153718894011618
  0.7480005172420974  0.0321842099587570  0.2153718894011618
  0.2519740192344386  0.5325159476291503  0.2847193587598227
  0.7480259807655614  0.5325159476291503  0.2847193587598227
  0.0000000000000000  0.7777406345099536  0.3477810193017632
  0.2496457590589714  0.2554332088654618  0.3885150109004343
  0.7503542409410286  0.2554332088654618  0.3885150109004343
  0.2670692767983454  0.0028670094307230  0.4576865798962331
  0.7329307232016546  0.0028670094307230  0.4576865798962331
  0.2417505995110005  0.7003177008582497  0.6416784401011881
  0.7582494004889995  0.7003177008582497  0.6416784401011881
  0.0000000000000000  0.1846700423656102  0.6359911562390010
  0.2451727613345867  0.4446157784097267  0.7352390046916142
  0.7548272386654133  0.4446157784097267  0.7352390046916142
  0.2451588490795373  0.9446297568669166  0.7647328182464079
  0.7548411509204627  0.9446297568669166  0.7647328182464079
  0.0000000000000000  0.6847961972981764  0.8639738460694986
  0.2417573283813255  0.2004476844051482  0.8582930709692320
  0.7582426716186745  0.2004476844051482  0.8582930709692320
  0.0000000000000000  0.6595119226066046  0.2187347099678618
  0.0000000000000000  0.1592437247208096  0.2812781504619224
  0.0000000000000000  0.8096770123790975  0.7295570878026822
  0.0000000000000000  0.3096942071725834  0.7703963583135902

  0.00000000E+00  0.00000000E+00  0.00000000E+00
  0.00000000E+00  0.00000000E+00  0.00000000E+00
  0.00000000E+00  0.00000000E+00  0.00000000E+00
  0.00000000E+00  0.00000000E+00  0.00000000E+00
  0.00000000E+00  0.00000000E+00  0.00000000E+00
  0.00000000E+00  0.00000000E+00  0.00000000E+00
  0.00000000E+00  0.00000000E+00  0.00000000E+00
  0.00000000E+00  0.00000000E+00  0.00000000E+00
  0.00000000E+00  0.00000000E+00  0.00000000E+00
  0.00000000E+00  0.00000000E+00  0.00000000E+00
  0.00000000E+00  0.00000000E+00  0.00000000E+00
  0.00000000E+00  0.00000000E+00  0.00000000E+00
  0.00000000E+00  0.00000000E+00  0.00000000E+00
  0.00000000E+00  0.00000000E+00  0.00000000E+00
  0.00000000E+00  0.00000000E+00  0.00000000E+00
  0.00000000E+00  0.00000000E+00  0.00000000E+00
  0.00000000E+00  0.00000000E+00  0.00000000E+00
  0.00000000E+00  0.00000000E+00  0.00000000E+00
  0.00000000E+00  0.00000000E+00  0.00000000E+00
  0.00000000E+00  0.00000000E+00  0.00000000E+00
  0.00000000E+00  0.00000000E+00  0.00000000E+00
  0.00000000E+00  0.00000000E+00  0.00000000E+00
  0.00000000E+00  0.00000000E+00  0.00000000E+00
  0.00000000E+00  0.00000000E+00  0.00000000E+00
  0.00000000E+00  0.00000000E+00  0.00000000E+00
  0.00000000E+00  0.00000000E+00  0.00000000E+00
  0.00000000E+00  0.00000000E+00  0.00000000E+00
  0.00000000E+00  0.00000000E+00  0.00000000E+00
  0.00000000E+00  0.00000000E+00  0.00000000E+00
  0.00000000E+00  0.00000000E+00  0.00000000E+00
  0.00000000E+00  0.00000000E+00  0.00000000E+00
  0.00000000E+00  0.00000000E+00  0.00000000E+00
  0.00000000E+00  0.00000000E+00  0.00000000E+00
  0.00000000E+00  0.00000000E+00  0.00000000E+00
