Mg1 Ga2 I10                             
   1.00000000000000     
     6.2541927080762951    6.6469614081579822    0.5156386983708680
    -6.2541927080762951    6.6469614081579822    0.5156386983708680
    -0.0000000000000001    5.3443378158592560    9.3847815031398341
   Mg   Ga   I 
     1     2    10
Direct
  0.5858748999767229  0.4141251000232771  0.0000000000000000
  0.1440157902585426  0.1168944939572754  0.5871006769435567
  0.8831055060427246  0.8559842097414574  0.4128993230564504
  0.3157826170051621  0.3683096591183883  0.3609154092573945
  0.6316903408816117  0.6842173829948379  0.6390845907426126
  0.7204146793688295  0.6265640616773780  0.0379745564622667
  0.3734359383226220  0.2795853206311705  0.9620254435377404
  0.8343602445655307  0.1656397554344693  0.0000000000000000
  0.1160676044566102  0.8839323955433898  0.5000000000000000
  0.8380378296112099  0.1767000591309724  0.7212154681872320
  0.8232999408690276  0.1619621703887901  0.2787845318127680
  0.2581278153893436  0.9802142067479238  0.7759714970631819
  0.0197857932520762  0.7418721846106635  0.2240285029368181
 
  0.00000000E+00  0.00000000E+00  0.00000000E+00
  0.00000000E+00  0.00000000E+00  0.00000000E+00
  0.00000000E+00  0.00000000E+00  0.00000000E+00
  0.00000000E+00  0.00000000E+00  0.00000000E+00
  0.00000000E+00  0.00000000E+00  0.00000000E+00
  0.00000000E+00  0.00000000E+00  0.00000000E+00
  0.00000000E+00  0.00000000E+00  0.00000000E+00
  0.00000000E+00  0.00000000E+00  0.00000000E+00
  0.00000000E+00  0.00000000E+00  0.00000000E+00
  0.00000000E+00  0.00000000E+00  0.00000000E+00
  0.00000000E+00  0.00000000E+00  0.00000000E+00
  0.00000000E+00  0.00000000E+00  0.00000000E+00
  0.00000000E+00  0.00000000E+00  0.00000000E+00
