Mg2 Al4 F16                             
   1.00000000000000     
     5.3090531931636722    3.1549628878127671    0.0358511562786801
    -5.3090531931636722    3.1549628878127671    0.0358511562786801
     0.0000000000000000    0.3481408133180989    6.8098394576076746
   Mg   Al   F 
     2     4    16
Direct
  0.5165129427775739  0.4834870572224261  0.7500000000000000
  0.4834870572224261  0.5165129427775739  0.2500000000000000
  0.8823636329288078  0.1176363670711922  0.7500000000000000
  0.1176363670711922  0.8823636329288078  0.2500000000000000
  0.5000000000000000  0.0000000000000000  0.5000000000000000
  0.0000000000000000  0.5000000000000000  0.0000000000000000
  0.7882709560228847  0.8033196116622960  0.7656386317257144
  0.2117290439771153  0.1966803883377040  0.2343613682742856
  0.1966803883377040  0.2117290439771153  0.7343613682742856
  0.8033196116622960  0.7882709560228847  0.2656386317257216
  0.5448760272079625  0.0371030281376008  0.7590201583892409
  0.4551239727920375  0.9628969718623992  0.2409798416107591
  0.9628969718623992  0.4551239727920375  0.7409798416107591
  0.0371030281376008  0.5448760272079625  0.2590201583892409
  0.1693670788665642  0.8825033262615847  0.5092194167649922
  0.8306329211334358  0.1174966737384224  0.4907805832350078
  0.1174966737384224  0.8306329211334358  0.9907805832350078
  0.8825033262615847  0.1693670788665642  0.0092194167649922
  0.4372518494650350  0.6725116936661450  0.5164828953509044
  0.5627481505349650  0.3274883063338550  0.4835171046490956
  0.3274883063338550  0.5627481505349650  0.9835171046490956
  0.6725116936661450  0.4372518494650350  0.0164828953509044
 
  0.00000000E+00  0.00000000E+00  0.00000000E+00
  0.00000000E+00  0.00000000E+00  0.00000000E+00
  0.00000000E+00  0.00000000E+00  0.00000000E+00
  0.00000000E+00  0.00000000E+00  0.00000000E+00
  0.00000000E+00  0.00000000E+00  0.00000000E+00
  0.00000000E+00  0.00000000E+00  0.00000000E+00
  0.00000000E+00  0.00000000E+00  0.00000000E+00
  0.00000000E+00  0.00000000E+00  0.00000000E+00
  0.00000000E+00  0.00000000E+00  0.00000000E+00
  0.00000000E+00  0.00000000E+00  0.00000000E+00
  0.00000000E+00  0.00000000E+00  0.00000000E+00
  0.00000000E+00  0.00000000E+00  0.00000000E+00
  0.00000000E+00  0.00000000E+00  0.00000000E+00
  0.00000000E+00  0.00000000E+00  0.00000000E+00
  0.00000000E+00  0.00000000E+00  0.00000000E+00
  0.00000000E+00  0.00000000E+00  0.00000000E+00
  0.00000000E+00  0.00000000E+00  0.00000000E+00
  0.00000000E+00  0.00000000E+00  0.00000000E+00
  0.00000000E+00  0.00000000E+00  0.00000000E+00
  0.00000000E+00  0.00000000E+00  0.00000000E+00
  0.00000000E+00  0.00000000E+00  0.00000000E+00
  0.00000000E+00  0.00000000E+00  0.00000000E+00
