Mg28 B11                                
   1.00000000000000     
     4.0406811468998525    0.0000001382597667   -0.3493608531174867
    -0.0616072608591646    5.8082791379824616   -0.7125420601009943
     0.2541706769446528    0.3031946668363758   26.4815087010284103
   Mg   B 
    28    11
Direct
  0.8290479737545695  0.6586259608950940  0.6580959479463715
  0.2409165712794774  0.0114557895989549  0.4818341422428034
  0.2204579713558630  0.4376269057002773  0.4409159431623664
  0.8623110467825228  0.0755961115987844  0.7246220935969419
  0.1376889533054495  0.3509740179496958  0.2753779063958177
  0.5998778075497526  0.2699974673766405  0.1997566143756657
  0.3496611127827123  0.3970358253683415  0.6993222252901816
  0.2953177151398521  0.4063778589271223  0.5906354295365617
  0.7590834289253365  0.5296216473893836  0.5181658577398949
  0.9593983198504574  0.5712458897438992  0.9187966394437552
  0.7795420285051975  0.9967109624228385  0.5590840568490734
  0.5787229488826711  0.6940409784969646  0.1574458984579579
  0.7046822851903087  0.8157424295329889  0.4093645704348177
  0.6823183198551632  0.3415293158431894  0.3646356399865525
  0.9386097190689782  0.0000434986967974  0.8772194380548868
  0.3176816799498354  0.9768936758362301  0.6353643600292216
  0.1158762974667980  0.8717380980838314  0.2317535947349185
  0.0613902808462186  0.1228240607107978  0.1227805619520552
  0.5000000001292619  0.6635736800054914  0.9999999999896758
  0.0000000003849863  0.9920734700219782  0.9999999999688072
  0.0406016801589502  0.6524492503969128  0.0812033605553353
  0.4727103368429155  0.2241213471661112  0.9454206738446089
  0.5272896625730894  0.2787006735237796  0.0545783262040018
  0.1709520254828405  0.0005300131204251  0.3419040521156873
  0.6503388879466598  0.6977135998572024  0.3006777746502820
  0.8841237024017303  0.6399845034854437  0.7682464052766775
  0.4001221927413070  0.0702418531548830  0.8002433856001332
  0.4212770508085555  0.5365950799052683  0.8425541015679201
  0.0904693248547090  0.4895647572046400  0.1809386497034779
  0.0000000000202363  0.3951170411174445  0.9999999999983160
  0.2734252908638481  0.7458054562703111  0.5468505818980987
  0.3602923722542428  0.8026967508503091  0.7205847445186677
  0.6397076277229417  0.0821120063398411  0.2794152554827605
  0.9095306751783312  0.3086261074885712  0.8190613502942412
  0.7265747090613246  0.1989548743376020  0.4531494181072446
  0.1795738912197393  0.6108823896643685  0.3591477823346949
  0.5418084264667442  0.9125779487162760  0.0836158528753543
  0.4581915735650028  0.8289620958521269  0.9163841471228409
  0.8204261088314055  0.2517346073491851  0.6408522176613332
 
  0.00000000E+00  0.00000000E+00  0.00000000E+00
  0.00000000E+00  0.00000000E+00  0.00000000E+00
  0.00000000E+00  0.00000000E+00  0.00000000E+00
  0.00000000E+00  0.00000000E+00  0.00000000E+00
  0.00000000E+00  0.00000000E+00  0.00000000E+00
  0.00000000E+00  0.00000000E+00  0.00000000E+00
  0.00000000E+00  0.00000000E+00  0.00000000E+00
  0.00000000E+00  0.00000000E+00  0.00000000E+00
  0.00000000E+00  0.00000000E+00  0.00000000E+00
  0.00000000E+00  0.00000000E+00  0.00000000E+00
  0.00000000E+00  0.00000000E+00  0.00000000E+00
  0.00000000E+00  0.00000000E+00  0.00000000E+00
  0.00000000E+00  0.00000000E+00  0.00000000E+00
  0.00000000E+00  0.00000000E+00  0.00000000E+00
  0.00000000E+00  0.00000000E+00  0.00000000E+00
  0.00000000E+00  0.00000000E+00  0.00000000E+00
  0.00000000E+00  0.00000000E+00  0.00000000E+00
  0.00000000E+00  0.00000000E+00  0.00000000E+00
  0.00000000E+00  0.00000000E+00  0.00000000E+00
  0.00000000E+00  0.00000000E+00  0.00000000E+00
  0.00000000E+00  0.00000000E+00  0.00000000E+00
  0.00000000E+00  0.00000000E+00  0.00000000E+00
  0.00000000E+00  0.00000000E+00  0.00000000E+00
  0.00000000E+00  0.00000000E+00  0.00000000E+00
  0.00000000E+00  0.00000000E+00  0.00000000E+00
  0.00000000E+00  0.00000000E+00  0.00000000E+00
  0.00000000E+00  0.00000000E+00  0.00000000E+00
  0.00000000E+00  0.00000000E+00  0.00000000E+00
  0.00000000E+00  0.00000000E+00  0.00000000E+00
  0.00000000E+00  0.00000000E+00  0.00000000E+00
  0.00000000E+00  0.00000000E+00  0.00000000E+00
  0.00000000E+00  0.00000000E+00  0.00000000E+00
  0.00000000E+00  0.00000000E+00  0.00000000E+00
  0.00000000E+00  0.00000000E+00  0.00000000E+00
  0.00000000E+00  0.00000000E+00  0.00000000E+00
  0.00000000E+00  0.00000000E+00  0.00000000E+00
  0.00000000E+00  0.00000000E+00  0.00000000E+00
  0.00000000E+00  0.00000000E+00  0.00000000E+00
  0.00000000E+00  0.00000000E+00  0.00000000E+00
