Ba17 Tl11 Br1                           
   1.0000000000000000     
    10.2131106015860880   -5.6427275837572797    4.5438306302924794
    -0.1549731352048243   10.3627293209589695    3.6878640860155452
    -9.8229099414867314   -5.2590230847144133    4.1256691081188395
   Tl   Br   Ba
    11     1    17
Direct
  0.6195616780919195  0.8188654363959529  0.9977133477706772
  0.4008001661916509  0.3626032016908951  0.1864401746045203
  0.2831932039408755  0.8536257661199400  0.2620022471601899
  0.8161157215815251  0.1658695382506536  0.1558010463133002
  0.2050486249322958  0.3402166163331799  0.3108765195399030
  0.4141103698768021  0.2119261376083159  0.4014434683660184
  0.0137883445215081  0.8388328409563215  0.6315781538956529
  0.7709716278610372  0.9081732898694170  0.5867162516955915
  0.6227090076508119  0.9740479627634429  0.8117203983006718
  0.9982238363270994  0.5422259618334238  0.7433774543743681
  0.2396260340888432  0.1893028692496586  0.8361939561611393
  0.6644556737014824  0.4605789264154723  0.8848432755417264
  0.9767757588485608  0.5714110777633650  0.0575500431774145
  0.2946797534423879  0.5562797474788326  0.0149148650270163
  0.2006291481983027  0.9760338673318998  0.0173467621383381
  0.5643825752584490  0.2477390667104586  0.0081381478398299
  0.9883542203953581  0.1741386509929441  0.9479384009709690
  0.7224021678288750  0.7160549016740489  0.2601926089791391
  0.0317189450723774  0.5140154385651670  0.4085589926655189
  0.5813602121358770  0.0248345101661158  0.2656511337423879
  0.0138583839608728  0.9917635268104874  0.2309790325993788
  0.4421265378012222  0.7072160855232994  0.4573273055061975
  0.7136612243566987  0.4800630504837216  0.4532678343491341
  0.2695947355383908  0.9985508084483854  0.5557323171550976
  0.9928755589610958  0.2081981067469982  0.5809305597469034
  0.7786475700427644  0.7297572034375435  0.8015782218171807
  0.3129041442513554  0.7903417686344483  0.7899459145589489
  0.6779588345118910  0.2057048385708384  0.6620009653384571
  0.3898799406297044  0.4397848031747600  0.6792406006643432

  0.00000000E+00  0.00000000E+00  0.00000000E+00
  0.00000000E+00  0.00000000E+00  0.00000000E+00
  0.00000000E+00  0.00000000E+00  0.00000000E+00
  0.00000000E+00  0.00000000E+00  0.00000000E+00
  0.00000000E+00  0.00000000E+00  0.00000000E+00
  0.00000000E+00  0.00000000E+00  0.00000000E+00
  0.00000000E+00  0.00000000E+00  0.00000000E+00
  0.00000000E+00  0.00000000E+00  0.00000000E+00
  0.00000000E+00  0.00000000E+00  0.00000000E+00
  0.00000000E+00  0.00000000E+00  0.00000000E+00
  0.00000000E+00  0.00000000E+00  0.00000000E+00
  0.00000000E+00  0.00000000E+00  0.00000000E+00
  0.00000000E+00  0.00000000E+00  0.00000000E+00
  0.00000000E+00  0.00000000E+00  0.00000000E+00
  0.00000000E+00  0.00000000E+00  0.00000000E+00
  0.00000000E+00  0.00000000E+00  0.00000000E+00
  0.00000000E+00  0.00000000E+00  0.00000000E+00
  0.00000000E+00  0.00000000E+00  0.00000000E+00
  0.00000000E+00  0.00000000E+00  0.00000000E+00
  0.00000000E+00  0.00000000E+00  0.00000000E+00
  0.00000000E+00  0.00000000E+00  0.00000000E+00
  0.00000000E+00  0.00000000E+00  0.00000000E+00
  0.00000000E+00  0.00000000E+00  0.00000000E+00
  0.00000000E+00  0.00000000E+00  0.00000000E+00
  0.00000000E+00  0.00000000E+00  0.00000000E+00
  0.00000000E+00  0.00000000E+00  0.00000000E+00
  0.00000000E+00  0.00000000E+00  0.00000000E+00
  0.00000000E+00  0.00000000E+00  0.00000000E+00
  0.00000000E+00  0.00000000E+00  0.00000000E+00
