Ba9In4                                  
   1.0000000000000000     
     0.0020872193388686   -0.0160344025569410    5.9827366983464287
    -7.0934899992476632    7.1004111238722487    2.9693340152982062
    -7.1124511131393140   -7.1172760422038843   -2.9739678073728624
   Ba   In
     9     4
Direct
  0.5000053621180101  0.9999731108643886  0.9999759517827158
  0.8808888238103521  0.2988973421219043  0.0766399298980502
  0.3833050905726196  0.4912132595793111  0.2629640272596419
  0.1893906185977627  0.9232183536178979  0.2968125815581217
  0.8749702221308979  0.7394837855958940  0.4915480988072218
  0.1250269304576079  0.2604748812312963  0.5084038460640414
  0.8106096066748805  0.0767323472259349  0.7031404810175061
  0.6166968961488095  0.5087483277055682  0.7369940951482192
  0.1191116372798362  0.7010522743472833  0.9233107358719437
  0.7377787734478716  0.6662474884805079  0.1424568480805348
  0.6026109548638345  0.1412027265737521  0.3351168988452713
  0.3973893739472416  0.8587465188102499  0.6648402475913855
  0.2622157099502687  0.3337095838460158  0.8574962580753436

  0.00000000E+00  0.00000000E+00  0.00000000E+00
  0.00000000E+00  0.00000000E+00  0.00000000E+00
  0.00000000E+00  0.00000000E+00  0.00000000E+00
  0.00000000E+00  0.00000000E+00  0.00000000E+00
  0.00000000E+00  0.00000000E+00  0.00000000E+00
  0.00000000E+00  0.00000000E+00  0.00000000E+00
  0.00000000E+00  0.00000000E+00  0.00000000E+00
  0.00000000E+00  0.00000000E+00  0.00000000E+00
  0.00000000E+00  0.00000000E+00  0.00000000E+00
  0.00000000E+00  0.00000000E+00  0.00000000E+00
  0.00000000E+00  0.00000000E+00  0.00000000E+00
  0.00000000E+00  0.00000000E+00  0.00000000E+00
  0.00000000E+00  0.00000000E+00  0.00000000E+00
