Be2 Tl2 Br10                            
   1.00000000000000     
     6.5175087911613074   -0.9847816348846276    2.5584793954292500
     0.4674166237987696    6.5748947451038973    2.5584787957250898
    -0.5602847663612054   -0.4484006372467078   12.2272581548451242
   Be   Tl   Br
     2     2    10
Direct
  0.3508712508639320  0.6491287492558300  0.2499999999768647
  0.6491287491360680  0.3508712507441700  0.7500000000231353
  0.0000000000000000  0.0000000000000000  0.5000000000000000
  0.0000000000000000  0.0000000000000000  0.0000000000000000
  0.6924273900510443  0.6151815798537186  0.6030427473788862
  0.3848184224345772  0.3075716078643609  0.8969572524544915
  0.3075716099489583  0.3848184201462814  0.3969582526211184
  0.6151815775654228  0.6924273921356416  0.1030427475455085
  0.8667613689611500  0.1332386305930484  0.7500000002658211
  0.1332386310388500  0.8667613694069516  0.2499999997341789
  0.8030415306784704  0.2702794168315279  0.0696723242056478
  0.7297205817017769  0.1969584680526069  0.4303276776595197
  0.1969584693215296  0.7297205831684721  0.9303276757943522
  0.2702794182982231  0.8030415319473931  0.5696723223404803
 
  0.00000000E+00  0.00000000E+00  0.00000000E+00
  0.00000000E+00  0.00000000E+00  0.00000000E+00
  0.00000000E+00  0.00000000E+00  0.00000000E+00
  0.00000000E+00  0.00000000E+00  0.00000000E+00
  0.00000000E+00  0.00000000E+00  0.00000000E+00
  0.00000000E+00  0.00000000E+00  0.00000000E+00
  0.00000000E+00  0.00000000E+00  0.00000000E+00
  0.00000000E+00  0.00000000E+00  0.00000000E+00
  0.00000000E+00  0.00000000E+00  0.00000000E+00
  0.00000000E+00  0.00000000E+00  0.00000000E+00
  0.00000000E+00  0.00000000E+00  0.00000000E+00
  0.00000000E+00  0.00000000E+00  0.00000000E+00
  0.00000000E+00  0.00000000E+00  0.00000000E+00
  0.00000000E+00  0.00000000E+00  0.00000000E+00
