Ba4 In4 Br12                            
   1.0000000000000000     
    11.9945859581711698    0.0000000000000000   -0.0253727132943077
     0.0000000000000000    4.8961669976362217    0.0000000000000000
    -0.0358063528313525    0.0000000000000000   15.1747098901878665
   Br   In   Ba
    12     4     4
Direct
  0.1588333823383650  0.2500000000000000  0.0225400901392661
  0.5270721386953525  0.7500000000000000  0.1090582190969656
  0.8335728377466438  0.2500000000000000  0.2089562436532404
  0.3266435216613388  0.2500000000000000  0.2915471008540322
  0.0243341346201049  0.7500000000000000  0.3916787758345706
  0.6551393897057949  0.2500000000000000  0.4757301215439540
  0.3420602843184568  0.7500000000000000  0.5239400132212779
  0.9726798357219408  0.2500000000000000  0.6085903665842665
  0.6701543965791643  0.7500000000000000  0.7083427447234669
  0.1693704900037929  0.7500000000000000  0.7908174061441287
  0.4757973656610659  0.2500000000000000  0.8910503417677091
  0.8440845081101571  0.7500000000000000  0.9772560874653919
  0.9849483673573900  0.7500000000000000  0.1626737378070331
  0.4785105524034066  0.7500000000000000  0.3379809348084990
  0.5182671989509799  0.2500000000000000  0.6623540119861389
  0.0180955404295275  0.2500000000000000  0.8375560730621885
  0.6837869203330698  0.2500000000000000  0.0351481074932920
  0.1807870387015171  0.2500000000000000  0.4665251611528660
  0.8161755976298011  0.7500000000000000  0.5336353327246783
  0.3191864990321420  0.7500000000000000  0.9649491299370467

  0.00000000E+00  0.00000000E+00  0.00000000E+00
  0.00000000E+00  0.00000000E+00  0.00000000E+00
  0.00000000E+00  0.00000000E+00  0.00000000E+00
  0.00000000E+00  0.00000000E+00  0.00000000E+00
  0.00000000E+00  0.00000000E+00  0.00000000E+00
  0.00000000E+00  0.00000000E+00  0.00000000E+00
  0.00000000E+00  0.00000000E+00  0.00000000E+00
  0.00000000E+00  0.00000000E+00  0.00000000E+00
  0.00000000E+00  0.00000000E+00  0.00000000E+00
  0.00000000E+00  0.00000000E+00  0.00000000E+00
  0.00000000E+00  0.00000000E+00  0.00000000E+00
  0.00000000E+00  0.00000000E+00  0.00000000E+00
  0.00000000E+00  0.00000000E+00  0.00000000E+00
  0.00000000E+00  0.00000000E+00  0.00000000E+00
  0.00000000E+00  0.00000000E+00  0.00000000E+00
  0.00000000E+00  0.00000000E+00  0.00000000E+00
  0.00000000E+00  0.00000000E+00  0.00000000E+00
  0.00000000E+00  0.00000000E+00  0.00000000E+00
  0.00000000E+00  0.00000000E+00  0.00000000E+00
  0.00000000E+00  0.00000000E+00  0.00000000E+00
