Ba4 B10 F2                              
   1.00000000000000     
     8.4966071077446728    1.2664562245232456   -0.3047820623009552
    -2.9514807103950420    4.7953363476595365   -0.3482573122965459
    -4.9432047008140225   -2.8576265723213945    7.3212860456121840
   F    Ba   B 
     2     4    10
Direct
  0.0358140792865740  0.3626077263162983  0.2543303731111308
  0.0355796019258960  0.8627537255249607  0.7542819271833849
  0.9445528130112066  0.8120428493221468  0.2111883023485035
  0.4235889247670670  0.0958280523719282  0.1128552559943543
  0.4238295799723346  0.5957457768298156  0.6129433559601836
  0.9444339060369558  0.3122057120223545  0.7110743225708660
  0.0220891318851031  0.3760877941550973  0.0727507353020869
  0.5035008956150264  0.6406177274276033  0.1746683246676355
  0.2814989448604521  0.5230565394700264  0.1606092866249398
  0.5358851407197491  0.6743773371401645  0.3715745925180869
  0.7531676682918800  0.7655480692169689  0.3917622416357744
  0.0220476984494837  0.8762261448543924  0.5727830687463253
  0.2815031263722219  0.0229157313520787  0.6607528724644922
  0.5034481267089959  0.1403956470587460  0.6747377891476347
  0.7531498648029427  0.2652963620096074  0.8918063570355912
  0.5359104972941111  0.1740948049278046  0.8716811946890246
 
  0.00000000E+00  0.00000000E+00  0.00000000E+00
  0.00000000E+00  0.00000000E+00  0.00000000E+00
  0.00000000E+00  0.00000000E+00  0.00000000E+00
  0.00000000E+00  0.00000000E+00  0.00000000E+00
  0.00000000E+00  0.00000000E+00  0.00000000E+00
  0.00000000E+00  0.00000000E+00  0.00000000E+00
  0.00000000E+00  0.00000000E+00  0.00000000E+00
  0.00000000E+00  0.00000000E+00  0.00000000E+00
  0.00000000E+00  0.00000000E+00  0.00000000E+00
  0.00000000E+00  0.00000000E+00  0.00000000E+00
  0.00000000E+00  0.00000000E+00  0.00000000E+00
  0.00000000E+00  0.00000000E+00  0.00000000E+00
  0.00000000E+00  0.00000000E+00  0.00000000E+00
  0.00000000E+00  0.00000000E+00  0.00000000E+00
  0.00000000E+00  0.00000000E+00  0.00000000E+00
  0.00000000E+00  0.00000000E+00  0.00000000E+00
