Sr2 B2 I6                               
   1.00000000000000     
     2.1938425212282198   -7.3849546028499500    0.0000000000000000
     2.1938425212282198    7.3849546028499500    0.0000000000000000
     0.0000000000000000    0.0000000000000000   12.1220379869493353
   Sr   B    I 
     2     2     6
Direct
  0.0000000000000000  0.0000000000000000  0.0000000000000000
  0.0000000000000000  0.0000000000000000  0.5000000000000000
  0.2660897810676630  0.7339102189323370  0.2500000000000000
  0.7339102189323370  0.2660897810676630  0.7500000000000000
  0.6438352796746827  0.3561647203253173  0.0800786109613014
  0.3561647203253173  0.6438352796746827  0.9199213890386986
  0.3561647203253173  0.6438352796746827  0.5800786109613014
  0.6438352796746827  0.3561647203253173  0.4199213890386986
  0.8795357663496688  0.1204642336503312  0.2500000000000000
  0.1204642336503312  0.8795357663496688  0.7500000000000000
 
  0.00000000E+00  0.00000000E+00  0.00000000E+00
  0.00000000E+00  0.00000000E+00  0.00000000E+00
  0.00000000E+00  0.00000000E+00  0.00000000E+00
  0.00000000E+00  0.00000000E+00  0.00000000E+00
  0.00000000E+00  0.00000000E+00  0.00000000E+00
  0.00000000E+00  0.00000000E+00  0.00000000E+00
  0.00000000E+00  0.00000000E+00  0.00000000E+00
  0.00000000E+00  0.00000000E+00  0.00000000E+00
  0.00000000E+00  0.00000000E+00  0.00000000E+00
  0.00000000E+00  0.00000000E+00  0.00000000E+00
