Ca8 B4 Br28                             
   1.00000000000000     
     8.3761311782255579   -0.0041656924389208    0.9895785880655544
     0.0106090978154519   16.6948590788245532   -0.0057501427191629
     1.8396563397400911   -0.0035134280424130    9.6710269495703294
   Br   B    Ca
    28     4     8
Direct
  0.1166879979564115  0.8391751770149654  0.0015819123668166
  0.3126294276514301  0.6363594292455161  0.1518481833894043
  0.8841146053681967  0.5795274704188813  0.1122223004270921
  0.4980162371784616  0.0950760724156723  0.1049652575997229
  0.2035206893005892  0.2800135492921143  0.1399983285834168
  0.6255574185104962  0.3446400944296286  0.2188997840723133
  0.7980666897716162  0.9776345681064313  0.1413500989035725
  0.2003408575060064  0.4779193336978338  0.3561273089867214
  0.3736190540393736  0.8447310351600947  0.2826420412548245
  0.7956825995578214  0.7803346906095854  0.3597714722213965
  0.5004138713626318  0.5946306557638650  0.3937448239233987
  0.1148896775340305  0.0795628798912418  0.3875630249043951
  0.6859434581065855  0.1355980821593192  0.3472388936972806
  0.8844815231616465  0.3391803236072803  0.4990107327464983
  0.1155683399951855  0.6608716753362884  0.5009166099838609
  0.3139741420242643  0.8644231272550869  0.6529438719731289
  0.8852279781273822  0.9203077435254983  0.6127025450329810
  0.4996035412476871  0.4054122874046229  0.6060588345175830
  0.2042803636784072  0.2196691841315257  0.6402966864284068
  0.6264925434491673  0.1552588577466523  0.7174455526392904
  0.7996975025017861  0.5221655182044671  0.6435762328560486
  0.2018291555868075  0.0223586825202986  0.8588876024194505
  0.3746045042149717  0.6553624744428603  0.7809524117142601
  0.7965144530731578  0.7200001024919089  0.8599713299103087
  0.5019463383010034  0.9049118094991684  0.8952568491584216
  0.1160396210147425  0.4204561619581710  0.8875776276382723
  0.6873648161631110  0.3637460502664567  0.8479822883951869
  0.8833300507772535  0.1608090398552662  0.9985459447596412
  0.7193857522561729  0.0920872831201791  0.1482099132771850
  0.2790688209943610  0.5923652552608374  0.3504552997841373
  0.7209451691054625  0.4077222863804906  0.6493541190908800
  0.2806229209358193  0.9079229611367055  0.8519392651378723
  0.6161666731229829  0.7164282452598201  0.1698876690487054
  0.9431740468229464  0.4124585375349810  0.1909896286382988
  0.0564491305055697  0.9123217561937125  0.3089209930721637
  0.3827445588602600  0.2162673129848756  0.3300118908389535
  0.6173649752793224  0.7837719726326924  0.6700275226326156
  0.9435095718208188  0.0875208928339148  0.6913263568520804
  0.0570026104729919  0.5875038588485069  0.8088338096726844
  0.3838483126630976  0.2835935613626148  0.8299649814507362
 
  0.00000000E+00  0.00000000E+00  0.00000000E+00
  0.00000000E+00  0.00000000E+00  0.00000000E+00
  0.00000000E+00  0.00000000E+00  0.00000000E+00
  0.00000000E+00  0.00000000E+00  0.00000000E+00
  0.00000000E+00  0.00000000E+00  0.00000000E+00
  0.00000000E+00  0.00000000E+00  0.00000000E+00
  0.00000000E+00  0.00000000E+00  0.00000000E+00
  0.00000000E+00  0.00000000E+00  0.00000000E+00
  0.00000000E+00  0.00000000E+00  0.00000000E+00
  0.00000000E+00  0.00000000E+00  0.00000000E+00
  0.00000000E+00  0.00000000E+00  0.00000000E+00
  0.00000000E+00  0.00000000E+00  0.00000000E+00
  0.00000000E+00  0.00000000E+00  0.00000000E+00
  0.00000000E+00  0.00000000E+00  0.00000000E+00
  0.00000000E+00  0.00000000E+00  0.00000000E+00
  0.00000000E+00  0.00000000E+00  0.00000000E+00
  0.00000000E+00  0.00000000E+00  0.00000000E+00
  0.00000000E+00  0.00000000E+00  0.00000000E+00
  0.00000000E+00  0.00000000E+00  0.00000000E+00
  0.00000000E+00  0.00000000E+00  0.00000000E+00
  0.00000000E+00  0.00000000E+00  0.00000000E+00
  0.00000000E+00  0.00000000E+00  0.00000000E+00
  0.00000000E+00  0.00000000E+00  0.00000000E+00
  0.00000000E+00  0.00000000E+00  0.00000000E+00
  0.00000000E+00  0.00000000E+00  0.00000000E+00
  0.00000000E+00  0.00000000E+00  0.00000000E+00
  0.00000000E+00  0.00000000E+00  0.00000000E+00
  0.00000000E+00  0.00000000E+00  0.00000000E+00
  0.00000000E+00  0.00000000E+00  0.00000000E+00
  0.00000000E+00  0.00000000E+00  0.00000000E+00
  0.00000000E+00  0.00000000E+00  0.00000000E+00
  0.00000000E+00  0.00000000E+00  0.00000000E+00
  0.00000000E+00  0.00000000E+00  0.00000000E+00
  0.00000000E+00  0.00000000E+00  0.00000000E+00
  0.00000000E+00  0.00000000E+00  0.00000000E+00
  0.00000000E+00  0.00000000E+00  0.00000000E+00
  0.00000000E+00  0.00000000E+00  0.00000000E+00
  0.00000000E+00  0.00000000E+00  0.00000000E+00
  0.00000000E+00  0.00000000E+00  0.00000000E+00
  0.00000000E+00  0.00000000E+00  0.00000000E+00
