Sr6                                     
   1.00000000000000     
     7.0134715931048977   -0.0000000042913059    0.0000000000000000
    -3.5067353039824591    6.0738447571509866    0.0000000000000000
     0.0000000000000000    0.0000000000000000    7.6200426316610823
   Sr
     6
Direct
  0.3335982181432513  0.9999999999999645  0.0000000000000000
  0.9999999999999716  0.3335982181432584  0.0000000000000000
  0.6664017818567771  0.6664017818567700  0.0000000000000000
  0.9999999999999716  0.3335982181432584  0.5000000000000000
  0.3335982181432513  0.9999999999999645  0.5000000000000000
  0.6664017818567771  0.6664017818567700  0.5000000000000000
 
  0.00000000E+00  0.00000000E+00  0.00000000E+00
  0.00000000E+00  0.00000000E+00  0.00000000E+00
  0.00000000E+00  0.00000000E+00  0.00000000E+00
  0.00000000E+00  0.00000000E+00  0.00000000E+00
  0.00000000E+00  0.00000000E+00  0.00000000E+00
  0.00000000E+00  0.00000000E+00  0.00000000E+00
