Sr2 Tl2 I6                              
   1.0000000000000000     
     2.3854856587405378   -7.8276660248482424   -0.0000000000000000
     2.3854856587405378    7.8276660248482424    0.0000000000000000
     0.0000000000000000    0.0000000000000000   12.0886675784197237
   Sr   Tl   I 
     2     2     6
Direct
  0.0000000000000000  0.0000000000000000  0.0000000000000000
  0.0000000000000000  0.0000000000000000  0.5000000000000000
  0.2539622795302705  0.7460377204697224  0.2500000000000000
  0.7460377204697224  0.2539622795302705  0.7500000000000000
  0.6388770266451189  0.3611229733548811  0.0595193703787018
  0.3611229733548811  0.6388770266451189  0.9404806296212982
  0.3611229733548811  0.6388770266451189  0.5595193703787018
  0.6388770266451189  0.3611229733548811  0.4404806296212982
  0.9157557055888574  0.0842442944111426  0.2500000000000000
  0.0842442944111426  0.9157557055888574  0.7500000000000000

  0.00000000E+00  0.00000000E+00  0.00000000E+00
  0.00000000E+00  0.00000000E+00  0.00000000E+00
  0.00000000E+00  0.00000000E+00  0.00000000E+00
  0.00000000E+00  0.00000000E+00  0.00000000E+00
  0.00000000E+00  0.00000000E+00  0.00000000E+00
  0.00000000E+00  0.00000000E+00  0.00000000E+00
  0.00000000E+00  0.00000000E+00  0.00000000E+00
  0.00000000E+00  0.00000000E+00  0.00000000E+00
  0.00000000E+00  0.00000000E+00  0.00000000E+00
  0.00000000E+00  0.00000000E+00  0.00000000E+00
