Ca2 Al4 Br16                            
   1.00000000000000     
     7.6646558717409388    4.0677421971642014   -0.5487972081800092
    -7.6646558717409405    4.0677421971642014   -0.5487972081800090
     0.0000000000000000   -0.6177047018300417   11.9233142630649951
   Ca   Al   Br
     2     4    16
Direct
  0.5924086142752927  0.4075913857247073  0.7500000000000000
  0.4075913857247073  0.5924086142752927  0.2500000000000000
  0.8743546596177794  0.1256453403822206  0.7500000000000000
  0.1256453403822206  0.8743546596177794  0.2500000000000000
  0.5000000000000000  0.0000000000000000  0.5000000000000000
  0.0000000000000000  0.5000000000000000  0.0000000000000000
  0.7710910147707963  0.7979859177799327  0.7433874942449208
  0.2289089852292037  0.2020140822200673  0.2566125057550792
  0.2020140822200673  0.2289089852292037  0.7566125057550792
  0.7979859177799327  0.7710910147707963  0.2433874942449208
  0.5183171688887995  0.0209056785427393  0.7196063955546634
  0.4816828311112005  0.9790943214572607  0.2803936044453366
  0.9790943214572607  0.4816828311112005  0.7803936044453366
  0.0209056785427393  0.5183171688887995  0.2196063955546634
  0.1558626528960048  0.8816222641756042  0.4610878052369429
  0.8441373471039952  0.1183777358243958  0.5389121947630571
  0.1183777358243958  0.8441373471039952  0.0389121947630571
  0.8816222641756042  0.1558626528960048  0.9610878052369429
  0.4057777808462006  0.6722650903424139  0.4865833409356100
  0.5942222191537994  0.3277349096575861  0.5134166590643900
  0.3277349096575861  0.5942222191537994  0.0134166590643900
  0.6722650903424139  0.4057777808462006  0.9865833409356100
 
  0.00000000E+00  0.00000000E+00  0.00000000E+00
  0.00000000E+00  0.00000000E+00  0.00000000E+00
  0.00000000E+00  0.00000000E+00  0.00000000E+00
  0.00000000E+00  0.00000000E+00  0.00000000E+00
  0.00000000E+00  0.00000000E+00  0.00000000E+00
  0.00000000E+00  0.00000000E+00  0.00000000E+00
  0.00000000E+00  0.00000000E+00  0.00000000E+00
  0.00000000E+00  0.00000000E+00  0.00000000E+00
  0.00000000E+00  0.00000000E+00  0.00000000E+00
  0.00000000E+00  0.00000000E+00  0.00000000E+00
  0.00000000E+00  0.00000000E+00  0.00000000E+00
  0.00000000E+00  0.00000000E+00  0.00000000E+00
  0.00000000E+00  0.00000000E+00  0.00000000E+00
  0.00000000E+00  0.00000000E+00  0.00000000E+00
  0.00000000E+00  0.00000000E+00  0.00000000E+00
  0.00000000E+00  0.00000000E+00  0.00000000E+00
  0.00000000E+00  0.00000000E+00  0.00000000E+00
  0.00000000E+00  0.00000000E+00  0.00000000E+00
  0.00000000E+00  0.00000000E+00  0.00000000E+00
  0.00000000E+00  0.00000000E+00  0.00000000E+00
  0.00000000E+00  0.00000000E+00  0.00000000E+00
  0.00000000E+00  0.00000000E+00  0.00000000E+00
