Sr4 Al10 F2                             
   1.00000000000000     
     7.3909591655157829    0.0615333643568530    0.9116281793140183
    -3.4715915875537480    7.9975799518749167   -2.1324913150505092
    -2.9453722494726993   -4.5091626522519910    6.9298112538124093
   F    Sr   Al
     2     4    10
Direct
  0.9841500039834585  0.2989428585671803  0.3192261285159148
  0.0156676439051751  0.6383621359474816  0.6180896598488275
  0.9821826133940377  0.9959464379153005  0.2383925276847521
  0.6222073750173607  0.2377341325955271  0.3114319672325720
  0.3776324723466828  0.6995419279879940  0.6259182417925260
  0.0179181745936177  0.9415396284773792  0.6991405435657114
  0.9091279615436534  0.2315892341342050  0.0390537594132354
  0.3685486290932047  0.5686411129852047  0.9374081549986784
  0.1133491992056292  0.6453344192516610  0.1882747757243664
  0.3876253071485962  0.4615358192418384  0.1836067734827012
  0.5914172354628207  0.8775483629226457  0.3732303468181399
  0.0906613883817400  0.7057900687638892  0.8982797404286273
  0.4088098226615529  0.0599916241926763  0.5644306098887384
  0.6122218716474421  0.4758882738139931  0.7537820580929164
  0.8868558919908764  0.2922302634711400  0.7492649758134888
  0.6316244096241590  0.3691836997318845  0.0002697366987761
 
  0.00000000E+00  0.00000000E+00  0.00000000E+00
  0.00000000E+00  0.00000000E+00  0.00000000E+00
  0.00000000E+00  0.00000000E+00  0.00000000E+00
  0.00000000E+00  0.00000000E+00  0.00000000E+00
  0.00000000E+00  0.00000000E+00  0.00000000E+00
  0.00000000E+00  0.00000000E+00  0.00000000E+00
  0.00000000E+00  0.00000000E+00  0.00000000E+00
  0.00000000E+00  0.00000000E+00  0.00000000E+00
  0.00000000E+00  0.00000000E+00  0.00000000E+00
  0.00000000E+00  0.00000000E+00  0.00000000E+00
  0.00000000E+00  0.00000000E+00  0.00000000E+00
  0.00000000E+00  0.00000000E+00  0.00000000E+00
  0.00000000E+00  0.00000000E+00  0.00000000E+00
  0.00000000E+00  0.00000000E+00  0.00000000E+00
  0.00000000E+00  0.00000000E+00  0.00000000E+00
  0.00000000E+00  0.00000000E+00  0.00000000E+00
