Mg7 In10                                
   1.00000000000000     
     3.2366841174767838   -4.8570991942714725   -0.8396194668064813
    -6.3478200046142428   -0.0500743198692516    1.4515733221464544
     6.7689428327834662   -1.8555589714697869  -15.4055800953556243
   In   Mg
    10     7
Direct
  0.4683337686126805  0.9110439049661423  0.0299773229347124
  0.7753301243353903  0.4581062491313546  0.2893220783151520
  0.3035055794045078  0.0837434981826846  0.3936789073518838
  0.4011144167556537  0.5326490204255236  0.2137661875441452
  0.2684578059018250  0.6392238975367164  0.4338124829912502
  0.7059077544103403  0.2836452802922267  0.5394470417014645
  0.5883819964658557  0.3538088203940362  0.7866362353913416
  0.5865621817665101  0.8445184464217661  0.7805333244088928
  0.1524312551677980  0.4081059768086135  0.6360955772109165
  0.4831456517653478  0.3601493931799737  0.9947404504879529
  0.9625652669380429  0.4814739334310474  0.0872646397143413
  0.9224940140320683  0.9671891770920311  0.0908650884081368
  0.9205563564423969  0.0433219819677078  0.2971269789575643
  0.7153367789278704  0.7795217369762710  0.5354038296992201
  0.1550581716212420  0.9384494001923116  0.6545712918074003
  0.0298483574188708  0.9475387869578498  0.8676467385557984
  0.0613705200335914  0.4679104960437499  0.8693118245198406
 
  0.00000000E+00  0.00000000E+00  0.00000000E+00
  0.00000000E+00  0.00000000E+00  0.00000000E+00
  0.00000000E+00  0.00000000E+00  0.00000000E+00
  0.00000000E+00  0.00000000E+00  0.00000000E+00
  0.00000000E+00  0.00000000E+00  0.00000000E+00
  0.00000000E+00  0.00000000E+00  0.00000000E+00
  0.00000000E+00  0.00000000E+00  0.00000000E+00
  0.00000000E+00  0.00000000E+00  0.00000000E+00
  0.00000000E+00  0.00000000E+00  0.00000000E+00
  0.00000000E+00  0.00000000E+00  0.00000000E+00
  0.00000000E+00  0.00000000E+00  0.00000000E+00
  0.00000000E+00  0.00000000E+00  0.00000000E+00
  0.00000000E+00  0.00000000E+00  0.00000000E+00
  0.00000000E+00  0.00000000E+00  0.00000000E+00
  0.00000000E+00  0.00000000E+00  0.00000000E+00
  0.00000000E+00  0.00000000E+00  0.00000000E+00
  0.00000000E+00  0.00000000E+00  0.00000000E+00
