Mg3Tl                                   
   1.0000000000000000     
     6.4099382686878146   -0.0056764580119254    0.0000000000000000
    -3.2098853878858971    5.5483222542354307   -0.0000000000000000
     0.0000000000000000   -0.0000000000000000    5.1894856477817850
   Mg   Tl
     6     2
Direct
  0.1647925822167622  0.3278143853367368  0.2500000000000000
  0.1652838933723260  0.8347173982866423  0.2500000000000000
  0.6721874885918524  0.8352090653988569  0.2500000000000000
  0.3278125114081476  0.1647909346011431  0.7500000000000000
  0.8347161066276740  0.1652826017133577  0.7500000000000000
  0.8352074177832378  0.6721856146632632  0.7500000000000000
  0.6671429129465452  0.3328571862992362  0.2500000000000000
  0.3328570870534548  0.6671428137007638  0.7500000000000000

  0.00000000E+00  0.00000000E+00  0.00000000E+00
  0.00000000E+00  0.00000000E+00  0.00000000E+00
  0.00000000E+00  0.00000000E+00  0.00000000E+00
  0.00000000E+00  0.00000000E+00  0.00000000E+00
  0.00000000E+00  0.00000000E+00  0.00000000E+00
  0.00000000E+00  0.00000000E+00  0.00000000E+00
  0.00000000E+00  0.00000000E+00  0.00000000E+00
  0.00000000E+00  0.00000000E+00  0.00000000E+00
