Al6 Br24                                
   1.00000000000000     
     0.0000000000000000    9.3902952800376536    9.3902952800376536
     9.3902952800376536    0.0000000000000000    9.3902952800376536
     9.3902952800376536    9.3902952800376536    0.0000000000000000
   Al   Br
     6    24
Direct
  0.7500000000000000  0.2500000000000000  0.2500000000000000
  0.7500000000000000  0.7500000000000000  0.2500000000000000
  0.2500000000000000  0.7500000000000000  0.7500000000000000
  0.7500000000000000  0.2500000000000000  0.7500000000000000
  0.2500000000000000  0.2500000000000000  0.7500000000000000
  0.2500000000000000  0.7500000000000000  0.2500000000000000
  0.2812730743132050  0.9217446900246102  0.0782553099753898
  0.0782553099753898  0.9217446900246102  0.7187269256867950
  0.7187269256867950  0.9217446900246102  0.2812730743132050
  0.9217446900246102  0.0782553099753898  0.2812730743132050
  0.0782553099753898  0.2812730743132050  0.9217446900246102
  0.7187269256867950  0.0782553099753898  0.9217446900246102
  0.9217446900246102  0.2812730743132050  0.7187269256867950
  0.2187269256867950  0.7812730743132050  0.4217446900246102
  0.9217446900246102  0.7187269256867950  0.0782553099753898
  0.2812730743132050  0.7187269256867950  0.9217446900246102
  0.4217446900246102  0.2187269256867950  0.7812730743132050
  0.7812730743132050  0.4217446900246102  0.2187269256867950
  0.2812730743132050  0.0782553099753898  0.7187269256867950
  0.7187269256867950  0.2812730743132050  0.0782553099753898
  0.5782553099753898  0.7812730743132050  0.2187269256867950
  0.4217446900246102  0.7812730743132050  0.5782553099753898
  0.0782553099753898  0.7187269256867950  0.2812730743132050
  0.7812730743132050  0.2187269256867950  0.5782553099753898
  0.5782553099753898  0.4217446900246102  0.7812730743132050
  0.5782553099753898  0.2187269256867950  0.4217446900246102
  0.2187269256867950  0.4217446900246102  0.5782553099753898
  0.2187269256867950  0.5782553099753898  0.7812730743132050
  0.7812730743132050  0.5782553099753898  0.4217446900246102
  0.4217446900246102  0.5782553099753898  0.2187269256867950
 
  0.00000000E+00  0.00000000E+00  0.00000000E+00
  0.00000000E+00  0.00000000E+00  0.00000000E+00
  0.00000000E+00  0.00000000E+00  0.00000000E+00
  0.00000000E+00  0.00000000E+00  0.00000000E+00
  0.00000000E+00  0.00000000E+00  0.00000000E+00
  0.00000000E+00  0.00000000E+00  0.00000000E+00
  0.00000000E+00  0.00000000E+00  0.00000000E+00
  0.00000000E+00  0.00000000E+00  0.00000000E+00
  0.00000000E+00  0.00000000E+00  0.00000000E+00
  0.00000000E+00  0.00000000E+00  0.00000000E+00
  0.00000000E+00  0.00000000E+00  0.00000000E+00
  0.00000000E+00  0.00000000E+00  0.00000000E+00
  0.00000000E+00  0.00000000E+00  0.00000000E+00
  0.00000000E+00  0.00000000E+00  0.00000000E+00
  0.00000000E+00  0.00000000E+00  0.00000000E+00
  0.00000000E+00  0.00000000E+00  0.00000000E+00
  0.00000000E+00  0.00000000E+00  0.00000000E+00
  0.00000000E+00  0.00000000E+00  0.00000000E+00
  0.00000000E+00  0.00000000E+00  0.00000000E+00
  0.00000000E+00  0.00000000E+00  0.00000000E+00
  0.00000000E+00  0.00000000E+00  0.00000000E+00
  0.00000000E+00  0.00000000E+00  0.00000000E+00
  0.00000000E+00  0.00000000E+00  0.00000000E+00
  0.00000000E+00  0.00000000E+00  0.00000000E+00
  0.00000000E+00  0.00000000E+00  0.00000000E+00
  0.00000000E+00  0.00000000E+00  0.00000000E+00
  0.00000000E+00  0.00000000E+00  0.00000000E+00
  0.00000000E+00  0.00000000E+00  0.00000000E+00
  0.00000000E+00  0.00000000E+00  0.00000000E+00
  0.00000000E+00  0.00000000E+00  0.00000000E+00
