Be4 B4 Br20                             
   1.0000000000000000     
     8.8202633650158404   -0.0000000000000001    0.0000000000000009
    -0.0000000000000007    7.5370328177523476    0.0000000000000006
     0.0000000000000011    0.0000000000000004   20.8502334085756367
   Be   B    Br
     4     4    20
Direct
  0.9877119528417140  0.6718972630418705  0.6409737428573195
  0.4877119528417140  0.8281027369581295  0.3590262571426805
  0.0122880471582860  0.1718972630418705  0.8590262571426805
  0.5122880471582860  0.3281027369581295  0.1409737428573195
  0.4912196960891890  0.1136342232574208  0.5988640730609305
  0.9912196960891890  0.3863657767425792  0.4011359269390766
  0.5087803039108110  0.6136342232574208  0.9011359269390695
  0.0087803039108110  0.8863657767425792  0.0988640730609234
  0.9359125389569627  0.6093031862008047  0.4382019693570740
  0.4359125389569627  0.8906968137991953  0.5617980306429331
  0.0640874610430373  0.1093031862008047  0.0617980306429260
  0.5640874610430373  0.3906968137991953  0.9382019693570669
  0.4366528876160842  0.5872569638933882  0.3864511271038609
  0.9366528876160842  0.9127430361066118  0.6135488728961391
  0.5633471123839158  0.0872569638933882  0.1135488728961320
  0.0633471123839158  0.4127430361066118  0.8864511271038609
  0.0376951384388136  0.4317502175100927  0.6691082360624492
  0.5376951384388136  0.0682497824899073  0.3308917639375508
  0.9623048615611864  0.9317502175100927  0.8308917639375508
  0.4623048615611864  0.5682497824899073  0.1691082360624492
  0.4850324508266084  0.1443605873242007  0.6895497301701070
  0.9850324508266155  0.3556394126757993  0.3104502698298930
  0.5149675491733845  0.6443605873242007  0.8104502698298930
  0.0149675491733916  0.8556394126757993  0.1895497301701070
  0.5524593753367526  0.3046177111916037  0.5447176799251707
  0.0524593753367455  0.1953822888083963  0.4552823200748293
  0.4475406246632545  0.8046177111916037  0.9552823200748293
  0.9475406246632474  0.6953822888083963  0.0447176799251707

  0.00000000E+00  0.00000000E+00  0.00000000E+00
  0.00000000E+00  0.00000000E+00  0.00000000E+00
  0.00000000E+00  0.00000000E+00  0.00000000E+00
  0.00000000E+00  0.00000000E+00  0.00000000E+00
  0.00000000E+00  0.00000000E+00  0.00000000E+00
  0.00000000E+00  0.00000000E+00  0.00000000E+00
  0.00000000E+00  0.00000000E+00  0.00000000E+00
  0.00000000E+00  0.00000000E+00  0.00000000E+00
  0.00000000E+00  0.00000000E+00  0.00000000E+00
  0.00000000E+00  0.00000000E+00  0.00000000E+00
  0.00000000E+00  0.00000000E+00  0.00000000E+00
  0.00000000E+00  0.00000000E+00  0.00000000E+00
  0.00000000E+00  0.00000000E+00  0.00000000E+00
  0.00000000E+00  0.00000000E+00  0.00000000E+00
  0.00000000E+00  0.00000000E+00  0.00000000E+00
  0.00000000E+00  0.00000000E+00  0.00000000E+00
  0.00000000E+00  0.00000000E+00  0.00000000E+00
  0.00000000E+00  0.00000000E+00  0.00000000E+00
  0.00000000E+00  0.00000000E+00  0.00000000E+00
  0.00000000E+00  0.00000000E+00  0.00000000E+00
  0.00000000E+00  0.00000000E+00  0.00000000E+00
  0.00000000E+00  0.00000000E+00  0.00000000E+00
  0.00000000E+00  0.00000000E+00  0.00000000E+00
  0.00000000E+00  0.00000000E+00  0.00000000E+00
  0.00000000E+00  0.00000000E+00  0.00000000E+00
  0.00000000E+00  0.00000000E+00  0.00000000E+00
  0.00000000E+00  0.00000000E+00  0.00000000E+00
  0.00000000E+00  0.00000000E+00  0.00000000E+00
