Mg10 In12                               
   1.00000000000000     
    -3.6802415822751868   -6.3878968926643198    0.0000000000000000
    -3.6777800799419880    6.3867086818604797    0.0000000000000000
     0.0000000000000000    0.0000000000000000  -11.7647752009741531
   Mg   In
    10    12
Direct
  0.7703923588649459  0.7130051389997547  0.2500000000000000
  0.9433388670279470  0.2294691671085545  0.2500000000000000
  0.2882573153046195  0.0578489048362059  0.2500000000000000
  0.8962835367546802  0.6203294423481367  0.7500000000000000
  0.3784197626608545  0.2754773479459942  0.7500000000000000
  0.7233423769061531  0.1038485950301009  0.7500000000000000
  0.0004308063798391  0.9996859859758160  0.0129393303494325
  0.0004308063798391  0.9996859859758160  0.4870606696505675
  0.6662399243901120  0.3336422847766940  0.9870619408652743
  0.6662399243901120  0.3336422847766940  0.5129380591347257
  0.5675266092679792  0.9294204130096730  0.1100346465776880
  0.3619692513941715  0.4335248064254671  0.1100832680930992
  0.0710803286432409  0.6375007449260792  0.1103957055992524
  0.5675266092679792  0.9294204130096730  0.3899653534223120
  0.3619692513941715  0.4335248064254671  0.3899167319069008
  0.0710803286432409  0.6375007449260792  0.3896042944007476
  0.3047113534561987  0.8998026923577811  0.6100753534433352
  0.0991436854092171  0.4039128572120205  0.6100294694039050
  0.5955809322996686  0.6958209171820613  0.6103909854356999
  0.3047113534561987  0.8998026923577811  0.8899246465566648
  0.0991436854092171  0.4039128572120205  0.8899705305960950
  0.5955809322996686  0.6958209171820613  0.8896090145643001
 
  0.00000000E+00  0.00000000E+00  0.00000000E+00
  0.00000000E+00  0.00000000E+00  0.00000000E+00
  0.00000000E+00  0.00000000E+00  0.00000000E+00
  0.00000000E+00  0.00000000E+00  0.00000000E+00
  0.00000000E+00  0.00000000E+00  0.00000000E+00
  0.00000000E+00  0.00000000E+00  0.00000000E+00
  0.00000000E+00  0.00000000E+00  0.00000000E+00
  0.00000000E+00  0.00000000E+00  0.00000000E+00
  0.00000000E+00  0.00000000E+00  0.00000000E+00
  0.00000000E+00  0.00000000E+00  0.00000000E+00
  0.00000000E+00  0.00000000E+00  0.00000000E+00
  0.00000000E+00  0.00000000E+00  0.00000000E+00
  0.00000000E+00  0.00000000E+00  0.00000000E+00
  0.00000000E+00  0.00000000E+00  0.00000000E+00
  0.00000000E+00  0.00000000E+00  0.00000000E+00
  0.00000000E+00  0.00000000E+00  0.00000000E+00
  0.00000000E+00  0.00000000E+00  0.00000000E+00
  0.00000000E+00  0.00000000E+00  0.00000000E+00
  0.00000000E+00  0.00000000E+00  0.00000000E+00
  0.00000000E+00  0.00000000E+00  0.00000000E+00
  0.00000000E+00  0.00000000E+00  0.00000000E+00
  0.00000000E+00  0.00000000E+00  0.00000000E+00
