Ca4 Al4 Br20                            
   1.0000000000000000     
     0.0000000000000000    8.0827269668768977   -1.2053351813949837
    13.8887702824772763    0.0000000000000000    0.0000000000000000
     0.0000000000000000    1.9306548532069476  -10.1119625331112299
   Ca   Al   Br
     4     4    20
Direct
  0.4279101613621279  0.3511256040505870  0.3774022773018828
  0.5720898386378721  0.8511256040505941  0.6225977226981172
  0.6354388850757999  0.1231215771367005  0.9783179604202417
  0.3645611149242001  0.6231215771367005  0.0216820395797583
  0.5779532147849196  0.8116397523168715  0.1619201595247262
  0.4220467852150733  0.3116397523168715  0.8380798404752738
  0.9168219737809977  0.5595508509003650  0.4471669379676229
  0.0831780262190023  0.0595508509003650  0.5528330620323771
  0.3475899789511914  0.9776943135139291  0.4884364995539840
  0.1106698431808653  0.4739048888419717  0.5281198634605815
  0.8893301568191276  0.9739048888419717  0.4718801365394114
  0.7169235885155061  0.7113225088645905  0.9757656724844637
  0.0021120409632331  0.5769076771834065  0.2084493995099592
  0.7230507973808500  0.9573419183460103  0.1395255927028956
  0.7116175273832965  0.3123229321326448  0.8266126862868006
  0.5842189258646187  0.7396232576502939  0.3658178310082647
  0.9978879590367669  0.0769076771834065  0.7915506004900408
  0.8873085202371058  0.7050239559746743  0.5672916039473250
  0.2769492026191571  0.4573419183460103  0.8604744072971044
  0.6524100210488086  0.4776943135139362  0.5115635004460160
  0.5108454047044475  0.9812989164672956  0.8392964905923321
  0.6614965566301478  0.2167208266207012  0.2163715458999036
  0.1126914797628942  0.2050239559746814  0.4327083960526750
  0.2883824726167035  0.8123229321326448  0.1733873137131994
  0.2830764114844868  0.2113225088645905  0.0242343275155292
  0.3385034433698522  0.7167208266207012  0.7836284541001035
  0.4157810741353813  0.2396232576502868  0.6341821689917353
  0.4891545952955454  0.4812989164672956  0.1607035094076679

  0.00000000E+00  0.00000000E+00  0.00000000E+00
  0.00000000E+00  0.00000000E+00  0.00000000E+00
  0.00000000E+00  0.00000000E+00  0.00000000E+00
  0.00000000E+00  0.00000000E+00  0.00000000E+00
  0.00000000E+00  0.00000000E+00  0.00000000E+00
  0.00000000E+00  0.00000000E+00  0.00000000E+00
  0.00000000E+00  0.00000000E+00  0.00000000E+00
  0.00000000E+00  0.00000000E+00  0.00000000E+00
  0.00000000E+00  0.00000000E+00  0.00000000E+00
  0.00000000E+00  0.00000000E+00  0.00000000E+00
  0.00000000E+00  0.00000000E+00  0.00000000E+00
  0.00000000E+00  0.00000000E+00  0.00000000E+00
  0.00000000E+00  0.00000000E+00  0.00000000E+00
  0.00000000E+00  0.00000000E+00  0.00000000E+00
  0.00000000E+00  0.00000000E+00  0.00000000E+00
  0.00000000E+00  0.00000000E+00  0.00000000E+00
  0.00000000E+00  0.00000000E+00  0.00000000E+00
  0.00000000E+00  0.00000000E+00  0.00000000E+00
  0.00000000E+00  0.00000000E+00  0.00000000E+00
  0.00000000E+00  0.00000000E+00  0.00000000E+00
  0.00000000E+00  0.00000000E+00  0.00000000E+00
  0.00000000E+00  0.00000000E+00  0.00000000E+00
  0.00000000E+00  0.00000000E+00  0.00000000E+00
  0.00000000E+00  0.00000000E+00  0.00000000E+00
  0.00000000E+00  0.00000000E+00  0.00000000E+00
  0.00000000E+00  0.00000000E+00  0.00000000E+00
  0.00000000E+00  0.00000000E+00  0.00000000E+00
  0.00000000E+00  0.00000000E+00  0.00000000E+00
