Be1 Tl3 I6                              
   1.0000000000000000     
     8.2444016925440646    0.0006031746363569   -0.0036500142150472
     0.0006031746363569    8.2444016925440646   -0.0036500142150472
     4.1199128585702880    4.1199128585702889    5.8262890373888609
   I    Be   Tl
     6     1     3
Direct
  0.7689881866956938  0.2310118133043062  0.0000000000000000
  0.2311700270329666  0.2311700270329666  0.9997553936391057
  0.2310118133043062  0.7689881866956938  0.0000000000000000
  0.7688299729670334  0.7688299729670334  0.0002446063608943
  0.7698738365887579  0.7698738365887579  0.4616855692511734
  0.2301261634112421  0.2301261634112421  0.5383144307488266
  0.0000000000000000  0.0000000000000000  0.0000000000000000
  0.5000000000000000  0.5000000000000000  0.0000000000000000
  0.2499109373760859  0.7500890626239141  0.5000000000000000
  0.7500890626239141  0.2499109373760859  0.5000000000000000

  0.00000000E+00  0.00000000E+00  0.00000000E+00
  0.00000000E+00  0.00000000E+00  0.00000000E+00
  0.00000000E+00  0.00000000E+00  0.00000000E+00
  0.00000000E+00  0.00000000E+00  0.00000000E+00
  0.00000000E+00  0.00000000E+00  0.00000000E+00
  0.00000000E+00  0.00000000E+00  0.00000000E+00
  0.00000000E+00  0.00000000E+00  0.00000000E+00
  0.00000000E+00  0.00000000E+00  0.00000000E+00
  0.00000000E+00  0.00000000E+00  0.00000000E+00
  0.00000000E+00  0.00000000E+00  0.00000000E+00
