Mg2 B2 Br10                             
   1.00000000000000     
     6.4357700759388914   -0.8497422585180998    2.3796392398964654
     0.5812603829987391    6.4655487484448049    2.3796410265666026
    -1.5600327024360960   -1.2485067315451983   13.3424709176564296
   Mg   B    Br
     2     2    10
Direct
  0.3736908694270440  0.6263091260975528  0.2500000006355023
  0.6263091305729489  0.3736908739024472  0.7499999993645048
  0.0000000000000000  0.0000000000000000  0.5000000000000000
  0.0000000000000000  0.0000000000000000  0.0000000000000000
  0.6388555939514333  0.6414024072477673  0.5933916323799053
  0.3585975995494195  0.3611434024641582  0.9066083682416490
  0.3611434060485692  0.3585975927522327  0.4066093676200921
  0.6414024004505876  0.6388555975358443  0.0933916317583510
  0.8860230128858433  0.1139769925475846  0.7499999994022986
  0.1139769871141567  0.8860230074524154  0.2500000005977014
  0.8253106794052627  0.1858105535736811  0.0420362608304785
  0.8141894352804258  0.1746893227041468  0.4579637443912077
  0.1746893205947373  0.8141894464263189  0.9579637391695215
  0.1858105647195742  0.8253106772958532  0.5420362556087923
 
  0.00000000E+00  0.00000000E+00  0.00000000E+00
  0.00000000E+00  0.00000000E+00  0.00000000E+00
  0.00000000E+00  0.00000000E+00  0.00000000E+00
  0.00000000E+00  0.00000000E+00  0.00000000E+00
  0.00000000E+00  0.00000000E+00  0.00000000E+00
  0.00000000E+00  0.00000000E+00  0.00000000E+00
  0.00000000E+00  0.00000000E+00  0.00000000E+00
  0.00000000E+00  0.00000000E+00  0.00000000E+00
  0.00000000E+00  0.00000000E+00  0.00000000E+00
  0.00000000E+00  0.00000000E+00  0.00000000E+00
  0.00000000E+00  0.00000000E+00  0.00000000E+00
  0.00000000E+00  0.00000000E+00  0.00000000E+00
  0.00000000E+00  0.00000000E+00  0.00000000E+00
  0.00000000E+00  0.00000000E+00  0.00000000E+00
