Be1 Ga2 I10                             
   1.00000000000000     
     5.2242575434120591    7.9168307312208999   -1.1516085110715499
    -5.2242575434120591    7.9168307312208999   -1.1516085110715499
     0.0000000000000001    3.5896119524875463    8.3565747953463063
   Be   Ga   I 
     1     2    10
Direct
  0.4364974411071714  0.5635025588928215  0.0000000000000000
  0.1245146857591166  0.0242060002617137  0.7321276834061550
  0.9757939997382863  0.8754853142408834  0.2678723165938450
  0.1494442087351402  0.2799207381982427  0.6264578950604047
  0.7200792618017573  0.8505557912648598  0.3735421049395953
  0.6725945834924971  0.5722001583971945  0.0190045006622626
  0.4277998416028055  0.3274054165075100  0.9809954993377374
  0.9273923168732665  0.0726076831267335  0.0000000000000000
  0.1148479388247878  0.8851520611752122  0.5000000000000000
  0.6680399493962952  0.2609650368510117  0.6565996797272291
  0.7390349631489883  0.3319600506037048  0.3434003202727709
  0.3881185886201024  0.8001587791002294  0.7923800001478796
  0.1998412208997706  0.6118814113798976  0.2076199998521204
 
  0.00000000E+00  0.00000000E+00  0.00000000E+00
  0.00000000E+00  0.00000000E+00  0.00000000E+00
  0.00000000E+00  0.00000000E+00  0.00000000E+00
  0.00000000E+00  0.00000000E+00  0.00000000E+00
  0.00000000E+00  0.00000000E+00  0.00000000E+00
  0.00000000E+00  0.00000000E+00  0.00000000E+00
  0.00000000E+00  0.00000000E+00  0.00000000E+00
  0.00000000E+00  0.00000000E+00  0.00000000E+00
  0.00000000E+00  0.00000000E+00  0.00000000E+00
  0.00000000E+00  0.00000000E+00  0.00000000E+00
  0.00000000E+00  0.00000000E+00  0.00000000E+00
  0.00000000E+00  0.00000000E+00  0.00000000E+00
  0.00000000E+00  0.00000000E+00  0.00000000E+00
