Mg4 Ga4 F20                             
   1.0000000000000000     
     9.5165626165010906    0.0000000000000000    0.0000000000000000
     0.0000000000000000    4.8867543728533001    0.0664155740374697
     0.0000000000000000    2.3617291972425871    6.8427824282275962
   Mg   Ga   F 
     4     4    20
Direct
  0.9875392025919041  0.4703730179632402  0.2363367173328612
  0.4875392025919112  0.5296269820367527  0.2636632826671388
  0.0124607974080888  0.5296269820367527  0.7636632826671388
  0.5124607974080959  0.4703730179632402  0.7363367173328612
  0.7592722899155007  0.1075944651051159  0.6198090003511538
  0.2592722899155007  0.8924055348948841  0.8801909996488462
  0.2407277100844993  0.8924055348948841  0.3801909996488462
  0.7407277100844993  0.1075944651051159  0.1198090003511538
  0.6071980416825227  0.3526797962489852  0.5015235762817269
  0.1071980416825298  0.6473202037510148  0.9984764237182731
  0.3928019583174773  0.6473202037510148  0.4984764237182731
  0.8928019583174773  0.3526797962489852  0.0015235762817269
  0.8242767100627333  0.1563899477396404  0.3557498211792876
  0.3242767100627404  0.8436100522603596  0.1442501788207124
  0.1757232899372596  0.8436100522603596  0.6442501788207124
  0.6757232899372667  0.1563899477396404  0.8557498211792876
  0.4116625708259960  0.1128236875929787  0.7645091650162215
  0.9116625708260031  0.8871763124070213  0.7354908349837785
  0.5883374291739969  0.8871763124070213  0.2354908349837785
  0.0883374291740040  0.1128236875929787  0.2645091650162215
  0.6476426798316908  0.7806870721097781  0.6606272692249533
  0.1476426798316908  0.2193129278902219  0.8393727307750467
  0.3523573201683163  0.2193129278902219  0.3393727307750396
  0.8523573201683092  0.7806870721097781  0.1606272692249604
  0.3783756281819635  0.5635384685196314  0.9131435593662545
  0.8783756281819635  0.4364615314803757  0.5868564406337455
  0.6216243718180365  0.4364615314803757  0.0868564406337455
  0.1216243718180365  0.5635384685196314  0.4131435593662616

  0.00000000E+00  0.00000000E+00  0.00000000E+00
  0.00000000E+00  0.00000000E+00  0.00000000E+00
  0.00000000E+00  0.00000000E+00  0.00000000E+00
  0.00000000E+00  0.00000000E+00  0.00000000E+00
  0.00000000E+00  0.00000000E+00  0.00000000E+00
  0.00000000E+00  0.00000000E+00  0.00000000E+00
  0.00000000E+00  0.00000000E+00  0.00000000E+00
  0.00000000E+00  0.00000000E+00  0.00000000E+00
  0.00000000E+00  0.00000000E+00  0.00000000E+00
  0.00000000E+00  0.00000000E+00  0.00000000E+00
  0.00000000E+00  0.00000000E+00  0.00000000E+00
  0.00000000E+00  0.00000000E+00  0.00000000E+00
  0.00000000E+00  0.00000000E+00  0.00000000E+00
  0.00000000E+00  0.00000000E+00  0.00000000E+00
  0.00000000E+00  0.00000000E+00  0.00000000E+00
  0.00000000E+00  0.00000000E+00  0.00000000E+00
  0.00000000E+00  0.00000000E+00  0.00000000E+00
  0.00000000E+00  0.00000000E+00  0.00000000E+00
  0.00000000E+00  0.00000000E+00  0.00000000E+00
  0.00000000E+00  0.00000000E+00  0.00000000E+00
  0.00000000E+00  0.00000000E+00  0.00000000E+00
  0.00000000E+00  0.00000000E+00  0.00000000E+00
  0.00000000E+00  0.00000000E+00  0.00000000E+00
  0.00000000E+00  0.00000000E+00  0.00000000E+00
  0.00000000E+00  0.00000000E+00  0.00000000E+00
  0.00000000E+00  0.00000000E+00  0.00000000E+00
  0.00000000E+00  0.00000000E+00  0.00000000E+00
  0.00000000E+00  0.00000000E+00  0.00000000E+00
