Ba15 Ga1                                
   1.00000000000000     
     4.3872722278378218   -7.5989805403118158    0.0000000000000000
     4.3872722278378218    7.5989805403118158    0.0000000000000000
     0.0000000000000000    0.0000000000000000   14.2269630074816771
   Ba   Ga
    15     1
Direct
  0.0000000000000000  0.0000000000000000  0.0000000000000000
  0.9955606207122472  0.4977803103427689  0.5000000000000000
  0.0039505885886228  0.5019752943144198  0.0000000000000000
  0.5022196896305218  0.4977803103694782  0.5000000000000000
  0.4980247057257969  0.5019752942742031  0.0000000000000000
  0.5022196896572311  0.0044393792877528  0.5000000000000000
  0.4980247056855802  0.9960494114113772  0.0000000000000000
  0.1619380868810367  0.3238771738235968  0.2675952914022872
  0.1619380868810367  0.3238771738235968  0.7324047085977128
  0.1619380869425626  0.8380619130574374  0.2675952914022872
  0.1619380869425626  0.8380619130574374  0.7324047085977128
  0.6761228261764032  0.8380619131189633  0.2675952914022872
  0.6761228261764032  0.8380619131189633  0.7324047085977128
  0.6666669999999968  0.3333330000000032  0.2461056398708195
  0.6666669999999968  0.3333330000000032  0.7538943601291805
  0.0000000000000000  0.0000000000000000  0.5000000000000000
 
  0.00000000E+00  0.00000000E+00  0.00000000E+00
  0.00000000E+00  0.00000000E+00  0.00000000E+00
  0.00000000E+00  0.00000000E+00  0.00000000E+00
  0.00000000E+00  0.00000000E+00  0.00000000E+00
  0.00000000E+00  0.00000000E+00  0.00000000E+00
  0.00000000E+00  0.00000000E+00  0.00000000E+00
  0.00000000E+00  0.00000000E+00  0.00000000E+00
  0.00000000E+00  0.00000000E+00  0.00000000E+00
  0.00000000E+00  0.00000000E+00  0.00000000E+00
  0.00000000E+00  0.00000000E+00  0.00000000E+00
  0.00000000E+00  0.00000000E+00  0.00000000E+00
  0.00000000E+00  0.00000000E+00  0.00000000E+00
  0.00000000E+00  0.00000000E+00  0.00000000E+00
  0.00000000E+00  0.00000000E+00  0.00000000E+00
  0.00000000E+00  0.00000000E+00  0.00000000E+00
  0.00000000E+00  0.00000000E+00  0.00000000E+00
