Ca4 In2 F10                             
   1.00000000000000     
    -3.2564025622957602    3.2564025622957598    5.7391139263378106
     3.2564025622957602   -3.2564025622957598    5.7391139263378106
     3.2564025622957602    3.2564025622957598   -5.7391139263378106
   Ca   In   F 
     4     2    10
Direct
  0.8369958916691331  0.3369958916691331  0.1739917833382520
  0.3369958916691331  0.1630041083308669  0.5000000000000000
  0.1630041083308669  0.6630041083308669  0.8260082166617480
  0.6630041083308669  0.8369958916691331  0.5000000000000000
  0.2500000000000000  0.2500000000000000  0.0000000000000000
  0.7500000000000000  0.7500000000000000  0.0000000000000000
  0.5000000000000000  0.5000000000000000  0.0000000000000000
  0.0000000000000000  0.0000000000000000  0.0000000000000000
  0.5268628334354943  0.0268628334354943  0.7862589766853176
  0.0268628334354943  0.2406038567501696  0.5000000000000000
  0.7406038567501696  0.5268628334354943  0.5000000000000000
  0.9731371665645057  0.7593961432498304  0.5000000000000000
  0.2593961432498304  0.4731371665645057  0.5000000000000000
  0.7593961432498304  0.2593961432498304  0.7862589766853176
  0.4731371665645057  0.9731371665645057  0.2137410233146824
  0.2406038567501696  0.7406038567501696  0.2137410233146824
 
  0.00000000E+00  0.00000000E+00  0.00000000E+00
  0.00000000E+00  0.00000000E+00  0.00000000E+00
  0.00000000E+00  0.00000000E+00  0.00000000E+00
  0.00000000E+00  0.00000000E+00  0.00000000E+00
  0.00000000E+00  0.00000000E+00  0.00000000E+00
  0.00000000E+00  0.00000000E+00  0.00000000E+00
  0.00000000E+00  0.00000000E+00  0.00000000E+00
  0.00000000E+00  0.00000000E+00  0.00000000E+00
  0.00000000E+00  0.00000000E+00  0.00000000E+00
  0.00000000E+00  0.00000000E+00  0.00000000E+00
  0.00000000E+00  0.00000000E+00  0.00000000E+00
  0.00000000E+00  0.00000000E+00  0.00000000E+00
  0.00000000E+00  0.00000000E+00  0.00000000E+00
  0.00000000E+00  0.00000000E+00  0.00000000E+00
  0.00000000E+00  0.00000000E+00  0.00000000E+00
  0.00000000E+00  0.00000000E+00  0.00000000E+00
