Mg1 B2 Br8                              
   1.00000000000000     
     5.8471151095279046   -3.4688736711833612    0.2003942259708298
     5.8471151095279046    3.4688736711833612    0.2003942259708298
     0.3309506549374840    0.0000000000000000    9.5592465690155954
   B    Mg   Br
     2     1     8
Direct
  0.2975585185697369  0.2975585185697369  0.2395546095362562
  0.7024414814302631  0.7024414814302631  0.7604453904637438
  0.0000000000000000  0.0000000000000000  0.0000000000000000
  0.5968992000525262  0.1012778961485310  0.1339415156353354
  0.1012778961485310  0.5968992000525262  0.1339415156353354
  0.1186063416332459  0.1186063416332459  0.2378577090766356
  0.6588698120429868  0.6588698120429868  0.5682157984747462
  0.3411301879570132  0.3411301879570132  0.4317842015252538
  0.8813936583667541  0.8813936583667541  0.7621422909233644
  0.8987221038514690  0.4031007999474738  0.8660584843646646
  0.4031007999474738  0.8987221038514690  0.8660584843646646
 
  0.00000000E+00  0.00000000E+00  0.00000000E+00
  0.00000000E+00  0.00000000E+00  0.00000000E+00
  0.00000000E+00  0.00000000E+00  0.00000000E+00
  0.00000000E+00  0.00000000E+00  0.00000000E+00
  0.00000000E+00  0.00000000E+00  0.00000000E+00
  0.00000000E+00  0.00000000E+00  0.00000000E+00
  0.00000000E+00  0.00000000E+00  0.00000000E+00
  0.00000000E+00  0.00000000E+00  0.00000000E+00
  0.00000000E+00  0.00000000E+00  0.00000000E+00
  0.00000000E+00  0.00000000E+00  0.00000000E+00
  0.00000000E+00  0.00000000E+00  0.00000000E+00
