Ba17 Tl11 I1                            
   1.0000000000000000     
     9.7289314408267416   -5.4130434685971567    4.0028626911559018
    -0.0152120810221916   10.6210485057224950    3.7978523473692980
   -10.1084854326597959   -5.5920576019358030    4.6506594145162063
   Tl   I    Ba
    11     1    17
Direct
  0.5922912633280575  0.8532702497585234  0.0035179610743867
  0.3709873410967575  0.3397526154807338  0.1932182428521401
  0.8068002692584741  0.1775897355009022  0.1832176021116751
  0.2508975014850847  0.8181907350793409  0.2671951607441230
  0.2109963759641502  0.3485895229459999  0.3709147118450460
  0.3861630463722463  0.1738373546060075  0.3820731306669600
  0.0038899570106068  0.7885965447680192  0.6159084786560740
  0.8408216159888156  0.9756467942667157  0.6285705403804513
  0.9862151950561255  0.5471818556434798  0.7296116248592597
  0.6273497405416109  0.9978878966414442  0.8230329276832933
  0.1759787701574282  0.1453517052125690  0.8036611925093311
  0.6856115260852391  0.5582270225006241  0.0028237349162197
  0.9719090561829944  0.5591379420165481  0.9982839070385694
  0.2121947871728338  0.9389277200342931  0.9987476193766156
  0.5339670152703277  0.2346803070958501  0.9996740737110130
  0.0009204228040645  0.1962274634821668  0.0003351880709843
  0.3296164065945462  0.5437370498118952  0.0012482737241299
  0.7632561570667065  0.7538428721104324  0.3187379942351498
  0.5634497126240703  0.0042851083736082  0.2760455632359609
  0.0299516050059268  0.5409684053546329  0.3398475529975755
  0.9994058603570650  0.9726929576475101  0.2044223097187086
  0.4651690585121599  0.7037890526622590  0.4496129859853468
  0.7003891866812282  0.4467871231180567  0.4467752398841185
  0.2555073003182358  0.9998865398291343  0.5549121679792535
  0.0142215347641468  0.2535318355241785  0.5464852331228229
  0.7932754743253412  0.7681371842974798  0.7944027047625113
  0.6911663778820767  0.1984969271567607  0.6600152693309198
  0.2909386890540802  0.7278835346004513  0.7254434214587562
  0.4476147530395664  0.4322059444803585  0.6812661870686085

  0.00000000E+00  0.00000000E+00  0.00000000E+00
  0.00000000E+00  0.00000000E+00  0.00000000E+00
  0.00000000E+00  0.00000000E+00  0.00000000E+00
  0.00000000E+00  0.00000000E+00  0.00000000E+00
  0.00000000E+00  0.00000000E+00  0.00000000E+00
  0.00000000E+00  0.00000000E+00  0.00000000E+00
  0.00000000E+00  0.00000000E+00  0.00000000E+00
  0.00000000E+00  0.00000000E+00  0.00000000E+00
  0.00000000E+00  0.00000000E+00  0.00000000E+00
  0.00000000E+00  0.00000000E+00  0.00000000E+00
  0.00000000E+00  0.00000000E+00  0.00000000E+00
  0.00000000E+00  0.00000000E+00  0.00000000E+00
  0.00000000E+00  0.00000000E+00  0.00000000E+00
  0.00000000E+00  0.00000000E+00  0.00000000E+00
  0.00000000E+00  0.00000000E+00  0.00000000E+00
  0.00000000E+00  0.00000000E+00  0.00000000E+00
  0.00000000E+00  0.00000000E+00  0.00000000E+00
  0.00000000E+00  0.00000000E+00  0.00000000E+00
  0.00000000E+00  0.00000000E+00  0.00000000E+00
  0.00000000E+00  0.00000000E+00  0.00000000E+00
  0.00000000E+00  0.00000000E+00  0.00000000E+00
  0.00000000E+00  0.00000000E+00  0.00000000E+00
  0.00000000E+00  0.00000000E+00  0.00000000E+00
  0.00000000E+00  0.00000000E+00  0.00000000E+00
  0.00000000E+00  0.00000000E+00  0.00000000E+00
  0.00000000E+00  0.00000000E+00  0.00000000E+00
  0.00000000E+00  0.00000000E+00  0.00000000E+00
  0.00000000E+00  0.00000000E+00  0.00000000E+00
  0.00000000E+00  0.00000000E+00  0.00000000E+00
