Ca32 Tl28                               
   1.0000000000000000     
    12.5684970275611185   -0.0004898261539660   -0.0004899056374310
    -0.0004899056374310   12.5684970275611185   -0.0004898261539660
    -0.0004898261539660   -0.0004899056374310   12.5684970275611185
   Tl   Ca
    28    32
Direct
  0.5561773547383666  0.9437357272512799  0.0562880259371212
  0.7701427478044280  0.8055741541355346  0.0667828635499177
  0.7256539510676987  0.3130812434550734  0.0669771083745019
  0.9328856189236490  0.2256996093330130  0.1867447414544330
  0.5664381486735266  0.7298321867150364  0.1944981332902103
  0.6941903807018051  0.9333409677449893  0.2703520136516389
  0.1867447414544330  0.9328856189236490  0.2256996093330130
  0.8129976628890745  0.4327919257424355  0.2742272627215954
  0.3053976939946139  0.4335983373418628  0.2300582967318121
  0.4335983373418628  0.2300582967318121  0.3053976939946139
  0.0669771083745019  0.7256539510676987  0.3130812434550734
  0.2742272627215954  0.8129976628890745  0.4327919257424355
  0.2300582967318121  0.3053976939946139  0.4335983373418628
  0.4438951769850519  0.4438951769850519  0.4438951769850519
  0.9437357272512799  0.0562880259371212  0.5561773547383666
  0.7298321867150364  0.1944981332902103  0.5664381486735266
  0.7743390658166618  0.6870900140340837  0.5671544717917456
  0.5671544717917456  0.7743390658166618  0.6870900140340837
  0.9333409677449893  0.2703520136516389  0.6941903807018051
  0.8055741541355346  0.0667828635499177  0.7701427478044280
  0.3130812434550734  0.0669771083745019  0.7256539510676987
  0.6870900140340837  0.5671544717917456  0.7743390658166618
  0.1944981332902103  0.5664381486735266  0.7298321867150364
  0.0667828635499177  0.7701427478044280  0.8055741541355346
  0.4327919257424355  0.2742272627215954  0.8129976628890745
  0.2256996093330130  0.1867447414544330  0.9328856189236490
  0.2703520136516389  0.6941903807018051  0.9333409677449893
  0.0562880259371212  0.5561773547383666  0.9437357272512799
  0.8028240344032724  0.5553762484813163  0.0138493242962454
  0.7899089089556455  0.0640978861466621  0.0303389396834888
  0.4860853508569321  0.1971108226663034  0.0552653063022390
  0.0303389396834888  0.7899089089556455  0.0640978861466621
  0.1889553067347620  0.1889553067347620  0.1889553067347620
  0.3080776299448544  0.6918819091991182  0.1917925075627380
  0.0552653063022390  0.4860853508569321  0.1971108226663034
  0.5640676404583189  0.4696035905428673  0.2100250429599200
  0.4356421962132870  0.9697697811913670  0.2898780580150628
  0.9444476907468982  0.9860793931927532  0.3026916872466998
  0.6918819091991182  0.1917925075627380  0.3080776299448544
  0.8109249042264040  0.6888533613200494  0.3110746446400299
  0.9697697811913670  0.2898780580150628  0.4356421962132870
  0.5138719258148043  0.6973709716269241  0.4447536331197597
  0.2100250429599200  0.5640676404583189  0.4696035905428673
  0.1971108226663034  0.0552653063022390  0.4860853508569321
  0.6973709716269241  0.4447536331197597  0.5138719258148043
  0.7100154668989234  0.9359401597660764  0.5305622343854139
  0.0138493242962454  0.8028240344032724  0.5553762484813163
  0.4696035905428673  0.2100250429599200  0.5640676404583189
  0.3110746446400299  0.8109249042264040  0.6888533613200494
  0.1917925075627380  0.3080776299448544  0.6918819091991182
  0.4447536331197597  0.5138719258148043  0.6973709716269241
  0.9359401597660764  0.5305622343854139  0.7100154668989234
  0.0640978861466621  0.0303389396834888  0.7899089089556455
  0.5553762484813163  0.0138493242962454  0.8028240344032724
  0.8082385575496289  0.8082385575496289  0.8082385575496289
  0.6888533613200494  0.3110746446400299  0.8109249042264040
  0.5305622343854139  0.7100154668989234  0.9359401597660764
  0.9860793931927532  0.3026916872466998  0.9444476907468982
  0.2898780580150628  0.4356421962132870  0.9697697811913670
  0.3026916872466998  0.9444476907468982  0.9860793931927532

  0.00000000E+00  0.00000000E+00  0.00000000E+00
  0.00000000E+00  0.00000000E+00  0.00000000E+00
  0.00000000E+00  0.00000000E+00  0.00000000E+00
  0.00000000E+00  0.00000000E+00  0.00000000E+00
  0.00000000E+00  0.00000000E+00  0.00000000E+00
  0.00000000E+00  0.00000000E+00  0.00000000E+00
  0.00000000E+00  0.00000000E+00  0.00000000E+00
  0.00000000E+00  0.00000000E+00  0.00000000E+00
  0.00000000E+00  0.00000000E+00  0.00000000E+00
  0.00000000E+00  0.00000000E+00  0.00000000E+00
  0.00000000E+00  0.00000000E+00  0.00000000E+00
  0.00000000E+00  0.00000000E+00  0.00000000E+00
  0.00000000E+00  0.00000000E+00  0.00000000E+00
  0.00000000E+00  0.00000000E+00  0.00000000E+00
  0.00000000E+00  0.00000000E+00  0.00000000E+00
  0.00000000E+00  0.00000000E+00  0.00000000E+00
  0.00000000E+00  0.00000000E+00  0.00000000E+00
  0.00000000E+00  0.00000000E+00  0.00000000E+00
  0.00000000E+00  0.00000000E+00  0.00000000E+00
  0.00000000E+00  0.00000000E+00  0.00000000E+00
  0.00000000E+00  0.00000000E+00  0.00000000E+00
  0.00000000E+00  0.00000000E+00  0.00000000E+00
  0.00000000E+00  0.00000000E+00  0.00000000E+00
  0.00000000E+00  0.00000000E+00  0.00000000E+00
  0.00000000E+00  0.00000000E+00  0.00000000E+00
  0.00000000E+00  0.00000000E+00  0.00000000E+00
  0.00000000E+00  0.00000000E+00  0.00000000E+00
  0.00000000E+00  0.00000000E+00  0.00000000E+00
  0.00000000E+00  0.00000000E+00  0.00000000E+00
  0.00000000E+00  0.00000000E+00  0.00000000E+00
  0.00000000E+00  0.00000000E+00  0.00000000E+00
  0.00000000E+00  0.00000000E+00  0.00000000E+00
  0.00000000E+00  0.00000000E+00  0.00000000E+00
  0.00000000E+00  0.00000000E+00  0.00000000E+00
  0.00000000E+00  0.00000000E+00  0.00000000E+00
  0.00000000E+00  0.00000000E+00  0.00000000E+00
  0.00000000E+00  0.00000000E+00  0.00000000E+00
  0.00000000E+00  0.00000000E+00  0.00000000E+00
  0.00000000E+00  0.00000000E+00  0.00000000E+00
  0.00000000E+00  0.00000000E+00  0.00000000E+00
  0.00000000E+00  0.00000000E+00  0.00000000E+00
  0.00000000E+00  0.00000000E+00  0.00000000E+00
  0.00000000E+00  0.00000000E+00  0.00000000E+00
  0.00000000E+00  0.00000000E+00  0.00000000E+00
  0.00000000E+00  0.00000000E+00  0.00000000E+00
  0.00000000E+00  0.00000000E+00  0.00000000E+00
  0.00000000E+00  0.00000000E+00  0.00000000E+00
  0.00000000E+00  0.00000000E+00  0.00000000E+00
  0.00000000E+00  0.00000000E+00  0.00000000E+00
  0.00000000E+00  0.00000000E+00  0.00000000E+00
  0.00000000E+00  0.00000000E+00  0.00000000E+00
  0.00000000E+00  0.00000000E+00  0.00000000E+00
  0.00000000E+00  0.00000000E+00  0.00000000E+00
  0.00000000E+00  0.00000000E+00  0.00000000E+00
  0.00000000E+00  0.00000000E+00  0.00000000E+00
  0.00000000E+00  0.00000000E+00  0.00000000E+00
  0.00000000E+00  0.00000000E+00  0.00000000E+00
  0.00000000E+00  0.00000000E+00  0.00000000E+00
  0.00000000E+00  0.00000000E+00  0.00000000E+00
  0.00000000E+00  0.00000000E+00  0.00000000E+00
