Sr2 Ga2 Cl10                            
   1.0000000000000000     
     4.6457701622126484   -0.0000000000000001    0.0000000000000003
    -0.0000000000000009   11.3016020389690315    0.0000000000000010
     0.0000000000000002    0.0000000000000005   10.6548351334664542
   Sr   Ga   Cl
     2     2    10
Direct
  0.0000000000000000  0.0000000000000000  0.5000000000000000
  0.5000000000000000  0.5000000000000000  0.0000000000000000
  0.5000000000000000  0.0000000000000000  0.0000000000000000
  0.0000000000000000  0.5000000000000000  0.5000000000000000
  0.5000000000000000  0.8440776244575900  0.5000000000000000
  0.5000000000000000  0.1559223755424100  0.5000000000000000
  0.5000000000000000  0.0000000000000000  0.2039927411453561
  0.5000000000000000  0.0000000000000000  0.7960072588546439
  0.0000000000000000  0.0000000000000000  0.0000000000000000
  0.0000000000000000  0.3440776244575900  0.0000000000000000
  0.0000000000000000  0.6559223755424100  0.0000000000000000
  0.0000000000000000  0.5000000000000000  0.7039927411453561
  0.0000000000000000  0.5000000000000000  0.2960072588546439
  0.5000000000000000  0.5000000000000000  0.5000000000000000

  0.00000000E+00  0.00000000E+00  0.00000000E+00
  0.00000000E+00  0.00000000E+00  0.00000000E+00
  0.00000000E+00  0.00000000E+00  0.00000000E+00
  0.00000000E+00  0.00000000E+00  0.00000000E+00
  0.00000000E+00  0.00000000E+00  0.00000000E+00
  0.00000000E+00  0.00000000E+00  0.00000000E+00
  0.00000000E+00  0.00000000E+00  0.00000000E+00
  0.00000000E+00  0.00000000E+00  0.00000000E+00
  0.00000000E+00  0.00000000E+00  0.00000000E+00
  0.00000000E+00  0.00000000E+00  0.00000000E+00
  0.00000000E+00  0.00000000E+00  0.00000000E+00
  0.00000000E+00  0.00000000E+00  0.00000000E+00
  0.00000000E+00  0.00000000E+00  0.00000000E+00
  0.00000000E+00  0.00000000E+00  0.00000000E+00
