I1                                      
   1.00000000000000     
     2.9414147338527510   -0.0946709186345352   -1.3393073697923628
    -0.7754604914864766    2.8389328197401236   -1.3393085946802508
     0.6114560673985771    0.7747146777466773    4.9089025771319390
   I 
     1
Direct
  0.0000000000000000  0.0000000000000000  0.0000000000000000
 
  0.00000000E+00  0.00000000E+00  0.00000000E+00
