Sr1 Tl12                                
   1.0000000000000000     
     0.0000000000000000    6.5422858434977513    6.5422858434977513
     6.5422858434977513    0.0000000000000000    6.5422858434977513
     6.5422858434977513    6.5422858434977513    0.0000000000000000
   Tl   Sr
    12     1
Direct
  0.8393209589288020  0.5000000000000000  0.1606790410711980
  0.5000000000000000  0.8393209589288020  0.1606790410711980
  0.5000000000000000  0.5000000000000000  0.1606790410711980
  0.5000000000000000  0.1606790410711980  0.5000000000000000
  0.8393209589288020  0.1606790410711980  0.5000000000000000
  0.1606790410711980  0.5000000000000000  0.5000000000000000
  0.8393209589288020  0.5000000000000000  0.5000000000000000
  0.5000000000000000  0.8393209589288020  0.5000000000000000
  0.1606790410711980  0.8393209589288020  0.5000000000000000
  0.5000000000000000  0.1606790410711980  0.8393209589288020
  0.5000000000000000  0.5000000000000000  0.8393209589288020
  0.1606790410711980  0.5000000000000000  0.8393209589288020
  0.0000000000000000  0.0000000000000000  0.0000000000000000

  0.00000000E+00  0.00000000E+00  0.00000000E+00
  0.00000000E+00  0.00000000E+00  0.00000000E+00
  0.00000000E+00  0.00000000E+00  0.00000000E+00
  0.00000000E+00  0.00000000E+00  0.00000000E+00
  0.00000000E+00  0.00000000E+00  0.00000000E+00
  0.00000000E+00  0.00000000E+00  0.00000000E+00
  0.00000000E+00  0.00000000E+00  0.00000000E+00
  0.00000000E+00  0.00000000E+00  0.00000000E+00
  0.00000000E+00  0.00000000E+00  0.00000000E+00
  0.00000000E+00  0.00000000E+00  0.00000000E+00
  0.00000000E+00  0.00000000E+00  0.00000000E+00
  0.00000000E+00  0.00000000E+00  0.00000000E+00
  0.00000000E+00  0.00000000E+00  0.00000000E+00
