Mg9                                     
   1.00000000000000     
     3.2355207308579566    0.0000000181409324    0.0000000000000000
    -1.6177593339804799    2.8020426026620422    0.0000000000000000
     0.0000000000000000    0.0000000000000000   22.5006052124579519
   Mg
     9
Direct
  0.0000000000000000  0.0000000000000000  0.0000000000000000
  0.0000000000000000  0.0000000000000000  0.2219814494415715
  0.6666669999999968  0.3333330000000032  0.1113515505584317
  0.6666669999999968  0.3333330000000032  0.3333330000000032
  0.6666669999999968  0.3333330000000032  0.5553144494415676
  0.3333330000000032  0.6666669999999968  0.4446855505584324
  0.3333330000000032  0.6666669999999968  0.6666669999999968
  0.3333330000000032  0.6666669999999968  0.8886484494415683
  0.0000000000000000  0.0000000000000000  0.7780185505584285
 
  0.00000000E+00  0.00000000E+00  0.00000000E+00
  0.00000000E+00  0.00000000E+00  0.00000000E+00
  0.00000000E+00  0.00000000E+00  0.00000000E+00
  0.00000000E+00  0.00000000E+00  0.00000000E+00
  0.00000000E+00  0.00000000E+00  0.00000000E+00
  0.00000000E+00  0.00000000E+00  0.00000000E+00
  0.00000000E+00  0.00000000E+00  0.00000000E+00
  0.00000000E+00  0.00000000E+00  0.00000000E+00
  0.00000000E+00  0.00000000E+00  0.00000000E+00
