Ca3 In4                                 
   1.00000000000000     
     2.6427544946951875    1.5257826547887952    8.4278382249829384
    -2.6427544946951875    1.5257826547887952    8.4278382249829384
     0.0000000000000000   -3.0516063443497363    8.4278302900430564
   In   Ca
     4     3
Direct
  0.1534265146051652  0.1534265146051652  0.1534267067573509
  0.2958884009553131  0.2958884009553131  0.2958888895120921
  0.7089447383085528  0.7089447383085528  0.7089443736817103
  0.8514763406434298  0.8514763406434298  0.8514761349032653
  0.0024584046072107  0.0024584046072107  0.0024583529211029
  0.4294980709125440  0.4294980709125440  0.4294982189105596
  0.5753675299677568  0.5753675299677568  0.5753673233138983
 
  0.00000000E+00  0.00000000E+00  0.00000000E+00
  0.00000000E+00  0.00000000E+00  0.00000000E+00
  0.00000000E+00  0.00000000E+00  0.00000000E+00
  0.00000000E+00  0.00000000E+00  0.00000000E+00
  0.00000000E+00  0.00000000E+00  0.00000000E+00
  0.00000000E+00  0.00000000E+00  0.00000000E+00
  0.00000000E+00  0.00000000E+00  0.00000000E+00
