Sr1 B13                                 
   1.00000000000000     
     4.8731299340765633   -3.1777737721233699   -0.8483383696482474
     4.8731299340765633    3.1777737721233699   -0.8483383696482473
    -1.8169598940274891    0.0000000000000000    5.4842070118733863
   Sr   B 
     1    13
Direct
  0.9258610095390125  0.9258610095390125  0.8501942858060119
  0.6939774904584155  0.6939774904584155  0.0283654624913936
  0.5064111290826361  0.2526483926437351  0.2313304609691400
  0.2526483926437351  0.5064111290826361  0.2313304609691400
  0.9786093380912959  0.7283414091316729  0.2605148631319310
  0.7283414091316729  0.9786093380912959  0.2605148631319310
  0.4601746286707424  0.4601746286707424  0.5268205935012276
  0.0224165454221250  0.0224165454221250  0.4590572401470112
  0.4963941630025275  0.4963941630025275  0.8488711386494856
  0.3000094129612378  0.0500413642816468  0.7009198835963417
  0.0500413642816468  0.3000094129612378  0.7009198835963417
  0.7561708196817065  0.4797574373443965  0.7361625690057281
  0.4797574373443965  0.7561708196817065  0.7361625690057281
  0.3490758596888526  0.3490758596888526  0.9288357259985673
 
  0.00000000E+00  0.00000000E+00  0.00000000E+00
  0.00000000E+00  0.00000000E+00  0.00000000E+00
  0.00000000E+00  0.00000000E+00  0.00000000E+00
  0.00000000E+00  0.00000000E+00  0.00000000E+00
  0.00000000E+00  0.00000000E+00  0.00000000E+00
  0.00000000E+00  0.00000000E+00  0.00000000E+00
  0.00000000E+00  0.00000000E+00  0.00000000E+00
  0.00000000E+00  0.00000000E+00  0.00000000E+00
  0.00000000E+00  0.00000000E+00  0.00000000E+00
  0.00000000E+00  0.00000000E+00  0.00000000E+00
  0.00000000E+00  0.00000000E+00  0.00000000E+00
  0.00000000E+00  0.00000000E+00  0.00000000E+00
  0.00000000E+00  0.00000000E+00  0.00000000E+00
  0.00000000E+00  0.00000000E+00  0.00000000E+00
