Mg4 Tl2 Br10                            
   1.0000000000000000     
     8.5016601534482845    1.0482383969607620   -0.7702453727559323
     1.0482383969607627    8.5016601534482881   -0.7702453727559326
     4.0063511107506296    4.0063511107506322    8.2163284792285847
   Br   Mg   Tl
    10     4     2
Direct
  0.5950106685211836  0.9601791466161131  0.0114512729793859
  0.9601791466161131  0.5950106685211836  0.0114512729793859
  0.7178961769652403  0.0711319464005982  0.2841935392664254
  0.1810795138326782  0.1810795138326782  0.1973346209899987
  0.4735255966101946  0.4735255966101946  0.1771988668586530
  0.0711319464005982  0.7178961769652403  0.2841935392664254
  0.9179750932940252  0.2405889167106778  0.8747189961808246
  0.4585510488645141  0.4585510488645141  0.8252656885816592
  0.9515758357644870  0.9515758357644870  0.6031022795322869
  0.2405889167106778  0.9179750932940252  0.8747189961808246
  0.0313092003335456  0.0313092003335456  0.1126255490120229
  0.5971733531158634  0.2523411873483923  0.0332269088357222
  0.2523411873483923  0.5971733531158634  0.0332269088357222
  0.9172161473546652  0.9172161473546652  0.8703051578547587
  0.8160164192278572  0.3185297490399748  0.4034932013229522
  0.3185297490399748  0.8160164192278572  0.4034932013229522

  0.00000000E+00  0.00000000E+00  0.00000000E+00
  0.00000000E+00  0.00000000E+00  0.00000000E+00
  0.00000000E+00  0.00000000E+00  0.00000000E+00
  0.00000000E+00  0.00000000E+00  0.00000000E+00
  0.00000000E+00  0.00000000E+00  0.00000000E+00
  0.00000000E+00  0.00000000E+00  0.00000000E+00
  0.00000000E+00  0.00000000E+00  0.00000000E+00
  0.00000000E+00  0.00000000E+00  0.00000000E+00
  0.00000000E+00  0.00000000E+00  0.00000000E+00
  0.00000000E+00  0.00000000E+00  0.00000000E+00
  0.00000000E+00  0.00000000E+00  0.00000000E+00
  0.00000000E+00  0.00000000E+00  0.00000000E+00
  0.00000000E+00  0.00000000E+00  0.00000000E+00
  0.00000000E+00  0.00000000E+00  0.00000000E+00
  0.00000000E+00  0.00000000E+00  0.00000000E+00
  0.00000000E+00  0.00000000E+00  0.00000000E+00
