Ba1 B2 Cl6                              
   1.00000000000000     
     5.4888468828029460    5.1266375710132976    8.5755651089252716
    -5.4888468828029460    5.1266375710132976    8.5755651089252716
     0.0000000000000000   -1.1338096779203928    5.3070584738302511
   Ba   Cl   B 
     1     6     2
Direct
  0.0000000000000000  0.0000000000000000  0.0000000000000000
  0.6603522155238508  0.6603522155238508  0.1964208612265281
  0.7562132760478519  0.2476749319356628  0.2493549945071649
  0.2476749319356628  0.7562132760478448  0.2493549945071649
  0.3396477844761492  0.3396477844761492  0.8035791387734719
  0.7523250680643372  0.2437867239521481  0.7506450054928351
  0.2437867239521481  0.7523250680643372  0.7506450054928351
  0.2254179314280265  0.2254179314280265  0.2239856214081826
  0.7745820685719735  0.7745820685719735  0.7760143785918103
 
  0.00000000E+00  0.00000000E+00  0.00000000E+00
  0.00000000E+00  0.00000000E+00  0.00000000E+00
  0.00000000E+00  0.00000000E+00  0.00000000E+00
  0.00000000E+00  0.00000000E+00  0.00000000E+00
  0.00000000E+00  0.00000000E+00  0.00000000E+00
  0.00000000E+00  0.00000000E+00  0.00000000E+00
  0.00000000E+00  0.00000000E+00  0.00000000E+00
  0.00000000E+00  0.00000000E+00  0.00000000E+00
  0.00000000E+00  0.00000000E+00  0.00000000E+00
