Ba1 Ga2 I6                              
   1.00000000000000     
     4.5731831305089106    1.7423269524506215    8.9071306970073554
    -4.5731831305089106    1.7423269524506209    8.9071306970073554
     0.0000000000000000   -3.9070062521330233    8.8487020523938984
   Ba   I    Ga
     1     6     2
Direct
  0.0000000000000000  0.0000000000000000  0.0000000000000000
  0.6888728716588233  0.6888728716588233  0.3427018615671642
  0.8055840739665001  0.3016353440336985  0.1804767689587052
  0.3016353440336985  0.8055840739665001  0.1804767689587052
  0.3111271283411696  0.3111271283411696  0.6572981384328358
  0.6983646559663015  0.1944159260334999  0.8195232310413019
  0.1944159260334999  0.6983646559663015  0.8195232310413019
  0.2015372739883148  0.2015372739883148  0.1229510561650855
  0.7984627260116852  0.7984627260116852  0.8770489438349145
 
  0.00000000E+00  0.00000000E+00  0.00000000E+00
  0.00000000E+00  0.00000000E+00  0.00000000E+00
  0.00000000E+00  0.00000000E+00  0.00000000E+00
  0.00000000E+00  0.00000000E+00  0.00000000E+00
  0.00000000E+00  0.00000000E+00  0.00000000E+00
  0.00000000E+00  0.00000000E+00  0.00000000E+00
  0.00000000E+00  0.00000000E+00  0.00000000E+00
  0.00000000E+00  0.00000000E+00  0.00000000E+00
  0.00000000E+00  0.00000000E+00  0.00000000E+00
