Sr4 B4 I20                              
   1.0000000000000000     
     0.0000000000000000   10.0137057028010226   -5.3330771516149564
    15.5676107256374454    0.0000000000000000    0.0000000000000000
     0.0000000000000000    7.2829795021242694  -14.0610969415258253
   Sr   B    I 
     4     4    20
Direct
  0.5462273308790984  0.3817334805597739  0.3530050115216170
  0.4537726691208945  0.8817334805597667  0.6469949884783830
  0.8388231327444586  0.0257484913036237  0.2174592973520646
  0.1611768672555343  0.5257484913036237  0.7825407026479354
  0.6898153803695379  0.9060549237184148  0.9979969789385308
  0.3101846196304550  0.4060549237184077  0.0020030210614763
  0.9534380610409698  0.7096676583965760  0.3990501736826957
  0.0465619389590302  0.2096676583965760  0.6009498263172972
  0.4365472410831828  0.9061161049651787  0.4526149130043251
  0.1876213064233667  0.5304829506369941  0.5669322186358912
  0.8123786935766333  0.0304829506370012  0.4330677813641017
  0.7879323176916415  0.8007274778607183  0.8659737992358103
  0.0825913142202523  0.4740792565556262  0.0609802857193742
  0.3784678350735931  0.9487320484499620  0.1826408294491060
  0.7996640845812095  0.1244686831800905  0.7219631243751294
  0.8414653175407523  0.7322920967726319  0.3396431738216847
  0.9174086857797406  0.9740792565556262  0.9390197142806329
  0.8041614651059987  0.7777208945264604  0.5875842571074159
  0.6215321649263998  0.4487320484499620  0.8173591705508869
  0.5634527589168243  0.4061161049651858  0.5473850869956749
  0.3099964842849801  0.9678328953937765  0.9112107734461148
  0.8161882828899252  0.2119420176802720  0.1500371077617828
  0.1958385348940013  0.2777208945264533  0.4124157428925841
  0.2003359154187905  0.6244686831800834  0.2780368756248635
  0.2120676823083514  0.3007274778607183  0.1340262007641826
  0.1838117171100819  0.7119420176802791  0.8499628922382172
  0.1585346824592477  0.2322920967726247  0.6603568261783082
  0.6900035157150128  0.4678328953937694  0.0887892265538852

  0.00000000E+00  0.00000000E+00  0.00000000E+00
  0.00000000E+00  0.00000000E+00  0.00000000E+00
  0.00000000E+00  0.00000000E+00  0.00000000E+00
  0.00000000E+00  0.00000000E+00  0.00000000E+00
  0.00000000E+00  0.00000000E+00  0.00000000E+00
  0.00000000E+00  0.00000000E+00  0.00000000E+00
  0.00000000E+00  0.00000000E+00  0.00000000E+00
  0.00000000E+00  0.00000000E+00  0.00000000E+00
  0.00000000E+00  0.00000000E+00  0.00000000E+00
  0.00000000E+00  0.00000000E+00  0.00000000E+00
  0.00000000E+00  0.00000000E+00  0.00000000E+00
  0.00000000E+00  0.00000000E+00  0.00000000E+00
  0.00000000E+00  0.00000000E+00  0.00000000E+00
  0.00000000E+00  0.00000000E+00  0.00000000E+00
  0.00000000E+00  0.00000000E+00  0.00000000E+00
  0.00000000E+00  0.00000000E+00  0.00000000E+00
  0.00000000E+00  0.00000000E+00  0.00000000E+00
  0.00000000E+00  0.00000000E+00  0.00000000E+00
  0.00000000E+00  0.00000000E+00  0.00000000E+00
  0.00000000E+00  0.00000000E+00  0.00000000E+00
  0.00000000E+00  0.00000000E+00  0.00000000E+00
  0.00000000E+00  0.00000000E+00  0.00000000E+00
  0.00000000E+00  0.00000000E+00  0.00000000E+00
  0.00000000E+00  0.00000000E+00  0.00000000E+00
  0.00000000E+00  0.00000000E+00  0.00000000E+00
  0.00000000E+00  0.00000000E+00  0.00000000E+00
  0.00000000E+00  0.00000000E+00  0.00000000E+00
  0.00000000E+00  0.00000000E+00  0.00000000E+00
