Mg1 Cl6                                 
   1.00000000000000     
     4.5899724265719248   -8.0853662262204544    0.0000000000000000
     4.5899724265719248    8.0853662262204544    0.0000000000000000
     0.0000000000000000    0.0000000000000000    8.6669884370069372
   Mg   Cl
     1     6
Direct
  0.0000000000000000  0.0000000000000000  0.0000000000000000
  0.0000000000000000  0.0000000000000000  0.2530024662432169
  0.0000000000000000  0.0000000000000000  0.7469975337567831
  0.3052701058295995  0.9138921113590541  0.0000000000000000
  0.6947298941704005  0.0861078886409459  0.0000000000000000
  0.9138921113590541  0.3052701058295995  0.0000000000000000
  0.0861078886409459  0.6947298941704005  0.0000000000000000
 
  0.00000000E+00  0.00000000E+00  0.00000000E+00
  0.00000000E+00  0.00000000E+00  0.00000000E+00
  0.00000000E+00  0.00000000E+00  0.00000000E+00
  0.00000000E+00  0.00000000E+00  0.00000000E+00
  0.00000000E+00  0.00000000E+00  0.00000000E+00
  0.00000000E+00  0.00000000E+00  0.00000000E+00
  0.00000000E+00  0.00000000E+00  0.00000000E+00
