Sr8 Al10                                
   1.00000000000000     
     5.8610199278392994   -0.0003029671905969    0.0000119635797365
    -2.9302929516377456    5.0759152588155452   -0.0000077883783211
     0.0000319644470241   -0.0000057765537895   17.4541182156310519
   Al   Sr
    10     8
Direct
  0.6667158940626479  0.3333461555144268  0.1271546647165493
  0.0095696886227756  0.5047607169530153  0.2500266594493326
  0.4952879572341331  0.5047671697885932  0.2500278982893036
  0.4952883568424156  0.9904714627671964  0.2500271756582464
  0.6667227575949681  0.3333406870790157  0.3729021856782424
  0.3333505207140206  0.6667199222753979  0.6271448036789593
  0.5047683303652590  0.0095722872047617  0.7500273751788527
  0.5047757967852888  0.4952895434928735  0.7500287033863628
  0.9904813171360232  0.4952908591944620  0.7500275086213364
  0.3333349507708121  0.6667287979199727  0.8729133464963184
  0.3333646269144523  0.6666810255202478  0.0663697641443335
  0.0000381970813521  0.0000070596842150  0.1441723313841976
  0.0000553001018062  0.9999993810817713  0.3558909231943872
  0.3333784752051159  0.6666709855054620  0.4336987018708101
  0.6666901795447302  0.3333696583404588  0.5663455532224333
  0.0000148731504055  0.0000447466399578  0.6441437711774256
  0.9999970806493579  0.0000528056837297  0.8558934758367940
  0.6666656972244809  0.3333867353544449  0.9337051580161102
 
  0.00000000E+00  0.00000000E+00  0.00000000E+00
  0.00000000E+00  0.00000000E+00  0.00000000E+00
  0.00000000E+00  0.00000000E+00  0.00000000E+00
  0.00000000E+00  0.00000000E+00  0.00000000E+00
  0.00000000E+00  0.00000000E+00  0.00000000E+00
  0.00000000E+00  0.00000000E+00  0.00000000E+00
  0.00000000E+00  0.00000000E+00  0.00000000E+00
  0.00000000E+00  0.00000000E+00  0.00000000E+00
  0.00000000E+00  0.00000000E+00  0.00000000E+00
  0.00000000E+00  0.00000000E+00  0.00000000E+00
  0.00000000E+00  0.00000000E+00  0.00000000E+00
  0.00000000E+00  0.00000000E+00  0.00000000E+00
  0.00000000E+00  0.00000000E+00  0.00000000E+00
  0.00000000E+00  0.00000000E+00  0.00000000E+00
  0.00000000E+00  0.00000000E+00  0.00000000E+00
  0.00000000E+00  0.00000000E+00  0.00000000E+00
  0.00000000E+00  0.00000000E+00  0.00000000E+00
  0.00000000E+00  0.00000000E+00  0.00000000E+00
