Mg10 Tl4 I32                            
   1.0000000000000000     
     5.9092815052497887   -6.4838879000131966    0.0000000000000000
     5.9092815052497887    6.4838879000131966    0.0000000000000000
     0.0000000000000000    0.0000000000000000   38.0228500285457969
   Mg   Tl   I 
    10     4    32
Direct
  0.0000000000000000  0.0000000000000000  0.7911428413407577
  0.0000000000000000  0.0000000000000000  0.2088571586592423
  0.5000000000000000  0.5000000000000000  0.7088571586592423
  0.5000000000000000  0.5000000000000000  0.2911428413407577
  0.5000000000000000  0.5000000000000000  0.5000000000000000
  0.0000000000000000  0.0000000000000000  0.0000000000000000
  0.0000000000000000  0.5000000000000000  0.7070528860975358
  0.5000000000000000  0.0000000000000000  0.2929471139024713
  0.5000000000000000  0.0000000000000000  0.7929471139024642
  0.0000000000000000  0.5000000000000000  0.2070528860975287
  0.5000000000000000  0.0000000000000000  0.5902177111549278
  0.0000000000000000  0.5000000000000000  0.4097822888450793
  0.0000000000000000  0.5000000000000000  0.9097822888450722
  0.5000000000000000  0.0000000000000000  0.0902177111549278
  0.5049838458240572  0.2249861906439250  0.7417591226832201
  0.4950161541759286  0.7750138093560750  0.7417591226832201
  0.2249861906439250  0.5049838458240572  0.2582408773167799
  0.7750138093560750  0.4950161541759286  0.2582408773167799
  0.9950161541759428  0.2750138093560750  0.7582408773167799
  0.0049838458240572  0.7249861906439250  0.7582408773167799
  0.2750138093560750  0.9950161541759428  0.2417591226832201
  0.7249861906439250  0.0049838458240572  0.2417591226832201
  0.2117193816076721  0.9349124022533886  0.6180236826993664
  0.7882806183923279  0.0650875977466185  0.6180236826993664
  0.9349124022533886  0.2117193816076721  0.3819763173006336
  0.0650875977466185  0.7882806183923279  0.3819763173006336
  0.2882806183923279  0.5650875977466114  0.8819763173006336
  0.7117193816076721  0.4349124022533886  0.8819763173006336
  0.7380010159497061  0.9129184153919425  0.0390204020008653
  0.2619989840502939  0.0870815846080575  0.0390204020008653
  0.9129184153919425  0.7380010159497061  0.9609795979991347
  0.0870815846080575  0.2619989840502939  0.9609795979991347
  0.7619989840502939  0.5870815846080575  0.4609795979991347
  0.2380010159497061  0.4129184153919425  0.4609795979991347
  0.5870815846080575  0.7619989840502939  0.5390204020008653
  0.4129184153919425  0.2380010159497061  0.5390204020008653
  0.9757134353472949  0.7483848711612495  0.1641033397284062
  0.0242865646527051  0.2516151288387505  0.1641033397284062
  0.7483848711612495  0.9757134353472949  0.8358966602715938
  0.2516151288387505  0.0242865646527051  0.8358966602715938
  0.5242865646527051  0.7516151288387505  0.3358966602715938
  0.4757134353472949  0.2483848711612424  0.3358966602715938
  0.7516151288387505  0.5242865646527051  0.6641033397284062
  0.2483848711612424  0.4757134353472949  0.6641033397284062
  0.4349124022533886  0.7117193816076721  0.1180236826993664
  0.5650875977466114  0.2882806183923279  0.1180236826993664

  0.00000000E+00  0.00000000E+00  0.00000000E+00
  0.00000000E+00  0.00000000E+00  0.00000000E+00
  0.00000000E+00  0.00000000E+00  0.00000000E+00
  0.00000000E+00  0.00000000E+00  0.00000000E+00
  0.00000000E+00  0.00000000E+00  0.00000000E+00
  0.00000000E+00  0.00000000E+00  0.00000000E+00
  0.00000000E+00  0.00000000E+00  0.00000000E+00
  0.00000000E+00  0.00000000E+00  0.00000000E+00
  0.00000000E+00  0.00000000E+00  0.00000000E+00
  0.00000000E+00  0.00000000E+00  0.00000000E+00
  0.00000000E+00  0.00000000E+00  0.00000000E+00
  0.00000000E+00  0.00000000E+00  0.00000000E+00
  0.00000000E+00  0.00000000E+00  0.00000000E+00
  0.00000000E+00  0.00000000E+00  0.00000000E+00
  0.00000000E+00  0.00000000E+00  0.00000000E+00
  0.00000000E+00  0.00000000E+00  0.00000000E+00
  0.00000000E+00  0.00000000E+00  0.00000000E+00
  0.00000000E+00  0.00000000E+00  0.00000000E+00
  0.00000000E+00  0.00000000E+00  0.00000000E+00
  0.00000000E+00  0.00000000E+00  0.00000000E+00
  0.00000000E+00  0.00000000E+00  0.00000000E+00
  0.00000000E+00  0.00000000E+00  0.00000000E+00
  0.00000000E+00  0.00000000E+00  0.00000000E+00
  0.00000000E+00  0.00000000E+00  0.00000000E+00
  0.00000000E+00  0.00000000E+00  0.00000000E+00
  0.00000000E+00  0.00000000E+00  0.00000000E+00
  0.00000000E+00  0.00000000E+00  0.00000000E+00
  0.00000000E+00  0.00000000E+00  0.00000000E+00
  0.00000000E+00  0.00000000E+00  0.00000000E+00
  0.00000000E+00  0.00000000E+00  0.00000000E+00
  0.00000000E+00  0.00000000E+00  0.00000000E+00
  0.00000000E+00  0.00000000E+00  0.00000000E+00
  0.00000000E+00  0.00000000E+00  0.00000000E+00
  0.00000000E+00  0.00000000E+00  0.00000000E+00
  0.00000000E+00  0.00000000E+00  0.00000000E+00
  0.00000000E+00  0.00000000E+00  0.00000000E+00
  0.00000000E+00  0.00000000E+00  0.00000000E+00
  0.00000000E+00  0.00000000E+00  0.00000000E+00
  0.00000000E+00  0.00000000E+00  0.00000000E+00
  0.00000000E+00  0.00000000E+00  0.00000000E+00
  0.00000000E+00  0.00000000E+00  0.00000000E+00
  0.00000000E+00  0.00000000E+00  0.00000000E+00
  0.00000000E+00  0.00000000E+00  0.00000000E+00
  0.00000000E+00  0.00000000E+00  0.00000000E+00
  0.00000000E+00  0.00000000E+00  0.00000000E+00
  0.00000000E+00  0.00000000E+00  0.00000000E+00
