Be1 Ga3 I6                              
   1.00000000000000     
     8.0306388025884274   -0.6311861417299777    0.5133152544148786
    -0.6311861417299778    8.0306388025884274    0.5133152544148784
     4.0668468658195591    4.0668468658195591    6.4601602131275531
   I    Be   Ga
     6     1     3
Direct
  0.7350728966079387  0.2649271033920613  0.0000000000000000
  0.2920257479900172  0.2920257479900172  0.8501849359188896
  0.2649271033920613  0.7350728966079387  0.0000000000000000
  0.7079742520099828  0.7079742520099828  0.1498150640811104
  0.8173641017699822  0.8173641017699822  0.4926060558848349
  0.1826358982300178  0.1826358982300178  0.5073939441151651
  0.0000000000000000  0.0000000000000000  0.0000000000000000
  0.5000000000000000  0.5000000000000000  0.0000000000000000
  0.2021637865923083  0.7978362134076917  0.5000000000000000
  0.7978362134076917  0.2021637865923083  0.5000000000000000
 
  0.00000000E+00  0.00000000E+00  0.00000000E+00
  0.00000000E+00  0.00000000E+00  0.00000000E+00
  0.00000000E+00  0.00000000E+00  0.00000000E+00
  0.00000000E+00  0.00000000E+00  0.00000000E+00
  0.00000000E+00  0.00000000E+00  0.00000000E+00
  0.00000000E+00  0.00000000E+00  0.00000000E+00
  0.00000000E+00  0.00000000E+00  0.00000000E+00
  0.00000000E+00  0.00000000E+00  0.00000000E+00
  0.00000000E+00  0.00000000E+00  0.00000000E+00
  0.00000000E+00  0.00000000E+00  0.00000000E+00
