Be28 Al11                               
   1.00000000000000     
     3.5830680408370177    0.0000000994753867   -0.3097952205763708
    -0.0615294810792592    5.8009598804307574   -0.7116440799407741
    -0.0320101023048111   -0.4292551030019034   20.5054162796985082
   Be   Al
    28    11
Direct
  0.8167240574335111  0.8309920141913452  0.6334481153287754
  0.2385441446949486  0.8981504823942501  0.4770892883085480
  0.2263709446240583  0.4821719810194836  0.4527418901469957
  0.8570138341337952  0.0950525905759605  0.7140276681744382
  0.1429861660345679  0.3810249223712816  0.2859723318034710
  0.5884562434083094  0.1826741248191794  0.1769134853441017
  0.3623307497588826  0.3325884067559599  0.7246614992898586
  0.2690242745362497  0.2465569968418677  0.5380485476314476
  0.7614558557864868  0.4210611942518341  0.5229107116376355
  0.9665291338658122  0.4550105911907067  0.9330582672861496
  0.7736290550458946  0.0294300906827871  0.5472581098934199
  0.5981782604402781  0.8286985463534791  0.1963565227226240
  0.7309757261465251  0.7085084494875744  0.4619514522720678
  0.6832997366861662  0.4320905714451939  0.3665984736097769
  0.9412755440030338  0.1008944391826390  0.8825510881087339
  0.3167002630447229  0.0654920978884874  0.6334015264346533
  0.0966882091578185  0.0025047540194620  0.1933774181022372
  0.0587244559518254  0.2183433510794401  0.1174489118941793
  0.5000000001568381  0.5215727543482842  0.9999999999742002
  0.0000000006886438  0.7548812097950020  0.9999999999115303
  0.0334708660585648  0.5219523241071684  0.0669417327195561
  0.4560138710936457  0.2568059972335988  0.9120277422677603
  0.5439861279137261  0.3447782554569940  0.0879712578619873
  0.1832759413309617  0.1975438993258010  0.3665518848323686
  0.6376692514516122  0.6079269069218114  0.2753385005550726
  0.9033117904420678  0.8091273362493681  0.8066225819528938
  0.4115437571433205  0.0057616397946489  0.8230865145861301
  0.4018217389131991  0.6323420232129422  0.8036434773552585
  0.0947232586884112  0.5717160891388673  0.1894465173750746
  0.0000000002311609  0.1515453941355531  0.9999999999743849
  0.2820435711857598  0.6747023375091104  0.5640871427879901
  0.3536292401343886  0.7715810013163207  0.7072584797455264
  0.6463707600899795  0.0643225216830317  0.2927415202311394
  0.9052767414394225  0.3822695717093509  0.8105534826082064
  0.7179564286443707  0.1106151946517926  0.4359128572340722
  0.1799106766116623  0.7560516885759725  0.3598213533100392
  0.5411253969091590  0.8751878541854765  0.0822497935846016
  0.4588746030499138  0.7929380606966490  0.9177502064165779
  0.8200893230703059  0.3962303354013130  0.6401786467264969
 
  0.00000000E+00  0.00000000E+00  0.00000000E+00
  0.00000000E+00  0.00000000E+00  0.00000000E+00
  0.00000000E+00  0.00000000E+00  0.00000000E+00
  0.00000000E+00  0.00000000E+00  0.00000000E+00
  0.00000000E+00  0.00000000E+00  0.00000000E+00
  0.00000000E+00  0.00000000E+00  0.00000000E+00
  0.00000000E+00  0.00000000E+00  0.00000000E+00
  0.00000000E+00  0.00000000E+00  0.00000000E+00
  0.00000000E+00  0.00000000E+00  0.00000000E+00
  0.00000000E+00  0.00000000E+00  0.00000000E+00
  0.00000000E+00  0.00000000E+00  0.00000000E+00
  0.00000000E+00  0.00000000E+00  0.00000000E+00
  0.00000000E+00  0.00000000E+00  0.00000000E+00
  0.00000000E+00  0.00000000E+00  0.00000000E+00
  0.00000000E+00  0.00000000E+00  0.00000000E+00
  0.00000000E+00  0.00000000E+00  0.00000000E+00
  0.00000000E+00  0.00000000E+00  0.00000000E+00
  0.00000000E+00  0.00000000E+00  0.00000000E+00
  0.00000000E+00  0.00000000E+00  0.00000000E+00
  0.00000000E+00  0.00000000E+00  0.00000000E+00
  0.00000000E+00  0.00000000E+00  0.00000000E+00
  0.00000000E+00  0.00000000E+00  0.00000000E+00
  0.00000000E+00  0.00000000E+00  0.00000000E+00
  0.00000000E+00  0.00000000E+00  0.00000000E+00
  0.00000000E+00  0.00000000E+00  0.00000000E+00
  0.00000000E+00  0.00000000E+00  0.00000000E+00
  0.00000000E+00  0.00000000E+00  0.00000000E+00
  0.00000000E+00  0.00000000E+00  0.00000000E+00
  0.00000000E+00  0.00000000E+00  0.00000000E+00
  0.00000000E+00  0.00000000E+00  0.00000000E+00
  0.00000000E+00  0.00000000E+00  0.00000000E+00
  0.00000000E+00  0.00000000E+00  0.00000000E+00
  0.00000000E+00  0.00000000E+00  0.00000000E+00
  0.00000000E+00  0.00000000E+00  0.00000000E+00
  0.00000000E+00  0.00000000E+00  0.00000000E+00
  0.00000000E+00  0.00000000E+00  0.00000000E+00
  0.00000000E+00  0.00000000E+00  0.00000000E+00
  0.00000000E+00  0.00000000E+00  0.00000000E+00
  0.00000000E+00  0.00000000E+00  0.00000000E+00
