Mg4 B4 Br20                             
   1.0000000000000000     
    15.9923919002573758    0.0000000000000000    0.0000000000000000
     0.0000000000000000    8.9917169486629103   -1.7699610828447974
     0.0000000000000000    2.0800451133903914    8.0406930120156179
   Mg   B    Br
     4     4    20
Direct
  0.9674120140567410  0.3988707492464272  0.3494030891305187
  0.4674120140567481  0.6011292507535728  0.1505969108694813
  0.0325879859432590  0.6011292507535728  0.6505969108694813
  0.5325879859432590  0.3988707492464272  0.8494030891305187
  0.8322477237394850  0.8424897169409036  0.5618965957921844
  0.3322477237394850  0.1575102830590964  0.9381034042078156
  0.1677522762605150  0.1575102830590964  0.4381034042078156
  0.6677522762605150  0.8424897169409036  0.0618965957921844
  0.6344763687425541  0.3402919410895962  0.6523254697688401
  0.1344763687425541  0.6597080589104038  0.8476745302311599
  0.3655236312574459  0.6597080589104038  0.3476745302311670
  0.8655236312574459  0.3402919410895962  0.1523254697688330
  0.7992816973563777  0.0253146253763816  0.4654261428682531
  0.2992816973563777  0.9746853746236184  0.0345738571317469
  0.2007183026436223  0.9746853746236184  0.5345738571317469
  0.7007183026436223  0.0253146253763816  0.9654261428682531
  0.4281963875362038  0.1608656053847355  0.7913358527445169
  0.9281963875361967  0.8391343946152645  0.7086641472554831
  0.5718036124638033  0.8391343946152645  0.2086641472554831
  0.0718036124637962  0.1608656053847355  0.2913358527445169
  0.7758323157660527  0.6657907718200491  0.5264074375383458
  0.2758323157660527  0.3342092281799580  0.9735925624616542
  0.2241676842339473  0.3342092281799580  0.4735925624616542
  0.7241676842339473  0.6657907718200491  0.0264074375383458
  0.4554831112252629  0.6399277757132609  0.8462240968623220
  0.9554831112252700  0.3600722242867391  0.6537759031376780
  0.5445168887747300  0.3600722242867391  0.1537759031376780
  0.0445168887747371  0.6399277757132609  0.3462240968623220

  0.00000000E+00  0.00000000E+00  0.00000000E+00
  0.00000000E+00  0.00000000E+00  0.00000000E+00
  0.00000000E+00  0.00000000E+00  0.00000000E+00
  0.00000000E+00  0.00000000E+00  0.00000000E+00
  0.00000000E+00  0.00000000E+00  0.00000000E+00
  0.00000000E+00  0.00000000E+00  0.00000000E+00
  0.00000000E+00  0.00000000E+00  0.00000000E+00
  0.00000000E+00  0.00000000E+00  0.00000000E+00
  0.00000000E+00  0.00000000E+00  0.00000000E+00
  0.00000000E+00  0.00000000E+00  0.00000000E+00
  0.00000000E+00  0.00000000E+00  0.00000000E+00
  0.00000000E+00  0.00000000E+00  0.00000000E+00
  0.00000000E+00  0.00000000E+00  0.00000000E+00
  0.00000000E+00  0.00000000E+00  0.00000000E+00
  0.00000000E+00  0.00000000E+00  0.00000000E+00
  0.00000000E+00  0.00000000E+00  0.00000000E+00
  0.00000000E+00  0.00000000E+00  0.00000000E+00
  0.00000000E+00  0.00000000E+00  0.00000000E+00
  0.00000000E+00  0.00000000E+00  0.00000000E+00
  0.00000000E+00  0.00000000E+00  0.00000000E+00
  0.00000000E+00  0.00000000E+00  0.00000000E+00
  0.00000000E+00  0.00000000E+00  0.00000000E+00
  0.00000000E+00  0.00000000E+00  0.00000000E+00
  0.00000000E+00  0.00000000E+00  0.00000000E+00
  0.00000000E+00  0.00000000E+00  0.00000000E+00
  0.00000000E+00  0.00000000E+00  0.00000000E+00
  0.00000000E+00  0.00000000E+00  0.00000000E+00
  0.00000000E+00  0.00000000E+00  0.00000000E+00
