Ca40 Ga4                                
   1.00000000000000     
     0.0000000000000000    9.6699606512863010    9.6699606512863010
     9.6699606512863010    0.0000000000000000    9.6699606512863010
     9.6699606512863010    9.6699606512863010    0.0000000000000000
   Ca   Ga
    40     4
Direct
  0.6182058150717893  0.6182058150717893  0.8817941849282107
  0.3682058150717893  0.6317941849282107  0.6317941849282107
  0.6317941849282107  0.3682058150717893  0.3682058150717893
  0.3682058150717893  0.3682058150717893  0.6317941849282107
  0.3682058150717893  0.6317941849282107  0.3682058150717893
  0.6317941849282107  0.3682058150717893  0.6317941849282107
  0.8817941849282107  0.6182058150717893  0.8817941849282107
  0.8817941849282107  0.6182058150717893  0.6182058150717893
  0.6182058150717893  0.8817941849282107  0.8817941849282107
  0.6182058150717893  0.8817941849282107  0.6182058150717893
  0.6317941849282107  0.6317941849282107  0.3682058150717893
  0.8817941849282107  0.8817941849282107  0.6182058150717893
  0.7923637855585710  0.0697774907514628  0.3454939381313906
  0.4576362144414290  0.4576362144414290  0.1802225092485372
  0.1802225092485372  0.9045060618686094  0.4576362144414290
  0.4576362144414290  0.9045060618686094  0.4576362144414290
  0.9045060618686094  0.4576362144414290  0.1802225092485372
  0.9045060618686094  0.4576362144414290  0.4576362144414290
  0.1802225092485372  0.4576362144414290  0.4576362144414290
  0.3454939381313906  0.0697774907514628  0.7923637855585710
  0.7923637855585710  0.0697774907514628  0.7923637855585710
  0.0697774907514628  0.7923637855585710  0.3454939381313906
  0.7923637855585710  0.7923637855585710  0.3454939381313906
  0.0697774907514628  0.3454939381313906  0.7923637855585710
  0.3454939381313906  0.7923637855585710  0.0697774907514628
  0.7923637855585710  0.7923637855585710  0.0697774907514628
  0.7923637855585710  0.3454939381313906  0.7923637855585710
  0.1802225092485372  0.4576362144414290  0.9045060618686094
  0.4576362144414290  0.4576362144414290  0.9045060618686094
  0.4576362144414290  0.9045060618686094  0.1802225092485372
  0.4576362144414290  0.1802225092485372  0.9045060618686094
  0.9045060618686094  0.1802225092485372  0.4576362144414290
  0.4576362144414290  0.1802225092485372  0.4576362144414290
  0.3454939381313906  0.7923637855585710  0.7923637855585710
  0.0697774907514628  0.7923637855585710  0.7923637855585710
  0.7923637855585710  0.3454939381313906  0.0697774907514628
  0.1250000000000000  0.1250000000000000  0.1250000000000000
  0.6250000000000000  0.1250000000000000  0.1250000000000000
  0.1250000000000000  0.1250000000000000  0.6250000000000000
  0.1250000000000000  0.6250000000000000  0.1250000000000000
  0.6250000000000000  0.6250000000000000  0.6250000000000000
  0.1250000000000000  0.6250000000000000  0.6250000000000000
  0.6250000000000000  0.6250000000000000  0.1250000000000000
  0.6250000000000000  0.1250000000000000  0.6250000000000000
 
  0.00000000E+00  0.00000000E+00  0.00000000E+00
  0.00000000E+00  0.00000000E+00  0.00000000E+00
  0.00000000E+00  0.00000000E+00  0.00000000E+00
  0.00000000E+00  0.00000000E+00  0.00000000E+00
  0.00000000E+00  0.00000000E+00  0.00000000E+00
  0.00000000E+00  0.00000000E+00  0.00000000E+00
  0.00000000E+00  0.00000000E+00  0.00000000E+00
  0.00000000E+00  0.00000000E+00  0.00000000E+00
  0.00000000E+00  0.00000000E+00  0.00000000E+00
  0.00000000E+00  0.00000000E+00  0.00000000E+00
  0.00000000E+00  0.00000000E+00  0.00000000E+00
  0.00000000E+00  0.00000000E+00  0.00000000E+00
  0.00000000E+00  0.00000000E+00  0.00000000E+00
  0.00000000E+00  0.00000000E+00  0.00000000E+00
  0.00000000E+00  0.00000000E+00  0.00000000E+00
  0.00000000E+00  0.00000000E+00  0.00000000E+00
  0.00000000E+00  0.00000000E+00  0.00000000E+00
  0.00000000E+00  0.00000000E+00  0.00000000E+00
  0.00000000E+00  0.00000000E+00  0.00000000E+00
  0.00000000E+00  0.00000000E+00  0.00000000E+00
  0.00000000E+00  0.00000000E+00  0.00000000E+00
  0.00000000E+00  0.00000000E+00  0.00000000E+00
  0.00000000E+00  0.00000000E+00  0.00000000E+00
  0.00000000E+00  0.00000000E+00  0.00000000E+00
  0.00000000E+00  0.00000000E+00  0.00000000E+00
  0.00000000E+00  0.00000000E+00  0.00000000E+00
  0.00000000E+00  0.00000000E+00  0.00000000E+00
  0.00000000E+00  0.00000000E+00  0.00000000E+00
  0.00000000E+00  0.00000000E+00  0.00000000E+00
  0.00000000E+00  0.00000000E+00  0.00000000E+00
  0.00000000E+00  0.00000000E+00  0.00000000E+00
  0.00000000E+00  0.00000000E+00  0.00000000E+00
  0.00000000E+00  0.00000000E+00  0.00000000E+00
  0.00000000E+00  0.00000000E+00  0.00000000E+00
  0.00000000E+00  0.00000000E+00  0.00000000E+00
  0.00000000E+00  0.00000000E+00  0.00000000E+00
  0.00000000E+00  0.00000000E+00  0.00000000E+00
  0.00000000E+00  0.00000000E+00  0.00000000E+00
  0.00000000E+00  0.00000000E+00  0.00000000E+00
  0.00000000E+00  0.00000000E+00  0.00000000E+00
  0.00000000E+00  0.00000000E+00  0.00000000E+00
  0.00000000E+00  0.00000000E+00  0.00000000E+00
  0.00000000E+00  0.00000000E+00  0.00000000E+00
  0.00000000E+00  0.00000000E+00  0.00000000E+00
