SrIn4                                   
   1.0000000000000000     
     0.0872933003490640    5.1768989714349773    0.0087847556868976
     6.0663239703542082   -2.4867908170700912    0.0161021239446292
    -1.9677229601769783   -2.6359863535753592   -9.3216267365987520
   In   Sr
     8     2
Direct
  0.8750149531514992  0.7477865144051279  0.0529709001934151
  0.7005119135997333  0.2310012243609023  0.1039568228600061
  0.1872968082581963  0.0330095633023078  0.3503006383187355
  0.8365304832542648  0.2688169871412143  0.4229516500287502
  0.1634105489473185  0.7312661598342203  0.5770755201546081
  0.8126387661625643  0.9670721555580428  0.6497155355676014
  0.2995390818071684  0.7690466854132154  0.8960607672396179
  0.1250565745775347  0.2522911303117326  0.9470629369009274
  0.4574800836714630  0.6196546832062779  0.2935486910471710
  0.5425207865702575  0.3804548964669650  0.7064565376891778

  0.00000000E+00  0.00000000E+00  0.00000000E+00
  0.00000000E+00  0.00000000E+00  0.00000000E+00
  0.00000000E+00  0.00000000E+00  0.00000000E+00
  0.00000000E+00  0.00000000E+00  0.00000000E+00
  0.00000000E+00  0.00000000E+00  0.00000000E+00
  0.00000000E+00  0.00000000E+00  0.00000000E+00
  0.00000000E+00  0.00000000E+00  0.00000000E+00
  0.00000000E+00  0.00000000E+00  0.00000000E+00
  0.00000000E+00  0.00000000E+00  0.00000000E+00
  0.00000000E+00  0.00000000E+00  0.00000000E+00
