Sr1 B12                                 
   1.00000000000000     
    -3.1710818976923143    3.1710818976923143    2.5876301306795053
     3.1710818976923143   -3.1710818976923143    2.5876301306795053
     3.1710818976923143    3.1710818976923143   -2.5876301306795053
   B    Sr
    12     1
Direct
  0.5000000000000000  0.0000000000000000  0.0000000000000000
  0.0000000000000000  0.5000000000000000  0.0000000000000000
  0.7469328798347163  0.5000000000000000  0.2469328798347235
  0.5000000000000000  0.7469328798347163  0.2469328798347163
  0.3702964710085084  0.0000000000000000  0.3702964710085084
  0.0000000000000000  0.3702964710085084  0.3702964710085084
  0.0000000000000000  0.0000000000000000  0.5000000000000000
  0.5000000000000000  0.5000000000000000  0.5000000000000000
  0.6297035289914916  0.0000000000000000  0.6297035289914916
  0.0000000000000000  0.6297035289914916  0.6297035289914916
  0.5000000000000000  0.2530671201652837  0.7530671201652837
  0.2530671201652837  0.5000000000000000  0.7530671201652837
  0.0000000000000000  0.0000000000000000  0.0000000000000000
 
  0.00000000E+00  0.00000000E+00  0.00000000E+00
  0.00000000E+00  0.00000000E+00  0.00000000E+00
  0.00000000E+00  0.00000000E+00  0.00000000E+00
  0.00000000E+00  0.00000000E+00  0.00000000E+00
  0.00000000E+00  0.00000000E+00  0.00000000E+00
  0.00000000E+00  0.00000000E+00  0.00000000E+00
  0.00000000E+00  0.00000000E+00  0.00000000E+00
  0.00000000E+00  0.00000000E+00  0.00000000E+00
  0.00000000E+00  0.00000000E+00  0.00000000E+00
  0.00000000E+00  0.00000000E+00  0.00000000E+00
  0.00000000E+00  0.00000000E+00  0.00000000E+00
  0.00000000E+00  0.00000000E+00  0.00000000E+00
  0.00000000E+00  0.00000000E+00  0.00000000E+00
