Ba2 Al2 Br10                            
   1.0000000000000000     
     4.9845769087650131   -0.0000000000000002    0.0000000000000003
    -0.0000000000000010   12.2293790303914935    0.0000000000000010
     0.0000000000000002    0.0000000000000004   11.1636762869279238
   Ba   Al   Br
     2     2    10
Direct
  0.0000000000000000  0.0000000000000000  0.5000000000000000
  0.5000000000000000  0.5000000000000000  0.0000000000000000
  0.5000000000000000  0.0000000000000000  0.0000000000000000
  0.0000000000000000  0.5000000000000000  0.5000000000000000
  0.5000000000000000  0.8344959090111601  0.5000000000000000
  0.5000000000000000  0.1655040909888399  0.5000000000000000
  0.5000000000000000  0.0000000000000000  0.2059870638869299
  0.5000000000000000  0.0000000000000000  0.7940129361130701
  0.0000000000000000  0.0000000000000000  0.0000000000000000
  0.0000000000000000  0.3344959090111601  0.0000000000000000
  0.0000000000000000  0.6655040909888399  0.0000000000000000
  0.0000000000000000  0.5000000000000000  0.7059870638869299
  0.0000000000000000  0.5000000000000000  0.2940129361130701
  0.5000000000000000  0.5000000000000000  0.5000000000000000

  0.00000000E+00  0.00000000E+00  0.00000000E+00
  0.00000000E+00  0.00000000E+00  0.00000000E+00
  0.00000000E+00  0.00000000E+00  0.00000000E+00
  0.00000000E+00  0.00000000E+00  0.00000000E+00
  0.00000000E+00  0.00000000E+00  0.00000000E+00
  0.00000000E+00  0.00000000E+00  0.00000000E+00
  0.00000000E+00  0.00000000E+00  0.00000000E+00
  0.00000000E+00  0.00000000E+00  0.00000000E+00
  0.00000000E+00  0.00000000E+00  0.00000000E+00
  0.00000000E+00  0.00000000E+00  0.00000000E+00
  0.00000000E+00  0.00000000E+00  0.00000000E+00
  0.00000000E+00  0.00000000E+00  0.00000000E+00
  0.00000000E+00  0.00000000E+00  0.00000000E+00
  0.00000000E+00  0.00000000E+00  0.00000000E+00
