Sr6 B33                                 
   1.00000000000000     
     7.6662902476894583    0.0000000000000000    0.0000000000000000
     0.0000000000000000    7.6662902476894583    0.0000000000000000
     0.0000000000000000    0.0000000000000000    7.6662902476894592
   Sr   B 
     6    33
Direct
  0.1819941965379286  0.5000000000000000  0.0000000000000000
  0.8180058034620714  0.5000000000000000  0.0000000000000000
  0.5000000000000000  0.0000000000000000  0.1819941965379286
  0.0000000000000000  0.1819941965379286  0.5000000000000000
  0.0000000000000000  0.8180058034620714  0.5000000000000000
  0.5000000000000000  0.0000000000000000  0.8180058034620714
  0.0000000000000000  0.0000000000000000  0.0000000000000000
  0.1967846038677479  0.1211556963584854  0.0000000000000000
  0.8032153961322521  0.1211556963584854  0.0000000000000000
  0.5000000000000000  0.3910811666397294  0.0000000000000000
  0.5000000000000000  0.6089188333602706  0.0000000000000000
  0.1967846038677479  0.8788443036415146  0.0000000000000000
  0.8032153961322521  0.8788443036415146  0.0000000000000000
  0.0000000000000000  0.1967846038677479  0.1211556963584854
  0.0000000000000000  0.8032153961322521  0.1211556963584854
  0.5000000000000000  0.5000000000000000  0.2093585963137485
  0.1211556963584854  0.0000000000000000  0.1967846038677479
  0.8788443036415146  0.0000000000000000  0.1967846038677479
  0.3760963826981865  0.3760963826981865  0.3760963826981865
  0.6239036173018135  0.3760963826981865  0.3760963826981865
  0.3760963826981865  0.6239036173018135  0.3760963826981865
  0.6239036173018135  0.6239036173018135  0.3760963826981865
  0.0000000000000000  0.5000000000000000  0.3910811666397294
  0.3910811666397294  0.0000000000000000  0.5000000000000000
  0.6089188333602706  0.0000000000000000  0.5000000000000000
  0.5000000000000000  0.2093585963137485  0.5000000000000000
  0.2093585963137485  0.5000000000000000  0.5000000000000000
  0.7906414036862515  0.5000000000000000  0.5000000000000000
  0.5000000000000000  0.7906414036862515  0.5000000000000000
  0.0000000000000000  0.5000000000000000  0.6089188333602706
  0.3760963826981865  0.3760963826981865  0.6239036173018135
  0.6239036173018135  0.3760963826981865  0.6239036173018135
  0.3760963826981865  0.6239036173018135  0.6239036173018135
  0.6239036173018135  0.6239036173018135  0.6239036173018135
  0.1211556963584854  0.0000000000000000  0.8032153961322521
  0.8788443036415146  0.0000000000000000  0.8032153961322521
  0.5000000000000000  0.5000000000000000  0.7906414036862515
  0.0000000000000000  0.1967846038677479  0.8788443036415146
  0.0000000000000000  0.8032153961322521  0.8788443036415146
 
  0.00000000E+00  0.00000000E+00  0.00000000E+00
  0.00000000E+00  0.00000000E+00  0.00000000E+00
  0.00000000E+00  0.00000000E+00  0.00000000E+00
  0.00000000E+00  0.00000000E+00  0.00000000E+00
  0.00000000E+00  0.00000000E+00  0.00000000E+00
  0.00000000E+00  0.00000000E+00  0.00000000E+00
  0.00000000E+00  0.00000000E+00  0.00000000E+00
  0.00000000E+00  0.00000000E+00  0.00000000E+00
  0.00000000E+00  0.00000000E+00  0.00000000E+00
  0.00000000E+00  0.00000000E+00  0.00000000E+00
  0.00000000E+00  0.00000000E+00  0.00000000E+00
  0.00000000E+00  0.00000000E+00  0.00000000E+00
  0.00000000E+00  0.00000000E+00  0.00000000E+00
  0.00000000E+00  0.00000000E+00  0.00000000E+00
  0.00000000E+00  0.00000000E+00  0.00000000E+00
  0.00000000E+00  0.00000000E+00  0.00000000E+00
  0.00000000E+00  0.00000000E+00  0.00000000E+00
  0.00000000E+00  0.00000000E+00  0.00000000E+00
  0.00000000E+00  0.00000000E+00  0.00000000E+00
  0.00000000E+00  0.00000000E+00  0.00000000E+00
  0.00000000E+00  0.00000000E+00  0.00000000E+00
  0.00000000E+00  0.00000000E+00  0.00000000E+00
  0.00000000E+00  0.00000000E+00  0.00000000E+00
  0.00000000E+00  0.00000000E+00  0.00000000E+00
  0.00000000E+00  0.00000000E+00  0.00000000E+00
  0.00000000E+00  0.00000000E+00  0.00000000E+00
  0.00000000E+00  0.00000000E+00  0.00000000E+00
  0.00000000E+00  0.00000000E+00  0.00000000E+00
  0.00000000E+00  0.00000000E+00  0.00000000E+00
  0.00000000E+00  0.00000000E+00  0.00000000E+00
  0.00000000E+00  0.00000000E+00  0.00000000E+00
  0.00000000E+00  0.00000000E+00  0.00000000E+00
  0.00000000E+00  0.00000000E+00  0.00000000E+00
  0.00000000E+00  0.00000000E+00  0.00000000E+00
  0.00000000E+00  0.00000000E+00  0.00000000E+00
  0.00000000E+00  0.00000000E+00  0.00000000E+00
  0.00000000E+00  0.00000000E+00  0.00000000E+00
  0.00000000E+00  0.00000000E+00  0.00000000E+00
  0.00000000E+00  0.00000000E+00  0.00000000E+00
