Sr13 Ga16                               
   1.00000000000000     
    -6.0412575592733448   -6.0412575592733448    6.0412575592733448
    -6.0412575592733440    6.0412575592733448   -6.0412575592733448
     6.0412575592733440   -6.0412575592733448   -6.0412575592733457
   Ga   Sr
    16    13
Direct
  0.7168928785069681  0.0000000000000000  0.0000000000000000
  0.3320203926700316  0.1639275012429167  0.0000000000000000
  0.1639275012429167  0.3320203926700316  0.0000000000000000
  0.0000000000000000  0.7168928785069681  0.0000000000000000
  0.8360724987570833  0.8360724987570833  0.1680928914271007
  0.3320203926700316  0.0000000000000000  0.1639275012429167
  0.0000000000000000  0.3320203926700316  0.1639275012429167
  0.2831071214930319  0.2831071214930319  0.2831071214930319
  0.1639275012429167  0.0000000000000000  0.3320203926700316
  0.0000000000000000  0.1639275012429167  0.3320203926700316
  0.8319071085728993  0.6679796073299755  0.6679796073299755
  0.6679796073299755  0.8319071085728993  0.6679796073299755
  0.0000000000000000  0.0000000000000000  0.7168928785069681
  0.8360724987570833  0.1680928914271007  0.8360724987570833
  0.1680928914271007  0.8360724987570833  0.8360724987570833
  0.6679796073299755  0.6679796073299755  0.8319071085728993
  0.0000000000000000  0.0000000000000000  0.0000000000000000
  0.7471493416291821  0.4576790504699204  0.0000000000000000
  0.4576790504699204  0.7471493416291821  0.0000000000000000
  0.5423209495300796  0.5423209495300796  0.2894702911592688
  0.7105297088407312  0.2528506583708179  0.2528506583708179
  0.2528506583708179  0.7105297088407312  0.2528506583708179
  0.7471493416291821  0.0000000000000000  0.4576790504699204
  0.0000000000000000  0.7471493416291821  0.4576790504699204
  0.5423209495300796  0.2894702911592688  0.5423209495300796
  0.2894702911592688  0.5423209495300796  0.5423209495300796
  0.4576790504699204  0.0000000000000000  0.7471493416291821
  0.0000000000000000  0.4576790504699204  0.7471493416291821
  0.2528506583708179  0.2528506583708179  0.7105297088407312
 
  0.00000000E+00  0.00000000E+00  0.00000000E+00
  0.00000000E+00  0.00000000E+00  0.00000000E+00
  0.00000000E+00  0.00000000E+00  0.00000000E+00
  0.00000000E+00  0.00000000E+00  0.00000000E+00
  0.00000000E+00  0.00000000E+00  0.00000000E+00
  0.00000000E+00  0.00000000E+00  0.00000000E+00
  0.00000000E+00  0.00000000E+00  0.00000000E+00
  0.00000000E+00  0.00000000E+00  0.00000000E+00
  0.00000000E+00  0.00000000E+00  0.00000000E+00
  0.00000000E+00  0.00000000E+00  0.00000000E+00
  0.00000000E+00  0.00000000E+00  0.00000000E+00
  0.00000000E+00  0.00000000E+00  0.00000000E+00
  0.00000000E+00  0.00000000E+00  0.00000000E+00
  0.00000000E+00  0.00000000E+00  0.00000000E+00
  0.00000000E+00  0.00000000E+00  0.00000000E+00
  0.00000000E+00  0.00000000E+00  0.00000000E+00
  0.00000000E+00  0.00000000E+00  0.00000000E+00
  0.00000000E+00  0.00000000E+00  0.00000000E+00
  0.00000000E+00  0.00000000E+00  0.00000000E+00
  0.00000000E+00  0.00000000E+00  0.00000000E+00
  0.00000000E+00  0.00000000E+00  0.00000000E+00
  0.00000000E+00  0.00000000E+00  0.00000000E+00
  0.00000000E+00  0.00000000E+00  0.00000000E+00
  0.00000000E+00  0.00000000E+00  0.00000000E+00
  0.00000000E+00  0.00000000E+00  0.00000000E+00
  0.00000000E+00  0.00000000E+00  0.00000000E+00
  0.00000000E+00  0.00000000E+00  0.00000000E+00
  0.00000000E+00  0.00000000E+00  0.00000000E+00
  0.00000000E+00  0.00000000E+00  0.00000000E+00
