Be4 Tl4 I20                             
   1.0000000000000000     
     0.0000000000000000    9.2558742417579953   -3.0537122270164105
    10.7109023539158592    0.0000000000000000    0.0000000000000000
     0.0000000000000000    2.8158686531939474  -16.3064207816451550
   Be   Tl   I 
     4     4    20
Direct
  0.5537406825956239  0.3454533963264979  0.3569754854654263
  0.4462593174043761  0.8454533963264979  0.6430245145345737
  0.0837852153029885  0.8861038221497637  0.1622585313699645
  0.9162147846970115  0.3861038221497637  0.8377414686300355
  0.5493458276196321  0.6173967526895368  0.0661141305741424
  0.4506541723803679  0.1173967526895368  0.9338858694258576
  0.0212531335844943  0.6995557740923601  0.3974215691388494
  0.9787468664155057  0.1995557740923601  0.6025784308611506
  0.6931205270554557  0.7399650742968475  0.2258927928792929
  0.5908508678619526  0.3490609319101026  0.7408612042210407
  0.4091491321380474  0.8490609319101026  0.2591387957789522
  0.1804552084772766  0.8176316462861379  0.6929595996731166
  0.9122889369145639  0.1689960999526861  0.8361247661984521
  0.6168698866712816  0.2958359995647299  0.2061971646651628
  0.9047937326579074  0.4903407610689854  0.7162599646991623
  0.6490712840693149  0.8953191127994629  0.5100213253387480
  0.0877110630854361  0.6689960999526861  0.1638752338015479
  0.0732974194868063  0.0015843407937481  0.0493472608876502
  0.3831301133287184  0.7958359995647371  0.7938028353348372
  0.3068794729445443  0.2399650742968618  0.7741072071207071
  0.5980640695412873  0.8167405833237851  0.8943968321099192
  0.9797256593108159  0.3736146847453625  0.4257798207465910
  0.9267025805131937  0.5015843407937481  0.9506527391123427
  0.0952062673420926  0.9903407610689854  0.2837400353008377
  0.8195447915227163  0.3176316462861308  0.3070404003268763
  0.0202743406891841  0.8736146847453554  0.5742201792534090
  0.3509287159306780  0.3953191127994629  0.4899786746612520
  0.4019359304587127  0.3167405833237851  0.1056031678900808

  0.00000000E+00  0.00000000E+00  0.00000000E+00
  0.00000000E+00  0.00000000E+00  0.00000000E+00
  0.00000000E+00  0.00000000E+00  0.00000000E+00
  0.00000000E+00  0.00000000E+00  0.00000000E+00
  0.00000000E+00  0.00000000E+00  0.00000000E+00
  0.00000000E+00  0.00000000E+00  0.00000000E+00
  0.00000000E+00  0.00000000E+00  0.00000000E+00
  0.00000000E+00  0.00000000E+00  0.00000000E+00
  0.00000000E+00  0.00000000E+00  0.00000000E+00
  0.00000000E+00  0.00000000E+00  0.00000000E+00
  0.00000000E+00  0.00000000E+00  0.00000000E+00
  0.00000000E+00  0.00000000E+00  0.00000000E+00
  0.00000000E+00  0.00000000E+00  0.00000000E+00
  0.00000000E+00  0.00000000E+00  0.00000000E+00
  0.00000000E+00  0.00000000E+00  0.00000000E+00
  0.00000000E+00  0.00000000E+00  0.00000000E+00
  0.00000000E+00  0.00000000E+00  0.00000000E+00
  0.00000000E+00  0.00000000E+00  0.00000000E+00
  0.00000000E+00  0.00000000E+00  0.00000000E+00
  0.00000000E+00  0.00000000E+00  0.00000000E+00
  0.00000000E+00  0.00000000E+00  0.00000000E+00
  0.00000000E+00  0.00000000E+00  0.00000000E+00
  0.00000000E+00  0.00000000E+00  0.00000000E+00
  0.00000000E+00  0.00000000E+00  0.00000000E+00
  0.00000000E+00  0.00000000E+00  0.00000000E+00
  0.00000000E+00  0.00000000E+00  0.00000000E+00
  0.00000000E+00  0.00000000E+00  0.00000000E+00
  0.00000000E+00  0.00000000E+00  0.00000000E+00
