Mg16 Ga16 Cl80                          
   1.0000000000000000     
    17.0056838135861277   -0.0000003824267074    0.0000000000000012
     0.0000003824267060   17.0056838135861277    0.0000000000000012
     0.0000000000000001    0.0000000000000001   10.7333615357509338
   Mg   Ga   Cl
    16    16    80
Direct
  0.5306914507198499  0.7546863489501732  0.6566426952441518
  0.2546863489501732  0.9693085492801501  0.1566426952441589
  0.7453136510498126  0.0306914507198570  0.1566426952441589
  0.4693085492801430  0.2453136510498126  0.6566426952441518
  0.1937739642367760  0.1460262827157024  0.6753385749273022
  0.6460262827157024  0.3062260357632240  0.1753385749273022
  0.3539737172842976  0.6937739642367617  0.1753385749273022
  0.8062260357632383  0.8539737172842976  0.6753385749273022
  0.0306914507198570  0.2546863489501732  0.1566426952441589
  0.7546863489501732  0.4693085492801430  0.6566426952441518
  0.2453136510498126  0.5306914507198499  0.6566426952441518
  0.9693085492801501  0.7453136510498126  0.1566426952441589
  0.6937739642367617  0.6460262827157024  0.1753385749273022
  0.1460262827157024  0.8062260357632383  0.6753385749273022
  0.8539737172842976  0.1937739642367760  0.6753385749273022
  0.3062260357632240  0.3539737172842976  0.1753385749273022
  0.0000000000000000  0.0000000000000000  0.6130877442865881
  0.0000000000000000  0.0000000000000000  0.1102150591907645
  0.5000000000000000  0.0000000000000000  0.0680159387526587
  0.5000000000000000  0.0000000000000000  0.5680159387526373
  0.3324311491254051  0.1850823038421368  0.0112866063977464
  0.6850823038421439  0.1675688508746020  0.5112866063977322
  0.3149176961578561  0.8324311491253908  0.5112866063977322
  0.6675688508746092  0.8149176961578561  0.0112866063977464
  0.5000000000000000  0.5000000000000000  0.1130877442865952
  0.5000000000000000  0.5000000000000000  0.6102150591907503
  0.0000000000000000  0.5000000000000000  0.5680159387526373
  0.0000000000000000  0.5000000000000000  0.0680159387526587
  0.8324311491253908  0.6850823038421439  0.5112866063977322
  0.1850823038421368  0.6675688508746092  0.0112866063977464
  0.8149176961578561  0.3324311491254051  0.0112866063977464
  0.1675688508746020  0.3149176961578561  0.5112866063977322
  0.0000000000000000  0.0000000000000000  0.8149163456499195
  0.0000000000000000  0.0000000000000000  0.3112588146729891
  0.1290965914742586  0.0444902848428157  0.5602502456589491
  0.5444902848428157  0.3709034085257343  0.0602502456589491
  0.4555097151571843  0.6290965914742515  0.0602502456589491
  0.8709034085257485  0.9555097151571843  0.5602502456589491
  0.1283331864712096  0.9491076939174121  0.0545927072192569
  0.4491076939174050  0.3716668135287904  0.5545927072192569
  0.5508923060825879  0.6283331864712096  0.5545927072192569
  0.8716668135287904  0.0508923060825950  0.0545927072192569
  0.5000000000000000  0.0000000000000000  0.7665608820488359
  0.5000000000000000  0.0000000000000000  0.2665608820488430
  0.4583385433718945  0.1181833771243959  0.9881447504012684
  0.6181833771244101  0.0416614566281197  0.4881447504012755
  0.3818166228756041  0.9583385433718874  0.4881447504012755
  0.5416614566281126  0.8818166228755899  0.9881447504012684
  0.4406598332834619  0.1321430733063096  0.5331022824998541
  0.6321430733063025  0.0593401667165310  0.0331022824998684
  0.3678569266936975  0.9406598332834619  0.0331022824998684
  0.5593401667165239  0.8678569266936975  0.5331022824998541
  0.3942185237401858  0.2669129356319786  0.8440792118900191
  0.7669129356319786  0.1057814762598142  0.3440792118900049
  0.2330870643680214  0.8942185237401929  0.3440792118900120
  0.6057814762598071  0.7330870643680214  0.8440792118900191
  0.3978692973087945  0.2510257401498777  0.1832715287126305
  0.7510257401498706  0.1021307026912055  0.6832715287126305
  0.2489742598501223  0.8978692973088087  0.6832715287126305
  0.6021307026911913  0.7489742598501294  0.1832715287126305
  0.2679242306637946  0.1053573418476219  0.8527454050817482
  0.6053573418476361  0.2320757693362125  0.3527454050817411
  0.3946426581523781  0.7679242306637946  0.3527454050817411
  0.7320757693362054  0.8946426581523639  0.8527454050817482
  0.2732479629901832  0.1077334080195911  0.1726103321275119
  0.6077334080195911  0.2267520370098168  0.6726103321275119
  0.3922665919804160  0.7732479629901761  0.6726103321275119
  0.7267520370098239  0.8922665919804089  0.1726103321275119
  0.7327119876709034  0.7798390249636142  0.5211215084887897
  0.2798390249636213  0.7672880123290824  0.0211215084887968
  0.7201609750363858  0.2327119876708963  0.0211215084887968
  0.2672880123290895  0.2201609750363716  0.5211215084887897
  0.5000000000000000  0.5000000000000000  0.3149163456499195
  0.5000000000000000  0.5000000000000000  0.8112588146729962
  0.6290965914742515  0.5444902848428157  0.0602502456589491
  0.0444902848428157  0.8709034085257485  0.5602502456589491
  0.9555097151571843  0.1290965914742586  0.5602502456589491
  0.3709034085257343  0.4555097151571843  0.0602502456589491
  0.6283331864712096  0.4491076939174050  0.5545927072192569
  0.9491076939174121  0.8716668135287904  0.0545927072192569
  0.0508923060825950  0.1283331864712096  0.0545927072192569
  0.3716668135287904  0.5508923060825879  0.5545927072192569
  0.0000000000000000  0.5000000000000000  0.2665608820488430
  0.0000000000000000  0.5000000000000000  0.7665608820488359
  0.9583385433718874  0.6181833771244101  0.4881447504012755
  0.1181833771243959  0.5416614566281126  0.9881447504012684
  0.8818166228755899  0.4583385433718945  0.9881447504012684
  0.0416614566281197  0.3818166228756041  0.4881447504012755
  0.9406598332834619  0.6321430733063025  0.0331022824998684
  0.1321430733063096  0.5593401667165239  0.5331022824998541
  0.8678569266936975  0.4406598332834619  0.5331022824998541
  0.0593401667165310  0.3678569266936975  0.0331022824998684
  0.8942185237401929  0.7669129356319786  0.3440792118900049
  0.2669129356319786  0.6057814762598071  0.8440792118900191
  0.7330870643680214  0.3942185237401858  0.8440792118900191
  0.1057814762598142  0.2330870643680214  0.3440792118900120
  0.8978692973088087  0.7510257401498706  0.6832715287126305
  0.2510257401498777  0.6021307026911913  0.1832715287126305
  0.7489742598501294  0.3978692973087945  0.1832715287126305
  0.1021307026912055  0.2489742598501223  0.6832715287126305
  0.7679242306637946  0.6053573418476361  0.3527454050817411
  0.1053573418476219  0.7320757693362054  0.8527454050817482
  0.8946426581523639  0.2679242306637946  0.8527454050817482
  0.2320757693362125  0.3946426581523781  0.3527454050817411
  0.7732479629901761  0.6077334080195911  0.6726103321275119
  0.1077334080195911  0.7267520370098239  0.1726103321275119
  0.8922665919804089  0.2732479629901832  0.1726103321275119
  0.2267520370098168  0.3922665919804160  0.6726103321275119
  0.2327119876708963  0.2798390249636213  0.0211215084887968
  0.7798390249636142  0.2672880123290895  0.5211215084887897
  0.2201609750363716  0.7327119876709034  0.5211215084887897
  0.7672880123290824  0.7201609750363858  0.0211215084887968

  0.00000000E+00  0.00000000E+00  0.00000000E+00
  0.00000000E+00  0.00000000E+00  0.00000000E+00
  0.00000000E+00  0.00000000E+00  0.00000000E+00
  0.00000000E+00  0.00000000E+00  0.00000000E+00
  0.00000000E+00  0.00000000E+00  0.00000000E+00
  0.00000000E+00  0.00000000E+00  0.00000000E+00
  0.00000000E+00  0.00000000E+00  0.00000000E+00
  0.00000000E+00  0.00000000E+00  0.00000000E+00
  0.00000000E+00  0.00000000E+00  0.00000000E+00
  0.00000000E+00  0.00000000E+00  0.00000000E+00
  0.00000000E+00  0.00000000E+00  0.00000000E+00
  0.00000000E+00  0.00000000E+00  0.00000000E+00
  0.00000000E+00  0.00000000E+00  0.00000000E+00
  0.00000000E+00  0.00000000E+00  0.00000000E+00
  0.00000000E+00  0.00000000E+00  0.00000000E+00
  0.00000000E+00  0.00000000E+00  0.00000000E+00
  0.00000000E+00  0.00000000E+00  0.00000000E+00
  0.00000000E+00  0.00000000E+00  0.00000000E+00
  0.00000000E+00  0.00000000E+00  0.00000000E+00
  0.00000000E+00  0.00000000E+00  0.00000000E+00
  0.00000000E+00  0.00000000E+00  0.00000000E+00
  0.00000000E+00  0.00000000E+00  0.00000000E+00
  0.00000000E+00  0.00000000E+00  0.00000000E+00
  0.00000000E+00  0.00000000E+00  0.00000000E+00
  0.00000000E+00  0.00000000E+00  0.00000000E+00
  0.00000000E+00  0.00000000E+00  0.00000000E+00
  0.00000000E+00  0.00000000E+00  0.00000000E+00
  0.00000000E+00  0.00000000E+00  0.00000000E+00
  0.00000000E+00  0.00000000E+00  0.00000000E+00
  0.00000000E+00  0.00000000E+00  0.00000000E+00
  0.00000000E+00  0.00000000E+00  0.00000000E+00
  0.00000000E+00  0.00000000E+00  0.00000000E+00
  0.00000000E+00  0.00000000E+00  0.00000000E+00
  0.00000000E+00  0.00000000E+00  0.00000000E+00
  0.00000000E+00  0.00000000E+00  0.00000000E+00
  0.00000000E+00  0.00000000E+00  0.00000000E+00
  0.00000000E+00  0.00000000E+00  0.00000000E+00
  0.00000000E+00  0.00000000E+00  0.00000000E+00
  0.00000000E+00  0.00000000E+00  0.00000000E+00
  0.00000000E+00  0.00000000E+00  0.00000000E+00
  0.00000000E+00  0.00000000E+00  0.00000000E+00
  0.00000000E+00  0.00000000E+00  0.00000000E+00
  0.00000000E+00  0.00000000E+00  0.00000000E+00
  0.00000000E+00  0.00000000E+00  0.00000000E+00
  0.00000000E+00  0.00000000E+00  0.00000000E+00
  0.00000000E+00  0.00000000E+00  0.00000000E+00
  0.00000000E+00  0.00000000E+00  0.00000000E+00
  0.00000000E+00  0.00000000E+00  0.00000000E+00
  0.00000000E+00  0.00000000E+00  0.00000000E+00
  0.00000000E+00  0.00000000E+00  0.00000000E+00
  0.00000000E+00  0.00000000E+00  0.00000000E+00
  0.00000000E+00  0.00000000E+00  0.00000000E+00
  0.00000000E+00  0.00000000E+00  0.00000000E+00
  0.00000000E+00  0.00000000E+00  0.00000000E+00
  0.00000000E+00  0.00000000E+00  0.00000000E+00
  0.00000000E+00  0.00000000E+00  0.00000000E+00
  0.00000000E+00  0.00000000E+00  0.00000000E+00
  0.00000000E+00  0.00000000E+00  0.00000000E+00
  0.00000000E+00  0.00000000E+00  0.00000000E+00
  0.00000000E+00  0.00000000E+00  0.00000000E+00
  0.00000000E+00  0.00000000E+00  0.00000000E+00
  0.00000000E+00  0.00000000E+00  0.00000000E+00
  0.00000000E+00  0.00000000E+00  0.00000000E+00
  0.00000000E+00  0.00000000E+00  0.00000000E+00
  0.00000000E+00  0.00000000E+00  0.00000000E+00
  0.00000000E+00  0.00000000E+00  0.00000000E+00
  0.00000000E+00  0.00000000E+00  0.00000000E+00
  0.00000000E+00  0.00000000E+00  0.00000000E+00
  0.00000000E+00  0.00000000E+00  0.00000000E+00
  0.00000000E+00  0.00000000E+00  0.00000000E+00
  0.00000000E+00  0.00000000E+00  0.00000000E+00
  0.00000000E+00  0.00000000E+00  0.00000000E+00
  0.00000000E+00  0.00000000E+00  0.00000000E+00
  0.00000000E+00  0.00000000E+00  0.00000000E+00
  0.00000000E+00  0.00000000E+00  0.00000000E+00
  0.00000000E+00  0.00000000E+00  0.00000000E+00
  0.00000000E+00  0.00000000E+00  0.00000000E+00
  0.00000000E+00  0.00000000E+00  0.00000000E+00
  0.00000000E+00  0.00000000E+00  0.00000000E+00
  0.00000000E+00  0.00000000E+00  0.00000000E+00
  0.00000000E+00  0.00000000E+00  0.00000000E+00
  0.00000000E+00  0.00000000E+00  0.00000000E+00
  0.00000000E+00  0.00000000E+00  0.00000000E+00
  0.00000000E+00  0.00000000E+00  0.00000000E+00
  0.00000000E+00  0.00000000E+00  0.00000000E+00
  0.00000000E+00  0.00000000E+00  0.00000000E+00
  0.00000000E+00  0.00000000E+00  0.00000000E+00
  0.00000000E+00  0.00000000E+00  0.00000000E+00
  0.00000000E+00  0.00000000E+00  0.00000000E+00
  0.00000000E+00  0.00000000E+00  0.00000000E+00
  0.00000000E+00  0.00000000E+00  0.00000000E+00
  0.00000000E+00  0.00000000E+00  0.00000000E+00
  0.00000000E+00  0.00000000E+00  0.00000000E+00
  0.00000000E+00  0.00000000E+00  0.00000000E+00
  0.00000000E+00  0.00000000E+00  0.00000000E+00
  0.00000000E+00  0.00000000E+00  0.00000000E+00
  0.00000000E+00  0.00000000E+00  0.00000000E+00
  0.00000000E+00  0.00000000E+00  0.00000000E+00
  0.00000000E+00  0.00000000E+00  0.00000000E+00
  0.00000000E+00  0.00000000E+00  0.00000000E+00
  0.00000000E+00  0.00000000E+00  0.00000000E+00
  0.00000000E+00  0.00000000E+00  0.00000000E+00
  0.00000000E+00  0.00000000E+00  0.00000000E+00
  0.00000000E+00  0.00000000E+00  0.00000000E+00
  0.00000000E+00  0.00000000E+00  0.00000000E+00
  0.00000000E+00  0.00000000E+00  0.00000000E+00
  0.00000000E+00  0.00000000E+00  0.00000000E+00
  0.00000000E+00  0.00000000E+00  0.00000000E+00
  0.00000000E+00  0.00000000E+00  0.00000000E+00
  0.00000000E+00  0.00000000E+00  0.00000000E+00
  0.00000000E+00  0.00000000E+00  0.00000000E+00
  0.00000000E+00  0.00000000E+00  0.00000000E+00
