Ba1 In8                                 
   1.0000000000000000     
    10.5319749367558639   -0.0046280085697447    0.0000000000000000
    -5.2699947510690812    9.1186780999194212    0.0000000000000000
     0.0000000000000000    0.0000000000000000    3.3029856590600915
   In   Ba
     8     1
Direct
  0.3498506867036966  0.1751012091384325  0.0000000000000000
  0.8252385467552656  0.1747616962593384  0.0000000000000000
  0.6668530564217292  0.3331457206475505  0.0000000000000000
  0.1751007812856642  0.3498501089624142  0.0000000000000000
  0.8248992187143358  0.6501498910375858  0.0000000000000000
  0.3331469435782637  0.6668542793524495  0.0000000000000000
  0.1747614532447344  0.8252383037406616  0.0000000000000000
  0.6501493132963034  0.8248987908615675  0.0000000000000000
  0.0000000000000000  0.0000000000000000  0.5000000000000000

  0.00000000E+00  0.00000000E+00  0.00000000E+00
  0.00000000E+00  0.00000000E+00  0.00000000E+00
  0.00000000E+00  0.00000000E+00  0.00000000E+00
  0.00000000E+00  0.00000000E+00  0.00000000E+00
  0.00000000E+00  0.00000000E+00  0.00000000E+00
  0.00000000E+00  0.00000000E+00  0.00000000E+00
  0.00000000E+00  0.00000000E+00  0.00000000E+00
  0.00000000E+00  0.00000000E+00  0.00000000E+00
  0.00000000E+00  0.00000000E+00  0.00000000E+00
