Sr4 Ga4 F20                             
   1.0000000000000000     
    10.1970853189128459    0.0000000000000000    0.0000000000000000
     0.0000000000000000    5.0770812189858425    0.0625226697685650
     0.0000000000000000    2.4409894230422209    7.4852000501186664
   Sr   Ga   F 
     4     4    20
Direct
  0.9917679725808668  0.4825388321260888  0.2596951375212200
  0.4917679725808668  0.5174611678739112  0.2403048624787800
  0.0082320274191332  0.5174611678739112  0.7403048624787800
  0.5082320274191332  0.4825388321260888  0.7596951375212200
  0.7606523985350009  0.1288558192814975  0.5916741455343910
  0.2606523985350009  0.8711441807185025  0.9083258544656090
  0.2393476014649991  0.8711441807185025  0.4083258544656090
  0.7393476014649991  0.1288558192814975  0.0916741455343910
  0.5983956254274432  0.3086361493501215  0.5215467919294170
  0.0983956254274361  0.6913638506498785  0.9784532080705830
  0.4016043745725568  0.6913638506498785  0.4784532080705901
  0.9016043745725568  0.3086361493501215  0.0215467919294099
  0.7876681371440455  0.1581162623684236  0.3331710064469036
  0.2876681371440455  0.8418837376315764  0.1668289935530964
  0.2123318628559545  0.8418837376315764  0.6668289935530964
  0.7123318628559545  0.1581162623684236  0.8331710064469036
  0.4283978126771402  0.0054562344814357  0.8233770003780378
  0.9283978126771402  0.9945437655185714  0.6766229996219622
  0.5716021873228598  0.9945437655185714  0.1766229996219622
  0.0716021873228598  0.0054562344814357  0.3233770003780378
  0.6878759572251525  0.7834359312956778  0.6450053620492255
  0.1878759572251525  0.2165640687043222  0.8549946379507745
  0.3121240427748475  0.2165640687043222  0.3549946379507745
  0.8121240427748475  0.7834359312956778  0.1450053620492255
  0.3510050962012556  0.5217975792285898  0.9811604797260713
  0.8510050962012556  0.4782024207714102  0.5188395202739287
  0.6489949037987444  0.4782024207714102  0.0188395202739287
  0.1489949037987444  0.5217975792285898  0.4811604797260713

  0.00000000E+00  0.00000000E+00  0.00000000E+00
  0.00000000E+00  0.00000000E+00  0.00000000E+00
  0.00000000E+00  0.00000000E+00  0.00000000E+00
  0.00000000E+00  0.00000000E+00  0.00000000E+00
  0.00000000E+00  0.00000000E+00  0.00000000E+00
  0.00000000E+00  0.00000000E+00  0.00000000E+00
  0.00000000E+00  0.00000000E+00  0.00000000E+00
  0.00000000E+00  0.00000000E+00  0.00000000E+00
  0.00000000E+00  0.00000000E+00  0.00000000E+00
  0.00000000E+00  0.00000000E+00  0.00000000E+00
  0.00000000E+00  0.00000000E+00  0.00000000E+00
  0.00000000E+00  0.00000000E+00  0.00000000E+00
  0.00000000E+00  0.00000000E+00  0.00000000E+00
  0.00000000E+00  0.00000000E+00  0.00000000E+00
  0.00000000E+00  0.00000000E+00  0.00000000E+00
  0.00000000E+00  0.00000000E+00  0.00000000E+00
  0.00000000E+00  0.00000000E+00  0.00000000E+00
  0.00000000E+00  0.00000000E+00  0.00000000E+00
  0.00000000E+00  0.00000000E+00  0.00000000E+00
  0.00000000E+00  0.00000000E+00  0.00000000E+00
  0.00000000E+00  0.00000000E+00  0.00000000E+00
  0.00000000E+00  0.00000000E+00  0.00000000E+00
  0.00000000E+00  0.00000000E+00  0.00000000E+00
  0.00000000E+00  0.00000000E+00  0.00000000E+00
  0.00000000E+00  0.00000000E+00  0.00000000E+00
  0.00000000E+00  0.00000000E+00  0.00000000E+00
  0.00000000E+00  0.00000000E+00  0.00000000E+00
  0.00000000E+00  0.00000000E+00  0.00000000E+00
