Be1 In2 Br10                            
   1.00000000000000     
     4.7435109800012505    4.8973563200516583    0.3339182024380818
    -4.7435109800012505    4.8973563200516583    0.3339182024380818
     0.0000000000000000    3.8620288415599524    9.5327549375170850
   Be   In   Br
     1     2    10
Direct
  0.3919305529164134  0.6080694470835866  0.0000000000000000
  0.9927182329711925  0.9869869801224311  0.7518685704329187
  0.0130130198775760  0.0072817670288075  0.2481314295670813
  0.2779683271850431  0.3014310181036493  0.6315283035327823
  0.6985689818963507  0.7220316728149569  0.3684716964672177
  0.7407698291556102  0.6384843132481848  0.9229362880698844
  0.3615156867518152  0.2592301708443898  0.0770637119301156
  0.9019971469420014  0.0980028530579986  0.0000000000000000
  0.1189282770479778  0.8810717229520222  0.5000000000000000
  0.7271714277867360  0.2575062125156293  0.6807404963646917
  0.7424937874843707  0.2728285722132640  0.3192595036353083
  0.3069852974942862  0.7300615675093738  0.8054181646498506
  0.2699384324906262  0.6930147025057138  0.1945818353501565
 
  0.00000000E+00  0.00000000E+00  0.00000000E+00
  0.00000000E+00  0.00000000E+00  0.00000000E+00
  0.00000000E+00  0.00000000E+00  0.00000000E+00
  0.00000000E+00  0.00000000E+00  0.00000000E+00
  0.00000000E+00  0.00000000E+00  0.00000000E+00
  0.00000000E+00  0.00000000E+00  0.00000000E+00
  0.00000000E+00  0.00000000E+00  0.00000000E+00
  0.00000000E+00  0.00000000E+00  0.00000000E+00
  0.00000000E+00  0.00000000E+00  0.00000000E+00
  0.00000000E+00  0.00000000E+00  0.00000000E+00
  0.00000000E+00  0.00000000E+00  0.00000000E+00
  0.00000000E+00  0.00000000E+00  0.00000000E+00
  0.00000000E+00  0.00000000E+00  0.00000000E+00
