Sr1 Al2 Br6                             
   1.00000000000000     
     4.0204994012442699    3.3947026829734295    5.0288241902812647
    -4.0204994012442699    3.3947026829734295    5.0288241902812647
     0.0000000000000000   -7.5638224330870552    5.1815599868789279
   Sr   Br   Al
     1     6     2
Direct
  0.0000000000000000  0.0000000000000000  0.0000000000000000
  0.7529165969488432  0.7529165969488432  0.0678259512520327
  0.7717000644923360  0.2842760345112580  0.2565982977320331
  0.2842760345112580  0.7717000644923360  0.2565982977320331
  0.2470834030511568  0.2470834030511568  0.9321740487479673
  0.7157239654887420  0.2282999355076640  0.7434017022679669
  0.2282999355076640  0.7157239654887420  0.7434017022679669
  0.4415626527426042  0.4415626527426042  0.8857713695942877
  0.5584373472573958  0.5584373472573958  0.1142286304057123
 
  0.00000000E+00  0.00000000E+00  0.00000000E+00
  0.00000000E+00  0.00000000E+00  0.00000000E+00
  0.00000000E+00  0.00000000E+00  0.00000000E+00
  0.00000000E+00  0.00000000E+00  0.00000000E+00
  0.00000000E+00  0.00000000E+00  0.00000000E+00
  0.00000000E+00  0.00000000E+00  0.00000000E+00
  0.00000000E+00  0.00000000E+00  0.00000000E+00
  0.00000000E+00  0.00000000E+00  0.00000000E+00
  0.00000000E+00  0.00000000E+00  0.00000000E+00
