Mg2 Tl4 F16                             
   1.0000000000000000     
     5.4370113986317481    3.9151708462111352    0.1352052657298913
    -5.4370113986317481    3.9151708462111352    0.1352052657298913
     0.0000000000000000    0.6654072331668469    6.7046534323428988
   Mg   Tl   F 
     2     4    16
Direct
  0.5152463901698923  0.4847536098301077  0.7500000000000000
  0.4847536098301077  0.5152463901698923  0.2500000000000000
  0.9419581923242291  0.0580418076757709  0.7500000000000000
  0.0580418076757709  0.9419581923242291  0.2500000000000000
  0.5000000000000000  0.0000000000000000  0.5000000000000000
  0.0000000000000000  0.5000000000000000  0.0000000000000000
  0.7653323818870419  0.7298162184363761  0.7163041349940400
  0.2346676181129581  0.2701837815636310  0.2836958650059600
  0.2701837815636310  0.2346676181129581  0.7836958650059600
  0.7298162184363761  0.7653323818870419  0.2163041349940400
  0.5932365503918930  0.0369386626564108  0.7925971810923045
  0.4067634496081070  0.9630613373435892  0.2074028189076955
  0.9630613373435892  0.4067634496081070  0.7074028189076955
  0.0369386626564108  0.5932365503918930  0.2925971810923045
  0.1485616591838337  0.9052948819967384  0.5584236222886148
  0.8514383408161663  0.0947051180032616  0.4415763777113852
  0.0947051180032616  0.8514383408161663  0.9415763777113852
  0.9052948819967384  0.1485616591838337  0.0584236222886148
  0.4150492239818320  0.6435033361290152  0.5198648387893456
  0.5849507760181680  0.3564966638709777  0.4801351612106544
  0.3564966638709777  0.5849507760181680  0.9801351612106544
  0.6435033361290152  0.4150492239818320  0.0198648387893456

  0.00000000E+00  0.00000000E+00  0.00000000E+00
  0.00000000E+00  0.00000000E+00  0.00000000E+00
  0.00000000E+00  0.00000000E+00  0.00000000E+00
  0.00000000E+00  0.00000000E+00  0.00000000E+00
  0.00000000E+00  0.00000000E+00  0.00000000E+00
  0.00000000E+00  0.00000000E+00  0.00000000E+00
  0.00000000E+00  0.00000000E+00  0.00000000E+00
  0.00000000E+00  0.00000000E+00  0.00000000E+00
  0.00000000E+00  0.00000000E+00  0.00000000E+00
  0.00000000E+00  0.00000000E+00  0.00000000E+00
  0.00000000E+00  0.00000000E+00  0.00000000E+00
  0.00000000E+00  0.00000000E+00  0.00000000E+00
  0.00000000E+00  0.00000000E+00  0.00000000E+00
  0.00000000E+00  0.00000000E+00  0.00000000E+00
  0.00000000E+00  0.00000000E+00  0.00000000E+00
  0.00000000E+00  0.00000000E+00  0.00000000E+00
  0.00000000E+00  0.00000000E+00  0.00000000E+00
  0.00000000E+00  0.00000000E+00  0.00000000E+00
  0.00000000E+00  0.00000000E+00  0.00000000E+00
  0.00000000E+00  0.00000000E+00  0.00000000E+00
  0.00000000E+00  0.00000000E+00  0.00000000E+00
  0.00000000E+00  0.00000000E+00  0.00000000E+00
