Be9 Al4                                 
   1.00000000000000     
     0.0121290984196753    0.0014183302356667    3.5074858010347389
    -4.7609113656420954    3.3209117730838975    1.7664236324828351
    -6.2128848316125067   -4.5835505272249808   -1.7517034612850593
   Be   Al
     9     4
Direct
  0.5000123799844545  0.9999662595680121  0.9999898626598025
  0.9369453269428192  0.1732061903637430  0.0471005474992907
  0.4871328137636439  0.4263910430328579  0.4010874360140804
  0.2144612476540573  0.8162906979904037  0.2439990877100229
  0.8720530569589542  0.6699343299054874  0.4128219623964640
  0.1279418989731980  0.3300098240472380  0.5871183527865540
  0.7855318551856882  0.1836734750631024  0.7559620349598859
  0.5128491789843395  0.5735776478169967  0.5988514545249188
  0.0630595264985132  0.8267488093874746  0.9528560711812588
  0.8016939064606916  0.5361403573500994  0.1399392682950591
  0.5902113401288887  0.1060727347109065  0.2845000657095582
  0.4097985172454273  0.8938800282996340  0.7154647772431559
  0.1983089512193388  0.4638086024640700  0.8600090790199602
 
  0.00000000E+00  0.00000000E+00  0.00000000E+00
  0.00000000E+00  0.00000000E+00  0.00000000E+00
  0.00000000E+00  0.00000000E+00  0.00000000E+00
  0.00000000E+00  0.00000000E+00  0.00000000E+00
  0.00000000E+00  0.00000000E+00  0.00000000E+00
  0.00000000E+00  0.00000000E+00  0.00000000E+00
  0.00000000E+00  0.00000000E+00  0.00000000E+00
  0.00000000E+00  0.00000000E+00  0.00000000E+00
  0.00000000E+00  0.00000000E+00  0.00000000E+00
  0.00000000E+00  0.00000000E+00  0.00000000E+00
  0.00000000E+00  0.00000000E+00  0.00000000E+00
  0.00000000E+00  0.00000000E+00  0.00000000E+00
  0.00000000E+00  0.00000000E+00  0.00000000E+00
