Ga8 F14                                 
   1.00000000000000     
     2.8577937961869360   -4.9906078177916768    0.0085073252358980
    -2.8577937961869355   -4.9906078177916768    0.0085073252358980
     0.0000000000000000    3.3459578560856813  -11.5094488037487892
   F    Ga
    14     8
Direct
  0.3404604096038071  0.3404604096038071  0.0162530562323937
  0.9022534495141912  0.3812617556740037  0.1833098695933728
  0.3812617556740037  0.9022534495141912  0.1833098695933728
  0.9014874630952363  0.9014874630952363  0.1841844759417341
  0.6263305665568808  0.1532242535945798  0.4030448781832519
  0.1532242535945798  0.6263305665568808  0.4030448781832519
  0.6243957583910600  0.6243957583910600  0.4038669016759258
  0.3751566967524482  0.3751566967524482  0.5959984876594362
  0.8463885505780269  0.3733248960576105  0.5969851667572215
  0.3733248960576105  0.8463885505780269  0.5969851667572215
  0.0989376335375738  0.0989376335375738  0.8171136540324753
  0.6184711497178554  0.0970352071558054  0.8159826337720091
  0.0970352071558054  0.6184711497178554  0.8159826337720091
  0.6627212492712928  0.6627212492712928  0.9837209641284232
  0.9993862852023909  0.9993862852023909  0.9999847001970537
  0.7145209735818483  0.7145209735818483  0.1411257905460701
  0.4138177730885815  0.4138177730885815  0.2380593894776410
  0.1413968491027191  0.1413968491027191  0.4248383810986098
  0.4998224076934221  0.4998224076934221  0.4999880148504730
  0.8584809959662039  0.8584809959662039  0.5751510628288585
  0.5860539383956933  0.5860539383956933  0.7619212317252391
  0.2858717374687814  0.2858717374687814  0.8588487929939603
 
  0.00000000E+00  0.00000000E+00  0.00000000E+00
  0.00000000E+00  0.00000000E+00  0.00000000E+00
  0.00000000E+00  0.00000000E+00  0.00000000E+00
  0.00000000E+00  0.00000000E+00  0.00000000E+00
  0.00000000E+00  0.00000000E+00  0.00000000E+00
  0.00000000E+00  0.00000000E+00  0.00000000E+00
  0.00000000E+00  0.00000000E+00  0.00000000E+00
  0.00000000E+00  0.00000000E+00  0.00000000E+00
  0.00000000E+00  0.00000000E+00  0.00000000E+00
  0.00000000E+00  0.00000000E+00  0.00000000E+00
  0.00000000E+00  0.00000000E+00  0.00000000E+00
  0.00000000E+00  0.00000000E+00  0.00000000E+00
  0.00000000E+00  0.00000000E+00  0.00000000E+00
  0.00000000E+00  0.00000000E+00  0.00000000E+00
  0.00000000E+00  0.00000000E+00  0.00000000E+00
  0.00000000E+00  0.00000000E+00  0.00000000E+00
  0.00000000E+00  0.00000000E+00  0.00000000E+00
  0.00000000E+00  0.00000000E+00  0.00000000E+00
  0.00000000E+00  0.00000000E+00  0.00000000E+00
  0.00000000E+00  0.00000000E+00  0.00000000E+00
  0.00000000E+00  0.00000000E+00  0.00000000E+00
  0.00000000E+00  0.00000000E+00  0.00000000E+00
