BaBr                                    
   1.00000000000000     
     2.2044537410106719    1.2726775663534855    4.4776774221572264
    -2.2044537410106719    1.2726775663534855    4.4776774221572264
     0.0000000000000000   -2.5455985223049415    4.4777452797756121
   Ba   Br
     1     1
Direct
  0.0000000000000000  0.0000000000000000  0.0000000000000000
  0.5000000000000000  0.5000000000000000  0.5000000000000000
 
  0.00000000E+00  0.00000000E+00  0.00000000E+00
  0.00000000E+00  0.00000000E+00  0.00000000E+00
