Mg4 Tl2 F10                             
   1.0000000000000000     
     6.0374705497755690   -0.0204850334811933   -0.0792253895384708
    -0.0204850334811935    6.0374705497755690   -0.0792253895384705
     2.9460417921347140    2.9460417921347140    5.7142919268251715
   F    Mg   Tl
    10     4     2
Direct
  0.4677057204264301  0.0924013366581491  0.9708373306405775
  0.0924013366581491  0.4677057204264301  0.9708373306405775
  0.7679704531108271  0.0811791005199751  0.1902032497639183
  0.9815268832252428  0.9815268832252428  0.5013044941234668
  0.7002599045913485  0.7002599045913485  0.0019314168924964
  0.0811791005199751  0.7679704531108271  0.1902032497639183
  0.9586313272814735  0.3023467455112225  0.7207215222880592
  0.3473067414339113  0.3473067414339113  0.2008371525447998
  0.5921799485148966  0.5921799485148966  0.7386285430234167
  0.3023467455112225  0.9586313272814735  0.7207215222880592
  0.1175320765486632  0.1175320765486632  0.1587713303251803
  0.6912632391563989  0.3542001264519214  0.9697269978328720
  0.3542001264519214  0.6912632391563989  0.9697269978328720
  0.9689141607802298  0.9689141607802298  0.7799985875734592
  0.7187967414366696  0.3578854943526011  0.4577751372331562
  0.3578854943526011  0.7187967414366696  0.4577751372331562

  0.00000000E+00  0.00000000E+00  0.00000000E+00
  0.00000000E+00  0.00000000E+00  0.00000000E+00
  0.00000000E+00  0.00000000E+00  0.00000000E+00
  0.00000000E+00  0.00000000E+00  0.00000000E+00
  0.00000000E+00  0.00000000E+00  0.00000000E+00
  0.00000000E+00  0.00000000E+00  0.00000000E+00
  0.00000000E+00  0.00000000E+00  0.00000000E+00
  0.00000000E+00  0.00000000E+00  0.00000000E+00
  0.00000000E+00  0.00000000E+00  0.00000000E+00
  0.00000000E+00  0.00000000E+00  0.00000000E+00
  0.00000000E+00  0.00000000E+00  0.00000000E+00
  0.00000000E+00  0.00000000E+00  0.00000000E+00
  0.00000000E+00  0.00000000E+00  0.00000000E+00
  0.00000000E+00  0.00000000E+00  0.00000000E+00
  0.00000000E+00  0.00000000E+00  0.00000000E+00
  0.00000000E+00  0.00000000E+00  0.00000000E+00
