Ca4 Al4 F20                             
   1.0000000000000000     
     4.6566157249994440   -0.0000000000000000    0.0000000000000003
    -0.0000000000000003    5.2369845247356581    0.0000000000000003
     0.0000000000000000   -0.0000000000000000   13.0711721170098958
   Ca   Al   F 
     4     4    20
Direct
  0.7548292948193946  0.6390883400482679  0.6614725053483426
  0.2548292948193875  0.8609116599517321  0.3385274946516574
  0.2451707051806054  0.1390883400482679  0.8385274946516574
  0.7451707051806054  0.3609116599517321  0.1614725053483426
  0.3240881058582090  0.1550443008481608  0.5929622425863599
  0.8240881058582090  0.3449556991518392  0.4070377574136401
  0.6759118941417910  0.6550443008481608  0.9070377574136401
  0.1759118941417910  0.8449556991518392  0.0929622425863599
  0.9997794454851885  0.6239612726085539  0.4478367668893313
  0.4997794454851885  0.8760387273914461  0.5521632331106687
  0.0002205545148115  0.1239612726085539  0.0521632331106687
  0.5002205545148115  0.3760387273914461  0.9478367668893313
  0.5754812242860226  0.5205968950692181  0.3285218012978746
  0.0754812242860226  0.9794031049307819  0.6714781987021183
  0.4245187757139774  0.0205968950692181  0.1714781987021183
  0.9245187757139774  0.4794031049307819  0.8285218012978746
  0.1647317420601340  0.4472717992916557  0.6304874592381182
  0.6647317420601340  0.0527282007083443  0.3695125407618818
  0.8352682579398660  0.9472717992916486  0.8695125407618818
  0.3352682579398660  0.5527282007083514  0.1304874592381182
  0.5568637396845659  0.1984120499936850  0.7031884201896261
  0.0568637396845659  0.3015879500063150  0.2968115798103739
  0.4431362603154341  0.6984120499936850  0.7968115798103739
  0.9431362603154341  0.8015879500063150  0.2031884201896261
  0.6006210713928937  0.3552785151236293  0.5225947550817764
  0.1006210713928937  0.1447214848763707  0.4774052449182236
  0.3993789286071063  0.8552785151236293  0.9774052449182236
  0.8993789286071063  0.6447214848763707  0.0225947550817764

  0.00000000E+00  0.00000000E+00  0.00000000E+00
  0.00000000E+00  0.00000000E+00  0.00000000E+00
  0.00000000E+00  0.00000000E+00  0.00000000E+00
  0.00000000E+00  0.00000000E+00  0.00000000E+00
  0.00000000E+00  0.00000000E+00  0.00000000E+00
  0.00000000E+00  0.00000000E+00  0.00000000E+00
  0.00000000E+00  0.00000000E+00  0.00000000E+00
  0.00000000E+00  0.00000000E+00  0.00000000E+00
  0.00000000E+00  0.00000000E+00  0.00000000E+00
  0.00000000E+00  0.00000000E+00  0.00000000E+00
  0.00000000E+00  0.00000000E+00  0.00000000E+00
  0.00000000E+00  0.00000000E+00  0.00000000E+00
  0.00000000E+00  0.00000000E+00  0.00000000E+00
  0.00000000E+00  0.00000000E+00  0.00000000E+00
  0.00000000E+00  0.00000000E+00  0.00000000E+00
  0.00000000E+00  0.00000000E+00  0.00000000E+00
  0.00000000E+00  0.00000000E+00  0.00000000E+00
  0.00000000E+00  0.00000000E+00  0.00000000E+00
  0.00000000E+00  0.00000000E+00  0.00000000E+00
  0.00000000E+00  0.00000000E+00  0.00000000E+00
  0.00000000E+00  0.00000000E+00  0.00000000E+00
  0.00000000E+00  0.00000000E+00  0.00000000E+00
  0.00000000E+00  0.00000000E+00  0.00000000E+00
  0.00000000E+00  0.00000000E+00  0.00000000E+00
  0.00000000E+00  0.00000000E+00  0.00000000E+00
  0.00000000E+00  0.00000000E+00  0.00000000E+00
  0.00000000E+00  0.00000000E+00  0.00000000E+00
  0.00000000E+00  0.00000000E+00  0.00000000E+00
