Be4 In2 I10                             
   1.00000000000000     
     9.2769794315530216   -4.9592537884740473   -0.5036127158625757
     9.2757227207191857    4.9586185473220654   -0.4763772417745793
    -5.4388728769850916    0.0122330448564699    9.0974643715770860
   I    In   Be
    10     2     4
Direct
  0.5136371491395906  0.9890396799170631  0.0317268621809248
  0.0654814105192258  0.1695158084269934  0.0322478311306256
  0.5094993714480367  0.7261201179993080  0.2026679126431787
  0.3306557388948761  0.4324940071757410  0.2976075613555125
  0.7718370342463388  0.9868108236157056  0.4629292646073679
  0.9908782196803188  0.5128913919821585  0.5316146961939410
  0.1707084120624955  0.0670807109853016  0.5375581984392639
  0.7230783473678102  0.5122988815327076  0.6989720109730015
  0.4351015301942311  0.3310833326329217  0.8015686933506387
  0.9866186735649052  0.7715548293144820  0.9611905980544080
  0.7507698649805548  0.2510259302410276  0.3573140262854224
  0.2515314239357380  0.7506404555275523  0.8575354893007443
  0.6036583624144001  0.8949529669135714  0.2394776742460323
  0.2887524221982929  0.2113377099505911  0.1234173908929890
  0.8945722533336351  0.6043243519024912  0.7375853527334044
  0.2135197860195674  0.2891290018823724  0.6268864376125762
 
  0.00000000E+00  0.00000000E+00  0.00000000E+00
  0.00000000E+00  0.00000000E+00  0.00000000E+00
  0.00000000E+00  0.00000000E+00  0.00000000E+00
  0.00000000E+00  0.00000000E+00  0.00000000E+00
  0.00000000E+00  0.00000000E+00  0.00000000E+00
  0.00000000E+00  0.00000000E+00  0.00000000E+00
  0.00000000E+00  0.00000000E+00  0.00000000E+00
  0.00000000E+00  0.00000000E+00  0.00000000E+00
  0.00000000E+00  0.00000000E+00  0.00000000E+00
  0.00000000E+00  0.00000000E+00  0.00000000E+00
  0.00000000E+00  0.00000000E+00  0.00000000E+00
  0.00000000E+00  0.00000000E+00  0.00000000E+00
  0.00000000E+00  0.00000000E+00  0.00000000E+00
  0.00000000E+00  0.00000000E+00  0.00000000E+00
  0.00000000E+00  0.00000000E+00  0.00000000E+00
  0.00000000E+00  0.00000000E+00  0.00000000E+00
