Be23 B30                                
   1.00000000000000     
     0.1300073849200745   -5.2744319504587738    6.7406463245972441
     3.9983877525231981   -2.0839803529714067   -6.2414783736085893
     4.2758603769450385    2.0927460829790552    6.4187640668980173
   B    Be
    30    23
Direct
  0.2332344707350487  0.6752013469028526  0.0598206035901399
  0.4882936833988580  0.7881426937519436  0.0463979495795925
  0.6586937377600890  0.7209467885909078  0.0744340050765118
  0.3578356048772093  0.1424992359057100  0.1539880795383510
  0.0672585697877111  0.2854441273876205  0.1851709951961951
  0.8252337073397769  0.3694899821110695  0.1329350149353772
  0.3215805160522649  0.9297315353551809  0.2305847536701009
  0.8344735175154128  0.1837184150405449  0.3480405949626046
  0.0483005272458072  0.4960017885951231  0.1683148717453662
  0.6699752881647285  0.7072691749706266  0.2870815019397810
  0.0622776110453813  0.7566672853108969  0.3136498017566751
  0.2538208197261156  0.3552542726481889  0.2888238509981988
  0.9010446947187987  0.8515264153532627  0.3189291435734845
  0.6730278962761744  0.2469520632232829  0.3269944792184205
  0.1724191487257727  0.9225156294105119  0.4862090856486674
  0.8334488264963014  0.0698337820373496  0.4997649615240007
  0.2968447842779867  0.8061161650231483  0.6745617915446687
  0.1238647819602789  0.1372953524263778  0.6790965381479808
  0.7519741827505086  0.6378087641072483  0.6939851913274069
  0.9473495469883062  0.2156572967324948  0.6909616102685021
  0.3257818377740946  0.3054294358824450  0.7487842711985095
  0.9661393948414059  0.5043288821967877  0.7867372974694362
  0.1099276328637160  0.9263010564735481  0.7599767682115228
  0.7106593995871151  0.0595258682961699  0.7534736998160625
  0.1812791516776215  0.6724243837680604  0.8628226346510033
  0.8755226120724231  0.7272663171835703  0.8587919555653727
  0.6340021075829583  0.8288786754536375  0.8003049391511610
  0.1524385101256911  0.1681450814500920  0.9137562744408783
  0.5534581857991228  0.2085933607458941  0.9271732656231819
  0.7885496554994234  0.3145615134061188  0.9200015941055426
  0.3019575886015531  0.4486590660860017  0.0480788703692525
  0.1432636423261471  0.8938627316179151  0.1041192804383826
  0.8845738492150304  0.6470869244116599  0.0634939151527689
  0.5938185218943559  0.1058599867695662  0.1006126787382300
  0.5188662706653844  0.4422272833848737  0.1500849692518358
  0.4076189496646379  0.6574579518085812  0.3918667114209882
  0.6163476349435157  0.9578422468701078  0.2909281822784493
  0.8608948512341286  0.4730994568615969  0.4151908393694654
  0.1235385155660609  0.1185476325671431  0.4006407308175852
  0.4007558675875842  0.1580706094311140  0.4577763873792264
  0.0021606808696930  0.3420872428419131  0.4855905437994892
  0.6222085823732399  0.5003881594710862  0.3920268080706819
  0.0343399405721172  0.6630538561357397  0.5965508486264142
  0.5766594365074909  0.8487971569286188  0.5686168178999580
  0.8873143759276161  0.8616569625808808  0.5833730890273685
  0.2133747456464476  0.5125961705209789  0.5908469416357249
  0.4031790518604694  0.1155828307130875  0.7597477368684480
  0.5790158673150572  0.3781417647773750  0.6152089596683581
  0.4155489062211402  0.5963036741757648  0.7860994500035545
  0.4169769715491540  0.9245724381756730  0.8728745323664100
  0.0805953859392829  0.3936566837041866  0.8910478721737221
  0.9281938890861099  0.9828898304082472  0.0874290393143511
  0.6706860707676370  0.4646326500172080  0.8568272708546161
 
  0.00000000E+00  0.00000000E+00  0.00000000E+00
  0.00000000E+00  0.00000000E+00  0.00000000E+00
  0.00000000E+00  0.00000000E+00  0.00000000E+00
  0.00000000E+00  0.00000000E+00  0.00000000E+00
  0.00000000E+00  0.00000000E+00  0.00000000E+00
  0.00000000E+00  0.00000000E+00  0.00000000E+00
  0.00000000E+00  0.00000000E+00  0.00000000E+00
  0.00000000E+00  0.00000000E+00  0.00000000E+00
  0.00000000E+00  0.00000000E+00  0.00000000E+00
  0.00000000E+00  0.00000000E+00  0.00000000E+00
  0.00000000E+00  0.00000000E+00  0.00000000E+00
  0.00000000E+00  0.00000000E+00  0.00000000E+00
  0.00000000E+00  0.00000000E+00  0.00000000E+00
  0.00000000E+00  0.00000000E+00  0.00000000E+00
  0.00000000E+00  0.00000000E+00  0.00000000E+00
  0.00000000E+00  0.00000000E+00  0.00000000E+00
  0.00000000E+00  0.00000000E+00  0.00000000E+00
  0.00000000E+00  0.00000000E+00  0.00000000E+00
  0.00000000E+00  0.00000000E+00  0.00000000E+00
  0.00000000E+00  0.00000000E+00  0.00000000E+00
  0.00000000E+00  0.00000000E+00  0.00000000E+00
  0.00000000E+00  0.00000000E+00  0.00000000E+00
  0.00000000E+00  0.00000000E+00  0.00000000E+00
  0.00000000E+00  0.00000000E+00  0.00000000E+00
  0.00000000E+00  0.00000000E+00  0.00000000E+00
  0.00000000E+00  0.00000000E+00  0.00000000E+00
  0.00000000E+00  0.00000000E+00  0.00000000E+00
  0.00000000E+00  0.00000000E+00  0.00000000E+00
  0.00000000E+00  0.00000000E+00  0.00000000E+00
  0.00000000E+00  0.00000000E+00  0.00000000E+00
  0.00000000E+00  0.00000000E+00  0.00000000E+00
  0.00000000E+00  0.00000000E+00  0.00000000E+00
  0.00000000E+00  0.00000000E+00  0.00000000E+00
  0.00000000E+00  0.00000000E+00  0.00000000E+00
  0.00000000E+00  0.00000000E+00  0.00000000E+00
  0.00000000E+00  0.00000000E+00  0.00000000E+00
  0.00000000E+00  0.00000000E+00  0.00000000E+00
  0.00000000E+00  0.00000000E+00  0.00000000E+00
  0.00000000E+00  0.00000000E+00  0.00000000E+00
  0.00000000E+00  0.00000000E+00  0.00000000E+00
  0.00000000E+00  0.00000000E+00  0.00000000E+00
  0.00000000E+00  0.00000000E+00  0.00000000E+00
  0.00000000E+00  0.00000000E+00  0.00000000E+00
  0.00000000E+00  0.00000000E+00  0.00000000E+00
  0.00000000E+00  0.00000000E+00  0.00000000E+00
  0.00000000E+00  0.00000000E+00  0.00000000E+00
  0.00000000E+00  0.00000000E+00  0.00000000E+00
  0.00000000E+00  0.00000000E+00  0.00000000E+00
  0.00000000E+00  0.00000000E+00  0.00000000E+00
  0.00000000E+00  0.00000000E+00  0.00000000E+00
  0.00000000E+00  0.00000000E+00  0.00000000E+00
  0.00000000E+00  0.00000000E+00  0.00000000E+00
  0.00000000E+00  0.00000000E+00  0.00000000E+00
