Sr2 Ga4 F16                             
   1.00000000000000     
     5.9463859192852668    3.4092609293202152    0.3090533381472481
    -5.9463859192852668    3.4092609293202152    0.3090533381472485
     0.0000000000000000    0.9781075829393626    6.8385589236378719
   Sr   Ga   F 
     2     4    16
Direct
  0.5497865977738456  0.4502134022261544  0.7500000000000000
  0.4502134022261544  0.5497865977738456  0.2500000000000000
  0.8694775613687185  0.1305224386312815  0.7500000000000000
  0.1305224386312815  0.8694775613687185  0.2500000000000000
  0.5000000000000000  0.0000000000000000  0.5000000000000000
  0.0000000000000000  0.5000000000000000  0.0000000000000000
  0.7571858366596018  0.8242297547737678  0.8396384209192291
  0.2428141633404053  0.1757702452262322  0.1603615790807567
  0.1757702452262322  0.2428141633404053  0.6603615790807709
  0.8242297547737678  0.7571858366596018  0.3396384209192291
  0.5446034157386848  0.0608562208508019  0.7706574710978487
  0.4553965842613081  0.9391437791491910  0.2293425289021513
  0.9391437791491910  0.4553965842613081  0.7293425289021513
  0.0608562208508019  0.5446034157386848  0.2706574710978487
  0.1765018486336913  0.8842443319568432  0.5221128245881630
  0.8234981513663087  0.1157556680431640  0.4778871754118370
  0.1157556680431640  0.8234981513663087  0.9778871754118370
  0.8842443319568432  0.1765018486336913  0.0221128245881630
  0.4425935739482370  0.7015078134813209  0.5547045164272788
  0.5574064260517702  0.2984921865186791  0.4452954835727212
  0.2984921865186791  0.5574064260517702  0.9452954835727212
  0.7015078134813209  0.4425935739482370  0.0547045164272788
 
  0.00000000E+00  0.00000000E+00  0.00000000E+00
  0.00000000E+00  0.00000000E+00  0.00000000E+00
  0.00000000E+00  0.00000000E+00  0.00000000E+00
  0.00000000E+00  0.00000000E+00  0.00000000E+00
  0.00000000E+00  0.00000000E+00  0.00000000E+00
  0.00000000E+00  0.00000000E+00  0.00000000E+00
  0.00000000E+00  0.00000000E+00  0.00000000E+00
  0.00000000E+00  0.00000000E+00  0.00000000E+00
  0.00000000E+00  0.00000000E+00  0.00000000E+00
  0.00000000E+00  0.00000000E+00  0.00000000E+00
  0.00000000E+00  0.00000000E+00  0.00000000E+00
  0.00000000E+00  0.00000000E+00  0.00000000E+00
  0.00000000E+00  0.00000000E+00  0.00000000E+00
  0.00000000E+00  0.00000000E+00  0.00000000E+00
  0.00000000E+00  0.00000000E+00  0.00000000E+00
  0.00000000E+00  0.00000000E+00  0.00000000E+00
  0.00000000E+00  0.00000000E+00  0.00000000E+00
  0.00000000E+00  0.00000000E+00  0.00000000E+00
  0.00000000E+00  0.00000000E+00  0.00000000E+00
  0.00000000E+00  0.00000000E+00  0.00000000E+00
  0.00000000E+00  0.00000000E+00  0.00000000E+00
  0.00000000E+00  0.00000000E+00  0.00000000E+00
