Sr18 In11                               
   1.0000000000000000     
     8.6515621748674327    6.5973865870632240    0.2010547679822407
    -8.6515621748674327    6.5973865870632240    0.2010547679822407
     0.0000000000000000    6.8818681503894421   10.1615904457330704
   Sr   In
    18    11
Direct
  0.9946089292617089  0.9946089292617089  0.0069422277611082
  0.3513198727129208  0.5873127177082083  0.0002321135581553
  0.9820848086903169  0.3578238842226753  0.0017244086611470
  0.3578238842226753  0.9820848086903169  0.0017244086611470
  0.5873127177082083  0.3513198727129208  0.0002321135581553
  0.3700560800041899  0.3700560800041899  0.7401073157287286
  0.7572994354810803  0.7572994354810803  0.6025471667027134
  0.6352377638108990  0.0101314876303036  0.7090986001059036
  0.0101314876303036  0.6352377638108990  0.7090986001059036
  0.9878016036069468  0.9878016036069468  0.7265545401438089
  0.4290101546690011  0.8121558530945450  0.5639202780163473
  0.8121558530945450  0.4290101546690011  0.5639202780163473
  0.0247005758512202  0.2624930671057015  0.3608546704401263
  0.2624930671057015  0.0247005758512202  0.3608546704401263
  0.6833202791469262  0.6833202791469262  0.3183366546063766
  0.2618354764334256  0.6755966838142839  0.3380516844517771
  0.6755966838142839  0.2618354764334256  0.3380516844517771
  0.3550899593324530  0.3550899593324530  0.4167355712914258
  0.6209661976938889  0.8141972691956454  0.0356407272773680
  0.8141972691956454  0.6209661976938889  0.0356407272773680
  0.7595438397521832  0.1663158829111708  0.8781346015327571
  0.1663158829111708  0.7595438397521832  0.8781346015327571
  0.0819280717453381  0.3541851806555485  0.6645861042823356
  0.3541851806555485  0.0819280717453381  0.6645861042823356
  0.8273876968922877  0.0194248105702144  0.3037984947338472
  0.0194248105702144  0.8273876968922877  0.3037984947338472
  0.6069380398533752  0.0113888955040409  0.1896047901668609
  0.0113888955040409  0.6069380398533752  0.1896047901668609
  0.1998454826494509  0.1998454826494509  0.0974845773125921

  0.00000000E+00  0.00000000E+00  0.00000000E+00
  0.00000000E+00  0.00000000E+00  0.00000000E+00
  0.00000000E+00  0.00000000E+00  0.00000000E+00
  0.00000000E+00  0.00000000E+00  0.00000000E+00
  0.00000000E+00  0.00000000E+00  0.00000000E+00
  0.00000000E+00  0.00000000E+00  0.00000000E+00
  0.00000000E+00  0.00000000E+00  0.00000000E+00
  0.00000000E+00  0.00000000E+00  0.00000000E+00
  0.00000000E+00  0.00000000E+00  0.00000000E+00
  0.00000000E+00  0.00000000E+00  0.00000000E+00
  0.00000000E+00  0.00000000E+00  0.00000000E+00
  0.00000000E+00  0.00000000E+00  0.00000000E+00
  0.00000000E+00  0.00000000E+00  0.00000000E+00
  0.00000000E+00  0.00000000E+00  0.00000000E+00
  0.00000000E+00  0.00000000E+00  0.00000000E+00
  0.00000000E+00  0.00000000E+00  0.00000000E+00
  0.00000000E+00  0.00000000E+00  0.00000000E+00
  0.00000000E+00  0.00000000E+00  0.00000000E+00
  0.00000000E+00  0.00000000E+00  0.00000000E+00
  0.00000000E+00  0.00000000E+00  0.00000000E+00
  0.00000000E+00  0.00000000E+00  0.00000000E+00
  0.00000000E+00  0.00000000E+00  0.00000000E+00
  0.00000000E+00  0.00000000E+00  0.00000000E+00
  0.00000000E+00  0.00000000E+00  0.00000000E+00
  0.00000000E+00  0.00000000E+00  0.00000000E+00
  0.00000000E+00  0.00000000E+00  0.00000000E+00
  0.00000000E+00  0.00000000E+00  0.00000000E+00
  0.00000000E+00  0.00000000E+00  0.00000000E+00
  0.00000000E+00  0.00000000E+00  0.00000000E+00
