Mg1 B2 Br6                              
   1.00000000000000     
     3.5236484621458954    2.0344695246449995    5.7558199108422752
    -3.5236484621458954    2.0344695246449995    5.7558199108422752
     0.0000000000000000   -4.0691723748806909    5.7559020027473853
   Mg   Br   B 
     1     6     2
Direct
  0.0000000000000000  0.0000000000000000  0.0000000000000000
  0.7419626315566390  0.7419626315566390  0.2580465339107008
  0.7419657301494880  0.2580287054212889  0.2580520706950793
  0.2580287054212889  0.7419657301494880  0.2580520706950793
  0.2580373684433610  0.2580373684433610  0.7419534660892992
  0.7419712945787111  0.2580342698505120  0.7419479293049207
  0.2580342698505120  0.7419712945787111  0.7419479293049207
  0.2499523243544459  0.2499523243544459  0.2500596358578377
  0.7500476756455541  0.7500476756455541  0.7499403641421623
 
  0.00000000E+00  0.00000000E+00  0.00000000E+00
  0.00000000E+00  0.00000000E+00  0.00000000E+00
  0.00000000E+00  0.00000000E+00  0.00000000E+00
  0.00000000E+00  0.00000000E+00  0.00000000E+00
  0.00000000E+00  0.00000000E+00  0.00000000E+00
  0.00000000E+00  0.00000000E+00  0.00000000E+00
  0.00000000E+00  0.00000000E+00  0.00000000E+00
  0.00000000E+00  0.00000000E+00  0.00000000E+00
  0.00000000E+00  0.00000000E+00  0.00000000E+00
