Sr1 Al2 I6                              
   1.00000000000000     
     4.3508219866180395    4.0444851582741892    5.1619320942439995
    -4.3508219866180395    4.0444851582741892    5.1619320942439995
    -0.0000000000000001   -7.7284783162857149    6.4271852680511898
   Sr   I    Al
     1     6     2
Direct
  0.0000000000000000  0.0000000000000000  0.0000000000000000
  0.7465848562718094  0.7465848562718094  0.0061718452347961
  0.7737472979625366  0.2848998879948041  0.2480245615007135
  0.2848998879948041  0.7737472979625366  0.2480245615007135
  0.2534151437281906  0.2534151437281906  0.9938281547652039
  0.7151001120051959  0.2262527020374634  0.7519754384992865
  0.2262527020374634  0.7151001120051959  0.7519754384992865
  0.4422813848262663  0.4422813848262663  0.9011800306601714
  0.5577186151737337  0.5577186151737337  0.0988199693398286
 
  0.00000000E+00  0.00000000E+00  0.00000000E+00
  0.00000000E+00  0.00000000E+00  0.00000000E+00
  0.00000000E+00  0.00000000E+00  0.00000000E+00
  0.00000000E+00  0.00000000E+00  0.00000000E+00
  0.00000000E+00  0.00000000E+00  0.00000000E+00
  0.00000000E+00  0.00000000E+00  0.00000000E+00
  0.00000000E+00  0.00000000E+00  0.00000000E+00
  0.00000000E+00  0.00000000E+00  0.00000000E+00
  0.00000000E+00  0.00000000E+00  0.00000000E+00
