Sr4 Tl4 F20                             
   1.0000000000000000     
     4.3105265859105337   -0.0000000000000000    0.0000000000000003
    -0.0000000000000003    5.4833827508734645    0.0000000000000003
    -0.0000000000000001   -0.0000000000000000   15.6151929329032892
   Sr   Tl   F 
     4     4    20
Direct
  0.7490729771386881  0.4985420622031924  0.3224420968595965
  0.2490729771386881  0.0014579377968076  0.6775579031403964
  0.2509270228613047  0.9985420622031924  0.1775579031404035
  0.7509270228613047  0.5014579377968076  0.8224420968596036
  0.2484045619575568  0.0000402108383284  0.4250978767748492
  0.7484045619575568  0.4999597891616716  0.5749021232251437
  0.7515954380424432  0.5000402108383284  0.0749021232251437
  0.2515954380424432  0.9999597891616716  0.9250978767748563
  0.9951327701211454  0.6395123168245433  0.4607992243339893
  0.4951327701211383  0.8604876831754567  0.5392007756660107
  0.0048672298788546  0.1395123168245433  0.0392007756660107
  0.5048672298788546  0.3604876831754567  0.9607992243339893
  0.7492043806147706  0.0016633204441803  0.3678391471027780
  0.2492043806147706  0.4983366795558197  0.6321608528972291
  0.2507956193852294  0.5016633204441803  0.1321608528972220
  0.7507956193852294  0.9983366795558197  0.8678391471027709
  0.0017781630793579  0.6388938335169811  0.9609465426833381
  0.5017781630793579  0.8611061664830189  0.0390534573166619
  0.9982218369206421  0.1388938335169811  0.5390534573166619
  0.4982218369206421  0.3611061664830189  0.4609465426833381
  0.7609361295660477  0.7536163951743617  0.1890270692680289
  0.2609361295660477  0.7463836048256383  0.8109729307319711
  0.2390638704339523  0.2536163951743617  0.3109729307319711
  0.7390638704339523  0.2463836048256383  0.6890270692680289
  0.2398890342014326  0.2549162797834441  0.8115765129319144
  0.7398890342014326  0.2450837202165559  0.1884234870680856
  0.7601109657985674  0.7549162797834441  0.6884234870680856
  0.2601109657985674  0.7450837202165559  0.3115765129319144

  0.00000000E+00  0.00000000E+00  0.00000000E+00
  0.00000000E+00  0.00000000E+00  0.00000000E+00
  0.00000000E+00  0.00000000E+00  0.00000000E+00
  0.00000000E+00  0.00000000E+00  0.00000000E+00
  0.00000000E+00  0.00000000E+00  0.00000000E+00
  0.00000000E+00  0.00000000E+00  0.00000000E+00
  0.00000000E+00  0.00000000E+00  0.00000000E+00
  0.00000000E+00  0.00000000E+00  0.00000000E+00
  0.00000000E+00  0.00000000E+00  0.00000000E+00
  0.00000000E+00  0.00000000E+00  0.00000000E+00
  0.00000000E+00  0.00000000E+00  0.00000000E+00
  0.00000000E+00  0.00000000E+00  0.00000000E+00
  0.00000000E+00  0.00000000E+00  0.00000000E+00
  0.00000000E+00  0.00000000E+00  0.00000000E+00
  0.00000000E+00  0.00000000E+00  0.00000000E+00
  0.00000000E+00  0.00000000E+00  0.00000000E+00
  0.00000000E+00  0.00000000E+00  0.00000000E+00
  0.00000000E+00  0.00000000E+00  0.00000000E+00
  0.00000000E+00  0.00000000E+00  0.00000000E+00
  0.00000000E+00  0.00000000E+00  0.00000000E+00
  0.00000000E+00  0.00000000E+00  0.00000000E+00
  0.00000000E+00  0.00000000E+00  0.00000000E+00
  0.00000000E+00  0.00000000E+00  0.00000000E+00
  0.00000000E+00  0.00000000E+00  0.00000000E+00
  0.00000000E+00  0.00000000E+00  0.00000000E+00
  0.00000000E+00  0.00000000E+00  0.00000000E+00
  0.00000000E+00  0.00000000E+00  0.00000000E+00
  0.00000000E+00  0.00000000E+00  0.00000000E+00
