Ca4 B10 Cl2                             
   1.00000000000000     
     6.5536346955130735    0.2681303817617176   -3.4472059796344303
     0.1776297430793610    8.1262265273736123   -3.6089230374316608
     1.6372393593400887    2.0417712785804882    2.6897519655921469
   Cl   Ca   B 
     2     4    10
Direct
  0.9408382808221134  0.6122086980745536  0.7350809799874796
  0.1216572433280732  0.3252748567251373  0.3899064084864818
  0.3266697448430307  0.1294010167409496  0.9735376130550861
  0.8341674510111545  0.3003333240228514  0.9706567142996576
  0.2283214642315130  0.6371516746847519  0.1543515696494424
  0.7358193241357966  0.8080807846310165  0.1514687439190894
  0.0286123276380508  0.9661766318987617  0.8267723172682011
  0.5094430418794644  0.5553846345882931  0.5852715182589208
  0.4542011049761072  0.9151061641738494  0.5743655170295057
  0.8291020584628086  0.0343352484564576  0.5521759576710608
  0.5530405359567894  0.3821023939414374  0.5397373564592769
  0.2333837686528213  0.9031528983224106  0.5728150490387662
  0.6286145806333749  0.1984857698365730  0.5450221052188269
  0.4338560039123323  0.7390082525657391  0.5799848207295213
  0.0338789442690626  0.9713107737926450  0.2982248424864125
  0.6082941252474967  0.0223868775445766  0.5506284864422568
 
  0.00000000E+00  0.00000000E+00  0.00000000E+00
  0.00000000E+00  0.00000000E+00  0.00000000E+00
  0.00000000E+00  0.00000000E+00  0.00000000E+00
  0.00000000E+00  0.00000000E+00  0.00000000E+00
  0.00000000E+00  0.00000000E+00  0.00000000E+00
  0.00000000E+00  0.00000000E+00  0.00000000E+00
  0.00000000E+00  0.00000000E+00  0.00000000E+00
  0.00000000E+00  0.00000000E+00  0.00000000E+00
  0.00000000E+00  0.00000000E+00  0.00000000E+00
  0.00000000E+00  0.00000000E+00  0.00000000E+00
  0.00000000E+00  0.00000000E+00  0.00000000E+00
  0.00000000E+00  0.00000000E+00  0.00000000E+00
  0.00000000E+00  0.00000000E+00  0.00000000E+00
  0.00000000E+00  0.00000000E+00  0.00000000E+00
  0.00000000E+00  0.00000000E+00  0.00000000E+00
  0.00000000E+00  0.00000000E+00  0.00000000E+00
