Mg3 Ga11                                
   1.00000000000000     
     4.1939335005392309    0.0000000000000000    0.0000000000000000
    -2.0969667502696154   -5.6357397075682298    5.7170056118490482
    -2.0969667502696154   -5.6357397075682298   -5.7170056118490482
   Ga   Mg
    11     3
Direct
  0.3794248952421810  0.7410540049243295  0.0177957855600184
  0.2761350920159771  0.4269524718170530  0.1253177122149083
  0.6205751047578190  0.9822042144399816  0.2589459950756705
  0.8318460588314593  0.3318460588314665  0.3318460588314665
  0.2761350920159771  0.1253177122149083  0.4269524718170530
  0.5000000000000000  0.5000000000000000  0.5000000000000000
  0.7238649079840087  0.8746822877850917  0.5730475281829470
  0.1681539411685407  0.6681539411685407  0.6681539411685407
  0.3794248952421810  0.0177957855600184  0.7410540049243295
  0.7238649079840087  0.5730475281829470  0.8746822877850917
  0.6205751047578190  0.2589459950756705  0.9822042144399816
  0.0000000000000000  0.0000000000000000  0.0000000000000000
  0.0000000000000000  0.7065788068426926  0.2934211931573074
  0.0000000000000000  0.2934211931573074  0.7065788068426926
 
  0.00000000E+00  0.00000000E+00  0.00000000E+00
  0.00000000E+00  0.00000000E+00  0.00000000E+00
  0.00000000E+00  0.00000000E+00  0.00000000E+00
  0.00000000E+00  0.00000000E+00  0.00000000E+00
  0.00000000E+00  0.00000000E+00  0.00000000E+00
  0.00000000E+00  0.00000000E+00  0.00000000E+00
  0.00000000E+00  0.00000000E+00  0.00000000E+00
  0.00000000E+00  0.00000000E+00  0.00000000E+00
  0.00000000E+00  0.00000000E+00  0.00000000E+00
  0.00000000E+00  0.00000000E+00  0.00000000E+00
  0.00000000E+00  0.00000000E+00  0.00000000E+00
  0.00000000E+00  0.00000000E+00  0.00000000E+00
  0.00000000E+00  0.00000000E+00  0.00000000E+00
  0.00000000E+00  0.00000000E+00  0.00000000E+00
