Be16 In6                                
   1.00000000000000     
     5.4756307580433052    0.8610514096414876   -0.3728033231753398
    -1.5916339573786895    8.4712489378539662   -1.8718527868104882
    -1.8490370707740775   -4.6836807695036660    7.3983533954430518
   In   Be
     6    16
Direct
  0.1269230345464933  0.6316462007240844  0.1297041941306034
  0.6483704524198401  0.8695983211005966  0.1239307217717496
  0.7361678077737821  0.6684671193981941  0.3581941857056137
  0.6481186302787165  0.1354051524625248  0.5952004816525260
  0.1311539058576727  0.3220886554544649  0.5887209586942390
  0.2822926733710105  0.1511686185411563  0.8148792183336866
  0.9979379803505637  0.1508014733416019  0.1499711949825553
  0.8276392093197344  0.3022919042392260  0.0366704516945973
  0.2965299854175854  0.0472834453103275  0.0480903096037295
  0.2879423467620157  0.3930264538734320  0.2158382622118751
  0.6655671260608855  0.2773648701767968  0.2230348343504289
  0.2138174975384288  0.9831866273126479  0.2349154132263820
  0.4217890589323048  0.3180450336053440  0.3994488542172547
  0.0789590805918081  0.4755897405735325  0.4072434339748838
  0.8236511868522030  0.5330173041064086  0.5670147995569508
  0.4969180579309835  0.6688909302700878  0.6089545194843993
  0.8675622509293675  0.9774703867155310  0.7828040659486533
  0.1715713269408710  0.7843778128805781  0.7101536157477284
  0.6785053174243885  0.5289016229055576  0.7613499367449847
  0.5926035834708117  0.9802664098371352  0.9079839968612191
  0.5886885382736509  0.4806439436237753  0.9503418213081432
  0.9176909489568814  0.8201679735470009  0.8859547297977883
 
  0.00000000E+00  0.00000000E+00  0.00000000E+00
  0.00000000E+00  0.00000000E+00  0.00000000E+00
  0.00000000E+00  0.00000000E+00  0.00000000E+00
  0.00000000E+00  0.00000000E+00  0.00000000E+00
  0.00000000E+00  0.00000000E+00  0.00000000E+00
  0.00000000E+00  0.00000000E+00  0.00000000E+00
  0.00000000E+00  0.00000000E+00  0.00000000E+00
  0.00000000E+00  0.00000000E+00  0.00000000E+00
  0.00000000E+00  0.00000000E+00  0.00000000E+00
  0.00000000E+00  0.00000000E+00  0.00000000E+00
  0.00000000E+00  0.00000000E+00  0.00000000E+00
  0.00000000E+00  0.00000000E+00  0.00000000E+00
  0.00000000E+00  0.00000000E+00  0.00000000E+00
  0.00000000E+00  0.00000000E+00  0.00000000E+00
  0.00000000E+00  0.00000000E+00  0.00000000E+00
  0.00000000E+00  0.00000000E+00  0.00000000E+00
  0.00000000E+00  0.00000000E+00  0.00000000E+00
  0.00000000E+00  0.00000000E+00  0.00000000E+00
  0.00000000E+00  0.00000000E+00  0.00000000E+00
  0.00000000E+00  0.00000000E+00  0.00000000E+00
  0.00000000E+00  0.00000000E+00  0.00000000E+00
  0.00000000E+00  0.00000000E+00  0.00000000E+00
