Ba16 Al16 F80                           
   1.0000000000000000     
    14.4434043585981140    0.0000000000265285    0.0000000000000009
    -0.0000000000265294   14.4434043585981140    0.0000000000000009
    -0.0000000000000000   -0.0000000000000000    7.3825484444944331
   Ba   Al   F 
    16    16    80
Direct
  0.5539647407881887  0.7151271251608264  0.4953769189499440
  0.2151271251608264  0.9460352592118113  0.9953769189499440
  0.7848728748391665  0.0539647407881887  0.9953769189499440
  0.4460352592118184  0.2848728748391665  0.4953769189499440
  0.2434223700987488  0.0710958072575920  0.4951062171208633
  0.5710958072575920  0.2565776299012512  0.9951062171208633
  0.4289041927424080  0.7434223700987559  0.9951062171208633
  0.7565776299012441  0.9289041927424080  0.4951062171208633
  0.0539647407881887  0.2151271251608264  0.9953769189499440
  0.7151271251608264  0.4460352592118184  0.4953769189499440
  0.2848728748391665  0.5539647407881887  0.4953769189499440
  0.9460352592118113  0.7848728748391665  0.9953769189499440
  0.7434223700987559  0.5710958072575920  0.9951062171208633
  0.0710958072575920  0.7565776299012441  0.4951062171208633
  0.9289041927424080  0.2434223700987488  0.4951062171208633
  0.2565776299012512  0.4289041927424080  0.9951062171208633
  0.0000000000000000  0.0000000000000000  0.7420898995418881
  0.0000000000000000  0.0000000000000000  0.2473358738449392
  0.5000000000000000  0.0000000000000000  0.9953348705479002
  0.5000000000000000  0.0000000000000000  0.4953348705479002
  0.3354604503108405  0.1797936095126929  0.9953634761484409
  0.6797936095126929  0.1645395496891524  0.4953634761484338
  0.3202063904873071  0.8354604503108405  0.4953634761484338
  0.6645395496891595  0.8202063904873071  0.9953634761484409
  0.5000000000000000  0.5000000000000000  0.2420898995418881
  0.5000000000000000  0.5000000000000000  0.7473358738449392
  0.0000000000000000  0.5000000000000000  0.4953348705479002
  0.0000000000000000  0.5000000000000000  0.9953348705479002
  0.8354604503108405  0.6797936095126929  0.4953634761484338
  0.1797936095126929  0.6645395496891595  0.9953634761484409
  0.8202063904873071  0.3354604503108405  0.9953634761484409
  0.1645395496891524  0.3202063904873071  0.4953634761484338
  0.0000000000000000  0.0000000000000000  0.9946825066021034
  0.0000000000000000  0.0000000000000000  0.4946536030750650
  0.1109251766398458  0.0545033625368205  0.7542225314436237
  0.5545033625368205  0.3890748233601542  0.2542225314436237
  0.4454966374631795  0.6109251766398458  0.2542225314436237
  0.8890748233601542  0.9454966374631795  0.7542225314436237
  0.1105864271396726  0.0552197659276814  0.2351968806179130
  0.5552197659276814  0.3894135728603274  0.7351968806179130
  0.4447802340723186  0.6105864271396726  0.7351968806179130
  0.8894135728603274  0.9447802340723186  0.2351968806179130
  0.5000000000000000  0.0000000000000000  0.7452904637915907
  0.5000000000000000  0.0000000000000000  0.2452904637915907
  0.4444033469598025  0.1118997554585164  0.9947844132169479
  0.6118997554585164  0.0555966530401975  0.4947844132169479
  0.3881002445414836  0.9444033469597954  0.4947844132169479
  0.5555966530402046  0.8881002445414836  0.9947844132169479
  0.4353750024185672  0.1065158524555301  0.4953434906912193
  0.6065158524555230  0.0646249975814257  0.9953434906912193
  0.3934841475444699  0.9353750024185672  0.9953434906912193
  0.5646249975814257  0.8934841475444770  0.4953434906912193
  0.3923088725568817  0.2534912675272096  0.8288056255416762
  0.7534912675272096  0.1076911274431183  0.3288056255416762
  0.2465087324727904  0.8923088725568817  0.3288056255416762
  0.6076911274431183  0.7465087324727904  0.8288056255416762
  0.3925191337321152  0.2530807157687676  0.1623136356963641
  0.7530807157687676  0.1074808662678848  0.6623136356963641
  0.2469192842312324  0.8925191337321152  0.6623136356963641
  0.6074808662678848  0.7469192842312324  0.1623136356963641
  0.2899268122025589  0.1020289704246693  0.8268694541348793
  0.6020289704246693  0.2100731877974340  0.3268694541348793
  0.3979710295753307  0.7899268122025589  0.3268694541348793
  0.7100731877974411  0.8979710295753307  0.8268694541348793
  0.2902650524781478  0.1015023269070028  0.1633430762427324
  0.6015023269070028  0.2097349475218522  0.6633430762427324
  0.3984976730929972  0.7902650524781478  0.6633430762427324
  0.7097349475218522  0.8984976730929972  0.1633430762427324
  0.7327318333831059  0.7496202685121744  0.4961148922596834
  0.2496202685121744  0.7672681666168870  0.9961148922596763
  0.7503797314878256  0.2327318333831059  0.9961148922596763
  0.2672681666168870  0.2503797314878256  0.4961148922596834
  0.5000000000000000  0.5000000000000000  0.4946825066021034
  0.5000000000000000  0.5000000000000000  0.9946536030750650
  0.6109251766398458  0.5545033625368205  0.2542225314436237
  0.0545033625368205  0.8890748233601542  0.7542225314436237
  0.9454966374631795  0.1109251766398458  0.7542225314436237
  0.3890748233601542  0.4454966374631795  0.2542225314436237
  0.6105864271396726  0.5552197659276814  0.7351968806179130
  0.0552197659276814  0.8894135728603274  0.2351968806179130
  0.9447802340723186  0.1105864271396726  0.2351968806179130
  0.3894135728603274  0.4447802340723186  0.7351968806179130
  0.0000000000000000  0.5000000000000000  0.2452904637915907
  0.0000000000000000  0.5000000000000000  0.7452904637915907
  0.9444033469597954  0.6118997554585164  0.4947844132169479
  0.1118997554585164  0.5555966530402046  0.9947844132169479
  0.8881002445414836  0.4444033469598025  0.9947844132169479
  0.0555966530401975  0.3881002445414836  0.4947844132169479
  0.9353750024185672  0.6065158524555230  0.9953434906912193
  0.1065158524555301  0.5646249975814257  0.4953434906912193
  0.8934841475444770  0.4353750024185672  0.4953434906912193
  0.0646249975814257  0.3934841475444699  0.9953434906912193
  0.8923088725568817  0.7534912675272096  0.3288056255416762
  0.2534912675272096  0.6076911274431183  0.8288056255416762
  0.7465087324727904  0.3923088725568817  0.8288056255416762
  0.1076911274431183  0.2465087324727904  0.3288056255416762
  0.8925191337321152  0.7530807157687676  0.6623136356963641
  0.2530807157687676  0.6074808662678848  0.1623136356963641
  0.7469192842312324  0.3925191337321152  0.1623136356963641
  0.1074808662678848  0.2469192842312324  0.6623136356963641
  0.7899268122025589  0.6020289704246693  0.3268694541348793
  0.1020289704246693  0.7100731877974411  0.8268694541348793
  0.8979710295753307  0.2899268122025589  0.8268694541348793
  0.2100731877974340  0.3979710295753307  0.3268694541348793
  0.7902650524781478  0.6015023269070028  0.6633430762427324
  0.1015023269070028  0.7097349475218522  0.1633430762427324
  0.8984976730929972  0.2902650524781478  0.1633430762427324
  0.2097349475218522  0.3984976730929972  0.6633430762427324
  0.2327318333831059  0.2496202685121744  0.9961148922596763
  0.7496202685121744  0.2672681666168870  0.4961148922596834
  0.2503797314878256  0.7327318333831059  0.4961148922596834
  0.7672681666168870  0.7503797314878256  0.9961148922596763

  0.00000000E+00  0.00000000E+00  0.00000000E+00
  0.00000000E+00  0.00000000E+00  0.00000000E+00
  0.00000000E+00  0.00000000E+00  0.00000000E+00
  0.00000000E+00  0.00000000E+00  0.00000000E+00
  0.00000000E+00  0.00000000E+00  0.00000000E+00
  0.00000000E+00  0.00000000E+00  0.00000000E+00
  0.00000000E+00  0.00000000E+00  0.00000000E+00
  0.00000000E+00  0.00000000E+00  0.00000000E+00
  0.00000000E+00  0.00000000E+00  0.00000000E+00
  0.00000000E+00  0.00000000E+00  0.00000000E+00
  0.00000000E+00  0.00000000E+00  0.00000000E+00
  0.00000000E+00  0.00000000E+00  0.00000000E+00
  0.00000000E+00  0.00000000E+00  0.00000000E+00
  0.00000000E+00  0.00000000E+00  0.00000000E+00
  0.00000000E+00  0.00000000E+00  0.00000000E+00
  0.00000000E+00  0.00000000E+00  0.00000000E+00
  0.00000000E+00  0.00000000E+00  0.00000000E+00
  0.00000000E+00  0.00000000E+00  0.00000000E+00
  0.00000000E+00  0.00000000E+00  0.00000000E+00
  0.00000000E+00  0.00000000E+00  0.00000000E+00
  0.00000000E+00  0.00000000E+00  0.00000000E+00
  0.00000000E+00  0.00000000E+00  0.00000000E+00
  0.00000000E+00  0.00000000E+00  0.00000000E+00
  0.00000000E+00  0.00000000E+00  0.00000000E+00
  0.00000000E+00  0.00000000E+00  0.00000000E+00
  0.00000000E+00  0.00000000E+00  0.00000000E+00
  0.00000000E+00  0.00000000E+00  0.00000000E+00
  0.00000000E+00  0.00000000E+00  0.00000000E+00
  0.00000000E+00  0.00000000E+00  0.00000000E+00
  0.00000000E+00  0.00000000E+00  0.00000000E+00
  0.00000000E+00  0.00000000E+00  0.00000000E+00
  0.00000000E+00  0.00000000E+00  0.00000000E+00
  0.00000000E+00  0.00000000E+00  0.00000000E+00
  0.00000000E+00  0.00000000E+00  0.00000000E+00
  0.00000000E+00  0.00000000E+00  0.00000000E+00
  0.00000000E+00  0.00000000E+00  0.00000000E+00
  0.00000000E+00  0.00000000E+00  0.00000000E+00
  0.00000000E+00  0.00000000E+00  0.00000000E+00
  0.00000000E+00  0.00000000E+00  0.00000000E+00
  0.00000000E+00  0.00000000E+00  0.00000000E+00
  0.00000000E+00  0.00000000E+00  0.00000000E+00
  0.00000000E+00  0.00000000E+00  0.00000000E+00
  0.00000000E+00  0.00000000E+00  0.00000000E+00
  0.00000000E+00  0.00000000E+00  0.00000000E+00
  0.00000000E+00  0.00000000E+00  0.00000000E+00
  0.00000000E+00  0.00000000E+00  0.00000000E+00
  0.00000000E+00  0.00000000E+00  0.00000000E+00
  0.00000000E+00  0.00000000E+00  0.00000000E+00
  0.00000000E+00  0.00000000E+00  0.00000000E+00
  0.00000000E+00  0.00000000E+00  0.00000000E+00
  0.00000000E+00  0.00000000E+00  0.00000000E+00
  0.00000000E+00  0.00000000E+00  0.00000000E+00
  0.00000000E+00  0.00000000E+00  0.00000000E+00
  0.00000000E+00  0.00000000E+00  0.00000000E+00
  0.00000000E+00  0.00000000E+00  0.00000000E+00
  0.00000000E+00  0.00000000E+00  0.00000000E+00
  0.00000000E+00  0.00000000E+00  0.00000000E+00
  0.00000000E+00  0.00000000E+00  0.00000000E+00
  0.00000000E+00  0.00000000E+00  0.00000000E+00
  0.00000000E+00  0.00000000E+00  0.00000000E+00
  0.00000000E+00  0.00000000E+00  0.00000000E+00
  0.00000000E+00  0.00000000E+00  0.00000000E+00
  0.00000000E+00  0.00000000E+00  0.00000000E+00
  0.00000000E+00  0.00000000E+00  0.00000000E+00
  0.00000000E+00  0.00000000E+00  0.00000000E+00
  0.00000000E+00  0.00000000E+00  0.00000000E+00
  0.00000000E+00  0.00000000E+00  0.00000000E+00
  0.00000000E+00  0.00000000E+00  0.00000000E+00
  0.00000000E+00  0.00000000E+00  0.00000000E+00
  0.00000000E+00  0.00000000E+00  0.00000000E+00
  0.00000000E+00  0.00000000E+00  0.00000000E+00
  0.00000000E+00  0.00000000E+00  0.00000000E+00
  0.00000000E+00  0.00000000E+00  0.00000000E+00
  0.00000000E+00  0.00000000E+00  0.00000000E+00
  0.00000000E+00  0.00000000E+00  0.00000000E+00
  0.00000000E+00  0.00000000E+00  0.00000000E+00
  0.00000000E+00  0.00000000E+00  0.00000000E+00
  0.00000000E+00  0.00000000E+00  0.00000000E+00
  0.00000000E+00  0.00000000E+00  0.00000000E+00
  0.00000000E+00  0.00000000E+00  0.00000000E+00
  0.00000000E+00  0.00000000E+00  0.00000000E+00
  0.00000000E+00  0.00000000E+00  0.00000000E+00
  0.00000000E+00  0.00000000E+00  0.00000000E+00
  0.00000000E+00  0.00000000E+00  0.00000000E+00
  0.00000000E+00  0.00000000E+00  0.00000000E+00
  0.00000000E+00  0.00000000E+00  0.00000000E+00
  0.00000000E+00  0.00000000E+00  0.00000000E+00
  0.00000000E+00  0.00000000E+00  0.00000000E+00
  0.00000000E+00  0.00000000E+00  0.00000000E+00
  0.00000000E+00  0.00000000E+00  0.00000000E+00
  0.00000000E+00  0.00000000E+00  0.00000000E+00
  0.00000000E+00  0.00000000E+00  0.00000000E+00
  0.00000000E+00  0.00000000E+00  0.00000000E+00
  0.00000000E+00  0.00000000E+00  0.00000000E+00
  0.00000000E+00  0.00000000E+00  0.00000000E+00
  0.00000000E+00  0.00000000E+00  0.00000000E+00
  0.00000000E+00  0.00000000E+00  0.00000000E+00
  0.00000000E+00  0.00000000E+00  0.00000000E+00
  0.00000000E+00  0.00000000E+00  0.00000000E+00
  0.00000000E+00  0.00000000E+00  0.00000000E+00
  0.00000000E+00  0.00000000E+00  0.00000000E+00
  0.00000000E+00  0.00000000E+00  0.00000000E+00
  0.00000000E+00  0.00000000E+00  0.00000000E+00
  0.00000000E+00  0.00000000E+00  0.00000000E+00
  0.00000000E+00  0.00000000E+00  0.00000000E+00
  0.00000000E+00  0.00000000E+00  0.00000000E+00
  0.00000000E+00  0.00000000E+00  0.00000000E+00
  0.00000000E+00  0.00000000E+00  0.00000000E+00
  0.00000000E+00  0.00000000E+00  0.00000000E+00
  0.00000000E+00  0.00000000E+00  0.00000000E+00
  0.00000000E+00  0.00000000E+00  0.00000000E+00
  0.00000000E+00  0.00000000E+00  0.00000000E+00
