Ca3 Ga11                                
   1.00000000000000     
     4.3606165023859731    0.0000000000000000    0.0000000000000000
    -2.1803082511929865   -5.0829364641537600    6.4472584604695644
    -2.1803082511929865   -5.0829364641537600   -6.4472584604695644
   Ga   Ca
    11     3
Direct
  0.3745255784882886  0.7142105621674091  0.0348405948091610
  0.2727168629056891  0.4208733658143018  0.1245603599970764
  0.6254744215117114  0.9651594051908390  0.2857894378325909
  0.7935134548590028  0.2935134548590028  0.2935134548590028
  0.2727168629056891  0.1245603599970764  0.4208733658143018
  0.5000000000000000  0.5000000000000000  0.5000000000000000
  0.7272831370943109  0.8754396400029165  0.5791266341856982
  0.2064865451409972  0.7064865451409972  0.7064865451409972
  0.3745255784882886  0.0348405948091610  0.7142105621674091
  0.7272831370943109  0.5791266341856982  0.8754396400029165
  0.6254744215117114  0.2857894378325909  0.9651594051908390
  0.0000000000000000  0.0000000000000000  0.0000000000000000
  0.0000000000000000  0.6846824828452469  0.3153175171547531
  0.0000000000000000  0.3153175171547531  0.6846824828452469
 
  0.00000000E+00  0.00000000E+00  0.00000000E+00
  0.00000000E+00  0.00000000E+00  0.00000000E+00
  0.00000000E+00  0.00000000E+00  0.00000000E+00
  0.00000000E+00  0.00000000E+00  0.00000000E+00
  0.00000000E+00  0.00000000E+00  0.00000000E+00
  0.00000000E+00  0.00000000E+00  0.00000000E+00
  0.00000000E+00  0.00000000E+00  0.00000000E+00
  0.00000000E+00  0.00000000E+00  0.00000000E+00
  0.00000000E+00  0.00000000E+00  0.00000000E+00
  0.00000000E+00  0.00000000E+00  0.00000000E+00
  0.00000000E+00  0.00000000E+00  0.00000000E+00
  0.00000000E+00  0.00000000E+00  0.00000000E+00
  0.00000000E+00  0.00000000E+00  0.00000000E+00
  0.00000000E+00  0.00000000E+00  0.00000000E+00
