Be2Al                                   
   1.00000000000000     
     3.7921741875530661    2.1894099589885605    6.1932211474233005
    -3.7921741875530661    2.1894099589885605    6.1932211474233005
     0.0000000000000000   -4.3788199179771210    6.1932211474233005
   Al   Be
     2     4
Direct
  0.2500071696203889  0.2500071696203889  0.2500071696203889
  0.4999928303796111  0.4999928303796111  0.4999928303796111
  0.8750000000000000  0.3750000000000000  0.3750000000000000
  0.3750000000000000  0.8750000000000000  0.3750000000000000
  0.3750000000000000  0.3750000000000000  0.3750000000000000
  0.3750000000000000  0.3750000000000000  0.8750000000000000
 
  0.00000000E+00  0.00000000E+00  0.00000000E+00
  0.00000000E+00  0.00000000E+00  0.00000000E+00
  0.00000000E+00  0.00000000E+00  0.00000000E+00
  0.00000000E+00  0.00000000E+00  0.00000000E+00
  0.00000000E+00  0.00000000E+00  0.00000000E+00
  0.00000000E+00  0.00000000E+00  0.00000000E+00
