Sr2 In2 Cl10                            
   1.00000000000000     
    -5.9032803314442468   -4.1419590589734954    0.0473753099179643
     5.9061694405369334   -4.1458844407436368   -0.0479024768980663
    -4.2959670849844818    0.0018006228052760    9.1492883618014211
   In   Sr   Cl
     2     2    10
Direct
  0.9999244040720541  0.9997307319790494  0.0003083532190828
  0.9998288322006275  0.0003117528833485  0.5004191655163055
  0.4504898772692769  0.4508308296741674  0.2503012164818372
  0.5493330012006226  0.5490899618803411  0.7502893819679386
  0.7282738604281036  0.6657052003279844  0.0194581318549183
  0.7251181141426883  0.1854219318339645  0.1259055997117500
  0.0870684609282577  0.0871678976506089  0.2499849270147649
  0.1852928863758265  0.7262070966698388  0.3725576323473021
  0.6659516752706907  0.7279007747430484  0.4807108085268723
  0.3342624767149900  0.2718903044813388  0.5194348473791877
  0.8146984679623941  0.2752147298885745  0.6257834841237653
  0.9129568858968895  0.9128334064598889  0.7499688402020865
  0.2750054260839718  0.8143157285493814  0.8741417361625849
  0.2716946314535988  0.3332796529784900  0.9804338754915847
 
  0.00000000E+00  0.00000000E+00  0.00000000E+00
  0.00000000E+00  0.00000000E+00  0.00000000E+00
  0.00000000E+00  0.00000000E+00  0.00000000E+00
  0.00000000E+00  0.00000000E+00  0.00000000E+00
  0.00000000E+00  0.00000000E+00  0.00000000E+00
  0.00000000E+00  0.00000000E+00  0.00000000E+00
  0.00000000E+00  0.00000000E+00  0.00000000E+00
  0.00000000E+00  0.00000000E+00  0.00000000E+00
  0.00000000E+00  0.00000000E+00  0.00000000E+00
  0.00000000E+00  0.00000000E+00  0.00000000E+00
  0.00000000E+00  0.00000000E+00  0.00000000E+00
  0.00000000E+00  0.00000000E+00  0.00000000E+00
  0.00000000E+00  0.00000000E+00  0.00000000E+00
  0.00000000E+00  0.00000000E+00  0.00000000E+00
