Ba1 Ga2 Br10                            
   1.00000000000000     
     5.1062921730634434    6.7585924610208608    1.0499653195542840
    -5.1062921730634434    6.7585924610208616    1.0499653195542840
     0.0000000000000001    6.1614785645133558    9.5635387795732854
   Ba   Ga   Br
     1     2    10
Direct
  0.5701230345851300  0.4298769654148700  0.0000000000000000
  0.8708651606571252  0.0362702826093013  0.7121385428710738
  0.9637297173906987  0.1291348393428748  0.2878614571289333
  0.0814404873453043  0.2129739701067734  0.6819569572678787
  0.7870260298932266  0.9185595126546957  0.3180430427321213
  0.8313683182021379  0.7424244310051265  0.9286282522930378
  0.2575755689948664  0.1686316817978621  0.0713717477069622
  0.9163896763371469  0.0836103236628531  0.0000000000000000
  0.0525117471433632  0.9474882528566368  0.5000000000000000
  0.6190111025201830  0.2243550217371251  0.7101994258156807
  0.7756449782628749  0.3809888974798028  0.2898005741843193
  0.5621246761298337  0.7438114974618983  0.6969661278357080
  0.2561885025381017  0.4378753238701663  0.3030338721642849
 
  0.00000000E+00  0.00000000E+00  0.00000000E+00
  0.00000000E+00  0.00000000E+00  0.00000000E+00
  0.00000000E+00  0.00000000E+00  0.00000000E+00
  0.00000000E+00  0.00000000E+00  0.00000000E+00
  0.00000000E+00  0.00000000E+00  0.00000000E+00
  0.00000000E+00  0.00000000E+00  0.00000000E+00
  0.00000000E+00  0.00000000E+00  0.00000000E+00
  0.00000000E+00  0.00000000E+00  0.00000000E+00
  0.00000000E+00  0.00000000E+00  0.00000000E+00
  0.00000000E+00  0.00000000E+00  0.00000000E+00
  0.00000000E+00  0.00000000E+00  0.00000000E+00
  0.00000000E+00  0.00000000E+00  0.00000000E+00
  0.00000000E+00  0.00000000E+00  0.00000000E+00
