Be3Tl                                   
   1.0000000000000000     
     6.5321714512062981   -0.6142068064430108    0.0000000000000000
    -3.7980016600931359    5.3498943254971003    0.0000000000000000
     0.0000000000000000   -0.0000000000000001    3.5329334250475299
   Be   Tl
     6     2
Direct
  0.1391351002530001  0.2483550287920764  0.2500000000000000
  0.7516449726226782  0.8608649002710038  0.2500000000000000
  0.1113638734453630  0.8886361250329458  0.2500000000000000
  0.8608648997469999  0.7516449712079236  0.7500000000000000
  0.2483550273773218  0.1391350997289962  0.7500000000000000
  0.8886361265546370  0.1113638749670542  0.7500000000000000
  0.3325717466200828  0.6674282549850332  0.7500000000000000
  0.6674282533799172  0.3325717450149668  0.2500000000000000

  0.00000000E+00  0.00000000E+00  0.00000000E+00
  0.00000000E+00  0.00000000E+00  0.00000000E+00
  0.00000000E+00  0.00000000E+00  0.00000000E+00
  0.00000000E+00  0.00000000E+00  0.00000000E+00
  0.00000000E+00  0.00000000E+00  0.00000000E+00
  0.00000000E+00  0.00000000E+00  0.00000000E+00
  0.00000000E+00  0.00000000E+00  0.00000000E+00
  0.00000000E+00  0.00000000E+00  0.00000000E+00
