In2F3                                   
   1.00000000000000     
     7.6374107248637477   -2.1579800127318793    0.0224005874498274
     7.6374107248637477    2.1579800127318793    0.0224005874498274
    -2.2383164342725843    0.0000000000000000    5.4240057579526013
   F    In
     6     4
Direct
  0.0887527861264985  0.0887527861264985  0.0238679968228226
  0.5669858399199512  0.5669858399199512  0.3141437940033924
  0.8050639353621207  0.8050639353621207  0.4780420317580578
  0.1949357162605239  0.1949357162605239  0.5220357392209038
  0.4330188939145572  0.4330188939145572  0.6859489352629282
  0.9112464482219664  0.9112464482219664  0.9762116294107983
  0.2734707357542447  0.2734707357542447  0.2340926539040709
  0.0378666337324773  0.0378666337324773  0.3228728420908880
  0.9621323411698199  0.9621323411698199  0.6772065161921219
  0.7265266695378401  0.7265266695378401  0.7659778613340293
 
  0.00000000E+00  0.00000000E+00  0.00000000E+00
  0.00000000E+00  0.00000000E+00  0.00000000E+00
  0.00000000E+00  0.00000000E+00  0.00000000E+00
  0.00000000E+00  0.00000000E+00  0.00000000E+00
  0.00000000E+00  0.00000000E+00  0.00000000E+00
  0.00000000E+00  0.00000000E+00  0.00000000E+00
  0.00000000E+00  0.00000000E+00  0.00000000E+00
  0.00000000E+00  0.00000000E+00  0.00000000E+00
  0.00000000E+00  0.00000000E+00  0.00000000E+00
  0.00000000E+00  0.00000000E+00  0.00000000E+00
