Al1 Br6                                 
   1.00000000000000     
     3.6759625539394776    3.3520350638578487    4.8370610803927372
    -4.7745186777194251    2.0424824420976933    6.1710563768965123
    -1.7160948668773484   -4.6839945658091597    5.1152800807847623
   Br   Al
     6     1
Direct
  0.8735122089709293  0.3505030385296806  0.9041432413917505
  0.6456655671101359  0.9475565844190470  0.1486734089155348
  0.0073014478910096  0.8571084978307439  0.3993530521502109
  0.9304786691121620  0.1475425034021924  0.5979027700177966
  0.3733161529719453  0.0497045182488236  0.8629420664559717
  0.1519686226246293  0.6466599104835566  0.0978087228921822
  0.0181573313191805  0.0013249470859478  0.9895767381765666
 
  0.00000000E+00  0.00000000E+00  0.00000000E+00
  0.00000000E+00  0.00000000E+00  0.00000000E+00
  0.00000000E+00  0.00000000E+00  0.00000000E+00
  0.00000000E+00  0.00000000E+00  0.00000000E+00
  0.00000000E+00  0.00000000E+00  0.00000000E+00
  0.00000000E+00  0.00000000E+00  0.00000000E+00
  0.00000000E+00  0.00000000E+00  0.00000000E+00
