Ga8 Cl14                                
   1.00000000000000     
     3.5616291180822248   -6.1820416870477555    0.0119198426467913
    -3.5616291180822248   -6.1820416870477555    0.0119198426467913
     0.0000000000000000    4.1481215749359750  -14.6900357330825475
   Cl   Ga
    14     8
Direct
  0.3431969519481513  0.3431969519481513  0.0322058699662122
  0.8919160336141942  0.3876622303431390  0.1686382284084971
  0.3876622303431390  0.8919160336141942  0.1686382284084971
  0.8918401213031260  0.8918401213031260  0.1695912528397514
  0.6255368647663673  0.1533160548668562  0.4035931783070197
  0.1533160548668562  0.6255368647663673  0.4035931783070197
  0.6250677859333962  0.6250677859333962  0.4041159183205707
  0.3749672972252824  0.3749672972252824  0.5958896535699552
  0.8467154941848349  0.3745051510796245  0.5964117183678610
  0.3745051510796245  0.8467154941848349  0.5964117183678610
  0.1082709517623144  0.1082709517623144  0.8302892744994637
  0.6124888361605301  0.1082490535989606  0.8313241890435989
  0.1082490535989606  0.6124888361605301  0.8313241890435989
  0.6568742865839567  0.6568742865839567  0.9677188045303282
  0.0000206144579167  0.0000206144579167  0.0000007244743898
  0.7066693915537954  0.7066693915537954  0.1172995482719728
  0.4171373356522636  0.4171373356522636  0.2517173850635572
  0.1562082654983286  0.1562082654983286  0.4706619096200981
  0.5000163414030609  0.5000163414030609  0.5000017112228790
  0.8438207006485285  0.8438207006485285  0.5293648168744198
  0.5828824541546496  0.5828824541546496  0.7482881388190421
  0.2934377832607211  0.2934377832607211  0.8826203636734604
 
  0.00000000E+00  0.00000000E+00  0.00000000E+00
  0.00000000E+00  0.00000000E+00  0.00000000E+00
  0.00000000E+00  0.00000000E+00  0.00000000E+00
  0.00000000E+00  0.00000000E+00  0.00000000E+00
  0.00000000E+00  0.00000000E+00  0.00000000E+00
  0.00000000E+00  0.00000000E+00  0.00000000E+00
  0.00000000E+00  0.00000000E+00  0.00000000E+00
  0.00000000E+00  0.00000000E+00  0.00000000E+00
  0.00000000E+00  0.00000000E+00  0.00000000E+00
  0.00000000E+00  0.00000000E+00  0.00000000E+00
  0.00000000E+00  0.00000000E+00  0.00000000E+00
  0.00000000E+00  0.00000000E+00  0.00000000E+00
  0.00000000E+00  0.00000000E+00  0.00000000E+00
  0.00000000E+00  0.00000000E+00  0.00000000E+00
  0.00000000E+00  0.00000000E+00  0.00000000E+00
  0.00000000E+00  0.00000000E+00  0.00000000E+00
  0.00000000E+00  0.00000000E+00  0.00000000E+00
  0.00000000E+00  0.00000000E+00  0.00000000E+00
  0.00000000E+00  0.00000000E+00  0.00000000E+00
  0.00000000E+00  0.00000000E+00  0.00000000E+00
  0.00000000E+00  0.00000000E+00  0.00000000E+00
  0.00000000E+00  0.00000000E+00  0.00000000E+00
