BaCl                                    
   1.00000000000000     
     0.0000000000000000    3.2045116900218993    3.2045116900218993
     3.2045116900218993    0.0000000000000000    3.2045116900218993
     3.2045116900218993    3.2045116900218993    0.0000000000000000
   Ba   Cl
     1     1
Direct
  0.0000000000000000  0.0000000000000000  0.0000000000000000
  0.5000000000000000  0.5000000000000000  0.5000000000000000
 
  0.00000000E+00  0.00000000E+00  0.00000000E+00
  0.00000000E+00  0.00000000E+00  0.00000000E+00
