Ca2 Tl2 Br10                            
   1.0000000000000000     
     5.9550605140475614   -4.2066856468122040   -0.1464460036857415
     5.9550605140475614    4.2066856468122040   -0.1464460036857415
    -4.4929367035318384    0.0000000000000000   10.0377328292735442
   Ca   Br   Tl
     2    10     2
Direct
  0.5188269735862434  0.4818839729334101  0.2498039956486409
  0.4818839729334101  0.5188269735862434  0.7498039956486409
  0.2328533268358299  0.6113620309598531  0.0208146004409784
  0.3427975481724133  0.1250560244407950  0.1452358735204129
  0.8710087530644088  0.1287050970739685  0.2500516821573342
  0.8750251188232951  0.6574737913209319  0.3535439459283225
  0.3892951609070110  0.7651957471948805  0.4796790165717013
  0.6113620309598531  0.2328533268358299  0.5208146004409784
  0.1250560244407950  0.3427975481724133  0.6452358735204129
  0.1287050970739685  0.8710087530644088  0.7500516821573342
  0.6574737913209319  0.8750251188232951  0.8535439459283225
  0.7651957471948805  0.3892951609070110  0.9796790165717013
  0.9995944410245983  0.0005220136623620  0.0008708857326098
  0.0005220136623620  0.9995944410245983  0.5008708857326098

  0.00000000E+00  0.00000000E+00  0.00000000E+00
  0.00000000E+00  0.00000000E+00  0.00000000E+00
  0.00000000E+00  0.00000000E+00  0.00000000E+00
  0.00000000E+00  0.00000000E+00  0.00000000E+00
  0.00000000E+00  0.00000000E+00  0.00000000E+00
  0.00000000E+00  0.00000000E+00  0.00000000E+00
  0.00000000E+00  0.00000000E+00  0.00000000E+00
  0.00000000E+00  0.00000000E+00  0.00000000E+00
  0.00000000E+00  0.00000000E+00  0.00000000E+00
  0.00000000E+00  0.00000000E+00  0.00000000E+00
  0.00000000E+00  0.00000000E+00  0.00000000E+00
  0.00000000E+00  0.00000000E+00  0.00000000E+00
  0.00000000E+00  0.00000000E+00  0.00000000E+00
  0.00000000E+00  0.00000000E+00  0.00000000E+00
