Sr3 Tl1 Cl1                             
   1.0000000000000000     
     5.7405065712612755    0.0000000000000000    0.0000000000000000
     0.0000000000000000    5.7405065712612755    0.0000000000000000
    -0.0000000000000000    0.0000000000000000    5.7405065712612755
   Sr   Cl   Tl
     3     1     1
Direct
  0.5000000000000000  0.5000000000000000  0.0000000000000000
  0.5000000000000000  0.0000000000000000  0.5000000000000000
  0.0000000000000000  0.5000000000000000  0.5000000000000000
  0.5000000000000000  0.5000000000000000  0.5000000000000000
  0.0000000000000000  0.0000000000000000  0.0000000000000000

  0.00000000E+00  0.00000000E+00  0.00000000E+00
  0.00000000E+00  0.00000000E+00  0.00000000E+00
  0.00000000E+00  0.00000000E+00  0.00000000E+00
  0.00000000E+00  0.00000000E+00  0.00000000E+00
  0.00000000E+00  0.00000000E+00  0.00000000E+00
