Ca1 In2 Br6                             
   1.0000000000000000     
     2.9147245784884315    3.0665093754976249    7.2682712067709980
    -2.9147245784884315    3.0665093754976249    7.2682712067709980
     0.0000000000000000   -5.6300683419415067    7.2349667257749894
   Ca   Br   In
     1     6     2
Direct
  0.0000000000000000  0.0000000000000000  0.0000000000000000
  0.7948679919673936  0.7948679919673936  0.1105593380762144
  0.7175605196820314  0.2248150333620558  0.2963848107016318
  0.2248150333620558  0.7175605196820314  0.2963848107016318
  0.2051320080326064  0.2051320080326064  0.8894406619237998
  0.7751849666379442  0.2824394803179686  0.7036151892983682
  0.2824394803179686  0.7751849666379442  0.7036151892983682
  0.1783102126264353  0.1783102126264353  0.2482147091877707
  0.8216897873735647  0.8216897873735647  0.7517852908122293

  0.00000000E+00  0.00000000E+00  0.00000000E+00
  0.00000000E+00  0.00000000E+00  0.00000000E+00
  0.00000000E+00  0.00000000E+00  0.00000000E+00
  0.00000000E+00  0.00000000E+00  0.00000000E+00
  0.00000000E+00  0.00000000E+00  0.00000000E+00
  0.00000000E+00  0.00000000E+00  0.00000000E+00
  0.00000000E+00  0.00000000E+00  0.00000000E+00
  0.00000000E+00  0.00000000E+00  0.00000000E+00
  0.00000000E+00  0.00000000E+00  0.00000000E+00
