Ca32 B28                                
   1.00000000000000     
    10.3860057119234703   -0.0000517109009299   -0.0000516882903612
    -0.0000516882903612   10.3860057119234686   -0.0000517109009299
    -0.0000517109009299   -0.0000516882903612   10.3860057119234703
   B    Ca
    28    32
Direct
  0.5862031206688627  0.9137932253422605  0.0862020456447539
  0.7264772284078376  0.8125106558477171  0.0887342255207244
  0.7685591540025740  0.3108058990831424  0.0998352661293467
  0.9001376591980303  0.2685560391580566  0.1891696539308541
  0.5887303606895387  0.7735170298009280  0.1874789953549580
  0.6874825165433762  0.9112581562114102  0.2264780454530779
  0.1891696539308541  0.9001376591980303  0.2685560391580566
  0.8108006333665188  0.4001350627718097  0.2314160169901669
  0.3124946372224358  0.4112501493635250  0.2735122035170363
  0.4112501493635250  0.2735122035170363  0.3124946372224358
  0.0998352661293467  0.7685591540025740  0.3108058990831424
  0.2314160169901669  0.8108006333665188  0.4001350627718097
  0.2735122035170363  0.3124946372224358  0.4112501493635250
  0.4137824139206572  0.4137824139206572  0.4137824139206572
  0.9137932253422605  0.0862020456447539  0.5862031206688627
  0.7735170298009280  0.1874789953549580  0.5887303606895387
  0.7314173526077141  0.6891728500395189  0.5998357472208795
  0.5998357472208795  0.7314173526077141  0.6891728500395189
  0.9112581562114102  0.2264780454530779  0.6874825165433762
  0.8125106558477171  0.0887342255207244  0.7264772284078376
  0.3108058990831424  0.0998352661293467  0.7685591540025740
  0.6891728500395189  0.5998357472208795  0.7314173526077141
  0.1874789953549580  0.5887303606895387  0.7735170298009280
  0.0887342255207244  0.7264772284078376  0.8125106558477171
  0.4001350627718097  0.2314160169901669  0.8108006333665188
  0.2685560391580566  0.1891696539308541  0.9001376591980303
  0.2264780454530779  0.6874825165433762  0.9112581562114102
  0.0862020456447539  0.5862031206688627  0.9137932253422605
  0.7842946035832767  0.5543418813920837  0.0079527131926440
  0.7859033819803400  0.0594175017192100  0.0243453035921561
  0.4920197907905646  0.2156690405129709  0.0543338665133390
  0.0243453035921561  0.7859033819803400  0.0594175017192100
  0.1896162035760227  0.1896162035760227  0.1896162035760227
  0.3191589744767853  0.6808098775407672  0.1808090783073695
  0.0543338665133390  0.4920197907905646  0.2156690405129709
  0.5594110583655905  0.4756221792397355  0.2140760746413193
  0.4405599792765287  0.9756223573540126  0.2858981861959720
  0.9456330962879420  0.9920196462096982  0.2842987648633439
  0.6808098775407672  0.1808090783073695  0.3191589744767853
  0.8103532898671943  0.6896164691239761  0.3103580331939426
  0.9756223573540126  0.2858981861959720  0.4405599792765287
  0.5079558754315130  0.7156749808491227  0.4456360240181354
  0.2140760746413193  0.5594110583655905  0.4756221792397355
  0.2156690405129709  0.0543338665133390  0.4920197907905646
  0.7156749808491227  0.4456360240181354  0.5079558754315130
  0.7140862886859978  0.9405662905671335  0.5243516273163920
  0.0079527131926440  0.7842946035832767  0.5543418813920837
  0.4756221792397355  0.2140760746413193  0.5594110583655905
  0.3103580331939426  0.8103532898671943  0.6896164691239761
  0.1808090783073695  0.3191589744767853  0.6808098775407672
  0.4456360240181354  0.5079558754315130  0.7156749808491227
  0.9405662905671335  0.5243516273163920  0.7140862886859978
  0.0594175017192100  0.0243453035921561  0.7859033819803400
  0.5543418813920837  0.0079527131926440  0.7842946035832767
  0.8191612173272276  0.8191612173272276  0.8191612173272276
  0.6896164691239761  0.3103580331939426  0.8103532898671943
  0.5243516273163920  0.7140862886859978  0.9405662905671335
  0.9920196462096982  0.2842987648633439  0.9456330962879420
  0.2858981861959720  0.4405599792765287  0.9756223573540126
  0.2842987648633439  0.9456330962879420  0.9920196462096982
 
  0.00000000E+00  0.00000000E+00  0.00000000E+00
  0.00000000E+00  0.00000000E+00  0.00000000E+00
  0.00000000E+00  0.00000000E+00  0.00000000E+00
  0.00000000E+00  0.00000000E+00  0.00000000E+00
  0.00000000E+00  0.00000000E+00  0.00000000E+00
  0.00000000E+00  0.00000000E+00  0.00000000E+00
  0.00000000E+00  0.00000000E+00  0.00000000E+00
  0.00000000E+00  0.00000000E+00  0.00000000E+00
  0.00000000E+00  0.00000000E+00  0.00000000E+00
  0.00000000E+00  0.00000000E+00  0.00000000E+00
  0.00000000E+00  0.00000000E+00  0.00000000E+00
  0.00000000E+00  0.00000000E+00  0.00000000E+00
  0.00000000E+00  0.00000000E+00  0.00000000E+00
  0.00000000E+00  0.00000000E+00  0.00000000E+00
  0.00000000E+00  0.00000000E+00  0.00000000E+00
  0.00000000E+00  0.00000000E+00  0.00000000E+00
  0.00000000E+00  0.00000000E+00  0.00000000E+00
  0.00000000E+00  0.00000000E+00  0.00000000E+00
  0.00000000E+00  0.00000000E+00  0.00000000E+00
  0.00000000E+00  0.00000000E+00  0.00000000E+00
  0.00000000E+00  0.00000000E+00  0.00000000E+00
  0.00000000E+00  0.00000000E+00  0.00000000E+00
  0.00000000E+00  0.00000000E+00  0.00000000E+00
  0.00000000E+00  0.00000000E+00  0.00000000E+00
  0.00000000E+00  0.00000000E+00  0.00000000E+00
  0.00000000E+00  0.00000000E+00  0.00000000E+00
  0.00000000E+00  0.00000000E+00  0.00000000E+00
  0.00000000E+00  0.00000000E+00  0.00000000E+00
  0.00000000E+00  0.00000000E+00  0.00000000E+00
  0.00000000E+00  0.00000000E+00  0.00000000E+00
  0.00000000E+00  0.00000000E+00  0.00000000E+00
  0.00000000E+00  0.00000000E+00  0.00000000E+00
  0.00000000E+00  0.00000000E+00  0.00000000E+00
  0.00000000E+00  0.00000000E+00  0.00000000E+00
  0.00000000E+00  0.00000000E+00  0.00000000E+00
  0.00000000E+00  0.00000000E+00  0.00000000E+00
  0.00000000E+00  0.00000000E+00  0.00000000E+00
  0.00000000E+00  0.00000000E+00  0.00000000E+00
  0.00000000E+00  0.00000000E+00  0.00000000E+00
  0.00000000E+00  0.00000000E+00  0.00000000E+00
  0.00000000E+00  0.00000000E+00  0.00000000E+00
  0.00000000E+00  0.00000000E+00  0.00000000E+00
  0.00000000E+00  0.00000000E+00  0.00000000E+00
  0.00000000E+00  0.00000000E+00  0.00000000E+00
  0.00000000E+00  0.00000000E+00  0.00000000E+00
  0.00000000E+00  0.00000000E+00  0.00000000E+00
  0.00000000E+00  0.00000000E+00  0.00000000E+00
  0.00000000E+00  0.00000000E+00  0.00000000E+00
  0.00000000E+00  0.00000000E+00  0.00000000E+00
  0.00000000E+00  0.00000000E+00  0.00000000E+00
  0.00000000E+00  0.00000000E+00  0.00000000E+00
  0.00000000E+00  0.00000000E+00  0.00000000E+00
  0.00000000E+00  0.00000000E+00  0.00000000E+00
  0.00000000E+00  0.00000000E+00  0.00000000E+00
  0.00000000E+00  0.00000000E+00  0.00000000E+00
  0.00000000E+00  0.00000000E+00  0.00000000E+00
  0.00000000E+00  0.00000000E+00  0.00000000E+00
  0.00000000E+00  0.00000000E+00  0.00000000E+00
  0.00000000E+00  0.00000000E+00  0.00000000E+00
  0.00000000E+00  0.00000000E+00  0.00000000E+00
