Mg4 In4 I20                             
   1.0000000000000000     
     4.5906668253987917   -0.0000000000000003    0.0000000000000004
    -0.0000000000000002   15.0660556561135373    0.0000000000000009
    -0.0000000000000006    0.0000000000000010   20.2914264530358039
   Mg   In   I 
     4     4    20
Direct
  0.7571688662320852  0.3721569805644336  0.3958369281991452
  0.2571688662320852  0.1278430194355735  0.6041630718008548
  0.2428311337679077  0.8721569805644265  0.1041630718008477
  0.7428311337679077  0.6278430194355735  0.8958369281991452
  0.2583868439722039  0.6219737286396452  0.4267325368249999
  0.7583868439722039  0.8780262713603548  0.5732674631749930
  0.7416131560277961  0.1219737286396452  0.0732674631749930
  0.2416131560277961  0.3780262713603548  0.9267325368249999
  0.2572881621576499  0.3788142847596063  0.4772041498552042
  0.7572881621576428  0.1211857152403937  0.5227958501447958
  0.7427118378423501  0.8788142847596063  0.0227958501447958
  0.2427118378423501  0.6211857152403937  0.9772041498552042
  0.2433969632310564  0.0248077043647399  0.1754088197614152
  0.7433969632310564  0.4751922956352601  0.8245911802385848
  0.7566030367689436  0.5248077043647399  0.3245911802385919
  0.2566030367689436  0.9751922956352601  0.6754088197614152
  0.2367461853369406  0.1349766725088131  0.9456561698834065
  0.7367461853369335  0.3650233274911869  0.0543438301165935
  0.7632538146630665  0.6349766725088131  0.5543438301165935
  0.2632538146630665  0.8650233274911869  0.4456561698834065
  0.2503213892590992  0.7960937525986722  0.3111886841972833
  0.7503213892590992  0.7039062474013278  0.6888113158027238
  0.7496786107409008  0.2960937525986722  0.1888113158027309
  0.2496786107409008  0.2039062474013278  0.8111886841972762
  0.7398021446413949  0.7832629770202999  0.8246051396733307
  0.2398021446413949  0.7167370229797001  0.1753948603266693
  0.2601978553586051  0.2832629770202999  0.6753948603266693
  0.7601978553586051  0.2167370229797001  0.3246051396733307

  0.00000000E+00  0.00000000E+00  0.00000000E+00
  0.00000000E+00  0.00000000E+00  0.00000000E+00
  0.00000000E+00  0.00000000E+00  0.00000000E+00
  0.00000000E+00  0.00000000E+00  0.00000000E+00
  0.00000000E+00  0.00000000E+00  0.00000000E+00
  0.00000000E+00  0.00000000E+00  0.00000000E+00
  0.00000000E+00  0.00000000E+00  0.00000000E+00
  0.00000000E+00  0.00000000E+00  0.00000000E+00
  0.00000000E+00  0.00000000E+00  0.00000000E+00
  0.00000000E+00  0.00000000E+00  0.00000000E+00
  0.00000000E+00  0.00000000E+00  0.00000000E+00
  0.00000000E+00  0.00000000E+00  0.00000000E+00
  0.00000000E+00  0.00000000E+00  0.00000000E+00
  0.00000000E+00  0.00000000E+00  0.00000000E+00
  0.00000000E+00  0.00000000E+00  0.00000000E+00
  0.00000000E+00  0.00000000E+00  0.00000000E+00
  0.00000000E+00  0.00000000E+00  0.00000000E+00
  0.00000000E+00  0.00000000E+00  0.00000000E+00
  0.00000000E+00  0.00000000E+00  0.00000000E+00
  0.00000000E+00  0.00000000E+00  0.00000000E+00
  0.00000000E+00  0.00000000E+00  0.00000000E+00
  0.00000000E+00  0.00000000E+00  0.00000000E+00
  0.00000000E+00  0.00000000E+00  0.00000000E+00
  0.00000000E+00  0.00000000E+00  0.00000000E+00
  0.00000000E+00  0.00000000E+00  0.00000000E+00
  0.00000000E+00  0.00000000E+00  0.00000000E+00
  0.00000000E+00  0.00000000E+00  0.00000000E+00
  0.00000000E+00  0.00000000E+00  0.00000000E+00
