Mg4 In4 Cl20                            
   1.0000000000000000     
     7.2639207174727902   -0.0000000000000001    0.0000000000000006
    -0.0000000000000006    7.4182423655617500    0.0000000000000005
     0.0000000000000005    0.0000000000000002   18.7830868687922461
   Mg   In   Cl
     4     4    20
Direct
  0.1054219425479488  0.7288691219099732  0.5631230476342566
  0.6054219425479559  0.7711308780900268  0.4368769523657434
  0.8945780574520441  0.2288691219099732  0.9368769523657434
  0.3945780574520512  0.2711308780900268  0.0631230476342566
  0.2417278900888036  0.2325352310470876  0.6128082573451081
  0.7417278900888036  0.2674647689529124  0.3871917426548919
  0.7582721099111964  0.7325352310470947  0.8871917426548919
  0.2582721099111964  0.7674647689529053  0.1128082573451081
  0.9260713854735982  0.7282857138976340  0.4579257581126726
  0.4260713854735982  0.7717142861023660  0.5420742418873274
  0.0739286145264018  0.2282857138976340  0.0420742418873274
  0.5739286145264018  0.2717142861023660  0.9579257581126726
  0.5292419165375009  0.5213918119103411  0.3607779415482497
  0.0292419165375009  0.9786081880896589  0.6392220584517432
  0.4707580834624991  0.0213918119103411  0.1392220584517432
  0.9707580834624991  0.4786081880896589  0.8607779415482497
  0.0519046762009125  0.4983349996616298  0.6494146764468383
  0.5519046762009125  0.0016650003383702  0.3505853235531617
  0.9480953237990875  0.9983349996616298  0.8505853235531617
  0.4480953237990875  0.5016650003383702  0.1494146764468383
  0.4896264987062651  0.2109981695130045  0.6905027028734949
  0.9896264987062651  0.2890018304869955  0.3094972971265051
  0.5103735012937349  0.7109981695130045  0.8094972971265051
  0.0103735012937349  0.7890018304869955  0.1905027028734949
  0.7494809202750687  0.2227741059650370  0.5108440343664356
  0.2494809202750758  0.2772258940349630  0.4891559656335644
  0.2505190797249242  0.7227741059650370  0.9891559656335644
  0.7505190797249313  0.7772258940349630  0.0108440343664356

  0.00000000E+00  0.00000000E+00  0.00000000E+00
  0.00000000E+00  0.00000000E+00  0.00000000E+00
  0.00000000E+00  0.00000000E+00  0.00000000E+00
  0.00000000E+00  0.00000000E+00  0.00000000E+00
  0.00000000E+00  0.00000000E+00  0.00000000E+00
  0.00000000E+00  0.00000000E+00  0.00000000E+00
  0.00000000E+00  0.00000000E+00  0.00000000E+00
  0.00000000E+00  0.00000000E+00  0.00000000E+00
  0.00000000E+00  0.00000000E+00  0.00000000E+00
  0.00000000E+00  0.00000000E+00  0.00000000E+00
  0.00000000E+00  0.00000000E+00  0.00000000E+00
  0.00000000E+00  0.00000000E+00  0.00000000E+00
  0.00000000E+00  0.00000000E+00  0.00000000E+00
  0.00000000E+00  0.00000000E+00  0.00000000E+00
  0.00000000E+00  0.00000000E+00  0.00000000E+00
  0.00000000E+00  0.00000000E+00  0.00000000E+00
  0.00000000E+00  0.00000000E+00  0.00000000E+00
  0.00000000E+00  0.00000000E+00  0.00000000E+00
  0.00000000E+00  0.00000000E+00  0.00000000E+00
  0.00000000E+00  0.00000000E+00  0.00000000E+00
  0.00000000E+00  0.00000000E+00  0.00000000E+00
  0.00000000E+00  0.00000000E+00  0.00000000E+00
  0.00000000E+00  0.00000000E+00  0.00000000E+00
  0.00000000E+00  0.00000000E+00  0.00000000E+00
  0.00000000E+00  0.00000000E+00  0.00000000E+00
  0.00000000E+00  0.00000000E+00  0.00000000E+00
  0.00000000E+00  0.00000000E+00  0.00000000E+00
  0.00000000E+00  0.00000000E+00  0.00000000E+00
