Sr5 B2                                  
   1.00000000000000     
     1.8895726394633250    2.7260442621136711   10.0586813869490772
    -1.8895726394633250    2.7260442621136711   10.0586813869490772
     0.0000000000000000   -4.0248342375590180    9.9494360875492234
   Sr   B 
     5     2
Direct
  0.2972017575203125  0.2972017575203125  0.0930309594546017
  0.4098123850218798  0.4098123850218798  0.3007512515736082
  0.4999902155502411  0.4999902155502411  0.4999919876431775
  0.5901517782488455  0.5901517782488455  0.6992152546553498
  0.7027699560653389  0.7027699560653389  0.9069398053136553
  0.0419812661330425  0.0419812661330425  0.2253951300341512
  0.9579926414603577  0.9579926414603577  0.7745756113254529
 
  0.00000000E+00  0.00000000E+00  0.00000000E+00
  0.00000000E+00  0.00000000E+00  0.00000000E+00
  0.00000000E+00  0.00000000E+00  0.00000000E+00
  0.00000000E+00  0.00000000E+00  0.00000000E+00
  0.00000000E+00  0.00000000E+00  0.00000000E+00
  0.00000000E+00  0.00000000E+00  0.00000000E+00
  0.00000000E+00  0.00000000E+00  0.00000000E+00
