Ca4 Al8 Cl32                            
   1.00000000000000     
    -5.8665880472315202    5.8665880472315202    9.8840984480229928
     5.8665880472315202   -5.8665880472315202    9.8840984480229928
     5.8665880472315202    5.8665880472315202   -9.8840984480229928
   Ca   Al   Cl
     4     8    32
Direct
  0.0000000000000000  0.0000000000000000  0.0000000000000000
  0.7500000000000000  0.2500000000000000  0.5000000000000000
  0.2500000000000000  0.7500000000000000  0.5000000000000000
  0.5000000000000000  0.5000000000000000  0.0000000000000000
  0.6008679248198945  0.8750000000000000  0.2258679248198945
  0.1250000000000000  0.8508679248198945  0.2258679248198945
  0.1250000000000000  0.3508679248198945  0.7258679248198945
  0.6491320751801055  0.3750000000000000  0.7741320751801055
  0.6250000000000000  0.8991320751801055  0.7741320751801055
  0.1008679248198945  0.8750000000000000  0.7258679248198945
  0.1491320751801055  0.3750000000000000  0.2741320751801055
  0.6250000000000000  0.3991320751801055  0.2741320751801055
  0.5683171921446331  0.2047388724860326  0.1995786441028287
  0.1187385480418044  0.8183171921446331  0.8635783196586075
  0.7448397716167960  0.8812614519581956  0.6995786441028287
  0.2534052482244320  0.2268657111517172  0.2177456812684539
  0.7534052482244320  0.5356595669559709  0.0265405370727052
  0.7856595669559709  0.5034052482244320  0.5265405370727052
  0.1816828078553669  0.0452611275139674  0.3004213558971713
  0.9547388724860326  0.2551602283832040  0.1364216803413925
  0.5051602283832040  0.7047388724860326  0.6364216803413925
  0.2731342888482828  0.2465947517755680  0.7822543187315461
  0.0091190298832657  0.0356595669559709  0.7822543187315461
  0.9965947517755680  0.7143404330440291  0.4734594629272948
  0.9643404330440291  0.7465947517755680  0.9734594629272948
  0.1312614519581956  0.4948397716167960  0.1995786441028287
  0.2448397716167960  0.5452611275139674  0.8635783196586075
  0.6187385480418044  0.7551602283832040  0.3004213558971713
  0.7408809701167343  0.2143404330440291  0.7177456812684539
  0.2952611275139674  0.9316828078553669  0.8004213558971713
  0.4547388724860326  0.3183171921446331  0.6995786441028287
  0.0051602283832040  0.3687385480418044  0.8004213558971713
  0.2856595669559709  0.7591190298832657  0.2822543187315461
  0.4643404330440291  0.4908809701167343  0.2177456812684539
  0.6312614519581956  0.4316828078553669  0.6364216803413925
  0.6816828078553669  0.3812614519581956  0.1364216803413925
  0.2408809701167343  0.5231342888482828  0.5265405370727052
  0.4965947517755680  0.0231342888482828  0.2822543187315461
  0.0683171921446331  0.8687385480418044  0.3635783196586075
  0.4768657111517172  0.0034052482244320  0.7177456812684539
  0.5091190298832657  0.7268657111517172  0.9734594629272948
  0.9768657111517172  0.2591190298832657  0.4734594629272948
  0.7952611275139674  0.9948397716167960  0.3635783196586075
  0.7731342888482828  0.9908809701167343  0.0265405370727052
 
  0.00000000E+00  0.00000000E+00  0.00000000E+00
  0.00000000E+00  0.00000000E+00  0.00000000E+00
  0.00000000E+00  0.00000000E+00  0.00000000E+00
  0.00000000E+00  0.00000000E+00  0.00000000E+00
  0.00000000E+00  0.00000000E+00  0.00000000E+00
  0.00000000E+00  0.00000000E+00  0.00000000E+00
  0.00000000E+00  0.00000000E+00  0.00000000E+00
  0.00000000E+00  0.00000000E+00  0.00000000E+00
  0.00000000E+00  0.00000000E+00  0.00000000E+00
  0.00000000E+00  0.00000000E+00  0.00000000E+00
  0.00000000E+00  0.00000000E+00  0.00000000E+00
  0.00000000E+00  0.00000000E+00  0.00000000E+00
  0.00000000E+00  0.00000000E+00  0.00000000E+00
  0.00000000E+00  0.00000000E+00  0.00000000E+00
  0.00000000E+00  0.00000000E+00  0.00000000E+00
  0.00000000E+00  0.00000000E+00  0.00000000E+00
  0.00000000E+00  0.00000000E+00  0.00000000E+00
  0.00000000E+00  0.00000000E+00  0.00000000E+00
  0.00000000E+00  0.00000000E+00  0.00000000E+00
  0.00000000E+00  0.00000000E+00  0.00000000E+00
  0.00000000E+00  0.00000000E+00  0.00000000E+00
  0.00000000E+00  0.00000000E+00  0.00000000E+00
  0.00000000E+00  0.00000000E+00  0.00000000E+00
  0.00000000E+00  0.00000000E+00  0.00000000E+00
  0.00000000E+00  0.00000000E+00  0.00000000E+00
  0.00000000E+00  0.00000000E+00  0.00000000E+00
  0.00000000E+00  0.00000000E+00  0.00000000E+00
  0.00000000E+00  0.00000000E+00  0.00000000E+00
  0.00000000E+00  0.00000000E+00  0.00000000E+00
  0.00000000E+00  0.00000000E+00  0.00000000E+00
  0.00000000E+00  0.00000000E+00  0.00000000E+00
  0.00000000E+00  0.00000000E+00  0.00000000E+00
  0.00000000E+00  0.00000000E+00  0.00000000E+00
  0.00000000E+00  0.00000000E+00  0.00000000E+00
  0.00000000E+00  0.00000000E+00  0.00000000E+00
  0.00000000E+00  0.00000000E+00  0.00000000E+00
  0.00000000E+00  0.00000000E+00  0.00000000E+00
  0.00000000E+00  0.00000000E+00  0.00000000E+00
  0.00000000E+00  0.00000000E+00  0.00000000E+00
  0.00000000E+00  0.00000000E+00  0.00000000E+00
  0.00000000E+00  0.00000000E+00  0.00000000E+00
  0.00000000E+00  0.00000000E+00  0.00000000E+00
  0.00000000E+00  0.00000000E+00  0.00000000E+00
  0.00000000E+00  0.00000000E+00  0.00000000E+00
