Be2 Al2 Br10                            
   1.00000000000000     
    11.5336968595149632   -3.7713908785468040   -0.2549732245302820
    -1.1521986900144918   12.0798139245931626   -0.2549742236171296
    -0.8952250447747414   -0.7164558827170465    6.1410349405304920
   Be   Al   Br
     2     2    10
Direct
  0.2731421603481365  0.7268578365419529  0.2500000014631922
  0.7268578396518635  0.2731421634580471  0.7499999985368078
  0.0000000000000000  0.0000000000000000  0.5000000000000000
  0.0000000000000000  0.0000000000000000  0.0000000000000000
  0.0832001746354365  0.1808348590701314  0.8119098947134091
  0.8191651432879681  0.9167988390659261  0.6880900905073233
  0.9167988253645660  0.8191651409298686  0.1880911052865883
  0.1808348567120319  0.0832001609340765  0.3119099094926767
  0.0973565948510497  0.9026434156955361  0.7499999912192976
  0.9026434051489503  0.0973565843044639  0.2500000087807024
  0.3943281389459941  0.8464977824649864  0.1191223422855643
  0.1535022184501500  0.6056718799308030  0.3808776444300719
  0.6056718610540059  0.1535022175350136  0.8808776577144357
  0.8464977815498571  0.3943281200692041  0.6191223555699281
 
  0.00000000E+00  0.00000000E+00  0.00000000E+00
  0.00000000E+00  0.00000000E+00  0.00000000E+00
  0.00000000E+00  0.00000000E+00  0.00000000E+00
  0.00000000E+00  0.00000000E+00  0.00000000E+00
  0.00000000E+00  0.00000000E+00  0.00000000E+00
  0.00000000E+00  0.00000000E+00  0.00000000E+00
  0.00000000E+00  0.00000000E+00  0.00000000E+00
  0.00000000E+00  0.00000000E+00  0.00000000E+00
  0.00000000E+00  0.00000000E+00  0.00000000E+00
  0.00000000E+00  0.00000000E+00  0.00000000E+00
  0.00000000E+00  0.00000000E+00  0.00000000E+00
  0.00000000E+00  0.00000000E+00  0.00000000E+00
  0.00000000E+00  0.00000000E+00  0.00000000E+00
  0.00000000E+00  0.00000000E+00  0.00000000E+00
