Mg2 In2 Br10                            
   1.0000000000000000     
     4.9927337413768429    0.0000000000000001    0.0000000000000002
    -0.0000000000000008   12.2148296023990746    0.0000000000000008
    -0.0000000000000004    0.0000000000000001    9.4573795205266507
   Mg   In   Br
     2     2    10
Direct
  0.0000000000000000  0.0000000000000000  0.5000000000000000
  0.5000000000000000  0.5000000000000000  0.0000000000000000
  0.5000000000000000  0.0000000000000000  0.0000000000000000
  0.0000000000000000  0.5000000000000000  0.5000000000000000
  0.5000000000000000  0.7420190161839955  0.5000000000000000
  0.5000000000000000  0.2579809838160045  0.5000000000000000
  0.5000000000000000  0.0000000000000000  0.6760438227612724
  0.5000000000000000  0.0000000000000000  0.3239561772387276
  0.0000000000000000  0.0000000000000000  0.0000000000000000
  0.0000000000000000  0.2420190161839955  0.0000000000000000
  0.0000000000000000  0.7579809838160045  0.0000000000000000
  0.0000000000000000  0.5000000000000000  0.1760438227612724
  0.0000000000000000  0.5000000000000000  0.8239561772387276
  0.5000000000000000  0.5000000000000000  0.5000000000000000

  0.00000000E+00  0.00000000E+00  0.00000000E+00
  0.00000000E+00  0.00000000E+00  0.00000000E+00
  0.00000000E+00  0.00000000E+00  0.00000000E+00
  0.00000000E+00  0.00000000E+00  0.00000000E+00
  0.00000000E+00  0.00000000E+00  0.00000000E+00
  0.00000000E+00  0.00000000E+00  0.00000000E+00
  0.00000000E+00  0.00000000E+00  0.00000000E+00
  0.00000000E+00  0.00000000E+00  0.00000000E+00
  0.00000000E+00  0.00000000E+00  0.00000000E+00
  0.00000000E+00  0.00000000E+00  0.00000000E+00
  0.00000000E+00  0.00000000E+00  0.00000000E+00
  0.00000000E+00  0.00000000E+00  0.00000000E+00
  0.00000000E+00  0.00000000E+00  0.00000000E+00
  0.00000000E+00  0.00000000E+00  0.00000000E+00
