Ca1 Ga13                                
   1.00000000000000     
     4.9298441992438837   -4.2526501982825149   -0.2077899620708309
     4.9298441992438837    4.2526501982825149   -0.2077899620708309
    -1.1852766453786154    0.0000000000000000    6.7573881709470998
   Ca   Ga
     1    13
Direct
  0.9999744445412944  0.9999744445412944  0.0000125041886605
  0.7619551494124011  0.7619551494124011  0.2452181654382954
  0.5357927783256926  0.1958832997413253  0.0893101921233495
  0.1958832997413253  0.5357927783256926  0.0893101921233495
  0.8885626221090845  0.3622086362347403  0.3430837230621862
  0.3622086362347403  0.8885626221090845  0.3430837230621862
  0.6385055569634304  0.6385055569634304  0.5755139507340985
  0.9999237476947940  0.9999237476947940  0.5000349683463696
  0.3613916004196511  0.3613916004196511  0.4244523448449442
  0.6377088673624627  0.1114656623836368  0.6569638801729312
  0.1114656623836368  0.6377088673624627  0.6569638801729312
  0.8043089625540034  0.4642831488787493  0.9106334519462962
  0.4642831488787493  0.8043089625540034  0.9106334519462962
  0.2379245233787870  0.2379245233787870  0.7547855718381342
 
  0.00000000E+00  0.00000000E+00  0.00000000E+00
  0.00000000E+00  0.00000000E+00  0.00000000E+00
  0.00000000E+00  0.00000000E+00  0.00000000E+00
  0.00000000E+00  0.00000000E+00  0.00000000E+00
  0.00000000E+00  0.00000000E+00  0.00000000E+00
  0.00000000E+00  0.00000000E+00  0.00000000E+00
  0.00000000E+00  0.00000000E+00  0.00000000E+00
  0.00000000E+00  0.00000000E+00  0.00000000E+00
  0.00000000E+00  0.00000000E+00  0.00000000E+00
  0.00000000E+00  0.00000000E+00  0.00000000E+00
  0.00000000E+00  0.00000000E+00  0.00000000E+00
  0.00000000E+00  0.00000000E+00  0.00000000E+00
  0.00000000E+00  0.00000000E+00  0.00000000E+00
  0.00000000E+00  0.00000000E+00  0.00000000E+00
