Ba10 B4 Cl32                            
   1.00000000000000     
     4.7719500597795408   -8.0633908356855510    0.0000000000000000
     4.7719500597795408    8.0633908356855510    0.0000000000000000
     0.0000000000000000    0.0000000000000000   17.3434722471039748
   Ba   B    Cl
    10     4    32
Direct
  0.0000000000000000  0.0000000000000000  0.7104582613550008
  0.0000000000000000  0.0000000000000000  0.2895417386449992
  0.5000000000000000  0.5000000000000000  0.7895417386449992
  0.5000000000000000  0.5000000000000000  0.2104582613550008
  0.5000000000000000  0.5000000000000000  0.5000000000000000
  0.0000000000000000  0.0000000000000000  0.0000000000000000
  0.0000000000000000  0.5000000000000000  0.6265697589538632
  0.5000000000000000  0.0000000000000000  0.3734302410461368
  0.5000000000000000  0.0000000000000000  0.8734302410461368
  0.0000000000000000  0.5000000000000000  0.1265697589538632
  0.5000000000000000  0.0000000000000000  0.6258920266135419
  0.0000000000000000  0.5000000000000000  0.3741079733864581
  0.0000000000000000  0.5000000000000000  0.8741079733864581
  0.5000000000000000  0.0000000000000000  0.1258920266135419
  0.5288679172290855  0.1650546199887160  0.7021322338219562
  0.4711320827709145  0.8349453800112840  0.7021322338219562
  0.1650546199887160  0.5288679172290855  0.2978677661780438
  0.8349453800112840  0.4711320827709145  0.2978677661780438
  0.9711320827709145  0.3349453800112840  0.7978677661780438
  0.0288679172290855  0.6650546199887160  0.7978677661780438
  0.3349453800112840  0.9711320827709145  0.2021322338219562
  0.6650546199887160  0.0288679172290855  0.2021322338219562
  0.1907445791859814  0.8777908974175119  0.6174352892319348
  0.8092554208140186  0.1222091025824952  0.6174352892319348
  0.8777908974175119  0.1907445791859814  0.3825647107680652
  0.1222091025824952  0.8092554208140186  0.3825647107680652
  0.3092554208140186  0.6222091025824881  0.8825647107680652
  0.6907445791859814  0.3777908974175119  0.8825647107680652
  0.6582739198206582  0.0049559339208045  0.0353937369784916
  0.3417260801793418  0.9950440660791955  0.0353937369784916
  0.0049559339208045  0.6582739198206582  0.9646062630215084
  0.9950440660791955  0.3417260801793418  0.9646062630215084
  0.8417260801793418  0.4950440660791955  0.4646062630215084
  0.1582739198206582  0.5049559339208045  0.4646062630215084
  0.4950440660791955  0.8417260801793418  0.5353937369784916
  0.5049559339208045  0.1582739198206582  0.5353937369784916
  0.8657212597903765  0.7616296523014370  0.1466791943532826
  0.1342787402096235  0.2383703476985630  0.1466791943532826
  0.7616296523014370  0.8657212597903765  0.8533208056467174
  0.2383703476985630  0.1342787402096235  0.8533208056467174
  0.6342787402096235  0.7383703476985630  0.3533208056467174
  0.3657212597903765  0.2616296523014370  0.3533208056467174
  0.7383703476985630  0.6342787402096235  0.6466791943532826
  0.2616296523014370  0.3657212597903765  0.6466791943532826
  0.3777908974175119  0.6907445791859814  0.1174352892319348
  0.6222091025824881  0.3092554208140186  0.1174352892319348
 
  0.00000000E+00  0.00000000E+00  0.00000000E+00
  0.00000000E+00  0.00000000E+00  0.00000000E+00
  0.00000000E+00  0.00000000E+00  0.00000000E+00
  0.00000000E+00  0.00000000E+00  0.00000000E+00
  0.00000000E+00  0.00000000E+00  0.00000000E+00
  0.00000000E+00  0.00000000E+00  0.00000000E+00
  0.00000000E+00  0.00000000E+00  0.00000000E+00
  0.00000000E+00  0.00000000E+00  0.00000000E+00
  0.00000000E+00  0.00000000E+00  0.00000000E+00
  0.00000000E+00  0.00000000E+00  0.00000000E+00
  0.00000000E+00  0.00000000E+00  0.00000000E+00
  0.00000000E+00  0.00000000E+00  0.00000000E+00
  0.00000000E+00  0.00000000E+00  0.00000000E+00
  0.00000000E+00  0.00000000E+00  0.00000000E+00
  0.00000000E+00  0.00000000E+00  0.00000000E+00
  0.00000000E+00  0.00000000E+00  0.00000000E+00
  0.00000000E+00  0.00000000E+00  0.00000000E+00
  0.00000000E+00  0.00000000E+00  0.00000000E+00
  0.00000000E+00  0.00000000E+00  0.00000000E+00
  0.00000000E+00  0.00000000E+00  0.00000000E+00
  0.00000000E+00  0.00000000E+00  0.00000000E+00
  0.00000000E+00  0.00000000E+00  0.00000000E+00
  0.00000000E+00  0.00000000E+00  0.00000000E+00
  0.00000000E+00  0.00000000E+00  0.00000000E+00
  0.00000000E+00  0.00000000E+00  0.00000000E+00
  0.00000000E+00  0.00000000E+00  0.00000000E+00
  0.00000000E+00  0.00000000E+00  0.00000000E+00
  0.00000000E+00  0.00000000E+00  0.00000000E+00
  0.00000000E+00  0.00000000E+00  0.00000000E+00
  0.00000000E+00  0.00000000E+00  0.00000000E+00
  0.00000000E+00  0.00000000E+00  0.00000000E+00
  0.00000000E+00  0.00000000E+00  0.00000000E+00
  0.00000000E+00  0.00000000E+00  0.00000000E+00
  0.00000000E+00  0.00000000E+00  0.00000000E+00
  0.00000000E+00  0.00000000E+00  0.00000000E+00
  0.00000000E+00  0.00000000E+00  0.00000000E+00
  0.00000000E+00  0.00000000E+00  0.00000000E+00
  0.00000000E+00  0.00000000E+00  0.00000000E+00
  0.00000000E+00  0.00000000E+00  0.00000000E+00
  0.00000000E+00  0.00000000E+00  0.00000000E+00
  0.00000000E+00  0.00000000E+00  0.00000000E+00
  0.00000000E+00  0.00000000E+00  0.00000000E+00
  0.00000000E+00  0.00000000E+00  0.00000000E+00
  0.00000000E+00  0.00000000E+00  0.00000000E+00
  0.00000000E+00  0.00000000E+00  0.00000000E+00
  0.00000000E+00  0.00000000E+00  0.00000000E+00
