Ba10 Ga4 Cl32                           
   1.00000000000000     
     4.8023137405362109   -8.0998187633733458    0.0000000000000000
     4.8023137405362109    8.0998187633733458    0.0000000000000000
     0.0000000000000000    0.0000000000000000   17.9405523693085023
   Ba   Ga   Cl
    10     4    32
Direct
  0.0000000000000000  0.0000000000000000  0.7156491135068137
  0.0000000000000000  0.0000000000000000  0.2843508864931863
  0.5000000000000000  0.5000000000000000  0.7843508864931863
  0.5000000000000000  0.5000000000000000  0.2156491135068137
  0.5000000000000000  0.5000000000000000  0.5000000000000000
  0.0000000000000000  0.0000000000000000  0.0000000000000000
  0.0000000000000000  0.5000000000000000  0.6359426561311281
  0.5000000000000000  0.0000000000000000  0.3640573438688719
  0.5000000000000000  0.0000000000000000  0.8640573438688719
  0.0000000000000000  0.5000000000000000  0.1359426561311281
  0.5000000000000000  0.0000000000000000  0.6162109478974358
  0.0000000000000000  0.5000000000000000  0.3837890521025642
  0.0000000000000000  0.5000000000000000  0.8837890521025642
  0.5000000000000000  0.0000000000000000  0.1162109478974358
  0.5321567612305032  0.1909863134089207  0.7094718929435686
  0.4678432387694968  0.8090136865910793  0.7094718929435686
  0.1909863134089207  0.5321567612305032  0.2905281070564314
  0.8090136865910793  0.4678432387694968  0.2905281070564314
  0.9678432387694968  0.3090136865910793  0.7905281070564314
  0.0321567612305032  0.6909863134089207  0.7905281070564314
  0.3090136865910793  0.9678432387694968  0.2094718929435686
  0.6909863134089207  0.0321567612305032  0.2094718929435686
  0.2010637666696127  0.8802564566387687  0.6152281737360852
  0.7989362333303873  0.1197435433612313  0.6152281737360852
  0.8802564566387687  0.2010637666696127  0.3847718262639148
  0.1197435433612313  0.7989362333303873  0.3847718262639148
  0.2989362333303873  0.6197435433612313  0.8847718262639148
  0.7010637666696127  0.3802564566387687  0.8847718262639148
  0.6671675234053183  0.9930041261851628  0.0200704716523816
  0.3328324765946817  0.0069958738148372  0.0200704716523816
  0.9930041261851628  0.6671675234053183  0.9799295283476184
  0.0069958738148372  0.3328324765946817  0.9799295283476184
  0.8328324765946817  0.5069958738148372  0.4799295283476184
  0.1671675234053183  0.4930041261851628  0.4799295283476184
  0.5069958738148372  0.8328324765946817  0.5200704716523816
  0.4930041261851628  0.1671675234053183  0.5200704716523816
  0.8590003617443145  0.7590220002721040  0.1477654114012239
  0.1409996382556855  0.2409779997278960  0.1477654114012239
  0.7590220002721040  0.8590003617443145  0.8522345885987761
  0.2409779997278960  0.1409996382556855  0.8522345885987761
  0.6409996382556855  0.7409779997278960  0.3522345885987761
  0.3590003617443145  0.2590220002721040  0.3522345885987761
  0.7409779997278960  0.6409996382556855  0.6477654114012239
  0.2590220002721040  0.3590003617443145  0.6477654114012239
  0.3802564566387687  0.7010637666696127  0.1152281737360852
  0.6197435433612313  0.2989362333303873  0.1152281737360852
 
  0.00000000E+00  0.00000000E+00  0.00000000E+00
  0.00000000E+00  0.00000000E+00  0.00000000E+00
  0.00000000E+00  0.00000000E+00  0.00000000E+00
  0.00000000E+00  0.00000000E+00  0.00000000E+00
  0.00000000E+00  0.00000000E+00  0.00000000E+00
  0.00000000E+00  0.00000000E+00  0.00000000E+00
  0.00000000E+00  0.00000000E+00  0.00000000E+00
  0.00000000E+00  0.00000000E+00  0.00000000E+00
  0.00000000E+00  0.00000000E+00  0.00000000E+00
  0.00000000E+00  0.00000000E+00  0.00000000E+00
  0.00000000E+00  0.00000000E+00  0.00000000E+00
  0.00000000E+00  0.00000000E+00  0.00000000E+00
  0.00000000E+00  0.00000000E+00  0.00000000E+00
  0.00000000E+00  0.00000000E+00  0.00000000E+00
  0.00000000E+00  0.00000000E+00  0.00000000E+00
  0.00000000E+00  0.00000000E+00  0.00000000E+00
  0.00000000E+00  0.00000000E+00  0.00000000E+00
  0.00000000E+00  0.00000000E+00  0.00000000E+00
  0.00000000E+00  0.00000000E+00  0.00000000E+00
  0.00000000E+00  0.00000000E+00  0.00000000E+00
  0.00000000E+00  0.00000000E+00  0.00000000E+00
  0.00000000E+00  0.00000000E+00  0.00000000E+00
  0.00000000E+00  0.00000000E+00  0.00000000E+00
  0.00000000E+00  0.00000000E+00  0.00000000E+00
  0.00000000E+00  0.00000000E+00  0.00000000E+00
  0.00000000E+00  0.00000000E+00  0.00000000E+00
  0.00000000E+00  0.00000000E+00  0.00000000E+00
  0.00000000E+00  0.00000000E+00  0.00000000E+00
  0.00000000E+00  0.00000000E+00  0.00000000E+00
  0.00000000E+00  0.00000000E+00  0.00000000E+00
  0.00000000E+00  0.00000000E+00  0.00000000E+00
  0.00000000E+00  0.00000000E+00  0.00000000E+00
  0.00000000E+00  0.00000000E+00  0.00000000E+00
  0.00000000E+00  0.00000000E+00  0.00000000E+00
  0.00000000E+00  0.00000000E+00  0.00000000E+00
  0.00000000E+00  0.00000000E+00  0.00000000E+00
  0.00000000E+00  0.00000000E+00  0.00000000E+00
  0.00000000E+00  0.00000000E+00  0.00000000E+00
  0.00000000E+00  0.00000000E+00  0.00000000E+00
  0.00000000E+00  0.00000000E+00  0.00000000E+00
  0.00000000E+00  0.00000000E+00  0.00000000E+00
  0.00000000E+00  0.00000000E+00  0.00000000E+00
  0.00000000E+00  0.00000000E+00  0.00000000E+00
  0.00000000E+00  0.00000000E+00  0.00000000E+00
  0.00000000E+00  0.00000000E+00  0.00000000E+00
  0.00000000E+00  0.00000000E+00  0.00000000E+00
