Sr10 Tl4 I32                            
   1.0000000000000000     
     5.9367121718591047   -8.5001294463055892    0.0000000000000000
     5.9367121718591047    8.5001294463055892    0.0000000000000000
     0.0000000000000000    0.0000000000000000   20.6299982774086708
   Sr   Tl   I 
    10     4    32
Direct
  0.0000000000000000  0.0000000000000000  0.7260378437228567
  0.0000000000000000  0.0000000000000000  0.2739621562771433
  0.5000000000000000  0.5000000000000000  0.7739621562771433
  0.5000000000000000  0.5000000000000000  0.2260378437228567
  0.5000000000000000  0.5000000000000000  0.5000000000000000
  0.0000000000000000  0.0000000000000000  0.0000000000000000
  0.0000000000000000  0.5000000000000000  0.6311435879085678
  0.5000000000000000  0.0000000000000000  0.3688564120914322
  0.5000000000000000  0.0000000000000000  0.8688564120914322
  0.0000000000000000  0.5000000000000000  0.1311435879085678
  0.5000000000000000  0.0000000000000000  0.6218135793001451
  0.0000000000000000  0.5000000000000000  0.3781864206998549
  0.0000000000000000  0.5000000000000000  0.8781864206998549
  0.5000000000000000  0.0000000000000000  0.1218135793001451
  0.5453143813085788  0.1991194838291221  0.7312648878920456
  0.4546856186914212  0.8008805161708779  0.7312648878920456
  0.1991194838291293  0.5453143813085788  0.2687351121079615
  0.8008805161708779  0.4546856186914212  0.2687351121079615
  0.9546856186914212  0.3008805161708779  0.7687351121079544
  0.0453143813085788  0.6991194838291221  0.7687351121079544
  0.3008805161708779  0.9546856186914212  0.2312648878920456
  0.6991194838291221  0.0453143813085788  0.2312648878920456
  0.1479328551961387  0.8639459172094845  0.6126954212961380
  0.8520671448038613  0.1360540827905155  0.6126954212961380
  0.8639459172094845  0.1479328551961387  0.3873045787038620
  0.1360540827905155  0.8520671448038613  0.3873045787038620
  0.3520671448038613  0.6360540827905155  0.8873045787038620
  0.6479328551961387  0.3639459172094845  0.8873045787038620
  0.6692415837302548  0.9598476739570359  0.0106283060564891
  0.3307584162697452  0.0401523260429641  0.0106283060564891
  0.9598476739570359  0.6692415837302548  0.9893716939435109
  0.0401523260429641  0.3307584162697452  0.9893716939435109
  0.8307584162697452  0.5401523260429641  0.4893716939435109
  0.1692415837302548  0.4598476739570359  0.4893716939435109
  0.5401523260429641  0.8307584162697452  0.5106283060564962
  0.4598476739570359  0.1692415837302548  0.5106283060564962
  0.8974418323847004  0.7863573434100601  0.1489067079119550
  0.1025581676152996  0.2136426565899399  0.1489067079119550
  0.7863573434100601  0.8974418323847004  0.8510932920880521
  0.2136426565899399  0.1025581676152996  0.8510932920880521
  0.6025581676152996  0.7136426565899399  0.3510932920880450
  0.3974418323847004  0.2863573434100672  0.3510932920880450
  0.7136426565899399  0.6025581676152996  0.6489067079119479
  0.2863573434100672  0.3974418323847004  0.6489067079119479
  0.3639459172094845  0.6479328551961387  0.1126954212961380
  0.6360540827905155  0.3520671448038613  0.1126954212961380

  0.00000000E+00  0.00000000E+00  0.00000000E+00
  0.00000000E+00  0.00000000E+00  0.00000000E+00
  0.00000000E+00  0.00000000E+00  0.00000000E+00
  0.00000000E+00  0.00000000E+00  0.00000000E+00
  0.00000000E+00  0.00000000E+00  0.00000000E+00
  0.00000000E+00  0.00000000E+00  0.00000000E+00
  0.00000000E+00  0.00000000E+00  0.00000000E+00
  0.00000000E+00  0.00000000E+00  0.00000000E+00
  0.00000000E+00  0.00000000E+00  0.00000000E+00
  0.00000000E+00  0.00000000E+00  0.00000000E+00
  0.00000000E+00  0.00000000E+00  0.00000000E+00
  0.00000000E+00  0.00000000E+00  0.00000000E+00
  0.00000000E+00  0.00000000E+00  0.00000000E+00
  0.00000000E+00  0.00000000E+00  0.00000000E+00
  0.00000000E+00  0.00000000E+00  0.00000000E+00
  0.00000000E+00  0.00000000E+00  0.00000000E+00
  0.00000000E+00  0.00000000E+00  0.00000000E+00
  0.00000000E+00  0.00000000E+00  0.00000000E+00
  0.00000000E+00  0.00000000E+00  0.00000000E+00
  0.00000000E+00  0.00000000E+00  0.00000000E+00
  0.00000000E+00  0.00000000E+00  0.00000000E+00
  0.00000000E+00  0.00000000E+00  0.00000000E+00
  0.00000000E+00  0.00000000E+00  0.00000000E+00
  0.00000000E+00  0.00000000E+00  0.00000000E+00
  0.00000000E+00  0.00000000E+00  0.00000000E+00
  0.00000000E+00  0.00000000E+00  0.00000000E+00
  0.00000000E+00  0.00000000E+00  0.00000000E+00
  0.00000000E+00  0.00000000E+00  0.00000000E+00
  0.00000000E+00  0.00000000E+00  0.00000000E+00
  0.00000000E+00  0.00000000E+00  0.00000000E+00
  0.00000000E+00  0.00000000E+00  0.00000000E+00
  0.00000000E+00  0.00000000E+00  0.00000000E+00
  0.00000000E+00  0.00000000E+00  0.00000000E+00
  0.00000000E+00  0.00000000E+00  0.00000000E+00
  0.00000000E+00  0.00000000E+00  0.00000000E+00
  0.00000000E+00  0.00000000E+00  0.00000000E+00
  0.00000000E+00  0.00000000E+00  0.00000000E+00
  0.00000000E+00  0.00000000E+00  0.00000000E+00
  0.00000000E+00  0.00000000E+00  0.00000000E+00
  0.00000000E+00  0.00000000E+00  0.00000000E+00
  0.00000000E+00  0.00000000E+00  0.00000000E+00
  0.00000000E+00  0.00000000E+00  0.00000000E+00
  0.00000000E+00  0.00000000E+00  0.00000000E+00
  0.00000000E+00  0.00000000E+00  0.00000000E+00
  0.00000000E+00  0.00000000E+00  0.00000000E+00
  0.00000000E+00  0.00000000E+00  0.00000000E+00
