Mg21 B40                                
   1.00000000000000     
     7.8384611693948356    0.0263303982152771   -0.4636991298757802
    -3.8934901836793840    6.7746723286599719   -0.4294766458196922
    -0.7695971421361820   -1.2543175444909198   13.3308181399779730
   B    Mg
    40    21
Direct
  0.3233216033969626  0.9998630570337639  0.1349487229087671
  0.9863314528927276  0.3322246084517886  0.1252260974788726
  0.6542667626344354  0.6649600798239987  0.1376180205046751
  0.7988003295653243  0.1528078627183973  0.1898943122467003
  0.3531301893734025  0.2327006214747129  0.1958904363893481
  0.2217270979869568  0.3641457388845382  0.1907170635457121
  0.8803028792163659  0.6809089157114911  0.1945563376362642
  0.1434082544208195  0.8123764850376247  0.1923520638795537
  0.6718088602999970  0.8933209965561630  0.1979842688614539
  0.5447408895286472  0.0195702680651166  0.1864893706479833
  0.4726190974181677  0.4821288766893304  0.1864208486056285
  0.0093230434586502  0.5555986805079769  0.1847938668081355
  0.3585263087871056  0.0474845910939692  0.2644716540570258
  0.0333872865654357  0.3683150248648701  0.2539984612781794
  0.7203727349972198  0.7287010190142666  0.2676792781389210
  0.4922664937397343  0.0898481950472885  0.3853405526295006
  0.0823460785324812  0.4790894373338190  0.3788946822079993
  0.6937155864164168  0.6914080206164428  0.3925220152347251
  0.6677142247861099  0.3151705951502990  0.4480195125152662
  0.9118521231978818  0.4409516312172670  0.4492305786287645
  0.7870444084754666  0.5725986098011120  0.4544199554942239
  0.3019981499993136  0.6590424373005774  0.4433642487637641
  0.5583006298991151  0.7592058296307513  0.4569360998347491
  0.4559011324404239  0.9067247497493653  0.4493141732543009
  0.1480470533206812  0.1167785430450863  0.5189246066679445
  0.8241542253954037  0.4751429588700802  0.5599060832028115
  0.4517535474089058  0.7989763759199704  0.5593046120042544
  0.8540620167864859  0.8794250812007220  0.7913469327655278
  0.5633168098949781  0.0309501101739045  0.8884267608346050
  0.3336127692533566  0.2337703653987688  0.8728408206769700
  0.7650314226128003  0.4571682143624471  0.8720633024254454
  0.2115942371101696  0.3548275464591057  0.8722696590915007
  0.0120521888362575  0.5872252065803920  0.8854426534805810
  0.4422312854859385  0.7870764377709563  0.8812983722479970
  0.6821644220480820  0.9019723754338571  0.8673242031885522
  0.0818603701188678  0.1043271440025819  0.8632784851116497
  0.8769911314327885  0.6951813622989178  0.8531946166085831
  0.9067199506364290  0.9236631165107596  0.9193041102798603
  0.5531568943908312  0.2397889336615791  0.8738647616316229
  0.2211429302113999  0.5758355979030014  0.8760808920891279
  0.7064800357073935  0.9373431227723117  0.0351566636488201
  0.1946248543419102  0.1894684763755663  0.0324325973635879
  0.9383252239911712  0.7202763974818822  0.0306300086647155
  0.6200680404765535  0.2881204276432712  0.0649070663197762
  0.2909788475044621  0.6437713682109489  0.0645648923701074
  0.0200440808473701  0.0378501514727390  0.2234382951078615
  0.7213167575024357  0.3869724152636991  0.2832486637393572
  0.3866313512434374  0.7225058722543309  0.2826188180780989
  0.0917451753754364  0.8346527144679925  0.3758285341282743
  0.8300075336357793  0.0780421425919187  0.4336593946705847
  0.3656455225548285  0.3533821530266152  0.3878882628950748
  0.1341606820367360  0.7897624068530860  0.5797190829234466
  0.5939149064091183  0.9754389742309115  0.7193908970993803
  0.0885202599506343  0.1307482667232023  0.6934321874255289
  0.9189289063328374  0.4467211714568151  0.7199302301893340
  0.4794729770251465  0.1908148478656528  0.5709355108452456
  0.2020504727404813  0.4469244232362755  0.5644020356691399
  0.7137481386108107  0.7032764168015575  0.6165880887631374
  0.2248204758981274  0.8992521254139234  0.8561796823336820
  0.9021459911680267  0.2676372969487630  0.9148659326385982
  0.5252728936747673  0.5457831275414904  0.8359016612686503
 
  0.00000000E+00  0.00000000E+00  0.00000000E+00
  0.00000000E+00  0.00000000E+00  0.00000000E+00
  0.00000000E+00  0.00000000E+00  0.00000000E+00
  0.00000000E+00  0.00000000E+00  0.00000000E+00
  0.00000000E+00  0.00000000E+00  0.00000000E+00
  0.00000000E+00  0.00000000E+00  0.00000000E+00
  0.00000000E+00  0.00000000E+00  0.00000000E+00
  0.00000000E+00  0.00000000E+00  0.00000000E+00
  0.00000000E+00  0.00000000E+00  0.00000000E+00
  0.00000000E+00  0.00000000E+00  0.00000000E+00
  0.00000000E+00  0.00000000E+00  0.00000000E+00
  0.00000000E+00  0.00000000E+00  0.00000000E+00
  0.00000000E+00  0.00000000E+00  0.00000000E+00
  0.00000000E+00  0.00000000E+00  0.00000000E+00
  0.00000000E+00  0.00000000E+00  0.00000000E+00
  0.00000000E+00  0.00000000E+00  0.00000000E+00
  0.00000000E+00  0.00000000E+00  0.00000000E+00
  0.00000000E+00  0.00000000E+00  0.00000000E+00
  0.00000000E+00  0.00000000E+00  0.00000000E+00
  0.00000000E+00  0.00000000E+00  0.00000000E+00
  0.00000000E+00  0.00000000E+00  0.00000000E+00
  0.00000000E+00  0.00000000E+00  0.00000000E+00
  0.00000000E+00  0.00000000E+00  0.00000000E+00
  0.00000000E+00  0.00000000E+00  0.00000000E+00
  0.00000000E+00  0.00000000E+00  0.00000000E+00
  0.00000000E+00  0.00000000E+00  0.00000000E+00
  0.00000000E+00  0.00000000E+00  0.00000000E+00
  0.00000000E+00  0.00000000E+00  0.00000000E+00
  0.00000000E+00  0.00000000E+00  0.00000000E+00
  0.00000000E+00  0.00000000E+00  0.00000000E+00
  0.00000000E+00  0.00000000E+00  0.00000000E+00
  0.00000000E+00  0.00000000E+00  0.00000000E+00
  0.00000000E+00  0.00000000E+00  0.00000000E+00
  0.00000000E+00  0.00000000E+00  0.00000000E+00
  0.00000000E+00  0.00000000E+00  0.00000000E+00
  0.00000000E+00  0.00000000E+00  0.00000000E+00
  0.00000000E+00  0.00000000E+00  0.00000000E+00
  0.00000000E+00  0.00000000E+00  0.00000000E+00
  0.00000000E+00  0.00000000E+00  0.00000000E+00
  0.00000000E+00  0.00000000E+00  0.00000000E+00
  0.00000000E+00  0.00000000E+00  0.00000000E+00
  0.00000000E+00  0.00000000E+00  0.00000000E+00
  0.00000000E+00  0.00000000E+00  0.00000000E+00
  0.00000000E+00  0.00000000E+00  0.00000000E+00
  0.00000000E+00  0.00000000E+00  0.00000000E+00
  0.00000000E+00  0.00000000E+00  0.00000000E+00
  0.00000000E+00  0.00000000E+00  0.00000000E+00
  0.00000000E+00  0.00000000E+00  0.00000000E+00
  0.00000000E+00  0.00000000E+00  0.00000000E+00
  0.00000000E+00  0.00000000E+00  0.00000000E+00
  0.00000000E+00  0.00000000E+00  0.00000000E+00
  0.00000000E+00  0.00000000E+00  0.00000000E+00
  0.00000000E+00  0.00000000E+00  0.00000000E+00
  0.00000000E+00  0.00000000E+00  0.00000000E+00
  0.00000000E+00  0.00000000E+00  0.00000000E+00
  0.00000000E+00  0.00000000E+00  0.00000000E+00
  0.00000000E+00  0.00000000E+00  0.00000000E+00
  0.00000000E+00  0.00000000E+00  0.00000000E+00
  0.00000000E+00  0.00000000E+00  0.00000000E+00
  0.00000000E+00  0.00000000E+00  0.00000000E+00
  0.00000000E+00  0.00000000E+00  0.00000000E+00
