Sr8 B50                                 
   1.00000000000000     
    10.9041628990004185    0.0000000000000000    0.0000000000000000
     0.0000000000000000    5.8478511361312968    0.0523884537098013
     0.0000000000000000    5.8779420626284971   10.0900553117337548
   Sr   B 
     8    50
Direct
  0.6351300661718966  0.0705853349016721  0.4490061968701724
  0.3648699338281034  0.0705853349016721  0.9490061968701724
  0.1549169123391749  0.3664227388963539  0.6321022633813485
  0.8450830876608251  0.3664227388963539  0.1321022633813485
  0.3648699338281034  0.9294146650983279  0.5509938031298276
  0.6351300661718966  0.9294146650983279  0.0509938031298276
  0.8450830876608251  0.6335772611036461  0.3678977366186515
  0.1549169123391749  0.6335772611036461  0.8678977366186515
  0.7360971124337397  0.5354207668423285  0.6033341398389709
  0.2639028875662603  0.5354207668423285  0.1033341398389709
  0.1550878056164535  0.2338371054999371  0.4293583287408183
  0.8449121943835465  0.2338371054999371  0.9293583287408183
  0.2639028875662603  0.4645792331576715  0.3966658601610291
  0.7360971124337397  0.4645792331576715  0.8966658601610291
  0.8449121943835465  0.7661628945000629  0.5706416712591817
  0.1550878056164535  0.7661628945000629  0.0706416712591817
  0.0091970576403924  0.9622399559266768  0.1854820648414233
  0.6078176287305226  0.8389847268044832  0.8227945529820744
  0.9908029423596076  0.9622399559266768  0.6854820648414162
  0.3921823712694774  0.8389847268044832  0.3227945529820815
  0.9908029423596076  0.0377600440733232  0.8145179351585838
  0.3921823712694774  0.1610152731955168  0.1772054470179185
  0.0091970576403924  0.0377600440733232  0.3145179351585838
  0.6078176287305226  0.1610152731955168  0.6772054470179256
  0.5372207018683071  0.6700338343114467  0.3686775609903989
  0.4627792981316929  0.6700338343114467  0.8686775609903989
  0.1113204625676403  0.9193000081187677  0.5824426060834753
  0.8886795374323597  0.9193000081187677  0.0824426060834753
  0.4627792981316929  0.3299661656885533  0.6313224390096011
  0.5372207018683071  0.3299661656885533  0.1313224390096011
  0.8886795374323597  0.0806999918812323  0.4175573939165247
  0.1113204625676403  0.0806999918812323  0.9175573939165247
  0.5767036113207951  0.4836445125765181  0.6820275521092825
  0.4232963886792049  0.4836445125765181  0.1820275521092825
  0.0428282088498904  0.3356231970230752  0.3054650740569400
  0.9571717911501096  0.3356231970230752  0.8054650740569400
  0.4232963886792049  0.5163554874234819  0.3179724478907175
  0.5767036113207951  0.5163554874234819  0.8179724478907175
  0.9571717911501096  0.6643768029769248  0.6945349259430600
  0.0428282088498904  0.6643768029769248  0.1945349259430600
  0.1495905144206802  0.0899673133769952  0.0650722068157918
  0.7403416072272933  0.7404426437447142  0.9037590693513664
  0.8504094855793198  0.0899673133769952  0.5650722068157918
  0.2596583927727067  0.7404426437447142  0.4037590693513664
  0.8504094855793198  0.9100326866230048  0.9349277931842082
  0.2596583927727067  0.2595573562552786  0.0962409306486336
  0.1495905144206802  0.9100326866230048  0.4349277931842082
  0.7403416072272933  0.2595573562552786  0.5962409306486336
  0.3946129463401675  0.5009788908657811  0.4734391360298886
  0.6053870536598325  0.5009788908657811  0.9734391360298957
  0.0022481481903185  0.1569705832316757  0.5009634987243174
  0.9977518518096886  0.1569705832316757  0.0009634987243174
  0.6053870536598325  0.4990211091342189  0.5265608639701114
  0.3946129463401675  0.4990211091342189  0.0265608639701114
  0.9977518518096886  0.8430294167683243  0.4990365012756826
  0.0022481481903185  0.8430294167683243  0.9990365012756826
  0.5241045003289315  0.0000000000000000  0.2500000000000000
  0.4758954996710756  0.0000000000000000  0.7500000000000000
 
  0.00000000E+00  0.00000000E+00  0.00000000E+00
  0.00000000E+00  0.00000000E+00  0.00000000E+00
  0.00000000E+00  0.00000000E+00  0.00000000E+00
  0.00000000E+00  0.00000000E+00  0.00000000E+00
  0.00000000E+00  0.00000000E+00  0.00000000E+00
  0.00000000E+00  0.00000000E+00  0.00000000E+00
  0.00000000E+00  0.00000000E+00  0.00000000E+00
  0.00000000E+00  0.00000000E+00  0.00000000E+00
  0.00000000E+00  0.00000000E+00  0.00000000E+00
  0.00000000E+00  0.00000000E+00  0.00000000E+00
  0.00000000E+00  0.00000000E+00  0.00000000E+00
  0.00000000E+00  0.00000000E+00  0.00000000E+00
  0.00000000E+00  0.00000000E+00  0.00000000E+00
  0.00000000E+00  0.00000000E+00  0.00000000E+00
  0.00000000E+00  0.00000000E+00  0.00000000E+00
  0.00000000E+00  0.00000000E+00  0.00000000E+00
  0.00000000E+00  0.00000000E+00  0.00000000E+00
  0.00000000E+00  0.00000000E+00  0.00000000E+00
  0.00000000E+00  0.00000000E+00  0.00000000E+00
  0.00000000E+00  0.00000000E+00  0.00000000E+00
  0.00000000E+00  0.00000000E+00  0.00000000E+00
  0.00000000E+00  0.00000000E+00  0.00000000E+00
  0.00000000E+00  0.00000000E+00  0.00000000E+00
  0.00000000E+00  0.00000000E+00  0.00000000E+00
  0.00000000E+00  0.00000000E+00  0.00000000E+00
  0.00000000E+00  0.00000000E+00  0.00000000E+00
  0.00000000E+00  0.00000000E+00  0.00000000E+00
  0.00000000E+00  0.00000000E+00  0.00000000E+00
  0.00000000E+00  0.00000000E+00  0.00000000E+00
  0.00000000E+00  0.00000000E+00  0.00000000E+00
  0.00000000E+00  0.00000000E+00  0.00000000E+00
  0.00000000E+00  0.00000000E+00  0.00000000E+00
  0.00000000E+00  0.00000000E+00  0.00000000E+00
  0.00000000E+00  0.00000000E+00  0.00000000E+00
  0.00000000E+00  0.00000000E+00  0.00000000E+00
  0.00000000E+00  0.00000000E+00  0.00000000E+00
  0.00000000E+00  0.00000000E+00  0.00000000E+00
  0.00000000E+00  0.00000000E+00  0.00000000E+00
  0.00000000E+00  0.00000000E+00  0.00000000E+00
  0.00000000E+00  0.00000000E+00  0.00000000E+00
  0.00000000E+00  0.00000000E+00  0.00000000E+00
  0.00000000E+00  0.00000000E+00  0.00000000E+00
  0.00000000E+00  0.00000000E+00  0.00000000E+00
  0.00000000E+00  0.00000000E+00  0.00000000E+00
  0.00000000E+00  0.00000000E+00  0.00000000E+00
  0.00000000E+00  0.00000000E+00  0.00000000E+00
  0.00000000E+00  0.00000000E+00  0.00000000E+00
  0.00000000E+00  0.00000000E+00  0.00000000E+00
  0.00000000E+00  0.00000000E+00  0.00000000E+00
  0.00000000E+00  0.00000000E+00  0.00000000E+00
  0.00000000E+00  0.00000000E+00  0.00000000E+00
  0.00000000E+00  0.00000000E+00  0.00000000E+00
  0.00000000E+00  0.00000000E+00  0.00000000E+00
  0.00000000E+00  0.00000000E+00  0.00000000E+00
  0.00000000E+00  0.00000000E+00  0.00000000E+00
  0.00000000E+00  0.00000000E+00  0.00000000E+00
  0.00000000E+00  0.00000000E+00  0.00000000E+00
  0.00000000E+00  0.00000000E+00  0.00000000E+00
