Ca4 Tl4 I20                             
   1.0000000000000000     
    21.6194065307719114    0.0000000000000000    0.0000000000000000
     0.0000000000000000    6.0234263848557648   -1.4043607139516385
     0.0000000000000000   -0.4800150545976934   10.7612634092808221
   Ca   Tl   I 
     4     4    20
Direct
  0.9183195600472800  0.5408442419196717  0.2500895134415018
  0.4183195600472871  0.4591557580803283  0.2499104865584982
  0.0816804399527200  0.4591557580803283  0.7499104865585053
  0.5816804399527200  0.5408442419196717  0.7500895134414947
  0.7915637447162425  0.2498006180949943  0.4664901925666598
  0.2915637447162425  0.7501993819050057  0.0335098074333402
  0.2084362552837575  0.7501993819050057  0.5335098074333402
  0.7084362552837575  0.2498006180949943  0.9664901925666598
  0.4242692170983702  0.7711217537391732  0.5378022772431024
  0.9242692170983631  0.2288782462608268  0.9621977227568976
  0.5757307829016369  0.2288782462608268  0.4621977227568976
  0.0757307829016369  0.7711217537391732  0.0378022772431024
  0.9199959560681563  0.0465819796528422  0.2642462259288507
  0.4199959560681563  0.9534180203471649  0.2357537740711564
  0.0800040439318437  0.9534180203471649  0.7357537740711493
  0.5800040439318437  0.0465819796528422  0.7642462259288507
  0.7247865297493021  0.5611199073855531  0.7567150918913583
  0.2247865297493021  0.4388800926144469  0.7432849081086417
  0.2752134702506979  0.4388800926144469  0.2432849081086417
  0.7752134702506979  0.5611199073855531  0.2567150918913583
  0.4249371540471145  0.5419189325311677  0.7405328121772641
  0.9249371540471145  0.4580810674688323  0.7594671878227359
  0.5750628459528855  0.4580810674688323  0.2594671878227359
  0.0750628459528855  0.5419189325311677  0.2405328121772570
  0.5954786676934845  0.7050738456551926  0.0540542442138516
  0.0954786676934773  0.2949261543448074  0.4459457557861484
  0.4045213323065227  0.2949261543448074  0.9459457557861484
  0.9045213323065155  0.7050738456551926  0.5540542442138516

  0.00000000E+00  0.00000000E+00  0.00000000E+00
  0.00000000E+00  0.00000000E+00  0.00000000E+00
  0.00000000E+00  0.00000000E+00  0.00000000E+00
  0.00000000E+00  0.00000000E+00  0.00000000E+00
  0.00000000E+00  0.00000000E+00  0.00000000E+00
  0.00000000E+00  0.00000000E+00  0.00000000E+00
  0.00000000E+00  0.00000000E+00  0.00000000E+00
  0.00000000E+00  0.00000000E+00  0.00000000E+00
  0.00000000E+00  0.00000000E+00  0.00000000E+00
  0.00000000E+00  0.00000000E+00  0.00000000E+00
  0.00000000E+00  0.00000000E+00  0.00000000E+00
  0.00000000E+00  0.00000000E+00  0.00000000E+00
  0.00000000E+00  0.00000000E+00  0.00000000E+00
  0.00000000E+00  0.00000000E+00  0.00000000E+00
  0.00000000E+00  0.00000000E+00  0.00000000E+00
  0.00000000E+00  0.00000000E+00  0.00000000E+00
  0.00000000E+00  0.00000000E+00  0.00000000E+00
  0.00000000E+00  0.00000000E+00  0.00000000E+00
  0.00000000E+00  0.00000000E+00  0.00000000E+00
  0.00000000E+00  0.00000000E+00  0.00000000E+00
  0.00000000E+00  0.00000000E+00  0.00000000E+00
  0.00000000E+00  0.00000000E+00  0.00000000E+00
  0.00000000E+00  0.00000000E+00  0.00000000E+00
  0.00000000E+00  0.00000000E+00  0.00000000E+00
  0.00000000E+00  0.00000000E+00  0.00000000E+00
  0.00000000E+00  0.00000000E+00  0.00000000E+00
  0.00000000E+00  0.00000000E+00  0.00000000E+00
  0.00000000E+00  0.00000000E+00  0.00000000E+00
