Ba1 B2 Cl10                             
   1.00000000000000     
     4.5980717456314508    6.3614145681883967    0.1728446958423260
    -4.5980717456314508    6.3614145681883967    0.1728446958423260
     0.0000000000000000    5.0412086568818664    7.7614479127657674
   Ba   B    Cl
     1     2    10
Direct
  0.3742244098917453  0.6257755901082547  0.0000000000000000
  0.0645659343341194  0.7927571928421031  0.7209227193111332
  0.2072428071578969  0.9354340656658806  0.2790772806888668
  0.1631112903494483  0.9655074652627462  0.7363114402080342
  0.0344925347372538  0.8368887096505517  0.2636885597919658
  0.8272779926681082  0.8791648569538495  0.7101010217765023
  0.1208351430461505  0.1727220073318918  0.2898989782234977
  0.6862543639009502  0.3137456360990498  0.0000000000000000
  0.2540949368133170  0.7459050631866901  0.5000000000000000
  0.6926595962310529  0.4108012740508968  0.7205081454031088
  0.5891987259491032  0.3073404037689471  0.2794918545968912
  0.0805593831175244  0.5505181181966776  0.8922230683755501
  0.4494818818033224  0.9194406168824756  0.1077769316244499
 
  0.00000000E+00  0.00000000E+00  0.00000000E+00
  0.00000000E+00  0.00000000E+00  0.00000000E+00
  0.00000000E+00  0.00000000E+00  0.00000000E+00
  0.00000000E+00  0.00000000E+00  0.00000000E+00
  0.00000000E+00  0.00000000E+00  0.00000000E+00
  0.00000000E+00  0.00000000E+00  0.00000000E+00
  0.00000000E+00  0.00000000E+00  0.00000000E+00
  0.00000000E+00  0.00000000E+00  0.00000000E+00
  0.00000000E+00  0.00000000E+00  0.00000000E+00
  0.00000000E+00  0.00000000E+00  0.00000000E+00
  0.00000000E+00  0.00000000E+00  0.00000000E+00
  0.00000000E+00  0.00000000E+00  0.00000000E+00
  0.00000000E+00  0.00000000E+00  0.00000000E+00
