CaGa3                                   
   1.00000000000000     
     6.7274909151849815    0.0022410443012141    0.0000000000000000
    -3.3623298961794355    5.8271216420991214    0.0000000000000000
     0.0000000000000000    0.0000000000000000    4.3682841968219570
   Ca   Ga
     2     6
Direct
  0.3332226928178557  0.6667104230282277  0.7500000000000000
  0.6667773071821443  0.3332895769717723  0.2500000000000000
  0.1466764200531046  0.2903017391777212  0.2500000000000000
  0.7096094730100830  0.8533506050263995  0.2500000000000000
  0.1446489918181442  0.8554111723635600  0.2500000000000000
  0.8533235799468954  0.7096982608222788  0.7500000000000000
  0.2903905269899170  0.1466493949736005  0.7500000000000000
  0.8553510081818558  0.1445888276364400  0.7500000000000000
 
  0.00000000E+00  0.00000000E+00  0.00000000E+00
  0.00000000E+00  0.00000000E+00  0.00000000E+00
  0.00000000E+00  0.00000000E+00  0.00000000E+00
  0.00000000E+00  0.00000000E+00  0.00000000E+00
  0.00000000E+00  0.00000000E+00  0.00000000E+00
  0.00000000E+00  0.00000000E+00  0.00000000E+00
  0.00000000E+00  0.00000000E+00  0.00000000E+00
  0.00000000E+00  0.00000000E+00  0.00000000E+00
