Ga1                                     
   1.00000000000000     
     2.5328778471857363    0.0000000435648245   -1.3499338912782985
    -0.7194650864061517    2.4285469217966456   -1.3499338916299879
     0.0026200860125444    0.0035089118139899    3.0561009925506020
   Ga
     1
Direct
  0.0000000000000000  0.0000000000000000  0.0000000000000000
 
  0.00000000E+00  0.00000000E+00  0.00000000E+00
