Mg8 B50                                 
   1.00000000000000     
     9.6905628150969871    0.0000000000000000    0.0000000000000000
     0.0000000000000000    5.1568399203747761    0.2262669597134294
     0.0000000000000000    5.5044840599632439   10.0664373620655745
   Mg   B 
     8    50
Direct
  0.6694845510957634  0.1646384183155050  0.3711066029009302
  0.3305154489042366  0.1646384183155050  0.8711066029009302
  0.1594788287456907  0.3181132336435937  0.6592535467470881
  0.8405211712543093  0.3181132336435937  0.1592535467470881
  0.3305154489042366  0.8353615816844950  0.6288933970990698
  0.6694845510957634  0.8353615816844950  0.1288933970990698
  0.8405211712543093  0.6818867663564063  0.3407464532529119
  0.1594788287456907  0.6818867663564063  0.8407464532529119
  0.6723725561418732  0.5825289460533796  0.5706704974753478
  0.3276274438581268  0.5825289460533796  0.0706704974753478
  0.1663143303844379  0.2325494479529695  0.4367157522967133
  0.8336856696155621  0.2325494479529695  0.9367157522967133
  0.3276274438581268  0.4174710539466204  0.4293295025246522
  0.6723725561418732  0.4174710539466204  0.9293295025246522
  0.8336856696155621  0.7674505520470305  0.5632842477032867
  0.1663143303844379  0.7674505520470305  0.0632842477032867
  0.0594376821031446  0.9938307429188526  0.1660349299544350
  0.5892170995165031  0.8085079440526215  0.8273336781000609
  0.9405623178968483  0.9938307429188526  0.6660349299544350
  0.4107829004834969  0.8085079440526215  0.3273336781000609
  0.9405623178968483  0.0061692570811474  0.8339650700455650
  0.4107829004834969  0.1914920559473785  0.1726663218999391
  0.0594376821031446  0.0061692570811474  0.3339650700455650
  0.5892170995165031  0.1914920559473785  0.6726663218999391
  0.5932796265272842  0.6992319773499460  0.3980415070610945
  0.4067203734727158  0.6992319773499460  0.8980415070610945
  0.1060689212067558  0.9607003354006736  0.6044434791379629
  0.8939310787932442  0.9607003354006736  0.1044434791379629
  0.4067203734727158  0.3007680226500540  0.6019584929389055
  0.5932796265272842  0.3007680226500540  0.1019584929389055
  0.8939310787932442  0.0392996645993264  0.3955565208620371
  0.1060689212067558  0.0392996645993264  0.8955565208620371
  0.5303990987498608  0.5020135750468455  0.6771385692634624
  0.4696009012501463  0.5020135750468455  0.1771385692634624
  0.0166060946557138  0.3441262607441331  0.3304030150221635
  0.9833939053442862  0.3441262607441331  0.8304030150221635
  0.4696009012501463  0.4979864249531545  0.3228614307365376
  0.5303990987498608  0.4979864249531545  0.8228614307365376
  0.9833939053442862  0.6558737392558669  0.6695969849778365
  0.0166060946557138  0.6558737392558669  0.1695969849778365
  0.1657867739896233  0.1547040122570280  0.0201004671924778
  0.6756125371746862  0.6762810812023261  0.9831530982014343
  0.8342132260103767  0.1547040122570280  0.5201004671924778
  0.3243874628253138  0.6762810812023261  0.4831530982014343
  0.8342132260103767  0.8452959877429720  0.9798995328075222
  0.3243874628253138  0.3237189187976739  0.0168469017985657
  0.1657867739896233  0.8452959877429720  0.4798995328075222
  0.6756125371746862  0.3237189187976739  0.5168469017985728
  0.5017267195082979  0.8086709536206271  0.5110623034062414
  0.4982732804917021  0.8086709536206271  0.0110623034062414
  0.0036037702228526  0.3245249885999328  0.4994689246731738
  0.9963962297771474  0.3245249885999328  0.9994689246731738
  0.4982732804917021  0.1913290463793729  0.4889376965937586
  0.5017267195082979  0.1913290463793729  0.9889376965937586
  0.9963962297771474  0.6754750114000672  0.5005310753268262
  0.0036037702228526  0.6754750114000672  0.0005310753268262
  0.5782568384818276  0.0000000000000000  0.2500000000000000
  0.4217431615181724  0.0000000000000000  0.7500000000000000
 
  0.00000000E+00  0.00000000E+00  0.00000000E+00
  0.00000000E+00  0.00000000E+00  0.00000000E+00
  0.00000000E+00  0.00000000E+00  0.00000000E+00
  0.00000000E+00  0.00000000E+00  0.00000000E+00
  0.00000000E+00  0.00000000E+00  0.00000000E+00
  0.00000000E+00  0.00000000E+00  0.00000000E+00
  0.00000000E+00  0.00000000E+00  0.00000000E+00
  0.00000000E+00  0.00000000E+00  0.00000000E+00
  0.00000000E+00  0.00000000E+00  0.00000000E+00
  0.00000000E+00  0.00000000E+00  0.00000000E+00
  0.00000000E+00  0.00000000E+00  0.00000000E+00
  0.00000000E+00  0.00000000E+00  0.00000000E+00
  0.00000000E+00  0.00000000E+00  0.00000000E+00
  0.00000000E+00  0.00000000E+00  0.00000000E+00
  0.00000000E+00  0.00000000E+00  0.00000000E+00
  0.00000000E+00  0.00000000E+00  0.00000000E+00
  0.00000000E+00  0.00000000E+00  0.00000000E+00
  0.00000000E+00  0.00000000E+00  0.00000000E+00
  0.00000000E+00  0.00000000E+00  0.00000000E+00
  0.00000000E+00  0.00000000E+00  0.00000000E+00
  0.00000000E+00  0.00000000E+00  0.00000000E+00
  0.00000000E+00  0.00000000E+00  0.00000000E+00
  0.00000000E+00  0.00000000E+00  0.00000000E+00
  0.00000000E+00  0.00000000E+00  0.00000000E+00
  0.00000000E+00  0.00000000E+00  0.00000000E+00
  0.00000000E+00  0.00000000E+00  0.00000000E+00
  0.00000000E+00  0.00000000E+00  0.00000000E+00
  0.00000000E+00  0.00000000E+00  0.00000000E+00
  0.00000000E+00  0.00000000E+00  0.00000000E+00
  0.00000000E+00  0.00000000E+00  0.00000000E+00
  0.00000000E+00  0.00000000E+00  0.00000000E+00
  0.00000000E+00  0.00000000E+00  0.00000000E+00
  0.00000000E+00  0.00000000E+00  0.00000000E+00
  0.00000000E+00  0.00000000E+00  0.00000000E+00
  0.00000000E+00  0.00000000E+00  0.00000000E+00
  0.00000000E+00  0.00000000E+00  0.00000000E+00
  0.00000000E+00  0.00000000E+00  0.00000000E+00
  0.00000000E+00  0.00000000E+00  0.00000000E+00
  0.00000000E+00  0.00000000E+00  0.00000000E+00
  0.00000000E+00  0.00000000E+00  0.00000000E+00
  0.00000000E+00  0.00000000E+00  0.00000000E+00
  0.00000000E+00  0.00000000E+00  0.00000000E+00
  0.00000000E+00  0.00000000E+00  0.00000000E+00
  0.00000000E+00  0.00000000E+00  0.00000000E+00
  0.00000000E+00  0.00000000E+00  0.00000000E+00
  0.00000000E+00  0.00000000E+00  0.00000000E+00
  0.00000000E+00  0.00000000E+00  0.00000000E+00
  0.00000000E+00  0.00000000E+00  0.00000000E+00
  0.00000000E+00  0.00000000E+00  0.00000000E+00
  0.00000000E+00  0.00000000E+00  0.00000000E+00
  0.00000000E+00  0.00000000E+00  0.00000000E+00
  0.00000000E+00  0.00000000E+00  0.00000000E+00
  0.00000000E+00  0.00000000E+00  0.00000000E+00
  0.00000000E+00  0.00000000E+00  0.00000000E+00
  0.00000000E+00  0.00000000E+00  0.00000000E+00
  0.00000000E+00  0.00000000E+00  0.00000000E+00
  0.00000000E+00  0.00000000E+00  0.00000000E+00
  0.00000000E+00  0.00000000E+00  0.00000000E+00
