Mg4 B4 F20                              
   1.0000000000000000     
    10.3674349244694124    0.0000000000000000    0.0000000000000000
     0.0000000000000000    4.4422631234351204   -0.1433058716886765
     0.0000000000000000    2.0250402208820502    6.4547672696822511
   Mg   B    F 
     4     4    20
Direct
  0.9365695028702063  0.3967429850893964  0.1879703216129727
  0.4365695028702063  0.6032570149106036  0.3120296783870273
  0.0634304971297937  0.6032570149106036  0.8120296783870273
  0.5634304971297937  0.3967429850893964  0.6879703216129727
  0.8323649046562025  0.7872972173739541  0.5022639902046109
  0.3323649046562025  0.2127027826260459  0.9977360097953891
  0.1676350953437975  0.2127027826260459  0.4977360097953820
  0.6676350953437975  0.7872972173739541  0.0022639902046109
  0.5624013611499592  0.2946668778205463  0.4309627272682377
  0.0624013611499592  0.7053331221794608  0.0690372727317623
  0.4375986388500408  0.7053331221794608  0.5690372727317623
  0.9375986388500408  0.2946668778205463  0.9309627272682377
  0.8200478782469389  0.0500996667635860  0.3322515310922256
  0.3200478782469460  0.9499003332364140  0.1677484689077744
  0.1799521217530540  0.9499003332364140  0.6677484689077744
  0.6799521217530611  0.0500996667635860  0.8322515310922256
  0.4127600380078391  0.1365693175661349  0.8496433502253495
  0.9127600380078320  0.8634306824338651  0.6503566497746505
  0.5872399619921680  0.8634306824338651  0.1503566497746505
  0.0872399619921609  0.1365693175661349  0.3496433502253495
  0.7109205637006042  0.6973069041578270  0.5824754882726708
  0.2109205637006042  0.3026930958421730  0.9175245117273292
  0.2890794362993958  0.3026930958421730  0.4175245117273292
  0.7890794362993958  0.6973069041578270  0.0824754882726708
  0.3879493253261543  0.4613883208778660  0.0591075536187873
  0.8879493253261543  0.5386116791221340  0.4408924463812127
  0.6120506746738457  0.5386116791221340  0.9408924463812127
  0.1120506746738457  0.4613883208778660  0.5591075536187873

  0.00000000E+00  0.00000000E+00  0.00000000E+00
  0.00000000E+00  0.00000000E+00  0.00000000E+00
  0.00000000E+00  0.00000000E+00  0.00000000E+00
  0.00000000E+00  0.00000000E+00  0.00000000E+00
  0.00000000E+00  0.00000000E+00  0.00000000E+00
  0.00000000E+00  0.00000000E+00  0.00000000E+00
  0.00000000E+00  0.00000000E+00  0.00000000E+00
  0.00000000E+00  0.00000000E+00  0.00000000E+00
  0.00000000E+00  0.00000000E+00  0.00000000E+00
  0.00000000E+00  0.00000000E+00  0.00000000E+00
  0.00000000E+00  0.00000000E+00  0.00000000E+00
  0.00000000E+00  0.00000000E+00  0.00000000E+00
  0.00000000E+00  0.00000000E+00  0.00000000E+00
  0.00000000E+00  0.00000000E+00  0.00000000E+00
  0.00000000E+00  0.00000000E+00  0.00000000E+00
  0.00000000E+00  0.00000000E+00  0.00000000E+00
  0.00000000E+00  0.00000000E+00  0.00000000E+00
  0.00000000E+00  0.00000000E+00  0.00000000E+00
  0.00000000E+00  0.00000000E+00  0.00000000E+00
  0.00000000E+00  0.00000000E+00  0.00000000E+00
  0.00000000E+00  0.00000000E+00  0.00000000E+00
  0.00000000E+00  0.00000000E+00  0.00000000E+00
  0.00000000E+00  0.00000000E+00  0.00000000E+00
  0.00000000E+00  0.00000000E+00  0.00000000E+00
  0.00000000E+00  0.00000000E+00  0.00000000E+00
  0.00000000E+00  0.00000000E+00  0.00000000E+00
  0.00000000E+00  0.00000000E+00  0.00000000E+00
  0.00000000E+00  0.00000000E+00  0.00000000E+00
