Sr8 Ga4 Cl28                            
   1.00000000000000     
    10.0784478647784468   -0.0000019941197280   -0.0000387677127013
    -0.0000104947293291    9.2892177236477753   -0.0000101924692763
    -0.0000467725914231   -0.0000141474343292   12.0060851502239636
   Ga   Sr   Cl
     4     8    28
Direct
  0.3174165097482202  0.2499974299321224  0.0600449905934894
  0.8174298262831030  0.2499904836260214  0.4399321593083840
  0.1826109485890726  0.7499965942187927  0.5600449443486966
  0.6826027602625473  0.7499948193813992  0.9399180709164412
  0.8015863453706231  0.2499944163793160  0.1148855736906427
  0.3696119024357003  0.7499904358542153  0.2464118682873391
  0.8696063776853080  0.7499960833022001  0.2535513133318261
  0.3016095609143647  0.2500010545195721  0.3850793684257923
  0.6984448028895471  0.7499942868536209  0.6148837333516184
  0.1303971205972729  0.2499992245832487  0.7464136906317549
  0.6304077018926080  0.2499936559755156  0.7535472313970786
  0.1984311717207063  0.7499918942384838  0.8850807387398376
  0.4580456804306294  0.7499997252801904  0.0115006391560826
  0.7450832724779630  0.5718998587615545  0.0757745183126772
  0.7450862464758856  0.9280910044728188  0.0757755104752746
  0.1178132001531296  0.7499885085271458  0.1233277674965194
  0.1135212698932833  0.2500267427705296  0.1483749763362496
  0.3901478894599606  0.0681345071992610  0.1921131493976915
  0.3901781648207390  0.4318560928231960  0.1921104811789789
  0.8901489455116831  0.0681353187988805  0.3078510137195565
  0.8901296114126538  0.4318565367001170  0.3078541383168272
  0.6135068019294749  0.2499750308684341  0.3516422513097623
  0.6178139273780872  0.7499963537907206  0.3766442474945819
  0.2450911838276824  0.5718993662485730  0.4241880006358087
  0.2451158194836225  0.9280876850735496  0.4241983673771301
  0.9580550326570503  0.7500041169865668  0.4884531565960160
  0.0419891539344306  0.2499976380911590  0.5114951246610389
  0.7549638354131574  0.0718981692417913  0.5757877833154978
  0.7549529209948957  0.4280868960252349  0.5757829877362468
  0.3821960248134886  0.2499973357255172  0.6233258479895483
  0.3865065084575789  0.7499760638791599  0.6483688897021480
  0.1098597996104331  0.5681374226192517  0.6921116504278402
  0.1098778783505381  0.9318559023884134  0.6921146983753914
  0.6098770112044747  0.5681352991364577  0.8078477914926765
  0.6098751086584997  0.9318526648068968  0.8078466111756413
  0.8865102556585356  0.7499960980924101  0.8516145583044192
  0.8822008046021779  0.2499966015762212  0.8766541326915558
  0.2549029487773993  0.0719041636577273  0.9242036685901738
  0.2549279957714745  0.4280906722128748  0.9241918809698078
  0.5419676794520143  0.2499838453808252  0.9884524737419440
 
  0.00000000E+00  0.00000000E+00  0.00000000E+00
  0.00000000E+00  0.00000000E+00  0.00000000E+00
  0.00000000E+00  0.00000000E+00  0.00000000E+00
  0.00000000E+00  0.00000000E+00  0.00000000E+00
  0.00000000E+00  0.00000000E+00  0.00000000E+00
  0.00000000E+00  0.00000000E+00  0.00000000E+00
  0.00000000E+00  0.00000000E+00  0.00000000E+00
  0.00000000E+00  0.00000000E+00  0.00000000E+00
  0.00000000E+00  0.00000000E+00  0.00000000E+00
  0.00000000E+00  0.00000000E+00  0.00000000E+00
  0.00000000E+00  0.00000000E+00  0.00000000E+00
  0.00000000E+00  0.00000000E+00  0.00000000E+00
  0.00000000E+00  0.00000000E+00  0.00000000E+00
  0.00000000E+00  0.00000000E+00  0.00000000E+00
  0.00000000E+00  0.00000000E+00  0.00000000E+00
  0.00000000E+00  0.00000000E+00  0.00000000E+00
  0.00000000E+00  0.00000000E+00  0.00000000E+00
  0.00000000E+00  0.00000000E+00  0.00000000E+00
  0.00000000E+00  0.00000000E+00  0.00000000E+00
  0.00000000E+00  0.00000000E+00  0.00000000E+00
  0.00000000E+00  0.00000000E+00  0.00000000E+00
  0.00000000E+00  0.00000000E+00  0.00000000E+00
  0.00000000E+00  0.00000000E+00  0.00000000E+00
  0.00000000E+00  0.00000000E+00  0.00000000E+00
  0.00000000E+00  0.00000000E+00  0.00000000E+00
  0.00000000E+00  0.00000000E+00  0.00000000E+00
  0.00000000E+00  0.00000000E+00  0.00000000E+00
  0.00000000E+00  0.00000000E+00  0.00000000E+00
  0.00000000E+00  0.00000000E+00  0.00000000E+00
  0.00000000E+00  0.00000000E+00  0.00000000E+00
  0.00000000E+00  0.00000000E+00  0.00000000E+00
  0.00000000E+00  0.00000000E+00  0.00000000E+00
  0.00000000E+00  0.00000000E+00  0.00000000E+00
  0.00000000E+00  0.00000000E+00  0.00000000E+00
  0.00000000E+00  0.00000000E+00  0.00000000E+00
  0.00000000E+00  0.00000000E+00  0.00000000E+00
  0.00000000E+00  0.00000000E+00  0.00000000E+00
  0.00000000E+00  0.00000000E+00  0.00000000E+00
  0.00000000E+00  0.00000000E+00  0.00000000E+00
  0.00000000E+00  0.00000000E+00  0.00000000E+00
