Mg3 Al11                                
   1.00000000000000     
     4.3204369467099584    0.0000000755912794    0.0000000000000000
    -2.1602181532455935   -5.3296845880288970    5.6690593778438521
    -2.1602181532455935   -5.3296845880288970   -5.6690593778438521
   Al   Mg
    11     3
Direct
  0.3752795185846338  0.7454878311415101  0.0050712058142892
  0.2816828464815799  0.4324854336695907  0.1308802593072187
  0.6247204814153662  0.9949287941857108  0.2545121688584899
  0.8393274787665703  0.3393274787465828  0.3393274787465828
  0.2816828464815799  0.1308802593072187  0.4324854336695907
  0.5000000000000000  0.5000000000000000  0.5000000000000000
  0.7183171535184201  0.8691197406927813  0.5675145663304022
  0.1606725212334297  0.6606725212534172  0.6606725212534172
  0.3752795185846338  0.0050712058142892  0.7454878311415101
  0.7183171535184201  0.5675145663304093  0.8691197406927813
  0.6247204814153662  0.2545121688584899  0.9949287941857108
  0.0000000000000000  0.0000000000000000  0.0000000000000000
  0.0000000000000000  0.7170398004787515  0.2829601995212485
  0.0000000000000000  0.2829601995212485  0.7170398004787515
 
  0.00000000E+00  0.00000000E+00  0.00000000E+00
  0.00000000E+00  0.00000000E+00  0.00000000E+00
  0.00000000E+00  0.00000000E+00  0.00000000E+00
  0.00000000E+00  0.00000000E+00  0.00000000E+00
  0.00000000E+00  0.00000000E+00  0.00000000E+00
  0.00000000E+00  0.00000000E+00  0.00000000E+00
  0.00000000E+00  0.00000000E+00  0.00000000E+00
  0.00000000E+00  0.00000000E+00  0.00000000E+00
  0.00000000E+00  0.00000000E+00  0.00000000E+00
  0.00000000E+00  0.00000000E+00  0.00000000E+00
  0.00000000E+00  0.00000000E+00  0.00000000E+00
  0.00000000E+00  0.00000000E+00  0.00000000E+00
  0.00000000E+00  0.00000000E+00  0.00000000E+00
  0.00000000E+00  0.00000000E+00  0.00000000E+00
