Be8 Cl2                                 
   1.00000000000000     
     3.1748907953852008    0.0000000000000000    0.0000000000000000
     0.0000000000000000    3.1748907953852004    0.0000000000000000
     0.0000000000000000    0.0000000000000000   14.1296284708618760
   Be   Cl
     8     2
Direct
  0.0000000000000000  0.0000000000000000  0.0000000000000000
  0.5000000000000000  0.5000000000000000  0.0000000000000000
  0.0000000000000000  0.0000000000000000  0.3952930190539732
  0.5000000000000000  0.5000000000000000  0.3952930190539732
  0.5000000000000000  0.0000000000000000  0.4932245890099978
  0.0000000000000000  0.5000000000000000  0.5067754109900022
  0.0000000000000000  0.0000000000000000  0.6047069809460268
  0.5000000000000000  0.5000000000000000  0.6047069809460268
  0.0000000000000000  0.5000000000000000  0.2756600117807437
  0.5000000000000000  0.0000000000000000  0.7243399882192563
 
  0.00000000E+00  0.00000000E+00  0.00000000E+00
  0.00000000E+00  0.00000000E+00  0.00000000E+00
  0.00000000E+00  0.00000000E+00  0.00000000E+00
  0.00000000E+00  0.00000000E+00  0.00000000E+00
  0.00000000E+00  0.00000000E+00  0.00000000E+00
  0.00000000E+00  0.00000000E+00  0.00000000E+00
  0.00000000E+00  0.00000000E+00  0.00000000E+00
  0.00000000E+00  0.00000000E+00  0.00000000E+00
  0.00000000E+00  0.00000000E+00  0.00000000E+00
  0.00000000E+00  0.00000000E+00  0.00000000E+00
