Sr16 B13                                
   1.00000000000000     
    10.1345427143355540   -5.2532189494188541    4.3706911151401950
    -0.4787994899171075    9.4425953571482850    3.1619986117825660
    -8.3257654591103858   -4.0612818044943726    1.9859715561455675
   B    Sr
    13    16
Direct
  0.4867140740257483  0.7417780680466635  0.0117216312236152
  0.0391853123939399  0.7627250519993325  0.0585833096578767
  0.6211481694513097  0.3950093126800311  0.9703208050594938
  0.4019960165572698  0.4252229431102634  0.2805991169080073
  0.1469947420467506  0.6959931615211303  0.1478382903251685
  0.6495059993581833  0.9255273206208798  0.1544844704994119
  0.5712965596373181  0.4738192937280630  0.4456780729911642
  0.4202173844491952  0.3213113051831371  0.3921485092127384
  0.9700667561675544  0.9041939239551127  0.5242531416796936
  0.1344831040789884  0.9263466076027882  0.6384800062099458
  0.5656552836099422  0.8101419150210418  0.9233529407643246
  0.1393244818672414  0.7420614259010705  0.9900988384136511
  0.1255877577505089  0.0865705526271512  0.6277601611806460
  0.4084517340359142  0.2243169437516528  0.9945507217867799
  0.1304630536914715  0.0463555700816016  0.0195257377231925
  0.7197968442121407  0.1750257013856569  0.0598890420953708
  0.2432316799465397  0.5116880854155283  0.9812956479180670
  0.6414535105237036  0.6579662086303699  0.2554664214766191
  0.4669719066330913  0.9706030121128819  0.2607907421970665
  0.9464493982086140  0.6313836344552328  0.2498132501596899
  0.9051326612668831  0.9534432450560644  0.2004160122764560
  0.9024152463451784  0.6323332671859205  0.6090900913428499
  0.1717000552171228  0.4441113876809482  0.2706886154346861
  0.8842588494671233  0.1363595485190743  0.5641012141883905
  0.3154220896219684  0.0198513831968370  0.5210040816380399
  0.6194390642055723  0.7908876725370746  0.6463750993330493
  0.7151983700595395  0.4209989663635980  0.7495121176884751
  0.2583488374781737  0.7375177207948624  0.7427951655788121
  0.3987610576930152  0.4366167708360322  0.7093697450366889
 
  0.00000000E+00  0.00000000E+00  0.00000000E+00
  0.00000000E+00  0.00000000E+00  0.00000000E+00
  0.00000000E+00  0.00000000E+00  0.00000000E+00
  0.00000000E+00  0.00000000E+00  0.00000000E+00
  0.00000000E+00  0.00000000E+00  0.00000000E+00
  0.00000000E+00  0.00000000E+00  0.00000000E+00
  0.00000000E+00  0.00000000E+00  0.00000000E+00
  0.00000000E+00  0.00000000E+00  0.00000000E+00
  0.00000000E+00  0.00000000E+00  0.00000000E+00
  0.00000000E+00  0.00000000E+00  0.00000000E+00
  0.00000000E+00  0.00000000E+00  0.00000000E+00
  0.00000000E+00  0.00000000E+00  0.00000000E+00
  0.00000000E+00  0.00000000E+00  0.00000000E+00
  0.00000000E+00  0.00000000E+00  0.00000000E+00
  0.00000000E+00  0.00000000E+00  0.00000000E+00
  0.00000000E+00  0.00000000E+00  0.00000000E+00
  0.00000000E+00  0.00000000E+00  0.00000000E+00
  0.00000000E+00  0.00000000E+00  0.00000000E+00
  0.00000000E+00  0.00000000E+00  0.00000000E+00
  0.00000000E+00  0.00000000E+00  0.00000000E+00
  0.00000000E+00  0.00000000E+00  0.00000000E+00
  0.00000000E+00  0.00000000E+00  0.00000000E+00
  0.00000000E+00  0.00000000E+00  0.00000000E+00
  0.00000000E+00  0.00000000E+00  0.00000000E+00
  0.00000000E+00  0.00000000E+00  0.00000000E+00
  0.00000000E+00  0.00000000E+00  0.00000000E+00
  0.00000000E+00  0.00000000E+00  0.00000000E+00
  0.00000000E+00  0.00000000E+00  0.00000000E+00
  0.00000000E+00  0.00000000E+00  0.00000000E+00
