In2 I2                                  
   1.00000000000000     
     2.4300735620797274   -6.5257935980267678    0.0000000000000000
     2.4300735620797274    6.5257935980267678    0.0000000000000000
     0.0000000000000000    0.0000000000000000    4.9478648339963645
   In   I 
     2     2
Direct
  0.3942448256378839  0.6057551743621161  0.7500000000000000
  0.6057551743621161  0.3942448256378839  0.2500000000000000
  0.1436114899443908  0.8563885100556092  0.7500000000000000
  0.8563885100556092  0.1436114899443908  0.2500000000000000
 
  0.00000000E+00  0.00000000E+00  0.00000000E+00
  0.00000000E+00  0.00000000E+00  0.00000000E+00
  0.00000000E+00  0.00000000E+00  0.00000000E+00
  0.00000000E+00  0.00000000E+00  0.00000000E+00
