Ca1 Tl2 I6                              
   1.0000000000000000     
     4.7579033345135500    4.0042007932961656    6.6628599225390612
    -4.7579033345135500    4.0042007932961656    6.6628599225390612
     0.0000000000000000   -3.7129143112440435    5.3795957808837986
   Ca   I    Tl
     1     6     2
Direct
  0.0000000000000000  0.0000000000000000  0.0000000000000000
  0.7817901905938811  0.7817901905938811  0.2219514110104157
  0.7168542828043414  0.2853737123718645  0.2528775394167724
  0.2853737123718645  0.7168542828043414  0.2528775394167724
  0.2182098094061189  0.2182098094061189  0.7780485889895914
  0.7146262876281355  0.2831457171956586  0.7471224605832276
  0.2831457171956586  0.7146262876281355  0.7471224605832276
  0.3158878995783923  0.3158878995783923  0.1797710085438453
  0.6841121004216077  0.6841121004216077  0.8202289914561547

  0.00000000E+00  0.00000000E+00  0.00000000E+00
  0.00000000E+00  0.00000000E+00  0.00000000E+00
  0.00000000E+00  0.00000000E+00  0.00000000E+00
  0.00000000E+00  0.00000000E+00  0.00000000E+00
  0.00000000E+00  0.00000000E+00  0.00000000E+00
  0.00000000E+00  0.00000000E+00  0.00000000E+00
  0.00000000E+00  0.00000000E+00  0.00000000E+00
  0.00000000E+00  0.00000000E+00  0.00000000E+00
  0.00000000E+00  0.00000000E+00  0.00000000E+00
