Be1 Tl13                                
   1.0000000000000000     
     6.5577963594601911   -5.2905452142130152   -0.1179662367168528
     6.5577963594601911    5.2905452142130152   -0.1179662367168528
    -1.3913095210169084    0.0000000000000000    6.1393761183253561
   Be   Tl
     1    13
Direct
  0.0005913683825369  0.0005913683825369  0.9998797377645303
  0.7999365321798919  0.7999365321798919  0.0920109277231376
  0.6005857019789715  0.2135594165136112  0.1950681487805426
  0.2135594165136112  0.6005857019789715  0.1950681487805426
  0.9764387656179281  0.3332350962537873  0.3126171611793964
  0.3332350962537873  0.9764387656179281  0.3126171611793964
  0.6191226664719736  0.6191226664719736  0.3629746867750754
  0.9999149476037914  0.9999149476037914  0.5026118918219069
  0.3806945842090812  0.3806945842090812  0.6343554335042896
  0.6648738832798813  0.0234050519043194  0.6870312440646558
  0.0234050519043194  0.6648738832798813  0.6870312440646558
  0.7861867789836694  0.3996439929643856  0.8047738223135141
  0.3996439929643856  0.7861867789836694  0.8047738223135141
  0.2017002136561743  0.2017002136561743  0.9091865697348496

  0.00000000E+00  0.00000000E+00  0.00000000E+00
  0.00000000E+00  0.00000000E+00  0.00000000E+00
  0.00000000E+00  0.00000000E+00  0.00000000E+00
  0.00000000E+00  0.00000000E+00  0.00000000E+00
  0.00000000E+00  0.00000000E+00  0.00000000E+00
  0.00000000E+00  0.00000000E+00  0.00000000E+00
  0.00000000E+00  0.00000000E+00  0.00000000E+00
  0.00000000E+00  0.00000000E+00  0.00000000E+00
  0.00000000E+00  0.00000000E+00  0.00000000E+00
  0.00000000E+00  0.00000000E+00  0.00000000E+00
  0.00000000E+00  0.00000000E+00  0.00000000E+00
  0.00000000E+00  0.00000000E+00  0.00000000E+00
  0.00000000E+00  0.00000000E+00  0.00000000E+00
  0.00000000E+00  0.00000000E+00  0.00000000E+00
