Ca4 Ga4 Br20                            
   1.0000000000000000     
     5.3801909229436706   -0.0000000000000001    0.0000000000000005
    -0.0000000000000005   10.9909163961989602    0.0000000000000007
    -0.0000000000000003    0.0000000000000010   20.4763555603353211
   Ca   Ga   Br
     4     4    20
Direct
  0.4202429361827740  0.2808996036008296  0.4128652335472793
  0.9202429361827740  0.2191003963991704  0.5871347664527207
  0.5797570638172260  0.7808996036008296  0.0871347664527207
  0.0797570638172260  0.7191003963991704  0.9128652335472793
  0.1365725721126552  0.7176005548002991  0.4234016723463228
  0.6365725721126623  0.7823994451997009  0.5765983276536701
  0.8634274278873377  0.2176005548002919  0.0765983276536701
  0.3634274278873448  0.2823994451997009  0.9234016723463156
  0.8964819700299458  0.6283644290811665  0.5155112672742916
  0.3964819700299387  0.8716355709188335  0.4844887327257155
  0.1035180299700542  0.1283644290811807  0.9844887327257084
  0.6035180299700542  0.3716355709188193  0.0155112672742845
  0.9105140009359332  0.8328412920558534  0.3528779759653347
  0.4105140009359332  0.6671587079441466  0.6471220240346653
  0.0894859990640668  0.3328412920558605  0.1471220240346653
  0.5894859990640668  0.1671587079441395  0.8528779759653347
  0.0725963804612206  0.6819396243979696  0.0551792226670784
  0.5725963804612206  0.8180603756020304  0.9448207773329216
  0.9274036195387794  0.1819396243979696  0.4448207773329216
  0.4274036195387794  0.3180603756020304  0.5551792226670784
  0.4539982811944725  0.8018807992366632  0.2108348625519625
  0.9539982811944725  0.6981192007633368  0.7891651374480375
  0.5460017188055275  0.3018807992366632  0.2891651374480375
  0.0460017188055204  0.1981192007633368  0.7108348625519625
  0.1391659686234874  0.4439305327374470  0.8783679108928339
  0.6391659686234874  0.0560694672625530  0.1216320891071589
  0.8608340313765126  0.9439305327374470  0.6216320891071661
  0.3608340313765126  0.5560694672625530  0.3783679108928411

  0.00000000E+00  0.00000000E+00  0.00000000E+00
  0.00000000E+00  0.00000000E+00  0.00000000E+00
  0.00000000E+00  0.00000000E+00  0.00000000E+00
  0.00000000E+00  0.00000000E+00  0.00000000E+00
  0.00000000E+00  0.00000000E+00  0.00000000E+00
  0.00000000E+00  0.00000000E+00  0.00000000E+00
  0.00000000E+00  0.00000000E+00  0.00000000E+00
  0.00000000E+00  0.00000000E+00  0.00000000E+00
  0.00000000E+00  0.00000000E+00  0.00000000E+00
  0.00000000E+00  0.00000000E+00  0.00000000E+00
  0.00000000E+00  0.00000000E+00  0.00000000E+00
  0.00000000E+00  0.00000000E+00  0.00000000E+00
  0.00000000E+00  0.00000000E+00  0.00000000E+00
  0.00000000E+00  0.00000000E+00  0.00000000E+00
  0.00000000E+00  0.00000000E+00  0.00000000E+00
  0.00000000E+00  0.00000000E+00  0.00000000E+00
  0.00000000E+00  0.00000000E+00  0.00000000E+00
  0.00000000E+00  0.00000000E+00  0.00000000E+00
  0.00000000E+00  0.00000000E+00  0.00000000E+00
  0.00000000E+00  0.00000000E+00  0.00000000E+00
  0.00000000E+00  0.00000000E+00  0.00000000E+00
  0.00000000E+00  0.00000000E+00  0.00000000E+00
  0.00000000E+00  0.00000000E+00  0.00000000E+00
  0.00000000E+00  0.00000000E+00  0.00000000E+00
  0.00000000E+00  0.00000000E+00  0.00000000E+00
  0.00000000E+00  0.00000000E+00  0.00000000E+00
  0.00000000E+00  0.00000000E+00  0.00000000E+00
  0.00000000E+00  0.00000000E+00  0.00000000E+00
