Ba1 In3 Cl6                             
   1.0000000000000000     
     8.0914951338793077   -0.0000365576911249    0.0002772857978123
    -0.0000365576911249    8.0914951338793077    0.0002772857978123
     4.0459238161232776    4.0459238161232784    5.7224079233229581
   Cl   Ba   In
     6     1     3
Direct
  0.7389720868950320  0.2610279131049680  0.0000000000000000
  0.2611679663952131  0.2611679663952131  0.9997232058976948
  0.2610279131049680  0.7389720868950320  0.0000000000000000
  0.7388320336047869  0.7388320336047869  0.0002767941023052
  0.7392446178794074  0.7392446178794074  0.5219812212252251
  0.2607553821205855  0.2607553821205855  0.4780187787747749
  0.0000000000000000  0.0000000000000000  0.0000000000000000
  0.5000000000000000  0.5000000000000000  0.0000000000000000
  0.2499711814035308  0.7500288185964692  0.5000000000000000
  0.7500288185964692  0.2499711814035308  0.5000000000000000

  0.00000000E+00  0.00000000E+00  0.00000000E+00
  0.00000000E+00  0.00000000E+00  0.00000000E+00
  0.00000000E+00  0.00000000E+00  0.00000000E+00
  0.00000000E+00  0.00000000E+00  0.00000000E+00
  0.00000000E+00  0.00000000E+00  0.00000000E+00
  0.00000000E+00  0.00000000E+00  0.00000000E+00
  0.00000000E+00  0.00000000E+00  0.00000000E+00
  0.00000000E+00  0.00000000E+00  0.00000000E+00
  0.00000000E+00  0.00000000E+00  0.00000000E+00
  0.00000000E+00  0.00000000E+00  0.00000000E+00
