Be4 B4 F20                              
   1.00000000000000     
    12.0201040478090224   -0.0082070025549973   -0.0000003712023594
    -0.0022361139226603    4.7905414789136884   -0.0087869794664711
    -0.0013282538228765   -0.0101920005310973    4.8034298412207326
   Be   F    B 
     4    20     4
Direct
  0.1792163035971868  0.0011526500058991  0.6612732552702880
  0.8207966953575934  0.4969486818878508  0.8386285408216239
  0.3206542602049041  0.0057160433893344  0.1614094583886114
  0.6793888496248854  0.4961711976903302  0.3385115480569425
  0.3998578003474194  0.7459528900757988  0.1269671132473249
  0.3970053584517501  0.2720240784951500  0.1357149628860412
  0.9772866347673173  0.5003084013131129  0.3578448431010344
  0.7279694598534832  0.4983008582740140  0.0486495125196953
  0.6639615342221532  0.9987262203563674  0.7614638900785877
  0.3359913626031386  0.5022088085212175  0.7387024275885636
  0.2720202357059591  0.9998610373954619  0.4511516726547171
  0.0227748554557934  0.9995891470787726  0.1420550404288932
  0.6010745313366499  0.7578189450328523  0.3707327693748894
  0.6021654251344586  0.2317731988357536  0.3666114195256256
  0.1013250869585818  0.2634415208141334  0.6301891205225587
  0.1016560525055752  0.7373230366167576  0.6320923343554767
  0.5225901629535130  0.4990339379624089  0.8582518697572681
  0.7722024663619464  0.4971078055879943  0.5486960754340160
  0.8361881580434911  0.9983159865479934  0.2615875850499378
  0.1638787851485191  0.5006094714784481  0.2384245833661893
  0.2278887966981529  0.0038485773143435  0.9511195834352222
  0.4773781646887016  0.9997366518153541  0.6416193557197687
  0.8982421319808580  0.2336603332145373  0.8683332531952104
  0.8988334597349947  0.7597698974006732  0.8693586440178862
  0.9151412152166216  0.9979262978730645  0.0607722574890346
  0.0849090368116094  0.5004167643276887  0.4391944731137443
  0.5850056530333703  0.9972960903154089  0.5605293592569254
  0.4149975232013716  0.5043614703792443  0.9395150513439745
 
  0.00000000E+00  0.00000000E+00  0.00000000E+00
  0.00000000E+00  0.00000000E+00  0.00000000E+00
  0.00000000E+00  0.00000000E+00  0.00000000E+00
  0.00000000E+00  0.00000000E+00  0.00000000E+00
  0.00000000E+00  0.00000000E+00  0.00000000E+00
  0.00000000E+00  0.00000000E+00  0.00000000E+00
  0.00000000E+00  0.00000000E+00  0.00000000E+00
  0.00000000E+00  0.00000000E+00  0.00000000E+00
  0.00000000E+00  0.00000000E+00  0.00000000E+00
  0.00000000E+00  0.00000000E+00  0.00000000E+00
  0.00000000E+00  0.00000000E+00  0.00000000E+00
  0.00000000E+00  0.00000000E+00  0.00000000E+00
  0.00000000E+00  0.00000000E+00  0.00000000E+00
  0.00000000E+00  0.00000000E+00  0.00000000E+00
  0.00000000E+00  0.00000000E+00  0.00000000E+00
  0.00000000E+00  0.00000000E+00  0.00000000E+00
  0.00000000E+00  0.00000000E+00  0.00000000E+00
  0.00000000E+00  0.00000000E+00  0.00000000E+00
  0.00000000E+00  0.00000000E+00  0.00000000E+00
  0.00000000E+00  0.00000000E+00  0.00000000E+00
  0.00000000E+00  0.00000000E+00  0.00000000E+00
  0.00000000E+00  0.00000000E+00  0.00000000E+00
  0.00000000E+00  0.00000000E+00  0.00000000E+00
  0.00000000E+00  0.00000000E+00  0.00000000E+00
  0.00000000E+00  0.00000000E+00  0.00000000E+00
  0.00000000E+00  0.00000000E+00  0.00000000E+00
  0.00000000E+00  0.00000000E+00  0.00000000E+00
  0.00000000E+00  0.00000000E+00  0.00000000E+00
