Ca2 Ga2 Cl10                            
   1.0000000000000000     
     4.5401894369218709   -0.0000000000000001    0.0000000000000003
    -0.0000000000000009   11.0856774069683599    0.0000000000000009
     0.0000000000000002    0.0000000000000003   10.7990293682757290
   Ca   Ga   Cl
     2     2    10
Direct
  0.0000000000000000  0.0000000000000000  0.5000000000000000
  0.5000000000000000  0.5000000000000000  0.0000000000000000
  0.5000000000000000  0.0000000000000000  0.0000000000000000
  0.0000000000000000  0.5000000000000000  0.5000000000000000
  0.5000000000000000  0.8502012874669447  0.5000000000000000
  0.5000000000000000  0.1497987125330553  0.5000000000000000
  0.5000000000000000  0.0000000000000000  0.2020335999331948
  0.5000000000000000  0.0000000000000000  0.7979664000668052
  0.0000000000000000  0.0000000000000000  0.0000000000000000
  0.0000000000000000  0.3502012874669447  0.0000000000000000
  0.0000000000000000  0.6497987125330553  0.0000000000000000
  0.0000000000000000  0.5000000000000000  0.7020335999331948
  0.0000000000000000  0.5000000000000000  0.2979664000668052
  0.5000000000000000  0.5000000000000000  0.5000000000000000

  0.00000000E+00  0.00000000E+00  0.00000000E+00
  0.00000000E+00  0.00000000E+00  0.00000000E+00
  0.00000000E+00  0.00000000E+00  0.00000000E+00
  0.00000000E+00  0.00000000E+00  0.00000000E+00
  0.00000000E+00  0.00000000E+00  0.00000000E+00
  0.00000000E+00  0.00000000E+00  0.00000000E+00
  0.00000000E+00  0.00000000E+00  0.00000000E+00
  0.00000000E+00  0.00000000E+00  0.00000000E+00
  0.00000000E+00  0.00000000E+00  0.00000000E+00
  0.00000000E+00  0.00000000E+00  0.00000000E+00
  0.00000000E+00  0.00000000E+00  0.00000000E+00
  0.00000000E+00  0.00000000E+00  0.00000000E+00
  0.00000000E+00  0.00000000E+00  0.00000000E+00
  0.00000000E+00  0.00000000E+00  0.00000000E+00
