Sr17 Tl12                               
   1.0000000000000000     
    -6.5029612622538941   -6.5029612622538941    6.4955595032775895
    -6.5029612622538941    6.4955595032775895   -6.5029612622538941
     6.4955595032775895   -6.5029612622538941   -6.5029612622538941
   Tl   Sr
    12    17
Direct
  0.3748067756201792  0.1855823661006326  0.0001428602844342
  0.1855823661006326  0.3748067756201792  0.0001428602844342
  0.8148807251718395  0.8148807251718395  0.1888196667238518
  0.3748067756201792  0.0001428602844342  0.1855823661006326
  0.0001428602844342  0.3748067756201792  0.1855823661006326
  0.1855823661006326  0.0001428602844342  0.3748067756201792
  0.0001428602844342  0.1855823661006326  0.3748067756201792
  0.8098768857349867  0.6243455032991463  0.6243455032991463
  0.6243455032991463  0.8098768857349867  0.6243455032991463
  0.8148807251718395  0.1888196667238518  0.8148807251718395
  0.1888196667238518  0.8148807251718395  0.8148807251718395
  0.6243455032991463  0.6243455032991463  0.8098768857349867
  0.0022633244839483  0.0022633244839483  0.0022633244839483
  0.6869290635546008  0.9995569605907662  0.9995569605907662
  0.6969692662506688  0.4080308698093162  0.9997105434426672
  0.9995569605907662  0.6869290635546008  0.9995569605907662
  0.4080308698093162  0.6969692662506688  0.9997105434426672
  0.5919669208740714  0.5919669208740714  0.2880387586930624
  0.7113262697795477  0.3028612852831358  0.3028612852831358
  0.3028612852831358  0.7113262697795477  0.3028612852831358
  0.3150378775762306  0.3150378775762306  0.3150378775762306
  0.6969692662506688  0.9997105434426672  0.4080308698093162
  0.9997105434426672  0.6969692662506688  0.4080308698093162
  0.5919669208740714  0.2880387586930624  0.5919669208740714
  0.2880387586930624  0.5919669208740714  0.5919669208740714
  0.9995569605907662  0.9995569605907662  0.6869290635546008
  0.4080308698093162  0.9997105434426672  0.6969692662506688
  0.9997105434426672  0.4080308698093162  0.6969692662506688
  0.3028612852831358  0.3028612852831358  0.7113262697795477

  0.00000000E+00  0.00000000E+00  0.00000000E+00
  0.00000000E+00  0.00000000E+00  0.00000000E+00
  0.00000000E+00  0.00000000E+00  0.00000000E+00
  0.00000000E+00  0.00000000E+00  0.00000000E+00
  0.00000000E+00  0.00000000E+00  0.00000000E+00
  0.00000000E+00  0.00000000E+00  0.00000000E+00
  0.00000000E+00  0.00000000E+00  0.00000000E+00
  0.00000000E+00  0.00000000E+00  0.00000000E+00
  0.00000000E+00  0.00000000E+00  0.00000000E+00
  0.00000000E+00  0.00000000E+00  0.00000000E+00
  0.00000000E+00  0.00000000E+00  0.00000000E+00
  0.00000000E+00  0.00000000E+00  0.00000000E+00
  0.00000000E+00  0.00000000E+00  0.00000000E+00
  0.00000000E+00  0.00000000E+00  0.00000000E+00
  0.00000000E+00  0.00000000E+00  0.00000000E+00
  0.00000000E+00  0.00000000E+00  0.00000000E+00
  0.00000000E+00  0.00000000E+00  0.00000000E+00
  0.00000000E+00  0.00000000E+00  0.00000000E+00
  0.00000000E+00  0.00000000E+00  0.00000000E+00
  0.00000000E+00  0.00000000E+00  0.00000000E+00
  0.00000000E+00  0.00000000E+00  0.00000000E+00
  0.00000000E+00  0.00000000E+00  0.00000000E+00
  0.00000000E+00  0.00000000E+00  0.00000000E+00
  0.00000000E+00  0.00000000E+00  0.00000000E+00
  0.00000000E+00  0.00000000E+00  0.00000000E+00
  0.00000000E+00  0.00000000E+00  0.00000000E+00
  0.00000000E+00  0.00000000E+00  0.00000000E+00
  0.00000000E+00  0.00000000E+00  0.00000000E+00
  0.00000000E+00  0.00000000E+00  0.00000000E+00
