Be32 Tl28                               
   1.0000000000000000     
    10.4285782128495459   -0.0129957775197770   -0.0129954706549023
    -0.0129954706549023   10.4285782128495477   -0.0129957775197770
    -0.0129957775197770   -0.0129954706549024   10.4285782128495512
   Tl   Be
    28    32
Direct
  0.5085118543342020  0.4961304545752228  0.9944333132170229
  0.2032376277768790  0.6907887682595018  0.0234145147189579
  0.3039360077660191  0.2068160397443037  0.0225431002410943
  0.0225431002410943  0.3039360077660191  0.2068160397443037
  0.4754424926492646  0.7948251801634143  0.1901206801727398
  0.3060778973456593  0.5242734411121290  0.2979784595519135
  0.7988205067386218  0.5219480968488099  0.1981131720684530
  0.2068160397443037  0.0225431002410943  0.3039360077660191
  0.6907887682595018  0.0234145147189579  0.2032376277768790
  0.5242734411121290  0.2979784595519135  0.3060778973456593
  0.9772792329983915  0.8087767314573924  0.2978481996812263
  0.6909006977944046  0.7047394550945469  0.4769365877161391
  0.7948251801634143  0.1901206801727398  0.4754424926492646
  0.4961304545752228  0.9944333132170229  0.5085118543342020
  0.9944333132170229  0.5085118543342020  0.4961304545752228
  0.2979784595519135  0.3060778973456593  0.5242734411121290
  0.1981131720684530  0.7988205067386218  0.5219480968488099
  0.4769365877161391  0.6909006977944046  0.7047394550945469
  0.0234145147189579  0.2032376277768790  0.6907887682595018
  0.1901206801727398  0.4754424926492646  0.7948251801634143
  0.7047394550945469  0.4769365877161391  0.6909006977944046
  0.2978481996812263  0.9772792329983915  0.8087767314573924
  0.8057975550612682  0.9764750786539977  0.7056296978804113
  0.9764750786539977  0.7056296978804113  0.8057975550612682
  0.5219480968488099  0.1981131720684530  0.7988205067386218
  0.8087767314573924  0.2978481996812263  0.9772792329983915
  0.7056296978804113  0.8057975550612682  0.9764750786539977
  0.0064480424319413  0.0064480424319413  0.0064480424319413
  0.3102726267057534  0.9332490340492896  0.0944793392010297
  0.1908367797221402  0.4291202663388916  0.1017719681994009
  0.6013678813546193  0.1931230548157643  0.0677574892156301
  0.9004108844795695  0.6911415243811945  0.0717081442437504
  0.7751651192621694  0.2738346523506507  0.2247029418909605
  0.7249634025875409  0.7741506689595923  0.2248009064687579
  0.9332490340492896  0.0944793392010297  0.3102726267057534
  0.4291202663388916  0.1017719681994009  0.1908367797221402
  0.5704870489932645  0.5990691510763639  0.3044240701461760
  0.0677574892156301  0.6013678813546193  0.1931230548157643
  0.2748165863845173  0.2748165863845173  0.2748165863845173
  0.2247029418909605  0.7751651192621694  0.2738346523506507
  0.1017719681994009  0.1908367797221402  0.4291202663388916
  0.4059917699608917  0.6904604500580049  0.4344637977589514
  0.8030475235513634  0.9273881689148666  0.3990932886835807
  0.6904604500580049  0.4344637977589514  0.4059917699608917
  0.1931230548157643  0.0677574892156301  0.6013678813546193
  0.3044240701461760  0.5704870489932645  0.5990691510763639
  0.8985668342377622  0.8093300359008140  0.5673367088293517
  0.5990691510763639  0.3044240701461760  0.5704870489932645
  0.7254249952234844  0.7254249952234844  0.7254249952234844
  0.7741506689595923  0.2248009064687579  0.7249634025875409
  0.5673367088293517  0.8985668342377622  0.8093300359008140
  0.0717081442437504  0.9004108844795695  0.6911415243811945
  0.9273881689148666  0.3990932886835807  0.8030475235513634
  0.4344637977589514  0.4059917699608917  0.6904604500580049
  0.2248009064687579  0.7249634025875409  0.7741506689595923
  0.2738346523506507  0.2247029418909605  0.7751651192621694
  0.3990932886835807  0.8030475235513634  0.9273881689148666
  0.0944793392010297  0.3102726267057534  0.9332490340492896
  0.6911415243811945  0.0717081442437504  0.9004108844795695
  0.8093300359008140  0.5673367088293517  0.8985668342377622

  0.00000000E+00  0.00000000E+00  0.00000000E+00
  0.00000000E+00  0.00000000E+00  0.00000000E+00
  0.00000000E+00  0.00000000E+00  0.00000000E+00
  0.00000000E+00  0.00000000E+00  0.00000000E+00
  0.00000000E+00  0.00000000E+00  0.00000000E+00
  0.00000000E+00  0.00000000E+00  0.00000000E+00
  0.00000000E+00  0.00000000E+00  0.00000000E+00
  0.00000000E+00  0.00000000E+00  0.00000000E+00
  0.00000000E+00  0.00000000E+00  0.00000000E+00
  0.00000000E+00  0.00000000E+00  0.00000000E+00
  0.00000000E+00  0.00000000E+00  0.00000000E+00
  0.00000000E+00  0.00000000E+00  0.00000000E+00
  0.00000000E+00  0.00000000E+00  0.00000000E+00
  0.00000000E+00  0.00000000E+00  0.00000000E+00
  0.00000000E+00  0.00000000E+00  0.00000000E+00
  0.00000000E+00  0.00000000E+00  0.00000000E+00
  0.00000000E+00  0.00000000E+00  0.00000000E+00
  0.00000000E+00  0.00000000E+00  0.00000000E+00
  0.00000000E+00  0.00000000E+00  0.00000000E+00
  0.00000000E+00  0.00000000E+00  0.00000000E+00
  0.00000000E+00  0.00000000E+00  0.00000000E+00
  0.00000000E+00  0.00000000E+00  0.00000000E+00
  0.00000000E+00  0.00000000E+00  0.00000000E+00
  0.00000000E+00  0.00000000E+00  0.00000000E+00
  0.00000000E+00  0.00000000E+00  0.00000000E+00
  0.00000000E+00  0.00000000E+00  0.00000000E+00
  0.00000000E+00  0.00000000E+00  0.00000000E+00
  0.00000000E+00  0.00000000E+00  0.00000000E+00
  0.00000000E+00  0.00000000E+00  0.00000000E+00
  0.00000000E+00  0.00000000E+00  0.00000000E+00
  0.00000000E+00  0.00000000E+00  0.00000000E+00
  0.00000000E+00  0.00000000E+00  0.00000000E+00
  0.00000000E+00  0.00000000E+00  0.00000000E+00
  0.00000000E+00  0.00000000E+00  0.00000000E+00
  0.00000000E+00  0.00000000E+00  0.00000000E+00
  0.00000000E+00  0.00000000E+00  0.00000000E+00
  0.00000000E+00  0.00000000E+00  0.00000000E+00
  0.00000000E+00  0.00000000E+00  0.00000000E+00
  0.00000000E+00  0.00000000E+00  0.00000000E+00
  0.00000000E+00  0.00000000E+00  0.00000000E+00
  0.00000000E+00  0.00000000E+00  0.00000000E+00
  0.00000000E+00  0.00000000E+00  0.00000000E+00
  0.00000000E+00  0.00000000E+00  0.00000000E+00
  0.00000000E+00  0.00000000E+00  0.00000000E+00
  0.00000000E+00  0.00000000E+00  0.00000000E+00
  0.00000000E+00  0.00000000E+00  0.00000000E+00
  0.00000000E+00  0.00000000E+00  0.00000000E+00
  0.00000000E+00  0.00000000E+00  0.00000000E+00
  0.00000000E+00  0.00000000E+00  0.00000000E+00
  0.00000000E+00  0.00000000E+00  0.00000000E+00
  0.00000000E+00  0.00000000E+00  0.00000000E+00
  0.00000000E+00  0.00000000E+00  0.00000000E+00
  0.00000000E+00  0.00000000E+00  0.00000000E+00
  0.00000000E+00  0.00000000E+00  0.00000000E+00
  0.00000000E+00  0.00000000E+00  0.00000000E+00
  0.00000000E+00  0.00000000E+00  0.00000000E+00
  0.00000000E+00  0.00000000E+00  0.00000000E+00
  0.00000000E+00  0.00000000E+00  0.00000000E+00
  0.00000000E+00  0.00000000E+00  0.00000000E+00
  0.00000000E+00  0.00000000E+00  0.00000000E+00
