SrCl                                    
   1.00000000000000     
     2.0146963994360987    1.1633751978091385    4.2672975664470512
    -2.0146963994360987    1.1633751978091385    4.2672975664470512
     0.0000000000000000   -2.3261584460749827    4.2674091844489732
   Cl   Sr
     1     1
Direct
  0.0000000000000000  0.0000000000000000  0.0000000000000000
  0.5000000000000000  0.5000000000000000  0.5000000000000000
 
  0.00000000E+00  0.00000000E+00  0.00000000E+00
  0.00000000E+00  0.00000000E+00  0.00000000E+00
