Sr4 Al4 Cl20                            
   1.0000000000000000     
    12.4768105577419082    0.0000000000000000    0.0000000000000000
     0.0000000000000000    6.5195970169814341    0.3087724104864488
     0.0000000000000000    3.4324988719067666    9.6921149326448415
   Sr   Al   Cl
     4     4    20
Direct
  0.9893345163023355  0.4769135589024600  0.2632222760553091
  0.4893345163023355  0.5230864410975471  0.2367777239446909
  0.0106654836976645  0.5230864410975471  0.7367777239446909
  0.5106654836976645  0.4769135589024600  0.7632222760553091
  0.7664222556255424  0.1276270616291768  0.5612989181330335
  0.2664222556255424  0.8723729383708232  0.9387010818669665
  0.2335777443744576  0.8723729383708232  0.4387010818669665
  0.7335777443744576  0.1276270616291768  0.0612989181330335
  0.6143678415536797  0.3446037560752160  0.5088824308255013
  0.1143678415536797  0.6553962439247840  0.9911175691744987
  0.3856321584463203  0.6553962439247840  0.4911175691744987
  0.8856321584463203  0.3446037560752160  0.0088824308255013
  0.8190188428042262  0.1366786916945273  0.3533075377792727
  0.3190188428042262  0.8633213083054727  0.1466924622207273
  0.1809811571957738  0.8633213083054727  0.6466924622207344
  0.6809811571957738  0.1366786916945273  0.8533075377792656
  0.3984272740535033  0.0560335352581376  0.7912122616038033
  0.8984272740535033  0.9439664647418624  0.7087877383961967
  0.6015727259464967  0.9439664647418624  0.2087877383961967
  0.1015727259464967  0.0560335352581376  0.2912122616038033
  0.6626365156706910  0.8211748566046495  0.6245367010440503
  0.1626365156706910  0.1788251433953505  0.8754632989559497
  0.3373634843293090  0.1788251433953505  0.3754632989559497
  0.8373634843293090  0.8211748566046495  0.1245367010440503
  0.3619870161979222  0.5405936459976957  0.9693685124325455
  0.8619870161979222  0.4594063540023043  0.5306314875674545
  0.6380129838020778  0.4594063540023043  0.0306314875674545
  0.1380129838020778  0.5405936459976957  0.4693685124325455

  0.00000000E+00  0.00000000E+00  0.00000000E+00
  0.00000000E+00  0.00000000E+00  0.00000000E+00
  0.00000000E+00  0.00000000E+00  0.00000000E+00
  0.00000000E+00  0.00000000E+00  0.00000000E+00
  0.00000000E+00  0.00000000E+00  0.00000000E+00
  0.00000000E+00  0.00000000E+00  0.00000000E+00
  0.00000000E+00  0.00000000E+00  0.00000000E+00
  0.00000000E+00  0.00000000E+00  0.00000000E+00
  0.00000000E+00  0.00000000E+00  0.00000000E+00
  0.00000000E+00  0.00000000E+00  0.00000000E+00
  0.00000000E+00  0.00000000E+00  0.00000000E+00
  0.00000000E+00  0.00000000E+00  0.00000000E+00
  0.00000000E+00  0.00000000E+00  0.00000000E+00
  0.00000000E+00  0.00000000E+00  0.00000000E+00
  0.00000000E+00  0.00000000E+00  0.00000000E+00
  0.00000000E+00  0.00000000E+00  0.00000000E+00
  0.00000000E+00  0.00000000E+00  0.00000000E+00
  0.00000000E+00  0.00000000E+00  0.00000000E+00
  0.00000000E+00  0.00000000E+00  0.00000000E+00
  0.00000000E+00  0.00000000E+00  0.00000000E+00
  0.00000000E+00  0.00000000E+00  0.00000000E+00
  0.00000000E+00  0.00000000E+00  0.00000000E+00
  0.00000000E+00  0.00000000E+00  0.00000000E+00
  0.00000000E+00  0.00000000E+00  0.00000000E+00
  0.00000000E+00  0.00000000E+00  0.00000000E+00
  0.00000000E+00  0.00000000E+00  0.00000000E+00
  0.00000000E+00  0.00000000E+00  0.00000000E+00
  0.00000000E+00  0.00000000E+00  0.00000000E+00
