Sr2Al2Br                                
   1.00000000000000     
     4.5037431526117251    0.0000199209030425    0.0000238830851341
    -2.2518545105140251    3.9003212053646266   -0.0000713181477237
     0.0000950893242829   -0.0002709968264728   17.7835436711233470
   Al   Br   Sr
     4     2     4
Direct
  0.3332991075346072  0.6666690048532899  0.0037518603267728
  0.3333141117667893  0.6666397297007833  0.4963831391629228
  0.6666548920148259  0.3333069474325541  0.5036123554564824
  0.6666376593225891  0.3333370566609020  0.9964400402990776
  0.6666811747615569  0.3333458098148725  0.2500218433984074
  0.3334953020746951  0.6667541974148250  0.7499937541524062
  0.9999967086745727  0.9999895866858495  0.1232003938973065
  0.9999846062899636  0.9999607155035051  0.3768699322008402
  0.9999822532253972  0.9999865142790227  0.6231466770761784
  0.9999541843349959  0.0000104376543888  0.8768600040296093
 
  0.00000000E+00  0.00000000E+00  0.00000000E+00
  0.00000000E+00  0.00000000E+00  0.00000000E+00
  0.00000000E+00  0.00000000E+00  0.00000000E+00
  0.00000000E+00  0.00000000E+00  0.00000000E+00
  0.00000000E+00  0.00000000E+00  0.00000000E+00
  0.00000000E+00  0.00000000E+00  0.00000000E+00
  0.00000000E+00  0.00000000E+00  0.00000000E+00
  0.00000000E+00  0.00000000E+00  0.00000000E+00
  0.00000000E+00  0.00000000E+00  0.00000000E+00
  0.00000000E+00  0.00000000E+00  0.00000000E+00
