Ca2 B2 I10                              
   1.0000000000000000     
     5.0847791130076558   -0.0000000000000001    0.0000000000000001
    -0.0000000000000007   12.7800405638686829    0.0000000000000005
    -0.0000000000000001    0.0000000000000002    9.6817963816614760
   Ca   B    I 
     2     2    10
Direct
  0.0000000000000000  0.0000000000000000  0.5000000000000000
  0.5000000000000000  0.5000000000000000  0.0000000000000000
  0.5000000000000000  0.0000000000000000  0.0000000000000000
  0.0000000000000000  0.5000000000000000  0.5000000000000000
  0.5000000000000000  0.7289485596123626  0.5000000000000000
  0.5000000000000000  0.2710514403876374  0.5000000000000000
  0.5000000000000000  0.0000000000000000  0.2984304985046009
  0.5000000000000000  0.0000000000000000  0.7015695014953991
  0.0000000000000000  0.0000000000000000  0.0000000000000000
  0.0000000000000000  0.2289485596123626  0.0000000000000000
  0.0000000000000000  0.7710514403876374  0.0000000000000000
  0.0000000000000000  0.5000000000000000  0.7984304985046009
  0.0000000000000000  0.5000000000000000  0.2015695014953991
  0.5000000000000000  0.5000000000000000  0.5000000000000000

  0.00000000E+00  0.00000000E+00  0.00000000E+00
  0.00000000E+00  0.00000000E+00  0.00000000E+00
  0.00000000E+00  0.00000000E+00  0.00000000E+00
  0.00000000E+00  0.00000000E+00  0.00000000E+00
  0.00000000E+00  0.00000000E+00  0.00000000E+00
  0.00000000E+00  0.00000000E+00  0.00000000E+00
  0.00000000E+00  0.00000000E+00  0.00000000E+00
  0.00000000E+00  0.00000000E+00  0.00000000E+00
  0.00000000E+00  0.00000000E+00  0.00000000E+00
  0.00000000E+00  0.00000000E+00  0.00000000E+00
  0.00000000E+00  0.00000000E+00  0.00000000E+00
  0.00000000E+00  0.00000000E+00  0.00000000E+00
  0.00000000E+00  0.00000000E+00  0.00000000E+00
  0.00000000E+00  0.00000000E+00  0.00000000E+00
