Be6 Ga4                                 
   1.00000000000000     
    -4.3112541477207014    0.0095328736495541   -0.0627024579353803
     2.1630853188402059   -3.7270757872928155    0.0536794581239937
    -2.0160992213151290    1.1844501640325387    7.8023470614236468
   Ga   Be
     4     6
Direct
  0.3085335317262405  0.6924648392113895  0.0726231546408656
  0.1921692519178109  0.8079381072431318  0.4274139492957900
  0.8078307480821891  0.1920618927568682  0.5725860507042100
  0.6914664682737595  0.3075351607886105  0.9273768453591344
  0.2506796857851867  0.2501283571208788  0.2497040603478595
  0.7506365300883928  0.2504933540090732  0.2502605551408550
  0.7504818921795362  0.7503625670430480  0.2502163552511334
  0.2495181078204638  0.2496374329569520  0.7497836447488666
  0.2493634699116072  0.7495066459909268  0.7497394448591450
  0.7493203142148133  0.7498716428791212  0.7502959396521405
 
  0.00000000E+00  0.00000000E+00  0.00000000E+00
  0.00000000E+00  0.00000000E+00  0.00000000E+00
  0.00000000E+00  0.00000000E+00  0.00000000E+00
  0.00000000E+00  0.00000000E+00  0.00000000E+00
  0.00000000E+00  0.00000000E+00  0.00000000E+00
  0.00000000E+00  0.00000000E+00  0.00000000E+00
  0.00000000E+00  0.00000000E+00  0.00000000E+00
  0.00000000E+00  0.00000000E+00  0.00000000E+00
  0.00000000E+00  0.00000000E+00  0.00000000E+00
  0.00000000E+00  0.00000000E+00  0.00000000E+00
