AlF2                                    
   1.00000000000000     
     2.3248735551121325    2.9824035387845624    5.7043694767149145
    -2.3248735551121325    2.9824035387845624    5.7043694767149145
     0.0000000000000000   -1.0779810426492840    4.4363119332987617
   Al   F 
     2     4
Direct
  0.2064558266741940  0.2064558266741940  0.4690262576274549
  0.5435441733258060  0.5435441733258060  0.2809737423725451
  0.3750000000000000  0.8750000000000000  0.3750000000000000
  0.8750000000000000  0.3750000000000000  0.3750000000000000
  0.3750000000000000  0.3750000000000000  0.3750000000000000
  0.3750000000000000  0.3750000000000000  0.8750000000000000
 
  0.00000000E+00  0.00000000E+00  0.00000000E+00
  0.00000000E+00  0.00000000E+00  0.00000000E+00
  0.00000000E+00  0.00000000E+00  0.00000000E+00
  0.00000000E+00  0.00000000E+00  0.00000000E+00
  0.00000000E+00  0.00000000E+00  0.00000000E+00
  0.00000000E+00  0.00000000E+00  0.00000000E+00
