Ba17 Al11 Br1                           
   1.00000000000000     
     8.9013479370544033   -5.8683344090603420    3.5381089252109934
     0.2119176236194354   12.5401119515633503    4.0338942378101361
    -8.8074352524294586   -6.0516301448746423    3.0382498308628483
   Al   Br   Ba
    11     1    17
Direct
  0.6767455258236126  0.9916083013750026  0.0516166888205021
  0.4027321828168198  0.4195114551766608  0.3301008107540966
  0.1649575800116097  0.6949749591050391  0.1269753011285033
  0.8531312035779806  0.2558748123763266  0.1598269477412444
  0.1627456073871159  0.4095480473299133  0.3461826657752383
  0.3543331722974585  0.1896233369260969  0.3026170105583006
  0.0842202672740058  0.8782332311946632  0.6664533423859780
  0.7933389578353527  0.0392252242721653  0.6360311773273466
  0.6650211651016562  0.0458833244612435  0.8274659529335011
  0.1039509453199727  0.5419664273719818  0.8316347663176700
  0.0456271760731326  0.0490225152368708  0.6193981140668114
  0.6401332202782370  0.5109654875829364  0.0155088934020000
  0.1727993926800906  0.3686215616329491  0.9705966279977005
  0.4946645688837918  0.7109583153010561  0.0518983089102250
  0.1361617224659142  0.8467421762241472  0.9527865966643745
  0.4795486951814567  0.1920157457440581  0.0230212716840157
  0.0197467662971604  0.0942396949835356  0.0024842495964847
  0.7224715470146847  0.7018541960779814  0.3882558241470164
  0.9819700937831684  0.5877315714712168  0.3012674165700844
  0.5180220611936335  0.0227134507229678  0.3124917134890026
  0.9623031488887079  0.8768418219234206  0.2074163946630421
  0.4151313951784985  0.7270207116348288  0.4165072088466957
  0.7629435728931568  0.4481011111348963  0.5068959573341658
  0.3217021283069457  0.0047518481951201  0.5520576612416406
  0.9478318724038246  0.2163857577531729  0.4726188048004403
  0.6628620817451534  0.7390429240374843  0.7363773455994505
  0.2957914825366998  0.7264374745349542  0.7140952086348733
  0.7927850871883493  0.3452580871186797  0.8403838247238795
  0.3667413795618160  0.3630024291006180  0.6370339138857304
 
  0.00000000E+00  0.00000000E+00  0.00000000E+00
  0.00000000E+00  0.00000000E+00  0.00000000E+00
  0.00000000E+00  0.00000000E+00  0.00000000E+00
  0.00000000E+00  0.00000000E+00  0.00000000E+00
  0.00000000E+00  0.00000000E+00  0.00000000E+00
  0.00000000E+00  0.00000000E+00  0.00000000E+00
  0.00000000E+00  0.00000000E+00  0.00000000E+00
  0.00000000E+00  0.00000000E+00  0.00000000E+00
  0.00000000E+00  0.00000000E+00  0.00000000E+00
  0.00000000E+00  0.00000000E+00  0.00000000E+00
  0.00000000E+00  0.00000000E+00  0.00000000E+00
  0.00000000E+00  0.00000000E+00  0.00000000E+00
  0.00000000E+00  0.00000000E+00  0.00000000E+00
  0.00000000E+00  0.00000000E+00  0.00000000E+00
  0.00000000E+00  0.00000000E+00  0.00000000E+00
  0.00000000E+00  0.00000000E+00  0.00000000E+00
  0.00000000E+00  0.00000000E+00  0.00000000E+00
  0.00000000E+00  0.00000000E+00  0.00000000E+00
  0.00000000E+00  0.00000000E+00  0.00000000E+00
  0.00000000E+00  0.00000000E+00  0.00000000E+00
  0.00000000E+00  0.00000000E+00  0.00000000E+00
  0.00000000E+00  0.00000000E+00  0.00000000E+00
  0.00000000E+00  0.00000000E+00  0.00000000E+00
  0.00000000E+00  0.00000000E+00  0.00000000E+00
  0.00000000E+00  0.00000000E+00  0.00000000E+00
  0.00000000E+00  0.00000000E+00  0.00000000E+00
  0.00000000E+00  0.00000000E+00  0.00000000E+00
  0.00000000E+00  0.00000000E+00  0.00000000E+00
  0.00000000E+00  0.00000000E+00  0.00000000E+00
