Mg4 Ga4 Cl12                            
   1.00000000000000     
     9.3066222878279099    0.0000000000000000    0.0002060317033442
     0.0000000000000000    3.7439114283744286    0.0000000000000000
     0.0005206880029361    0.0000000000000000   14.7788058805687577
   Cl   Ga   Mg
    12     4     4
Direct
  0.1812629399892458  0.2500000000000000  0.0000858532493240
  0.4820506268971911  0.7500000000000000  0.0974743741312381
  0.7687920546178475  0.2500000000000000  0.2028293922280611
  0.2688645380112220  0.2500000000000000  0.2972392707252141
  0.9823383542705955  0.7500000000000000  0.4026331833016528
  0.6813886041709623  0.2500000000000000  0.4998561153579431
  0.3187013792186519  0.7500000000000000  0.5000135216496133
  0.0177452674803646  0.2500000000000000  0.5972699711737093
  0.7311142935455521  0.7500000000000000  0.7026222940384201
  0.2311658314749678  0.7500000000000000  0.7973475877994858
  0.5177032518752256  0.2500000000000000  0.9028135907455521
  0.8184704933699507  0.7500000000000000  0.0000849628811537
  0.9781640090142716  0.7500000000000000  0.1691876951823232
  0.4782429832343809  0.7500000000000000  0.3307924972097709
  0.5218004861049721  0.2500000000000000  0.6691072763445618
  0.0218189902277857  0.2500000000000000  0.8308469054836465
  0.6566620126910721  0.2500000000000000  0.0508092761761461
  0.1568970112416963  0.2500000000000000  0.4493169738486458
  0.8431861715414897  0.7500000000000000  0.5505447727464983
  0.3431307010225595  0.7500000000000000  0.9494544857270242
 
  0.00000000E+00  0.00000000E+00  0.00000000E+00
  0.00000000E+00  0.00000000E+00  0.00000000E+00
  0.00000000E+00  0.00000000E+00  0.00000000E+00
  0.00000000E+00  0.00000000E+00  0.00000000E+00
  0.00000000E+00  0.00000000E+00  0.00000000E+00
  0.00000000E+00  0.00000000E+00  0.00000000E+00
  0.00000000E+00  0.00000000E+00  0.00000000E+00
  0.00000000E+00  0.00000000E+00  0.00000000E+00
  0.00000000E+00  0.00000000E+00  0.00000000E+00
  0.00000000E+00  0.00000000E+00  0.00000000E+00
  0.00000000E+00  0.00000000E+00  0.00000000E+00
  0.00000000E+00  0.00000000E+00  0.00000000E+00
  0.00000000E+00  0.00000000E+00  0.00000000E+00
  0.00000000E+00  0.00000000E+00  0.00000000E+00
  0.00000000E+00  0.00000000E+00  0.00000000E+00
  0.00000000E+00  0.00000000E+00  0.00000000E+00
  0.00000000E+00  0.00000000E+00  0.00000000E+00
  0.00000000E+00  0.00000000E+00  0.00000000E+00
  0.00000000E+00  0.00000000E+00  0.00000000E+00
  0.00000000E+00  0.00000000E+00  0.00000000E+00
