BeBr                                    
   1.00000000000000     
     0.0000000000000000    2.6465485635313160    2.6465485635313160
     2.6465485635313160    0.0000000000000000    2.6465485635313160
     2.6465485635313160    2.6465485635313160    0.0000000000000000
   Be   Br
     1     1
Direct
  0.0000000000000000  0.0000000000000000  0.0000000000000000
  0.5000000000000000  0.5000000000000000  0.5000000000000000
 
  0.00000000E+00  0.00000000E+00  0.00000000E+00
  0.00000000E+00  0.00000000E+00  0.00000000E+00
