Mg4 B4 F20                              
   1.0000000000000000     
     3.8593878908678416   -0.0000000000000000    0.0000000000000002
    -0.0000000000000003    5.5119422421977760    0.0000000000000003
    -0.0000000000000001   -0.0000000000000001   13.0770077496074730
   Mg   B    F 
     4     4    20
Direct
  0.5177413457392106  0.3975609020565116  0.4357031874540027
  0.0177413457392106  0.1024390979434884  0.5642968125459973
  0.4822586542607823  0.8975609020565116  0.0642968125459973
  0.9822586542607823  0.6024390979434884  0.9357031874540027
  0.2536662460856149  0.8923535017649300  0.3449224017566053
  0.7536662460856149  0.6076464982350700  0.6550775982433876
  0.7463337539143851  0.3923535017649300  0.1550775982433876
  0.2463337539143851  0.1076464982350700  0.8449224017565982
  0.5467044909187422  0.6144099040427307  0.5644115816278017
  0.0467044909187351  0.8855900959572693  0.4355884183721983
  0.4532955090812578  0.1144099040427307  0.9355884183721983
  0.9532955090812578  0.3855900959572693  0.0644115816278017
  0.0622201034281389  0.8875555915843023  0.2580305440989008
  0.5622201034281389  0.6124444084156977  0.7419694559010992
  0.9377798965718611  0.3875555915843023  0.2419694559010992
  0.4377798965718611  0.1124444084156977  0.7580305440989008
  0.9846740961032481  0.8655719987342607  0.0470315723320454
  0.4846740961032410  0.6344280012657393  0.9529684276679546
  0.0153259038967519  0.3655719987342607  0.4529684276679546
  0.5153259038967519  0.1344280012657393  0.5470315723320454
  0.5314887921761127  0.6015457319151736  0.1523993992936283
  0.0314887921761127  0.8984542680848264  0.8476006007063717
  0.4685112078238873  0.1015457319151736  0.3476006007063717
  0.9685112078238873  0.3984542680848264  0.6523993992936283
  0.0245266840225113  0.3154482900714655  0.8507007008386012
  0.5245266840225113  0.1845517099285345  0.1492992991613988
  0.9754733159774887  0.8154482900714655  0.6492992991613988
  0.4754733159774887  0.6845517099285345  0.3507007008386012

  0.00000000E+00  0.00000000E+00  0.00000000E+00
  0.00000000E+00  0.00000000E+00  0.00000000E+00
  0.00000000E+00  0.00000000E+00  0.00000000E+00
  0.00000000E+00  0.00000000E+00  0.00000000E+00
  0.00000000E+00  0.00000000E+00  0.00000000E+00
  0.00000000E+00  0.00000000E+00  0.00000000E+00
  0.00000000E+00  0.00000000E+00  0.00000000E+00
  0.00000000E+00  0.00000000E+00  0.00000000E+00
  0.00000000E+00  0.00000000E+00  0.00000000E+00
  0.00000000E+00  0.00000000E+00  0.00000000E+00
  0.00000000E+00  0.00000000E+00  0.00000000E+00
  0.00000000E+00  0.00000000E+00  0.00000000E+00
  0.00000000E+00  0.00000000E+00  0.00000000E+00
  0.00000000E+00  0.00000000E+00  0.00000000E+00
  0.00000000E+00  0.00000000E+00  0.00000000E+00
  0.00000000E+00  0.00000000E+00  0.00000000E+00
  0.00000000E+00  0.00000000E+00  0.00000000E+00
  0.00000000E+00  0.00000000E+00  0.00000000E+00
  0.00000000E+00  0.00000000E+00  0.00000000E+00
  0.00000000E+00  0.00000000E+00  0.00000000E+00
  0.00000000E+00  0.00000000E+00  0.00000000E+00
  0.00000000E+00  0.00000000E+00  0.00000000E+00
  0.00000000E+00  0.00000000E+00  0.00000000E+00
  0.00000000E+00  0.00000000E+00  0.00000000E+00
  0.00000000E+00  0.00000000E+00  0.00000000E+00
  0.00000000E+00  0.00000000E+00  0.00000000E+00
  0.00000000E+00  0.00000000E+00  0.00000000E+00
  0.00000000E+00  0.00000000E+00  0.00000000E+00
