Be4 In4 I20                             
   1.0000000000000000     
     4.1855303457174768   -0.0000000000000002    0.0000000000000006
    -0.0000000000000002   10.0278385931895428    0.0000000000000011
    -0.0000000000000017    0.0000000000000003   33.7979663081726258
   Be   In   I 
     4     4    20
Direct
  0.1004429284444939  0.4178442462646288  0.3906723510788339
  0.6004429284444939  0.0821557537353712  0.6093276489211803
  0.8995570715554919  0.9178442462646288  0.1093276489211661
  0.3995570715554990  0.5821557537353712  0.8906723510788197
  0.1043786172970513  0.6770943124340221  0.3882795750945505
  0.6043786172970513  0.8229056875659779  0.6117204249054424
  0.8956213827029487  0.1770943124340221  0.1117204249054424
  0.3956213827029487  0.3229056875659779  0.8882795750945505
  0.0984099154743134  0.4003962575414235  0.4572462899268643
  0.5984099154743063  0.0996037424585623  0.5427537100731428
  0.9015900845256866  0.9003962575414306  0.0427537100731357
  0.4015900845256866  0.5996037424585694  0.9572462899268572
  0.3979649593717127  0.8483175950866126  0.1449725300096176
  0.8979649593717127  0.6516824049133874  0.8550274699903824
  0.6020350406282873  0.3483175950866126  0.3550274699903824
  0.1020350406282873  0.1516824049133874  0.6449725300096176
  0.8906802611497326  0.1506381185093346  0.9283473664948900
  0.3906802611497255  0.3493618814906654  0.0716526335050958
  0.1093197388502674  0.6506381185093346  0.5716526335051100
  0.6093197388502603  0.8493618814906654  0.4283473664949042
  0.5257233123194496  0.8769450670513805  0.3288348746619292
  0.0257233123194496  0.6230549329486195  0.6711651253380708
  0.4742766876805504  0.3769450670513805  0.1711651253380850
  0.9742766876805433  0.1230549329486195  0.8288348746619292
  0.9398197504234531  0.6284576504724626  0.7524220002641115
  0.4398197504234531  0.8715423495275374  0.2475779997358885
  0.0601802495765469  0.1284576504724626  0.7475779997358885
  0.5601802495765469  0.3715423495275374  0.2524220002641115

  0.00000000E+00  0.00000000E+00  0.00000000E+00
  0.00000000E+00  0.00000000E+00  0.00000000E+00
  0.00000000E+00  0.00000000E+00  0.00000000E+00
  0.00000000E+00  0.00000000E+00  0.00000000E+00
  0.00000000E+00  0.00000000E+00  0.00000000E+00
  0.00000000E+00  0.00000000E+00  0.00000000E+00
  0.00000000E+00  0.00000000E+00  0.00000000E+00
  0.00000000E+00  0.00000000E+00  0.00000000E+00
  0.00000000E+00  0.00000000E+00  0.00000000E+00
  0.00000000E+00  0.00000000E+00  0.00000000E+00
  0.00000000E+00  0.00000000E+00  0.00000000E+00
  0.00000000E+00  0.00000000E+00  0.00000000E+00
  0.00000000E+00  0.00000000E+00  0.00000000E+00
  0.00000000E+00  0.00000000E+00  0.00000000E+00
  0.00000000E+00  0.00000000E+00  0.00000000E+00
  0.00000000E+00  0.00000000E+00  0.00000000E+00
  0.00000000E+00  0.00000000E+00  0.00000000E+00
  0.00000000E+00  0.00000000E+00  0.00000000E+00
  0.00000000E+00  0.00000000E+00  0.00000000E+00
  0.00000000E+00  0.00000000E+00  0.00000000E+00
  0.00000000E+00  0.00000000E+00  0.00000000E+00
  0.00000000E+00  0.00000000E+00  0.00000000E+00
  0.00000000E+00  0.00000000E+00  0.00000000E+00
  0.00000000E+00  0.00000000E+00  0.00000000E+00
  0.00000000E+00  0.00000000E+00  0.00000000E+00
  0.00000000E+00  0.00000000E+00  0.00000000E+00
  0.00000000E+00  0.00000000E+00  0.00000000E+00
  0.00000000E+00  0.00000000E+00  0.00000000E+00
