Be22 Tl14                               
   1.0000000000000000     
    -6.2974498162051544    6.7154539042991273    0.1198546854167144
     6.2243682952037833    0.0000000000000000   -7.8474408300695666
    -6.2974498162051544   -6.7154539042991273    0.1198546854167144
   Be   Tl
    22    14
Direct
  0.9999265503550205  0.0000818318717961  0.9999265503550205
  0.2095703407805516  0.2363434159766200  0.0534271065500818
  0.9638303848759833  0.3534167589821564  0.4136222607809827
  0.5861901141778247  0.6464815257285608  0.0355703463947705
  0.4325192456145288  0.9749359332314782  0.2626931619696435
  0.3055662427782408  0.7559669321500166  0.3055662427782408
  0.5634040154637319  0.8391969994388688  0.2968660639546457
  0.0534271065500818  0.2363434159766200  0.2095703407805516
  0.2626931619696435  0.9749359332314782  0.4325192456145288
  0.5000003099531511  0.9999561437223363  0.5000003099531511
  0.7372475527604578  0.0248553503577540  0.5673614647166403
  0.4956691835798352  0.2066857579594199  0.4956691835798352
  0.7030833399191039  0.1606725786720418  0.4365909844423044
  0.2968660639546457  0.8391969994388688  0.5634040154637319
  0.5043406173885998  0.7932324782770550  0.5043406173885998
  0.9465233713621544  0.7637974969069532  0.7904475062126508
  0.5673614647166403  0.0248553503577540  0.7372475527604507
  0.4365909844423044  0.1606725786720418  0.7030833399191039
  0.6944841843593537  0.2439282481713576  0.6944841843593537
  0.4136222607809827  0.3534167589821564  0.9638303848759833
  0.0355703463947705  0.6464815257285608  0.5861901141778247
  0.7904475062126508  0.7637974969069532  0.9465233713621544
  0.7372899937559723  0.4769135561433799  0.9911553578725005
  0.1263691177238897  0.8744391573043231  0.1263691177238897
  0.7937930985318218  0.0000012660475761  0.2062473336663828
  0.3629963071831739  0.4824309512607527  0.3629963071831739
  0.5595065714465619  0.2258989248503980  0.1731830319021483
  0.8269682695208616  0.7741869031289212  0.4407577270295562
  0.0089406199619049  0.5232287517224563  0.2628081932788007
  0.9911553578725005  0.4769135561433799  0.7372899937559723
  0.1731830319021483  0.2258989248503980  0.5595065714465619
  0.4407577270295562  0.7741869031289212  0.8269682695208616
  0.2062473336663828  0.0000012660475761  0.7937930985318218
  0.8736707723597377  0.1259000779382049  0.8736707723597377
  0.6369792573764101  0.5175194989703868  0.6369792573764101
  0.2628081932788007  0.5232287517224563  0.0089406199619049

  0.00000000E+00  0.00000000E+00  0.00000000E+00
  0.00000000E+00  0.00000000E+00  0.00000000E+00
  0.00000000E+00  0.00000000E+00  0.00000000E+00
  0.00000000E+00  0.00000000E+00  0.00000000E+00
  0.00000000E+00  0.00000000E+00  0.00000000E+00
  0.00000000E+00  0.00000000E+00  0.00000000E+00
  0.00000000E+00  0.00000000E+00  0.00000000E+00
  0.00000000E+00  0.00000000E+00  0.00000000E+00
  0.00000000E+00  0.00000000E+00  0.00000000E+00
  0.00000000E+00  0.00000000E+00  0.00000000E+00
  0.00000000E+00  0.00000000E+00  0.00000000E+00
  0.00000000E+00  0.00000000E+00  0.00000000E+00
  0.00000000E+00  0.00000000E+00  0.00000000E+00
  0.00000000E+00  0.00000000E+00  0.00000000E+00
  0.00000000E+00  0.00000000E+00  0.00000000E+00
  0.00000000E+00  0.00000000E+00  0.00000000E+00
  0.00000000E+00  0.00000000E+00  0.00000000E+00
  0.00000000E+00  0.00000000E+00  0.00000000E+00
  0.00000000E+00  0.00000000E+00  0.00000000E+00
  0.00000000E+00  0.00000000E+00  0.00000000E+00
  0.00000000E+00  0.00000000E+00  0.00000000E+00
  0.00000000E+00  0.00000000E+00  0.00000000E+00
  0.00000000E+00  0.00000000E+00  0.00000000E+00
  0.00000000E+00  0.00000000E+00  0.00000000E+00
  0.00000000E+00  0.00000000E+00  0.00000000E+00
  0.00000000E+00  0.00000000E+00  0.00000000E+00
  0.00000000E+00  0.00000000E+00  0.00000000E+00
  0.00000000E+00  0.00000000E+00  0.00000000E+00
  0.00000000E+00  0.00000000E+00  0.00000000E+00
  0.00000000E+00  0.00000000E+00  0.00000000E+00
  0.00000000E+00  0.00000000E+00  0.00000000E+00
  0.00000000E+00  0.00000000E+00  0.00000000E+00
  0.00000000E+00  0.00000000E+00  0.00000000E+00
  0.00000000E+00  0.00000000E+00  0.00000000E+00
  0.00000000E+00  0.00000000E+00  0.00000000E+00
  0.00000000E+00  0.00000000E+00  0.00000000E+00
