Ba18 B11                                
   1.00000000000000     
     9.6961670475555817    7.5375251332492850   -0.6979310291171947
    -9.6961670475555817    7.5375251332492850   -0.6979310291171948
     0.0000000000000000    6.4638346455175171    7.1314954107773243
   Ba   B 
    18    11
Direct
  0.0080656297852073  0.0080656297852073  0.1702236924871841
  0.2698218666341887  0.5997455084851495  0.9008643091463426
  0.9351068807925316  0.2651196837216219  0.8518540989837859
  0.2651196837216219  0.9351068807925316  0.8518540989837859
  0.5997455084851495  0.2698218666341887  0.9008643091463426
  0.3193435838488696  0.3193435838488696  0.6430022453364472
  0.6992441135223828  0.6992441135223828  0.8621034453700034
  0.6068907174546752  0.0012781313330024  0.7817215497778207
  0.0012781313330024  0.6068907174546752  0.7817215497778207
  0.9573381010480730  0.9573381010480730  0.8034878664641667
  0.6162805399889990  0.0157048929633845  0.3690418211341679
  0.0157048929633845  0.6162805399889990  0.3690418211341679
  0.9832659909277623  0.2488833759903244  0.3814822600613326
  0.2488833759903244  0.9832659909277623  0.3814822600613326
  0.7120497108702892  0.7120497108702892  0.3311676866601871
  0.3857174353962023  0.6948458180240635  0.2817550869598833
  0.6948458180240635  0.3857174353962023  0.2817550869598833
  0.3521183109300239  0.3521183109300239  0.2421306821134763
  0.6744597747719681  0.8929973494951611  0.0478919231064410
  0.8929973494951540  0.6744597747719681  0.0478919231064410
  0.6778780107331954  0.0350773420730093  0.0210247440710134
  0.0350773420730093  0.6778780107331954  0.0210247440710134
  0.1649409723744668  0.4182073566895568  0.4573051855891066
  0.4182073566895568  0.1649409723744668  0.4573051855891066
  0.8164936365119146  0.9768670843099727  0.5333538180399771
  0.9768670843099727  0.8164936365119146  0.5333538180399771
  0.7705289183004851  0.9794158745176560  0.0875580943553729
  0.9794158745176560  0.7705289183004851  0.0875580943553729
  0.9223133885058274  0.9223133885058274  0.5201795991180447
 
  0.00000000E+00  0.00000000E+00  0.00000000E+00
  0.00000000E+00  0.00000000E+00  0.00000000E+00
  0.00000000E+00  0.00000000E+00  0.00000000E+00
  0.00000000E+00  0.00000000E+00  0.00000000E+00
  0.00000000E+00  0.00000000E+00  0.00000000E+00
  0.00000000E+00  0.00000000E+00  0.00000000E+00
  0.00000000E+00  0.00000000E+00  0.00000000E+00
  0.00000000E+00  0.00000000E+00  0.00000000E+00
  0.00000000E+00  0.00000000E+00  0.00000000E+00
  0.00000000E+00  0.00000000E+00  0.00000000E+00
  0.00000000E+00  0.00000000E+00  0.00000000E+00
  0.00000000E+00  0.00000000E+00  0.00000000E+00
  0.00000000E+00  0.00000000E+00  0.00000000E+00
  0.00000000E+00  0.00000000E+00  0.00000000E+00
  0.00000000E+00  0.00000000E+00  0.00000000E+00
  0.00000000E+00  0.00000000E+00  0.00000000E+00
  0.00000000E+00  0.00000000E+00  0.00000000E+00
  0.00000000E+00  0.00000000E+00  0.00000000E+00
  0.00000000E+00  0.00000000E+00  0.00000000E+00
  0.00000000E+00  0.00000000E+00  0.00000000E+00
  0.00000000E+00  0.00000000E+00  0.00000000E+00
  0.00000000E+00  0.00000000E+00  0.00000000E+00
  0.00000000E+00  0.00000000E+00  0.00000000E+00
  0.00000000E+00  0.00000000E+00  0.00000000E+00
  0.00000000E+00  0.00000000E+00  0.00000000E+00
  0.00000000E+00  0.00000000E+00  0.00000000E+00
  0.00000000E+00  0.00000000E+00  0.00000000E+00
  0.00000000E+00  0.00000000E+00  0.00000000E+00
  0.00000000E+00  0.00000000E+00  0.00000000E+00
