Sr4 In4 Br2                             
   1.00000000000000     
     4.7665219195227859    0.0014584884100070   -0.0016889747856754
    -2.3819965457421968    4.1258637067416020    0.0019780061292132
    -0.0060912970400340    0.0047350174241470   18.0152983403200544
   In   Br   Sr
     4     2     4
Direct
  0.3331702540924866  0.6665967638469397  0.0195374317307184
  0.3331634054260419  0.6667407735461950  0.4804850840100272
  0.6668271689724108  0.3333737766362646  0.5195710953939212
  0.6667775167041512  0.3333732304285064  0.9805189934858944
  0.6681960522418748  0.3340483741709477  0.2500447294489732
  0.3318879021301555  0.6657487775020741  0.7500032941196437
  0.9997599802263721  0.9996575001113825  0.1271199840461037
  0.9997620529011684  0.0001902641730638  0.3729555267667521
  0.0002511971250669  0.9999503637178364  0.6271047891780910
  0.0002044701802717  0.0003201758667899  0.8729390718198786
 
  0.00000000E+00  0.00000000E+00  0.00000000E+00
  0.00000000E+00  0.00000000E+00  0.00000000E+00
  0.00000000E+00  0.00000000E+00  0.00000000E+00
  0.00000000E+00  0.00000000E+00  0.00000000E+00
  0.00000000E+00  0.00000000E+00  0.00000000E+00
  0.00000000E+00  0.00000000E+00  0.00000000E+00
  0.00000000E+00  0.00000000E+00  0.00000000E+00
  0.00000000E+00  0.00000000E+00  0.00000000E+00
  0.00000000E+00  0.00000000E+00  0.00000000E+00
  0.00000000E+00  0.00000000E+00  0.00000000E+00
