Be2 Al2 I6                              
   1.00000000000000     
     1.8974614685740701   -7.6509205589055531    0.0000000000000000
     1.8974614685740701    7.6509205589055531    0.0000000000000000
     0.0000000000000000    0.0000000000000000   12.1747129157288327
   Be   Al   I 
     2     2     6
Direct
  0.0000000000000000  0.0000000000000000  0.0000000000000000
  0.0000000000000000  0.0000000000000000  0.5000000000000000
  0.3338363884541238  0.6661636115458762  0.2500000000000000
  0.6661636115458762  0.3338363884541238  0.7500000000000000
  0.6164206624930486  0.3835793375069443  0.0142026589571387
  0.3835793375069443  0.6164206624930486  0.9857973410428613
  0.3835793375069443  0.6164206624930486  0.5142026589571387
  0.6164206624930486  0.3835793375069443  0.4857973410428613
  0.9815624166323786  0.0184375833676214  0.2500000000000000
  0.0184375833676214  0.9815624166323786  0.7500000000000000
 
  0.00000000E+00  0.00000000E+00  0.00000000E+00
  0.00000000E+00  0.00000000E+00  0.00000000E+00
  0.00000000E+00  0.00000000E+00  0.00000000E+00
  0.00000000E+00  0.00000000E+00  0.00000000E+00
  0.00000000E+00  0.00000000E+00  0.00000000E+00
  0.00000000E+00  0.00000000E+00  0.00000000E+00
  0.00000000E+00  0.00000000E+00  0.00000000E+00
  0.00000000E+00  0.00000000E+00  0.00000000E+00
  0.00000000E+00  0.00000000E+00  0.00000000E+00
  0.00000000E+00  0.00000000E+00  0.00000000E+00
