Sr28 Al11                               
   1.00000000000000     
     5.7375072422076787   -0.0000000029467054   -0.4934841205861872
    -0.0841241932847141    8.0554777560652564   -0.9780693027222169
     0.0010235386754501   -0.0064521005312103   33.6122543239378402
   Sr   Al
    28    11
Direct
  0.8179630319154896  0.9158408473851125  0.6359260640659485
  0.5595866920521289  0.2343561363597360  0.1191743840456283
  0.7240796835540095  0.2501878629755581  0.4481583668949085
  0.6371294298432062  0.1713963270402701  0.2742588595905104
  0.3240260125462058  0.2393050146290321  0.6480520253007001
  0.8531350682407250  0.5655826589036650  0.7062701365701685
  0.5434349687697306  0.6729110789793395  0.0868689375561686
  0.9999999999783427  0.5612841244441569  0.9999999999838067
  0.6170752587504396  0.5917343335146512  0.2341495175286781
  0.9171607841428013  0.5343324830422915  0.8343225683320341
  0.2623074586132645  0.2546247751022435  0.5246149173671313
  0.2759203164567836  0.8020294958645522  0.5518416331134404
  0.9035913226718577  0.9923688674426998  0.8071816453744063
  0.3628705701759429  0.8971384673672347  0.7257411404239420
  0.4565650312228584  0.5860421414334596  0.9131310624380973
  0.6759739874571125  0.5912529895540004  0.3519479747025613
  0.4404133079444748  0.1151817522475369  0.8808256159519701
  0.1468649317473165  0.8593135224161372  0.2937308634199596
  0.0964086773305866  0.1851872221041475  0.1928183546270361
  0.7937663059684468  0.4670160825787804  0.5875326121434270
  0.3829247412386536  0.3575848160042199  0.7658504824634633
  0.4999999999921485  0.2454290452363566  0.9999999999937472
  0.7376925413902171  0.7300108578894182  0.4753850826351069
  0.9701194418850818  0.9329785007890692  0.9402388837001183
  0.0828392158550599  0.7000099147572953  0.1656774316667651
  0.2062336940409111  0.8794834706649510  0.4124673878630034
  0.1820369680812846  0.2799147835674916  0.3640739359315575
  0.0298805581440291  0.9927406170437294  0.0597611163225338
  0.6800198297541797  0.0009565587617146  0.3600396592512070
  0.1393438599034340  0.4478835022893435  0.2786877196312147
  0.7730280425268674  0.0615420438144199  0.5460570852603297
  0.9567384192082500  0.3167689280162662  0.9134768384100553
  0.3199801702343663  0.6409178992238438  0.6399603407383694
  0.8606561401009998  0.1691947824744418  0.7213122803740077
  0.0432615807938532  0.4032930896013767  0.0865231615897528
  0.5907592733006126  0.9324451504094284  0.1815175465441143
  0.4092407266969147  0.7509276038016637  0.8184824534535764
  0.2269719574626379  0.5154849587636861  0.4539429147330978
  0.5000000000088036  0.8393462935066793  0.0000000000074039
 
  0.00000000E+00  0.00000000E+00  0.00000000E+00
  0.00000000E+00  0.00000000E+00  0.00000000E+00
  0.00000000E+00  0.00000000E+00  0.00000000E+00
  0.00000000E+00  0.00000000E+00  0.00000000E+00
  0.00000000E+00  0.00000000E+00  0.00000000E+00
  0.00000000E+00  0.00000000E+00  0.00000000E+00
  0.00000000E+00  0.00000000E+00  0.00000000E+00
  0.00000000E+00  0.00000000E+00  0.00000000E+00
  0.00000000E+00  0.00000000E+00  0.00000000E+00
  0.00000000E+00  0.00000000E+00  0.00000000E+00
  0.00000000E+00  0.00000000E+00  0.00000000E+00
  0.00000000E+00  0.00000000E+00  0.00000000E+00
  0.00000000E+00  0.00000000E+00  0.00000000E+00
  0.00000000E+00  0.00000000E+00  0.00000000E+00
  0.00000000E+00  0.00000000E+00  0.00000000E+00
  0.00000000E+00  0.00000000E+00  0.00000000E+00
  0.00000000E+00  0.00000000E+00  0.00000000E+00
  0.00000000E+00  0.00000000E+00  0.00000000E+00
  0.00000000E+00  0.00000000E+00  0.00000000E+00
  0.00000000E+00  0.00000000E+00  0.00000000E+00
  0.00000000E+00  0.00000000E+00  0.00000000E+00
  0.00000000E+00  0.00000000E+00  0.00000000E+00
  0.00000000E+00  0.00000000E+00  0.00000000E+00
  0.00000000E+00  0.00000000E+00  0.00000000E+00
  0.00000000E+00  0.00000000E+00  0.00000000E+00
  0.00000000E+00  0.00000000E+00  0.00000000E+00
  0.00000000E+00  0.00000000E+00  0.00000000E+00
  0.00000000E+00  0.00000000E+00  0.00000000E+00
  0.00000000E+00  0.00000000E+00  0.00000000E+00
  0.00000000E+00  0.00000000E+00  0.00000000E+00
  0.00000000E+00  0.00000000E+00  0.00000000E+00
  0.00000000E+00  0.00000000E+00  0.00000000E+00
  0.00000000E+00  0.00000000E+00  0.00000000E+00
  0.00000000E+00  0.00000000E+00  0.00000000E+00
  0.00000000E+00  0.00000000E+00  0.00000000E+00
  0.00000000E+00  0.00000000E+00  0.00000000E+00
  0.00000000E+00  0.00000000E+00  0.00000000E+00
  0.00000000E+00  0.00000000E+00  0.00000000E+00
  0.00000000E+00  0.00000000E+00  0.00000000E+00
