Ca16 Tl13                               
   1.0000000000000000     
     9.1424386160024831   -5.7461341341309096    3.6919325203086646
    -0.4846887279885105   10.6906854776784588    3.7477739397429572
    -8.2164582628219343   -4.6547369464172696    2.9587436778236667
   Tl   Ca
    13    16
Direct
  0.6209774295403605  0.7931612635949890  0.0005801373972574
  0.8984434956878857  0.7319496510948085  0.0799487518978523
  0.6283414993568996  0.4623324392246104  0.0340089753902788
  0.3213336697372000  0.3321093220161586  0.2409462316205051
  0.1647953549464987  0.6279716633913992  0.0718517270191086
  0.7616430608567697  0.1956557901684732  0.1901274110938118
  0.4420128102616303  0.1806308579582563  0.4013411361555868
  0.1375769711819856  0.4191172078293874  0.4278674524336168
  0.7312719985235816  0.0036513124817432  0.5980113459883114
  0.0479688365052766  0.8061991080556368  0.6370683717016803
  0.5715409436506391  0.9733179203240638  0.8020428650728846
  0.9076164032282392  0.5729648000558356  0.7607171702228612
  0.0957407194590800  0.1204421532368798  0.7273567741021623
  0.4178797652315822  0.1384270572317803  0.9505197886124321
  0.1624152102815017  0.9298954558445303  0.0427639840850489
  0.9970739609962607  0.2540310383032107  0.0029424396541771
  0.3508525637476367  0.4842956914082848  0.0066218549400503
  0.7822465588330729  0.7923078024999484  0.3547907235563059
  0.5248727019323809  0.9526404358708120  0.2495404732063307
  0.9656377143555446  0.5518250745807194  0.2682786249822442
  0.0137040763568663  0.0797938496473805  0.2874562737710633
  0.6806828818227686  0.4426463882761880  0.3894317107980214
  0.3965747577976302  0.6770710346177680  0.4261633941498175
  0.9488566584309339  0.3007589986520429  0.6029553271644943
  0.2538347067094193  0.9466591548023473  0.4856968087238798
  0.7836892923025545  0.8074652601283177  0.7623998134754402
  0.6887821883712135  0.2861992713039214  0.7669397203753334
  0.2718707640582565  0.7090171705515544  0.7682441692635678
  0.4314330058362827  0.4276228268489888  0.6633895431459038

  0.00000000E+00  0.00000000E+00  0.00000000E+00
  0.00000000E+00  0.00000000E+00  0.00000000E+00
  0.00000000E+00  0.00000000E+00  0.00000000E+00
  0.00000000E+00  0.00000000E+00  0.00000000E+00
  0.00000000E+00  0.00000000E+00  0.00000000E+00
  0.00000000E+00  0.00000000E+00  0.00000000E+00
  0.00000000E+00  0.00000000E+00  0.00000000E+00
  0.00000000E+00  0.00000000E+00  0.00000000E+00
  0.00000000E+00  0.00000000E+00  0.00000000E+00
  0.00000000E+00  0.00000000E+00  0.00000000E+00
  0.00000000E+00  0.00000000E+00  0.00000000E+00
  0.00000000E+00  0.00000000E+00  0.00000000E+00
  0.00000000E+00  0.00000000E+00  0.00000000E+00
  0.00000000E+00  0.00000000E+00  0.00000000E+00
  0.00000000E+00  0.00000000E+00  0.00000000E+00
  0.00000000E+00  0.00000000E+00  0.00000000E+00
  0.00000000E+00  0.00000000E+00  0.00000000E+00
  0.00000000E+00  0.00000000E+00  0.00000000E+00
  0.00000000E+00  0.00000000E+00  0.00000000E+00
  0.00000000E+00  0.00000000E+00  0.00000000E+00
  0.00000000E+00  0.00000000E+00  0.00000000E+00
  0.00000000E+00  0.00000000E+00  0.00000000E+00
  0.00000000E+00  0.00000000E+00  0.00000000E+00
  0.00000000E+00  0.00000000E+00  0.00000000E+00
  0.00000000E+00  0.00000000E+00  0.00000000E+00
  0.00000000E+00  0.00000000E+00  0.00000000E+00
  0.00000000E+00  0.00000000E+00  0.00000000E+00
  0.00000000E+00  0.00000000E+00  0.00000000E+00
  0.00000000E+00  0.00000000E+00  0.00000000E+00
