MgAl2                                   
   1.00000000000000     
    -2.7073086709373695    2.7073086709373695    3.8472102860859949
     2.7073086709373695   -2.7073086709373695    3.8472102860859949
     2.7073086709373695    2.7073086709373695   -3.8472102860859949
   Al   Mg
     4     2
Direct
  0.3750000000000000  0.6250000000000000  0.2500000000000000
  0.8750000000000000  0.6250000000000000  0.2500000000000000
  0.3750000000000000  0.1250000000000000  0.7500000000000000
  0.3750000000000000  0.6250000000000000  0.7500000000000000
  0.0000000000000000  0.0000000000000000  0.0000000000000000
  0.7500000000000000  0.2500000000000000  0.5000000000000000
 
  0.00000000E+00  0.00000000E+00  0.00000000E+00
  0.00000000E+00  0.00000000E+00  0.00000000E+00
  0.00000000E+00  0.00000000E+00  0.00000000E+00
  0.00000000E+00  0.00000000E+00  0.00000000E+00
  0.00000000E+00  0.00000000E+00  0.00000000E+00
  0.00000000E+00  0.00000000E+00  0.00000000E+00
