Ba4 B4 I20                              
   1.0000000000000000     
    10.4715745671526808   -0.0000000000000004    0.0000000000000006
    -0.0000000000000011   10.0844495951059479    0.0000000000000005
     0.0000000000000010    0.0000000000000005   14.4950121794903222
   Ba   B    I 
     4     4    20
Direct
  0.5917697299178144  0.7537106290178173  0.6274134265135771
  0.0917697299178144  0.7462893709821827  0.3725865734864229
  0.4082302700821856  0.2537106290178173  0.8725865734864229
  0.9082302700821856  0.2462893709821827  0.1274134265135842
  0.1348989968428000  0.1038111217669524  0.6145393550961487
  0.6348989968428000  0.3961888782330476  0.3854606449038585
  0.8651010031572000  0.6038111217669524  0.8854606449038513
  0.3651010031572000  0.8961888782330476  0.1145393550961487
  0.8866531206468125  0.6796386448686107  0.5456882118317239
  0.3866531206468125  0.8203613551313893  0.4543117881682761
  0.1133468793531875  0.1796386448686036  0.9543117881682761
  0.6133468793531875  0.3203613551313893  0.0456882118317239
  0.6667574463867822  0.5638735323405868  0.3012219789307196
  0.1667574463867822  0.9361264676594132  0.6987780210692733
  0.3332425536132178  0.0638735323405939  0.1987780210692733
  0.8332425536132178  0.4361264676594061  0.8012219789307196
  0.1956705566441315  0.2963225588418013  0.6580948678998908
  0.6956705566441244  0.2036774411581987  0.3419051321001092
  0.8043294433558756  0.7963225588418013  0.8419051321001092
  0.3043294433558685  0.7036774411581987  0.1580948678998908
  0.5871611769940159  0.0642140650205079  0.7270427318251578
  0.0871611769940159  0.4357859349794921  0.2729572681748422
  0.4128388230059841  0.5642140650205079  0.7729572681748422
  0.9128388230059841  0.9357859349794921  0.2270427318251578
  0.5415428855010660  0.4110685650854791  0.5162477969143850
  0.0415428855010660  0.0889314349145209  0.4837522030856078
  0.4584571144989340  0.9110685650854791  0.9837522030856150
  0.9584571144989340  0.5889314349145209  0.0162477969143850

  0.00000000E+00  0.00000000E+00  0.00000000E+00
  0.00000000E+00  0.00000000E+00  0.00000000E+00
  0.00000000E+00  0.00000000E+00  0.00000000E+00
  0.00000000E+00  0.00000000E+00  0.00000000E+00
  0.00000000E+00  0.00000000E+00  0.00000000E+00
  0.00000000E+00  0.00000000E+00  0.00000000E+00
  0.00000000E+00  0.00000000E+00  0.00000000E+00
  0.00000000E+00  0.00000000E+00  0.00000000E+00
  0.00000000E+00  0.00000000E+00  0.00000000E+00
  0.00000000E+00  0.00000000E+00  0.00000000E+00
  0.00000000E+00  0.00000000E+00  0.00000000E+00
  0.00000000E+00  0.00000000E+00  0.00000000E+00
  0.00000000E+00  0.00000000E+00  0.00000000E+00
  0.00000000E+00  0.00000000E+00  0.00000000E+00
  0.00000000E+00  0.00000000E+00  0.00000000E+00
  0.00000000E+00  0.00000000E+00  0.00000000E+00
  0.00000000E+00  0.00000000E+00  0.00000000E+00
  0.00000000E+00  0.00000000E+00  0.00000000E+00
  0.00000000E+00  0.00000000E+00  0.00000000E+00
  0.00000000E+00  0.00000000E+00  0.00000000E+00
  0.00000000E+00  0.00000000E+00  0.00000000E+00
  0.00000000E+00  0.00000000E+00  0.00000000E+00
  0.00000000E+00  0.00000000E+00  0.00000000E+00
  0.00000000E+00  0.00000000E+00  0.00000000E+00
  0.00000000E+00  0.00000000E+00  0.00000000E+00
  0.00000000E+00  0.00000000E+00  0.00000000E+00
  0.00000000E+00  0.00000000E+00  0.00000000E+00
  0.00000000E+00  0.00000000E+00  0.00000000E+00
