Cl4                                     
   1.00000000000000     
     2.1667606056992277   -3.8291644219187591    0.0000000000000000
     2.1667606056992277    3.8291644219187591    0.0000000000000000
     0.0000000000000000    0.0000000000000000    8.3630077994723901
   Cl
     4
Direct
  0.6127049871649817  0.6127049871649817  0.1056775190683439
  0.3872950128350183  0.3872950128350183  0.8943224809316561
  0.8872950128350183  0.8872950128350183  0.6056775190683439
  0.1127049871649817  0.1127049871649817  0.3943224809316561
 
  0.00000000E+00  0.00000000E+00  0.00000000E+00
  0.00000000E+00  0.00000000E+00  0.00000000E+00
  0.00000000E+00  0.00000000E+00  0.00000000E+00
  0.00000000E+00  0.00000000E+00  0.00000000E+00
