Ca3Al                                   
   1.00000000000000     
     7.2702269221421947    0.0001060328118810    0.0000000000000000
    -3.6350216597219198    6.2963012179355635    0.0000000000000000
     0.0000000000000000    0.0000000000000000    5.5595144603468123
   Al   Ca
     2     6
Direct
  0.6666695075198206  0.3333305329877092  0.2500000000000000
  0.3333304924801794  0.6666694670122837  0.7500000000000000
  0.1756581738739627  0.3513309599789594  0.2500000000000000
  0.1756513114817864  0.8243496279036719  0.2500000000000000
  0.6486721137999609  0.8243438527257680  0.2500000000000000
  0.3513278862000391  0.1756561472742320  0.7500000000000000
  0.8243486885182136  0.1756503720963281  0.7500000000000000
  0.8243418261260373  0.6486690400210406  0.7500000000000000
 
  0.00000000E+00  0.00000000E+00  0.00000000E+00
  0.00000000E+00  0.00000000E+00  0.00000000E+00
  0.00000000E+00  0.00000000E+00  0.00000000E+00
  0.00000000E+00  0.00000000E+00  0.00000000E+00
  0.00000000E+00  0.00000000E+00  0.00000000E+00
  0.00000000E+00  0.00000000E+00  0.00000000E+00
  0.00000000E+00  0.00000000E+00  0.00000000E+00
  0.00000000E+00  0.00000000E+00  0.00000000E+00
