Ba13 Ga16                               
   1.00000000000000     
    -6.2893880875834451   -6.2893880875834451    6.2893880875834451
    -6.2893880875834451    6.2893880875834451   -6.2893880875834451
     6.2893880875834451   -6.2893880875834451   -6.2893880875834451
   Ga   Ba
    16    13
Direct
  0.7188024177555334  0.0000000000000000  0.0000000000000000
  0.3267729584209675  0.1586039852794485  0.0000000000000000
  0.1586039852794485  0.3267729584209675  0.0000000000000000
  0.0000000000000000  0.7188024177555334  0.0000000000000000
  0.8413960147205515  0.8413960147205515  0.1681689731415261
  0.3267729584209675  0.0000000000000000  0.1586039852794485
  0.0000000000000000  0.3267729584209675  0.1586039852794485
  0.2811975822444666  0.2811975822444666  0.2811975822444666
  0.1586039852794485  0.0000000000000000  0.3267729584209675
  0.0000000000000000  0.1586039852794485  0.3267729584209675
  0.8318310268584739  0.6732270415790325  0.6732270415790325
  0.6732270415790325  0.8318310268584739  0.6732270415790325
  0.0000000000000000  0.0000000000000000  0.7188024177555334
  0.8413960147205515  0.1681689731415261  0.8413960147205515
  0.1681689731415261  0.8413960147205515  0.8413960147205515
  0.6732270415790325  0.6732270415790325  0.8318310268584739
  0.0000000000000000  0.0000000000000000  0.0000000000000000
  0.7470455546474781  0.4632955477188361  0.0000000000000000
  0.4632955477188361  0.7470455546474781  0.0000000000000000
  0.5367044522811639  0.5367044522811639  0.2837500069286492
  0.7162499930713508  0.2529544453525219  0.2529544453525219
  0.2529544453525219  0.7162499930713508  0.2529544453525219
  0.7470455546474781  0.0000000000000000  0.4632955477188361
  0.0000000000000000  0.7470455546474781  0.4632955477188361
  0.5367044522811639  0.2837500069286492  0.5367044522811639
  0.2837500069286492  0.5367044522811639  0.5367044522811639
  0.4632955477188361  0.0000000000000000  0.7470455546474781
  0.0000000000000000  0.4632955477188361  0.7470455546474781
  0.2529544453525219  0.2529544453525219  0.7162499930713508
 
  0.00000000E+00  0.00000000E+00  0.00000000E+00
  0.00000000E+00  0.00000000E+00  0.00000000E+00
  0.00000000E+00  0.00000000E+00  0.00000000E+00
  0.00000000E+00  0.00000000E+00  0.00000000E+00
  0.00000000E+00  0.00000000E+00  0.00000000E+00
  0.00000000E+00  0.00000000E+00  0.00000000E+00
  0.00000000E+00  0.00000000E+00  0.00000000E+00
  0.00000000E+00  0.00000000E+00  0.00000000E+00
  0.00000000E+00  0.00000000E+00  0.00000000E+00
  0.00000000E+00  0.00000000E+00  0.00000000E+00
  0.00000000E+00  0.00000000E+00  0.00000000E+00
  0.00000000E+00  0.00000000E+00  0.00000000E+00
  0.00000000E+00  0.00000000E+00  0.00000000E+00
  0.00000000E+00  0.00000000E+00  0.00000000E+00
  0.00000000E+00  0.00000000E+00  0.00000000E+00
  0.00000000E+00  0.00000000E+00  0.00000000E+00
  0.00000000E+00  0.00000000E+00  0.00000000E+00
  0.00000000E+00  0.00000000E+00  0.00000000E+00
  0.00000000E+00  0.00000000E+00  0.00000000E+00
  0.00000000E+00  0.00000000E+00  0.00000000E+00
  0.00000000E+00  0.00000000E+00  0.00000000E+00
  0.00000000E+00  0.00000000E+00  0.00000000E+00
  0.00000000E+00  0.00000000E+00  0.00000000E+00
  0.00000000E+00  0.00000000E+00  0.00000000E+00
  0.00000000E+00  0.00000000E+00  0.00000000E+00
  0.00000000E+00  0.00000000E+00  0.00000000E+00
  0.00000000E+00  0.00000000E+00  0.00000000E+00
  0.00000000E+00  0.00000000E+00  0.00000000E+00
  0.00000000E+00  0.00000000E+00  0.00000000E+00
