Ca1 B3 Br6                              
   1.00000000000000     
     7.1193764776561084   -0.2522320741448237   -0.0351067905563107
    -0.2522320741448236    7.1193764776561075   -0.0351067905563110
     3.2309381342225354    3.2309381342225345    6.5387901325702318
   Br   Ca   B 
     6     1     3
Direct
  0.7280271562232485  0.2719728437767515  0.0000000000000000
  0.3434444221665629  0.3434444221665629  0.8703799417708780
  0.2719728437767515  0.7280271562232485  0.0000000000000000
  0.6565555778334442  0.6565555778334442  0.1296200582291220
  0.8411139095923446  0.8411139095923446  0.4687888460557730
  0.1588860904076554  0.1588860904076554  0.5312111539442270
  0.0000000000000000  0.0000000000000000  0.0000000000000000
  0.5000000000000000  0.5000000000000000  0.0000000000000000
  0.1493054179024611  0.8506945820975389  0.5000000000000000
  0.8506945820975389  0.1493054179024611  0.5000000000000000
 
  0.00000000E+00  0.00000000E+00  0.00000000E+00
  0.00000000E+00  0.00000000E+00  0.00000000E+00
  0.00000000E+00  0.00000000E+00  0.00000000E+00
  0.00000000E+00  0.00000000E+00  0.00000000E+00
  0.00000000E+00  0.00000000E+00  0.00000000E+00
  0.00000000E+00  0.00000000E+00  0.00000000E+00
  0.00000000E+00  0.00000000E+00  0.00000000E+00
  0.00000000E+00  0.00000000E+00  0.00000000E+00
  0.00000000E+00  0.00000000E+00  0.00000000E+00
  0.00000000E+00  0.00000000E+00  0.00000000E+00
