Mg1 Tl2 Br6                             
   1.0000000000000000     
     4.1614358253576631    3.9144981853218548    6.2345652507339890
    -4.1614358253576631    3.9144981853218548    6.2345652507339890
     0.0000000000000000   -3.3215505485157686    4.7978433814494323
   Mg   Br   Tl
     1     6     2
Direct
  0.0000000000000000  0.0000000000000000  0.0000000000000000
  0.8035635163046209  0.8035635163046209  0.1968078109484708
  0.7300113160337389  0.2707486970427055  0.2549211489726773
  0.2707486970427055  0.7300113160337389  0.2549211489726773
  0.1964364836953791  0.1964364836953791  0.8031921890515292
  0.7292513029572945  0.2699886839662611  0.7450788510273227
  0.2699886839662611  0.7292513029572945  0.7450788510273227
  0.3072668107394279  0.3072668107394279  0.1935911449763523
  0.6927331892605721  0.6927331892605721  0.8064088550236477

  0.00000000E+00  0.00000000E+00  0.00000000E+00
  0.00000000E+00  0.00000000E+00  0.00000000E+00
  0.00000000E+00  0.00000000E+00  0.00000000E+00
  0.00000000E+00  0.00000000E+00  0.00000000E+00
  0.00000000E+00  0.00000000E+00  0.00000000E+00
  0.00000000E+00  0.00000000E+00  0.00000000E+00
  0.00000000E+00  0.00000000E+00  0.00000000E+00
  0.00000000E+00  0.00000000E+00  0.00000000E+00
  0.00000000E+00  0.00000000E+00  0.00000000E+00
