Sr18 Tl11                               
   1.0000000000000000     
     8.2550014863493004    6.3361903878161883   -0.4163441814974669
    -8.2550014863493004    6.3361903878161883   -0.4163441814974669
     0.0000000000000000    5.7331056046714366   10.8682581121882595
   Sr   Tl
    18    11
Direct
  0.8378531925993897  0.8378531925993897  0.0123392749043489
  0.2405950366554208  0.5833846171993713  0.9951802195656327
  0.9471508833645004  0.2096957539633735  0.0253791376815045
  0.2096957539633735  0.9471508833645004  0.0253791376815045
  0.5833846171993713  0.2405950366554208  0.9951802195656327
  0.3547286053484910  0.3547286053484910  0.7744370187762257
  0.7018705410843324  0.7018705410843324  0.7870463029304275
  0.4934868338648428  0.0116860065764683  0.7271690009979181
  0.0116860065764683  0.4934868338648428  0.7271690009979181
  0.0901031631236719  0.0901031631236719  0.6674469142018395
  0.4406800900488221  0.7618117317149427  0.5382049348935212
  0.7618117317149427  0.4406800900488221  0.5382049348935212
  0.0808279101370175  0.3163867860251059  0.3387664518230906
  0.3163867860251059  0.0808279101370175  0.3387664518230906
  0.8788305910249150  0.8788305910249150  0.3353269351874957
  0.2162703783440847  0.7092424728075173  0.3193497442276723
  0.7092424728075173  0.2162703783440847  0.3193497442276723
  0.5312529597042470  0.5312529597042470  0.2361580851213319
  0.5085491716659050  0.8456230650472065  0.0144948157307567
  0.8456230650472065  0.5085491716659050  0.0144948157307567
  0.7879480952334674  0.1271041132601454  0.8019016975000071
  0.1271041132601454  0.7879480952334674  0.8019016975000071
  0.2651042045860450  0.4495925306931952  0.5112192362689925
  0.4495925306931952  0.2651042045860450  0.5112192362689925
  0.8074693766206096  0.0238032475189200  0.5530680957542842
  0.0238032475189200  0.8074693766206096  0.5530680957542842
  0.5947326027334867  0.9340049892752802  0.2236840128657818
  0.9340049892752802  0.5947326027334867  0.2236840128657818
  0.2502110497791890  0.2502110497791890  0.0904117742600334

  0.00000000E+00  0.00000000E+00  0.00000000E+00
  0.00000000E+00  0.00000000E+00  0.00000000E+00
  0.00000000E+00  0.00000000E+00  0.00000000E+00
  0.00000000E+00  0.00000000E+00  0.00000000E+00
  0.00000000E+00  0.00000000E+00  0.00000000E+00
  0.00000000E+00  0.00000000E+00  0.00000000E+00
  0.00000000E+00  0.00000000E+00  0.00000000E+00
  0.00000000E+00  0.00000000E+00  0.00000000E+00
  0.00000000E+00  0.00000000E+00  0.00000000E+00
  0.00000000E+00  0.00000000E+00  0.00000000E+00
  0.00000000E+00  0.00000000E+00  0.00000000E+00
  0.00000000E+00  0.00000000E+00  0.00000000E+00
  0.00000000E+00  0.00000000E+00  0.00000000E+00
  0.00000000E+00  0.00000000E+00  0.00000000E+00
  0.00000000E+00  0.00000000E+00  0.00000000E+00
  0.00000000E+00  0.00000000E+00  0.00000000E+00
  0.00000000E+00  0.00000000E+00  0.00000000E+00
  0.00000000E+00  0.00000000E+00  0.00000000E+00
  0.00000000E+00  0.00000000E+00  0.00000000E+00
  0.00000000E+00  0.00000000E+00  0.00000000E+00
  0.00000000E+00  0.00000000E+00  0.00000000E+00
  0.00000000E+00  0.00000000E+00  0.00000000E+00
  0.00000000E+00  0.00000000E+00  0.00000000E+00
  0.00000000E+00  0.00000000E+00  0.00000000E+00
  0.00000000E+00  0.00000000E+00  0.00000000E+00
  0.00000000E+00  0.00000000E+00  0.00000000E+00
  0.00000000E+00  0.00000000E+00  0.00000000E+00
  0.00000000E+00  0.00000000E+00  0.00000000E+00
  0.00000000E+00  0.00000000E+00  0.00000000E+00
