Be2 Al2 Cl10                            
   1.0000000000000000     
     4.1305098689647712   -0.0000000000000001    0.0000000000000003
    -0.0000000000000008   10.7048951741435499    0.0000000000000010
     0.0000000000000001    0.0000000000000002   11.4013133367598698
   Be   Al   Cl
     2     2    10
Direct
  0.0000000000000000  0.0000000000000000  0.5000000000000000
  0.5000000000000000  0.5000000000000000  0.0000000000000000
  0.5000000000000000  0.0000000000000000  0.0000000000000000
  0.0000000000000000  0.5000000000000000  0.5000000000000000
  0.5000000000000000  0.8632520509346548  0.5000000000000000
  0.5000000000000000  0.1367479490653452  0.5000000000000000
  0.5000000000000000  0.0000000000000000  0.1900591433538992
  0.5000000000000000  0.0000000000000000  0.8099408566461008
  0.0000000000000000  0.0000000000000000  0.0000000000000000
  0.0000000000000000  0.3632520509346548  0.0000000000000000
  0.0000000000000000  0.6367479490653452  0.0000000000000000
  0.0000000000000000  0.5000000000000000  0.6900591433538992
  0.0000000000000000  0.5000000000000000  0.3099408566461008
  0.5000000000000000  0.5000000000000000  0.5000000000000000

  0.00000000E+00  0.00000000E+00  0.00000000E+00
  0.00000000E+00  0.00000000E+00  0.00000000E+00
  0.00000000E+00  0.00000000E+00  0.00000000E+00
  0.00000000E+00  0.00000000E+00  0.00000000E+00
  0.00000000E+00  0.00000000E+00  0.00000000E+00
  0.00000000E+00  0.00000000E+00  0.00000000E+00
  0.00000000E+00  0.00000000E+00  0.00000000E+00
  0.00000000E+00  0.00000000E+00  0.00000000E+00
  0.00000000E+00  0.00000000E+00  0.00000000E+00
  0.00000000E+00  0.00000000E+00  0.00000000E+00
  0.00000000E+00  0.00000000E+00  0.00000000E+00
  0.00000000E+00  0.00000000E+00  0.00000000E+00
  0.00000000E+00  0.00000000E+00  0.00000000E+00
  0.00000000E+00  0.00000000E+00  0.00000000E+00
