Ca16 B13                                
   1.00000000000000     
     9.3758009719142024   -5.3776819173240007    2.6987963861378552
    -1.5007480680602479    9.1234460064894378    3.2661006114351867
    -7.6656930790454609   -3.2877924669341647    2.4218495268810707
   B    Ca
    13    16
Direct
  0.3975425339451917  0.6289378823730587  0.8449537798604041
  0.0467026817229268  0.8209934430381480  0.0472964889217380
  0.6320981663857950  0.3547313111622543  0.0578740816366974
  0.4002316204563456  0.4411568452821726  0.3010647046573354
  0.2209572094121484  0.8469969704413529  0.0842444050465119
  0.5696568517701763  0.8320641147147398  0.0572302977311523
  0.5061849503341236  0.3847498656777830  0.4659138640412053
  0.2888088019174120  0.2848907232386608  0.3481345418532911
  0.9666374555103872  0.9728051353511376  0.6217930236257203
  0.0018673697382781  0.8250839470870091  0.6633758886341141
  0.5932261416390361  0.7710529231848895  0.8926807478372396
  0.0463410219052349  0.7828362104068063  0.8526019254295036
  0.0518085939919786  0.9177887742595487  0.5348898082688152
  0.3118065914716368  0.1536312846548356  0.0227128758320418
  0.0226659743379258  0.1964028348609759  0.9665112057271728
  0.7100099722465458  0.1430115267754033  0.0287894384424447
  0.2691385799991934  0.6044846211958657  0.0406809264124988
  0.6354421029630757  0.6444400367905345  0.2403416767896687
  0.6185646068413817  0.9994966961445826  0.3977911236910856
  0.9737379763059550  0.6450549190655295  0.2696357197571118
  0.9450428659883059  0.9684290446397412  0.2128437834361137
  0.7680213059776833  0.4332148526689394  0.4367123990048398
  0.3106673531906807  0.5792542412538708  0.4752262673140208
  0.0633416557088609  0.2794994198080474  0.5939801609255966
  0.3346997707333088  0.0490172487563001  0.4410739039486202
  0.7506932511986406  0.7476571556719236  0.7069468823322538
  0.8172818857378203  0.4491461508293497  0.8295199463605769
  0.2739083263419175  0.8282122838708901  0.7984292387946965
  0.4725843822280211  0.4151195367956362  0.7667538936875218
 
  0.00000000E+00  0.00000000E+00  0.00000000E+00
  0.00000000E+00  0.00000000E+00  0.00000000E+00
  0.00000000E+00  0.00000000E+00  0.00000000E+00
  0.00000000E+00  0.00000000E+00  0.00000000E+00
  0.00000000E+00  0.00000000E+00  0.00000000E+00
  0.00000000E+00  0.00000000E+00  0.00000000E+00
  0.00000000E+00  0.00000000E+00  0.00000000E+00
  0.00000000E+00  0.00000000E+00  0.00000000E+00
  0.00000000E+00  0.00000000E+00  0.00000000E+00
  0.00000000E+00  0.00000000E+00  0.00000000E+00
  0.00000000E+00  0.00000000E+00  0.00000000E+00
  0.00000000E+00  0.00000000E+00  0.00000000E+00
  0.00000000E+00  0.00000000E+00  0.00000000E+00
  0.00000000E+00  0.00000000E+00  0.00000000E+00
  0.00000000E+00  0.00000000E+00  0.00000000E+00
  0.00000000E+00  0.00000000E+00  0.00000000E+00
  0.00000000E+00  0.00000000E+00  0.00000000E+00
  0.00000000E+00  0.00000000E+00  0.00000000E+00
  0.00000000E+00  0.00000000E+00  0.00000000E+00
  0.00000000E+00  0.00000000E+00  0.00000000E+00
  0.00000000E+00  0.00000000E+00  0.00000000E+00
  0.00000000E+00  0.00000000E+00  0.00000000E+00
  0.00000000E+00  0.00000000E+00  0.00000000E+00
  0.00000000E+00  0.00000000E+00  0.00000000E+00
  0.00000000E+00  0.00000000E+00  0.00000000E+00
  0.00000000E+00  0.00000000E+00  0.00000000E+00
  0.00000000E+00  0.00000000E+00  0.00000000E+00
  0.00000000E+00  0.00000000E+00  0.00000000E+00
  0.00000000E+00  0.00000000E+00  0.00000000E+00
