InCl2                                   
   1.00000000000000     
     4.2431030076848932    2.4497612484493652    6.9294103635469995
    -4.2431030076848932    2.4497612484493652    6.9294103635469995
     0.0000000000000000   -4.8995224968987303    6.9294103635469995
   Cl   In
     4     2
Direct
  0.3750000000000000  0.3750000000000000  0.3750000000000000
  0.3750000000000000  0.8750000000000000  0.3750000000000000
  0.8750000000000000  0.3750000000000000  0.3750000000000000
  0.3750000000000000  0.3750000000000000  0.8750000000000000
  0.2500049969720806  0.2500049969720806  0.2500049969720806
  0.4999950030279194  0.4999950030279194  0.4999950030279194
 
  0.00000000E+00  0.00000000E+00  0.00000000E+00
  0.00000000E+00  0.00000000E+00  0.00000000E+00
  0.00000000E+00  0.00000000E+00  0.00000000E+00
  0.00000000E+00  0.00000000E+00  0.00000000E+00
  0.00000000E+00  0.00000000E+00  0.00000000E+00
  0.00000000E+00  0.00000000E+00  0.00000000E+00
