Ca4 B4 F20                              
   1.0000000000000000     
     4.4769472494377034    0.0000000000000000    0.0000000000000003
    -0.0000000000000002    4.9981894866656313    0.0000000000000003
    -0.0000000000000000   -0.0000000000000001   13.8142848575401942
   Ca   B    F 
     4     4    20
Direct
  0.8671643868817043  0.5400067094906333  0.5622423431477586
  0.3671643868817043  0.9599932905093667  0.4377576568522414
  0.1328356131182957  0.0400067094906333  0.9377576568522414
  0.6328356131182957  0.4599932905093667  0.0622423431477586
  0.2793292622169403  0.0377804313347667  0.6823999234141809
  0.7793292622169403  0.4622195686652333  0.3176000765858191
  0.7206707377830597  0.5377804313347667  0.8176000765858191
  0.2206707377830597  0.9622195686652333  0.1823999234141738
  0.0143792478637579  0.4527386188921838  0.3865834914821278
  0.5143792478637579  0.0472613811078162  0.6134165085178722
  0.9856207521362421  0.9527386188921838  0.1134165085178722
  0.4856207521362421  0.5472613811078162  0.8865834914821278
  0.6179367051045332  0.6982566129741841  0.3322313622450750
  0.1179367051045332  0.8017433870258159  0.6677686377549179
  0.3820632948954668  0.1982566129741841  0.1677686377549179
  0.8820632948954668  0.3017433870258159  0.8322313622450750
  0.0913124196978217  0.2552621756440629  0.6623479069105969
  0.5913124196978217  0.2447378243559371  0.3376520930894031
  0.9086875803021783  0.7552621756440629  0.8376520930894031
  0.4086875803021783  0.7447378243559371  0.1623479069105969
  0.3851342380390079  0.0490891789898740  0.7769761911498207
  0.8851342380390079  0.4509108210101260  0.2230238088501793
  0.6148657619609921  0.5490891789898740  0.7230238088501793
  0.1148657619609921  0.9509108210101260  0.2769761911498207
  0.3944469483306037  0.5499892930301939  0.5143659438543153
  0.8944469483306037  0.9500107069698061  0.4856340561456847
  0.6055530516693963  0.0499892930301939  0.9856340561456847
  0.1055530516693963  0.4500107069698061  0.0143659438543153

  0.00000000E+00  0.00000000E+00  0.00000000E+00
  0.00000000E+00  0.00000000E+00  0.00000000E+00
  0.00000000E+00  0.00000000E+00  0.00000000E+00
  0.00000000E+00  0.00000000E+00  0.00000000E+00
  0.00000000E+00  0.00000000E+00  0.00000000E+00
  0.00000000E+00  0.00000000E+00  0.00000000E+00
  0.00000000E+00  0.00000000E+00  0.00000000E+00
  0.00000000E+00  0.00000000E+00  0.00000000E+00
  0.00000000E+00  0.00000000E+00  0.00000000E+00
  0.00000000E+00  0.00000000E+00  0.00000000E+00
  0.00000000E+00  0.00000000E+00  0.00000000E+00
  0.00000000E+00  0.00000000E+00  0.00000000E+00
  0.00000000E+00  0.00000000E+00  0.00000000E+00
  0.00000000E+00  0.00000000E+00  0.00000000E+00
  0.00000000E+00  0.00000000E+00  0.00000000E+00
  0.00000000E+00  0.00000000E+00  0.00000000E+00
  0.00000000E+00  0.00000000E+00  0.00000000E+00
  0.00000000E+00  0.00000000E+00  0.00000000E+00
  0.00000000E+00  0.00000000E+00  0.00000000E+00
  0.00000000E+00  0.00000000E+00  0.00000000E+00
  0.00000000E+00  0.00000000E+00  0.00000000E+00
  0.00000000E+00  0.00000000E+00  0.00000000E+00
  0.00000000E+00  0.00000000E+00  0.00000000E+00
  0.00000000E+00  0.00000000E+00  0.00000000E+00
  0.00000000E+00  0.00000000E+00  0.00000000E+00
  0.00000000E+00  0.00000000E+00  0.00000000E+00
  0.00000000E+00  0.00000000E+00  0.00000000E+00
  0.00000000E+00  0.00000000E+00  0.00000000E+00
