MgGa                                    
   1.00000000000000     
    -0.0056506499604090    0.0418447358030448   -5.5307114563296791
     5.3425644151231859    5.2950702870183646    2.7311382402105622
     5.3312560666713855   -5.2893515692817266   -2.7202926529114788
   Ga   Mg
     8     8
Direct
  0.1686002122786903  0.1604666982380110  0.0563501962736481
  0.0079405058401605  0.4439609467696357  0.1631529523742188
  0.2264900688405191  0.0551586991639255  0.3423289265177303
  0.5667782041584886  0.3412428098955544  0.4448784109139794
  0.4331992668403970  0.6586054346691199  0.5550112408468948
  0.7735303866879235  0.9447456390556468  0.6575128250505529
  0.9920613965316818  0.5559442794666651  0.8367733196331884
  0.8313316369403836  0.8394325003664633  0.9435117477995547
  0.2759184386563831  0.8075331990753085  0.0454292462750203
  0.5337820905308917  0.5463635538056621  0.1908633779090394
  0.6814050270713778  0.9553514292573908  0.3090984034021815
  0.0076003055973359  0.6899784539729410  0.4561614720389784
  0.9924376545252898  0.3099299946552208  0.5437585714389570
  0.3185556109697316  0.0445127981835114  0.6907805397002491
  0.4662136046441674  0.4535075151800854  0.8090100666839177
  0.7240155898865837  0.1923660482448568  0.9544787031418807
 
  0.00000000E+00  0.00000000E+00  0.00000000E+00
  0.00000000E+00  0.00000000E+00  0.00000000E+00
  0.00000000E+00  0.00000000E+00  0.00000000E+00
  0.00000000E+00  0.00000000E+00  0.00000000E+00
  0.00000000E+00  0.00000000E+00  0.00000000E+00
  0.00000000E+00  0.00000000E+00  0.00000000E+00
  0.00000000E+00  0.00000000E+00  0.00000000E+00
  0.00000000E+00  0.00000000E+00  0.00000000E+00
  0.00000000E+00  0.00000000E+00  0.00000000E+00
  0.00000000E+00  0.00000000E+00  0.00000000E+00
  0.00000000E+00  0.00000000E+00  0.00000000E+00
  0.00000000E+00  0.00000000E+00  0.00000000E+00
  0.00000000E+00  0.00000000E+00  0.00000000E+00
  0.00000000E+00  0.00000000E+00  0.00000000E+00
  0.00000000E+00  0.00000000E+00  0.00000000E+00
  0.00000000E+00  0.00000000E+00  0.00000000E+00
