Sr1 Al3 F1                              
   1.00000000000000     
     4.7519795615644345    0.0000000000000000    0.0000000000000000
     0.0000000000000000    4.7519795615644345    0.0000000000000000
     0.0000000000000000    0.0000000000000000    4.7519795615644345
   F    Al   Sr
     1     3     1
Direct
  0.5000000000000000  0.5000000000000000  0.5000000000000000
  0.5000000000000000  0.5000000000000000  0.0000000000000000
  0.5000000000000000  0.0000000000000000  0.5000000000000000
  0.0000000000000000  0.5000000000000000  0.5000000000000000
  0.0000000000000000  0.0000000000000000  0.0000000000000000
 
  0.00000000E+00  0.00000000E+00  0.00000000E+00
  0.00000000E+00  0.00000000E+00  0.00000000E+00
  0.00000000E+00  0.00000000E+00  0.00000000E+00
  0.00000000E+00  0.00000000E+00  0.00000000E+00
  0.00000000E+00  0.00000000E+00  0.00000000E+00
