Sr1 B2 I8                               
   1.00000000000000     
    12.8229483139268172   -3.8761386335807511    0.6157288285147012
    12.8229483139268190    3.8761386335807577    0.6157288285147050
    -4.8586001847881342   -0.0000000000000003    5.8351356733944284
   B    I    Sr
     2     8     1
Direct
  0.3048133819696730  0.3048133819696730  0.3077736549692105
  0.6462474222540706  0.6462474222540706  0.5619179490652826
  0.3731654776884312  0.3731654776884312  0.2129816939538642
  0.1997577774309178  0.1997577774309178  0.0006316127126809
  0.5570108658721296  0.0874157877207580  0.5129412540084957
  0.0874157877207580  0.5570108658721296  0.5129412540084957
  0.8547789362723464  0.3815199825661040  0.3412753911566782
  0.3815199825661040  0.8547789362723464  0.3412753911566782
  0.7561020484122025  0.7561020484122025  0.8263015671084162
  0.5933994271515033  0.5933994271515033  0.7073491939245784
  0.2457888926618708  0.2457888926618708  0.6742110379356703
 
  0.00000000E+00  0.00000000E+00  0.00000000E+00
  0.00000000E+00  0.00000000E+00  0.00000000E+00
  0.00000000E+00  0.00000000E+00  0.00000000E+00
  0.00000000E+00  0.00000000E+00  0.00000000E+00
  0.00000000E+00  0.00000000E+00  0.00000000E+00
  0.00000000E+00  0.00000000E+00  0.00000000E+00
  0.00000000E+00  0.00000000E+00  0.00000000E+00
  0.00000000E+00  0.00000000E+00  0.00000000E+00
  0.00000000E+00  0.00000000E+00  0.00000000E+00
  0.00000000E+00  0.00000000E+00  0.00000000E+00
  0.00000000E+00  0.00000000E+00  0.00000000E+00
