Ca2 B2 Cl10                             
   1.0000000000000000     
     4.4478448053911492   -0.0000000000000001    0.0000000000000003
    -0.0000000000000010   11.7242282737455490    0.0000000000000009
     0.0000000000000002    0.0000000000000003   10.0054591783022495
   Ca   B    Cl
     2     2    10
Direct
  0.0000000000000000  0.0000000000000000  0.5000000000000000
  0.5000000000000000  0.5000000000000000  0.0000000000000000
  0.5000000000000000  0.0000000000000000  0.0000000000000000
  0.0000000000000000  0.5000000000000000  0.5000000000000000
  0.5000000000000000  0.8586206010803394  0.5000000000000000
  0.5000000000000000  0.1413793989196606  0.5000000000000000
  0.5000000000000000  0.0000000000000000  0.1751478386360645
  0.5000000000000000  0.0000000000000000  0.8248521613639355
  0.0000000000000000  0.0000000000000000  0.0000000000000000
  0.0000000000000000  0.3586206010803394  0.0000000000000000
  0.0000000000000000  0.6413793989196606  0.0000000000000000
  0.0000000000000000  0.5000000000000000  0.6751478386360645
  0.0000000000000000  0.5000000000000000  0.3248521613639355
  0.5000000000000000  0.5000000000000000  0.5000000000000000

  0.00000000E+00  0.00000000E+00  0.00000000E+00
  0.00000000E+00  0.00000000E+00  0.00000000E+00
  0.00000000E+00  0.00000000E+00  0.00000000E+00
  0.00000000E+00  0.00000000E+00  0.00000000E+00
  0.00000000E+00  0.00000000E+00  0.00000000E+00
  0.00000000E+00  0.00000000E+00  0.00000000E+00
  0.00000000E+00  0.00000000E+00  0.00000000E+00
  0.00000000E+00  0.00000000E+00  0.00000000E+00
  0.00000000E+00  0.00000000E+00  0.00000000E+00
  0.00000000E+00  0.00000000E+00  0.00000000E+00
  0.00000000E+00  0.00000000E+00  0.00000000E+00
  0.00000000E+00  0.00000000E+00  0.00000000E+00
  0.00000000E+00  0.00000000E+00  0.00000000E+00
  0.00000000E+00  0.00000000E+00  0.00000000E+00
