Br1                                     
   1.00000000000000     
     2.8711022928968362    0.0000000000000075   -0.0000000145023743
     0.0000000000000075    2.8711022928968370   -0.0000000145023744
    -1.4355516693544750   -1.4355516693544748    4.3700701840814817
   Br
     1
Direct
  0.0000000000000000  0.0000000000000000  0.0000000000000000
 
  0.00000000E+00  0.00000000E+00  0.00000000E+00
