MgI                                     
   1.00000000000000     
     0.0000000000000000    3.2444800483027407    3.2444800483027407
     3.2444800483027412   -0.0000000000000001    3.2444800483027407
     3.2444800483027412    3.2444800483027407    0.0000000000000000
   I    Mg
     1     1
Direct
  0.0000000000000000  0.0000000000000000  0.0000000000000000
  0.5000000000000000  0.5000000000000000  0.5000000000000000
 
  0.00000000E+00  0.00000000E+00  0.00000000E+00
  0.00000000E+00  0.00000000E+00  0.00000000E+00
