Mg4 In10 Br2                            
   1.0000000000000000     
     8.3931133216128107   -0.0000281857582528    0.0003172944876221
    -0.0000284672807814    8.3931015630513084    0.0003650207590535
     4.1962835214338607    4.1963336941493621    6.1901398698198218
   Br   Mg   In
     2     4    10
Direct
  0.7535554355698366  0.7534775676680141  0.4930193627749304
  0.2535680372261027  0.2534801243099523  0.4930137002377322
  0.3528831812010580  0.1456706869861435  0.0013096666935937
  0.8526277857581022  0.3528254122999286  0.0017211370284400
  0.1455080527983554  0.6457013016834310  0.0017259321652219
  0.6457707879172716  0.8527540543333316  0.0013338342455782
  0.0037035199555078  0.0038299136014928  0.9924914223562169
  0.5036677695595557  0.5037052571696989  0.9924909667216042
  0.4869958986808882  0.9868846680419310  0.3267637566150796
  0.9870705812516505  0.1860738872267618  0.3269251009899605
  0.6857986491944885  0.4869476374523174  0.3273243018230190
  0.1861317183799187  0.6860233634882817  0.3270332677681509
  0.8107487161950431  0.3106165936881737  0.6787351463099327
  0.3104132684439165  0.5106591710728878  0.6790088327614896
  0.0107584480418197  0.8106798280010068  0.6786384329825097
  0.5106981498264886  0.0105705329766295  0.6784651385265406

  0.00000000E+00  0.00000000E+00  0.00000000E+00
  0.00000000E+00  0.00000000E+00  0.00000000E+00
  0.00000000E+00  0.00000000E+00  0.00000000E+00
  0.00000000E+00  0.00000000E+00  0.00000000E+00
  0.00000000E+00  0.00000000E+00  0.00000000E+00
  0.00000000E+00  0.00000000E+00  0.00000000E+00
  0.00000000E+00  0.00000000E+00  0.00000000E+00
  0.00000000E+00  0.00000000E+00  0.00000000E+00
  0.00000000E+00  0.00000000E+00  0.00000000E+00
  0.00000000E+00  0.00000000E+00  0.00000000E+00
  0.00000000E+00  0.00000000E+00  0.00000000E+00
  0.00000000E+00  0.00000000E+00  0.00000000E+00
  0.00000000E+00  0.00000000E+00  0.00000000E+00
  0.00000000E+00  0.00000000E+00  0.00000000E+00
  0.00000000E+00  0.00000000E+00  0.00000000E+00
  0.00000000E+00  0.00000000E+00  0.00000000E+00
