Be2 Al2 Br10                            
   1.0000000000000000     
     4.4596235281329690   -0.0000000000000001    0.0000000000000004
    -0.0000000000000009   11.6356723954787213    0.0000000000000016
     0.0000000000000002    0.0000000000000009   12.0904824674321318
   Be   Al   Br
     2     2    10
Direct
  0.0000000000000000  0.0000000000000000  0.5000000000000000
  0.5000000000000000  0.5000000000000000  0.0000000000000000
  0.5000000000000000  0.0000000000000000  0.0000000000000000
  0.0000000000000000  0.5000000000000000  0.5000000000000000
  0.5000000000000000  0.8629099560421096  0.5000000000000000
  0.5000000000000000  0.1370900439578904  0.5000000000000000
  0.5000000000000000  0.0000000000000000  0.1937168432203222
  0.5000000000000000  0.0000000000000000  0.8062831567796778
  0.0000000000000000  0.0000000000000000  0.0000000000000000
  0.0000000000000000  0.3629099560421096  0.0000000000000000
  0.0000000000000000  0.6370900439578904  0.0000000000000000
  0.0000000000000000  0.5000000000000000  0.6937168432203222
  0.0000000000000000  0.5000000000000000  0.3062831567796778
  0.5000000000000000  0.5000000000000000  0.5000000000000000

  0.00000000E+00  0.00000000E+00  0.00000000E+00
  0.00000000E+00  0.00000000E+00  0.00000000E+00
  0.00000000E+00  0.00000000E+00  0.00000000E+00
  0.00000000E+00  0.00000000E+00  0.00000000E+00
  0.00000000E+00  0.00000000E+00  0.00000000E+00
  0.00000000E+00  0.00000000E+00  0.00000000E+00
  0.00000000E+00  0.00000000E+00  0.00000000E+00
  0.00000000E+00  0.00000000E+00  0.00000000E+00
  0.00000000E+00  0.00000000E+00  0.00000000E+00
  0.00000000E+00  0.00000000E+00  0.00000000E+00
  0.00000000E+00  0.00000000E+00  0.00000000E+00
  0.00000000E+00  0.00000000E+00  0.00000000E+00
  0.00000000E+00  0.00000000E+00  0.00000000E+00
  0.00000000E+00  0.00000000E+00  0.00000000E+00
