Ca9 Tl4                                 
   1.0000000000000000     
     0.0025140037290212   -0.0046690246538403    5.4149106358600996
    -6.3445573718615975    6.3457863916590034    2.6983100090385701
    -6.3430974979649886   -6.3418209913415655   -2.7046207579056287
   Ca   Tl
     9     4
Direct
  0.4999937751660894  0.9999821086199603  0.9999705328337498
  0.8932942130287316  0.2950134197111751  0.0805573365147083
  0.3872400152048314  0.4993770225984591  0.2754261370843523
  0.1869549291443278  0.9197845212300138  0.2964763916473103
  0.8875710951670115  0.7239136962485588  0.4996360337651424
  0.1124392589148542  0.2760270752260112  0.5003233278918486
  0.8130469997540217  0.0801681221376285  0.7034752955069479
  0.6127615946372842  0.5005752392768699  0.7245278642826847
  0.1067023593075263  0.7049487732434727  0.9194044570730711
  0.7366555919626379  0.6690950640920121  0.1451121032909768
  0.5918876641634370  0.1454800631886073  0.3301764568399221
  0.4081132037588304  0.8544682552016809  0.6697733172628730
  0.2633392997904167  0.3308666392255404  0.8548407460063956

  0.00000000E+00  0.00000000E+00  0.00000000E+00
  0.00000000E+00  0.00000000E+00  0.00000000E+00
  0.00000000E+00  0.00000000E+00  0.00000000E+00
  0.00000000E+00  0.00000000E+00  0.00000000E+00
  0.00000000E+00  0.00000000E+00  0.00000000E+00
  0.00000000E+00  0.00000000E+00  0.00000000E+00
  0.00000000E+00  0.00000000E+00  0.00000000E+00
  0.00000000E+00  0.00000000E+00  0.00000000E+00
  0.00000000E+00  0.00000000E+00  0.00000000E+00
  0.00000000E+00  0.00000000E+00  0.00000000E+00
  0.00000000E+00  0.00000000E+00  0.00000000E+00
  0.00000000E+00  0.00000000E+00  0.00000000E+00
  0.00000000E+00  0.00000000E+00  0.00000000E+00
