Ca2 Tl2 F10                             
   1.00000000000000     
     5.0188699707159738   -0.2306989504566405    1.4678665984790411
     0.8747545648259629    4.9474312434147256    1.4678668403094419
    -0.8098308023522297   -0.6481147061091650    7.9877174486752702
   Ca   Tl   F 
     2     2    10
Direct
  0.4792534290810622  0.5207465709885710  0.2499999999851497
  0.5207465709189307  0.4792534290114361  0.7500000000148503
  0.0000000000000000  0.0000000000000000  0.5000000000000000
  0.0000000000000000  0.0000000000000000  0.0000000000000000
  0.8911893209683015  0.6511079243268583  0.6544454464537779
  0.3488920803170501  0.1088096749364169  0.8455545533687285
  0.1088096790317010  0.3488920756731559  0.3455555535462267
  0.6511079196829499  0.8911893250635856  0.1544454466312715
  0.8676539302445363  0.1323460686123497  0.7500000008459082
  0.1323460697554637  0.8676539313876432  0.2499999991540847
  0.7537363618109225  0.3923891068799250  0.0172464137434645
  0.6076108901135271  0.2462636346370459  0.4827535907280875
  0.2462636381890775  0.6076108931200750  0.9827535862565284
  0.3923891098864800  0.7537363653629541  0.5172464092719125
 
  0.00000000E+00  0.00000000E+00  0.00000000E+00
  0.00000000E+00  0.00000000E+00  0.00000000E+00
  0.00000000E+00  0.00000000E+00  0.00000000E+00
  0.00000000E+00  0.00000000E+00  0.00000000E+00
  0.00000000E+00  0.00000000E+00  0.00000000E+00
  0.00000000E+00  0.00000000E+00  0.00000000E+00
  0.00000000E+00  0.00000000E+00  0.00000000E+00
  0.00000000E+00  0.00000000E+00  0.00000000E+00
  0.00000000E+00  0.00000000E+00  0.00000000E+00
  0.00000000E+00  0.00000000E+00  0.00000000E+00
  0.00000000E+00  0.00000000E+00  0.00000000E+00
  0.00000000E+00  0.00000000E+00  0.00000000E+00
  0.00000000E+00  0.00000000E+00  0.00000000E+00
  0.00000000E+00  0.00000000E+00  0.00000000E+00
