Mg16Al12Br                              
   1.00000000000000     
     7.6409015054966281   -4.4135295770854635    3.1223861781659674
    -0.0845194551340319    8.5767809386867295    2.9764055499528017
    -7.4683745934415278   -4.2158748386342229    2.9794202488097890
   Al   Br   Mg
    12     1    16
Direct
  0.8086938025407377  0.6179119776078181  0.0002160196361700
  0.6497953267356920  0.8087896549241975  0.0000509054025741
  0.3579228256647795  0.3736030512126334  0.1857805941195068
  0.1721800798901256  0.8142285803416200  0.1879387124173917
  0.8409090216442223  0.1912176614392322  0.1912453671952079
  0.3580307120598789  0.1858578365461980  0.3736758045636819
  0.1906212796090330  0.3819994212532194  0.3821094911211773
  0.8086030967581834  0.0000716891770409  0.6176488850333115
  0.9840643451560780  0.8120185295379727  0.6264290874517826
  0.6498582571603606  0.0000181402778168  0.8087638186008732
  0.9842281489820977  0.6264509621531218  0.8121396188309120
  0.1720580116667065  0.1879929173653991  0.8143250714346806
  0.3932614815507236  0.9997633922020484  0.9993732253923397
  0.9966971291209177  0.3491728576311957  0.0000401804990489
  0.5969628503191657  0.3000709731705697  0.0000575729004453
  0.3078804027464699  0.5996071755298402  0.0000291463065594
  0.0204828422488958  0.0000368300596634  0.0000780335052468
  0.6739709561614475  0.6754553036395308  0.2730315178563529
  0.5966466558381143  0.0000067336315652  0.2998571245691366
  0.9985705394611983  0.5976217486054836  0.3246455179207572
  0.9967474298472823  0.0000359947734623  0.3492034194110900
  0.7082187390530166  0.4003644753164153  0.4003855440134316
  0.4009792579448614  0.7270483587020138  0.4024816105774178
  0.9985218258075790  0.3245715712126938  0.5976034147349125
  0.3078738575450473  0.0000001929603783  0.5996116024782197
  0.6475506978308943  0.6508694721621922  0.6509037431656921
  0.6739274109091440  0.2729689116687553  0.6754454563724437
  0.2969771742591689  0.6998324134189104  0.6998870687134584
  0.4009658414881585  0.4024141164789938  0.7270433890761865
 
  0.00000000E+00  0.00000000E+00  0.00000000E+00
  0.00000000E+00  0.00000000E+00  0.00000000E+00
  0.00000000E+00  0.00000000E+00  0.00000000E+00
  0.00000000E+00  0.00000000E+00  0.00000000E+00
  0.00000000E+00  0.00000000E+00  0.00000000E+00
  0.00000000E+00  0.00000000E+00  0.00000000E+00
  0.00000000E+00  0.00000000E+00  0.00000000E+00
  0.00000000E+00  0.00000000E+00  0.00000000E+00
  0.00000000E+00  0.00000000E+00  0.00000000E+00
  0.00000000E+00  0.00000000E+00  0.00000000E+00
  0.00000000E+00  0.00000000E+00  0.00000000E+00
  0.00000000E+00  0.00000000E+00  0.00000000E+00
  0.00000000E+00  0.00000000E+00  0.00000000E+00
  0.00000000E+00  0.00000000E+00  0.00000000E+00
  0.00000000E+00  0.00000000E+00  0.00000000E+00
  0.00000000E+00  0.00000000E+00  0.00000000E+00
  0.00000000E+00  0.00000000E+00  0.00000000E+00
  0.00000000E+00  0.00000000E+00  0.00000000E+00
  0.00000000E+00  0.00000000E+00  0.00000000E+00
  0.00000000E+00  0.00000000E+00  0.00000000E+00
  0.00000000E+00  0.00000000E+00  0.00000000E+00
  0.00000000E+00  0.00000000E+00  0.00000000E+00
  0.00000000E+00  0.00000000E+00  0.00000000E+00
  0.00000000E+00  0.00000000E+00  0.00000000E+00
  0.00000000E+00  0.00000000E+00  0.00000000E+00
  0.00000000E+00  0.00000000E+00  0.00000000E+00
  0.00000000E+00  0.00000000E+00  0.00000000E+00
  0.00000000E+00  0.00000000E+00  0.00000000E+00
  0.00000000E+00  0.00000000E+00  0.00000000E+00
