Sr4 B4 Br20                             
   1.0000000000000000     
     0.0000000000000000    7.9742179798055695    3.5539040150492389
    16.2991039140414884    0.0000000000000000    0.0000000000000000
     0.0000000000000000   -4.1608094826235504  -12.8611964388081024
   Sr   B    Br
     4     4    20
Direct
  0.5260435747862005  0.1631832929250692  0.3148142115488852
  0.4739564252137995  0.6631832929250763  0.6851857884511148
  0.1105942671230338  0.9040891949773950  0.3337822932736927
  0.8894057328769733  0.4040891949774021  0.6662177067263144
  0.7497576925823353  0.7663062536267802  0.0234988417942859
  0.2502423074176789  0.2663062536267944  0.9765011582057070
  0.0328960421553788  0.5505458556459288  0.5139016439999722
  0.9671039578446212  0.0505458556459359  0.4860983560000278
  0.2335565360067662  0.9872879171114235  0.5924310489619273
  0.2523981780817053  0.4930169034537144  0.6977032727326034
  0.7476018219182947  0.9930169034537002  0.3022967272673895
  0.9763605784758980  0.8400063244392229  0.0662633549099141
  0.1435674990750044  0.5525919914589608  0.4223220862672505
  0.2129646498942179  0.0528745687634569  0.2670291394652509
  0.5413435412829628  0.2938856487480948  0.4734166324679947
  0.7475257704719382  0.7738157422670966  0.1732924184331850
  0.8564325009249956  0.0525919914589537  0.5776779137327495
  0.9987469095816408  0.6670799848270192  0.5496480822596652
  0.7870353501057821  0.5528745687634640  0.7329708605347491
  0.7664434639932267  0.4872879171114306  0.4075689510380727
  0.1996760682740089  0.1487365648031087  0.9974223141075598
  0.5272643746581522  0.3041787369527356  0.1494790728483153
  0.0012530904183592  0.1670799848270192  0.4503519177403348
  0.4586564587170372  0.7938856487480876  0.5265833675320124
  0.0236394215241091  0.3400063244392229  0.9337366450900859
  0.4727356253418478  0.8041787369527427  0.8505209271516847
  0.2524742295280547  0.2738157422670966  0.8267075815668150
  0.8003239317259911  0.6487365648031158  0.0025776858924402

  0.00000000E+00  0.00000000E+00  0.00000000E+00
  0.00000000E+00  0.00000000E+00  0.00000000E+00
  0.00000000E+00  0.00000000E+00  0.00000000E+00
  0.00000000E+00  0.00000000E+00  0.00000000E+00
  0.00000000E+00  0.00000000E+00  0.00000000E+00
  0.00000000E+00  0.00000000E+00  0.00000000E+00
  0.00000000E+00  0.00000000E+00  0.00000000E+00
  0.00000000E+00  0.00000000E+00  0.00000000E+00
  0.00000000E+00  0.00000000E+00  0.00000000E+00
  0.00000000E+00  0.00000000E+00  0.00000000E+00
  0.00000000E+00  0.00000000E+00  0.00000000E+00
  0.00000000E+00  0.00000000E+00  0.00000000E+00
  0.00000000E+00  0.00000000E+00  0.00000000E+00
  0.00000000E+00  0.00000000E+00  0.00000000E+00
  0.00000000E+00  0.00000000E+00  0.00000000E+00
  0.00000000E+00  0.00000000E+00  0.00000000E+00
  0.00000000E+00  0.00000000E+00  0.00000000E+00
  0.00000000E+00  0.00000000E+00  0.00000000E+00
  0.00000000E+00  0.00000000E+00  0.00000000E+00
  0.00000000E+00  0.00000000E+00  0.00000000E+00
  0.00000000E+00  0.00000000E+00  0.00000000E+00
  0.00000000E+00  0.00000000E+00  0.00000000E+00
  0.00000000E+00  0.00000000E+00  0.00000000E+00
  0.00000000E+00  0.00000000E+00  0.00000000E+00
  0.00000000E+00  0.00000000E+00  0.00000000E+00
  0.00000000E+00  0.00000000E+00  0.00000000E+00
  0.00000000E+00  0.00000000E+00  0.00000000E+00
  0.00000000E+00  0.00000000E+00  0.00000000E+00
