MgAl5                                   
   1.00000000000000     
     9.9698473635000369   -2.6107629073441641   -0.0992952180757105
     9.9698473635000369    2.6107629073441641   -0.0992952180757105
    -4.5783513364583595    0.0000000000000000    8.4231610884913550
   Al   Mg
    20     4
Direct
  0.9999961628113425  0.9999961628113425  0.9998217410312620
  0.8731827109789663  0.3785223855787407  0.0347110389171092
  0.3785223855787407  0.8731827109789663  0.0347110389171092
  0.7817136614257905  0.7817136614257905  0.1105459842454053
  0.3717327103073984  0.3717327103073984  0.2034461573236968
  0.2493061203183160  0.2493061203183160  0.2535873929192292
  0.1234114434243239  0.1234114434243239  0.2942724548369000
  0.9626427875437926  0.9626427875437926  0.3002222418396343
  0.6315289542798439  0.1209097496371712  0.4623649332870059
  0.1209097496371712  0.6315289542798439  0.4623649332870059
  0.5000154218166770  0.5000154218166770  0.4998535362662437
  0.8791435727535628  0.3685122126932328  0.5375792575336149
  0.3685122126932328  0.8791435727535628  0.5375792575336149
  0.0374014521743078  0.0374014521743078  0.6998087919416847
  0.8765166429276903  0.8765166429276903  0.7055355556151923
  0.7507111602174632  0.7507111602174632  0.7464832649387532
  0.6282421285652759  0.6282421285652759  0.7964378706843789
  0.2183175037165981  0.2183175037165981  0.8895071156094261
  0.6214975978308743  0.1268660138240065  0.9652519872086671
  0.1268660138240065  0.6214975978308743  0.9652519872086671
  0.5298980394878399  0.5298980394878399  0.1999771962026671
  0.7176341168685312  0.7176341168685312  0.3815246138887218
  0.2823807328615970  0.2823807328615970  0.6184448753523455
  0.4701167179566639  0.4701167179566639  0.7999167734116597
 
  0.00000000E+00  0.00000000E+00  0.00000000E+00
  0.00000000E+00  0.00000000E+00  0.00000000E+00
  0.00000000E+00  0.00000000E+00  0.00000000E+00
  0.00000000E+00  0.00000000E+00  0.00000000E+00
  0.00000000E+00  0.00000000E+00  0.00000000E+00
  0.00000000E+00  0.00000000E+00  0.00000000E+00
  0.00000000E+00  0.00000000E+00  0.00000000E+00
  0.00000000E+00  0.00000000E+00  0.00000000E+00
  0.00000000E+00  0.00000000E+00  0.00000000E+00
  0.00000000E+00  0.00000000E+00  0.00000000E+00
  0.00000000E+00  0.00000000E+00  0.00000000E+00
  0.00000000E+00  0.00000000E+00  0.00000000E+00
  0.00000000E+00  0.00000000E+00  0.00000000E+00
  0.00000000E+00  0.00000000E+00  0.00000000E+00
  0.00000000E+00  0.00000000E+00  0.00000000E+00
  0.00000000E+00  0.00000000E+00  0.00000000E+00
  0.00000000E+00  0.00000000E+00  0.00000000E+00
  0.00000000E+00  0.00000000E+00  0.00000000E+00
  0.00000000E+00  0.00000000E+00  0.00000000E+00
  0.00000000E+00  0.00000000E+00  0.00000000E+00
  0.00000000E+00  0.00000000E+00  0.00000000E+00
  0.00000000E+00  0.00000000E+00  0.00000000E+00
  0.00000000E+00  0.00000000E+00  0.00000000E+00
  0.00000000E+00  0.00000000E+00  0.00000000E+00
