Mg4 Ga4 Br20                            
   1.0000000000000000     
     7.3000320592629970   -0.0000000000000000    0.0000000000000006
    -0.0000000000000006    6.6184213016264888    0.0000000000000005
     0.0000000000000005    0.0000000000000001   21.4974335987048910
   Mg   Ga   Br
     4     4    20
Direct
  0.9339589976880589  0.5907795155397935  0.5385809897196125
  0.4339589976880589  0.9092204844602065  0.4614190102803875
  0.0660410023119411  0.0907795155397935  0.9614190102803875
  0.5660410023119411  0.4092204844602065  0.0385809897196125
  0.1762810281295444  0.1299351595494542  0.6329192285708274
  0.6762810281295373  0.3700648404505458  0.3670807714291726
  0.8237189718704627  0.6299351595494542  0.8670807714291726
  0.3237189718704556  0.8700648404505458  0.1329192285708274
  0.1277324242053339  0.7298152699014082  0.4493856625103589
  0.6277324242053268  0.7701847300985918  0.5506143374896411
  0.8722675757946732  0.2298152699014153  0.0506143374896411
  0.3722675757946661  0.2701847300985847  0.9493856625103589
  0.6135437386605389  0.7246178029856409  0.3650446489707946
  0.1135437386605389  0.7753821970143591  0.6349553510291983
  0.3864562613394611  0.2246178029856409  0.1349553510291983
  0.8864562613394611  0.2753821970143591  0.8650446489707946
  0.8857913488836502  0.3047577956746750  0.6270998192939459
  0.3857913488836431  0.1952422043253250  0.3729001807060541
  0.1142086511163498  0.8047577956746750  0.8729001807060541
  0.6142086511163498  0.6952422043253250  0.1270998192939388
  0.3425241216863242  0.2220221838953762  0.7189710933075588
  0.8425241216863242  0.2779778161046238  0.2810289066924412
  0.6574758783136758  0.7220221838953762  0.7810289066924412
  0.1574758783136829  0.7779778161046238  0.2189710933075588
  0.8225406554191039  0.2721498469839432  0.4623397340972062
  0.3225406554191039  0.2278501530160568  0.5376602659027938
  0.1774593445808961  0.7721498469839432  0.0376602659027938
  0.6774593445808961  0.7278501530160568  0.9623397340972062

  0.00000000E+00  0.00000000E+00  0.00000000E+00
  0.00000000E+00  0.00000000E+00  0.00000000E+00
  0.00000000E+00  0.00000000E+00  0.00000000E+00
  0.00000000E+00  0.00000000E+00  0.00000000E+00
  0.00000000E+00  0.00000000E+00  0.00000000E+00
  0.00000000E+00  0.00000000E+00  0.00000000E+00
  0.00000000E+00  0.00000000E+00  0.00000000E+00
  0.00000000E+00  0.00000000E+00  0.00000000E+00
  0.00000000E+00  0.00000000E+00  0.00000000E+00
  0.00000000E+00  0.00000000E+00  0.00000000E+00
  0.00000000E+00  0.00000000E+00  0.00000000E+00
  0.00000000E+00  0.00000000E+00  0.00000000E+00
  0.00000000E+00  0.00000000E+00  0.00000000E+00
  0.00000000E+00  0.00000000E+00  0.00000000E+00
  0.00000000E+00  0.00000000E+00  0.00000000E+00
  0.00000000E+00  0.00000000E+00  0.00000000E+00
  0.00000000E+00  0.00000000E+00  0.00000000E+00
  0.00000000E+00  0.00000000E+00  0.00000000E+00
  0.00000000E+00  0.00000000E+00  0.00000000E+00
  0.00000000E+00  0.00000000E+00  0.00000000E+00
  0.00000000E+00  0.00000000E+00  0.00000000E+00
  0.00000000E+00  0.00000000E+00  0.00000000E+00
  0.00000000E+00  0.00000000E+00  0.00000000E+00
  0.00000000E+00  0.00000000E+00  0.00000000E+00
  0.00000000E+00  0.00000000E+00  0.00000000E+00
  0.00000000E+00  0.00000000E+00  0.00000000E+00
  0.00000000E+00  0.00000000E+00  0.00000000E+00
  0.00000000E+00  0.00000000E+00  0.00000000E+00
