Ca1 B3 F6                               
   1.00000000000000     
    -2.6700574858369146    4.0969773691878091    2.4882819427416183
     2.9854472852848080   -4.2354364807972180    2.9854472852848071
     2.4882819427416187    4.0969773691878073   -2.6700574858369142
   F    Ca   B 
     6     1     3
Direct
  0.2768938055507633  0.5559378652947160  0.2768938055507633
  0.6918779876456824  0.0000000000000000  0.3081220123543176
  0.2771531001382854  0.9981670143700399  0.2771531001382854
  0.7228468998617075  0.0018329856299673  0.7228468998617075
  0.7231061944492367  0.4440621347052840  0.7231061944492367
  0.3081220123543176  0.0000000000000000  0.6918779876456824
  0.0000000000000000  0.0000000000000000  0.0000000000000000
  0.8823054463084148  0.5000000000000000  0.1176945536915852
  0.5000000000000000  0.0000000000000000  0.5000000000000000
  0.1176945536915852  0.5000000000000000  0.8823054463084148
 
  0.00000000E+00  0.00000000E+00  0.00000000E+00
  0.00000000E+00  0.00000000E+00  0.00000000E+00
  0.00000000E+00  0.00000000E+00  0.00000000E+00
  0.00000000E+00  0.00000000E+00  0.00000000E+00
  0.00000000E+00  0.00000000E+00  0.00000000E+00
  0.00000000E+00  0.00000000E+00  0.00000000E+00
  0.00000000E+00  0.00000000E+00  0.00000000E+00
  0.00000000E+00  0.00000000E+00  0.00000000E+00
  0.00000000E+00  0.00000000E+00  0.00000000E+00
  0.00000000E+00  0.00000000E+00  0.00000000E+00
