Ba2 Tl2 Br10                            
   1.00000000000000     
     7.1261772219646700   -0.0539281807409624    2.6479344927215736
     1.5090284546634423    6.9647782260777840    2.6479345649490411
    -0.2953373521161998   -0.2363595629768655   11.2829603590929644
   Ba   Tl   Br
     2     2    10
Direct
  0.4415290552472371  0.5584709446897378  0.2500000000518483
  0.5584709447527629  0.4415290553102622  0.7499999999481517
  0.0000000000000000  0.0000000000000000  0.5000000000000000
  0.0000000000000000  0.0000000000000000  0.0000000000000000
  0.6931535382295024  0.8426390507549186  0.5913162724136001
  0.1573609485138832  0.3068454614122516  0.9086837278934397
  0.3068454617705001  0.1573609492450814  0.4086847275864045
  0.8426390514861168  0.6931535385877510  0.0913162721065603
  0.9231251852653912  0.0768748147127454  0.7500000000142109
  0.0768748147346088  0.9231251852872546  0.2499999999857891
  0.6407337332998537  0.2549847500372522  0.0489330168438187
  0.7450152499920577  0.3592662666312378  0.4510669832121792
  0.3592662667001463  0.7450152499627407  0.9510669831561813
  0.2549847500079423  0.6407337333687622  0.5489330167878208
 
  0.00000000E+00  0.00000000E+00  0.00000000E+00
  0.00000000E+00  0.00000000E+00  0.00000000E+00
  0.00000000E+00  0.00000000E+00  0.00000000E+00
  0.00000000E+00  0.00000000E+00  0.00000000E+00
  0.00000000E+00  0.00000000E+00  0.00000000E+00
  0.00000000E+00  0.00000000E+00  0.00000000E+00
  0.00000000E+00  0.00000000E+00  0.00000000E+00
  0.00000000E+00  0.00000000E+00  0.00000000E+00
  0.00000000E+00  0.00000000E+00  0.00000000E+00
  0.00000000E+00  0.00000000E+00  0.00000000E+00
  0.00000000E+00  0.00000000E+00  0.00000000E+00
  0.00000000E+00  0.00000000E+00  0.00000000E+00
  0.00000000E+00  0.00000000E+00  0.00000000E+00
  0.00000000E+00  0.00000000E+00  0.00000000E+00
