Mg4 In2 I10                             
   1.00000000000000     
    10.1269142491912625   -4.8235929739973500   -0.1671909396525670
     9.4279418843059624    3.2500697293716603   -0.5820280115825895
    -5.4355599983053882   -0.0614935486484332    9.7997923218825189
   I    In   Mg
    10     2     4
Direct
  0.4077080446001986  0.0796914486204230  0.9501285407898763
  0.0803373051624234  0.1828777856303034  0.1397817428301025
  0.5819832159885081  0.6841681684751677  0.1695931703969009
  0.2382561195407860  0.5057766043863694  0.3619641990156239
  0.7362192289194880  0.0046189064423032  0.3453026871593465
  0.9277955113348995  0.6171461024397047  0.5687521264794100
  0.1528533148182660  0.0495759766078265  0.5441111816939781
  0.6469172464307462  0.5416906221277245  0.6437620350140989
  0.4921076509165445  0.2012675770372709  0.7242780825239095
  0.9811238500818575  0.6820776469755785  0.9614749220281240
  0.7981783963194857  0.3084266709897463  0.3443255139861918
  0.2789061635118344  0.7761000068446648  0.7171709743668231
  0.9116763017637908  0.5942168147776670  0.2915874674780099
  0.4098097035572792  0.0901959416083997  0.2156165155205159
  0.6775457012922317  0.8400111919438942  0.7735418661375562
  0.1788822457616774  0.3424585350929519  0.7489089745795425
 
  0.00000000E+00  0.00000000E+00  0.00000000E+00
  0.00000000E+00  0.00000000E+00  0.00000000E+00
  0.00000000E+00  0.00000000E+00  0.00000000E+00
  0.00000000E+00  0.00000000E+00  0.00000000E+00
  0.00000000E+00  0.00000000E+00  0.00000000E+00
  0.00000000E+00  0.00000000E+00  0.00000000E+00
  0.00000000E+00  0.00000000E+00  0.00000000E+00
  0.00000000E+00  0.00000000E+00  0.00000000E+00
  0.00000000E+00  0.00000000E+00  0.00000000E+00
  0.00000000E+00  0.00000000E+00  0.00000000E+00
  0.00000000E+00  0.00000000E+00  0.00000000E+00
  0.00000000E+00  0.00000000E+00  0.00000000E+00
  0.00000000E+00  0.00000000E+00  0.00000000E+00
  0.00000000E+00  0.00000000E+00  0.00000000E+00
  0.00000000E+00  0.00000000E+00  0.00000000E+00
  0.00000000E+00  0.00000000E+00  0.00000000E+00
