Be41 B67                                
   1.00000000000000     
     9.1356825078591601    0.0000000000000000    0.0000000000000000
     0.0000000000000000    9.1356825078591637    0.0000000000000000
     0.0000000000000000    0.0000000000000000    9.1356825078591637
   Be   B 
    41    67
Direct
  0.6314704234624173  0.3685295765375827  0.1319080735677218
  0.6314704234624173  0.8680919264322782  0.3685295765375827
  0.1319080735677218  0.6314704234624173  0.6314704234624173
  0.3685295765375827  0.8680919264322782  0.6314704234624173
  0.0000000000000000  0.8390136850111958  0.0000000000000000
  0.8680919264322782  0.6314704234624173  0.6314704234624173
  0.1319080735677218  0.3685295765375827  0.3685295765375827
  0.6314704234624173  0.1319080735677218  0.3685295765375827
  0.8313521908306285  0.1686478091693786  0.1686478091693786
  0.8680919264322782  0.6314704234624173  0.3685295765375827
  0.0000000000000000  0.0000000000000000  0.1609863149888042
  0.6314704234624173  0.6314704234624173  0.1319080735677218
  0.3685295765375827  0.6314704234624173  0.8680919264322782
  0.1686478091693786  0.1686478091693786  0.8313521908306285
  0.6314704234624173  0.3685295765375827  0.8680919264322782
  0.0000000000000000  0.5000000000000000  0.0000000000000000
  0.6314704234624173  0.1319080735677218  0.6314704234624173
  0.1319080735677218  0.6314704234624173  0.3685295765375827
  0.8313521908306285  0.1686478091693786  0.8313521908306285
  0.1319080735677218  0.3685295765375827  0.6314704234624173
  0.1686478091693786  0.1686478091693786  0.1686478091693786
  0.6314704234624173  0.6314704234624173  0.8680919264322782
  0.6314704234624173  0.8680919264322782  0.6314704234624173
  0.8313521908306285  0.8313521908306285  0.1686478091693786
  0.1609863149888042  0.0000000000000000  0.0000000000000000
  0.3685295765375827  0.1319080735677218  0.6314704234624173
  0.8680919264322782  0.3685295765375827  0.6314704234624173
  0.0000000000000000  0.0000000000000000  0.5000000000000000
  0.1686478091693786  0.8313521908306285  0.1686478091693786
  0.3685295765375827  0.6314704234624173  0.1319080735677218
  0.0000000000000000  0.1609863149888042  0.0000000000000000
  0.1686478091693786  0.8313521908306285  0.8313521908306285
  0.8390136850111958  0.0000000000000000  0.0000000000000000
  0.3685295765375827  0.3685295765375827  0.8680919264322782
  0.3685295765375827  0.3685295765375827  0.1319080735677218
  0.3685295765375827  0.1319080735677218  0.3685295765375827
  0.5000000000000000  0.0000000000000000  0.0000000000000000
  0.8680919264322782  0.3685295765375827  0.3685295765375827
  0.3685295765375827  0.8680919264322782  0.3685295765375827
  0.0000000000000000  0.0000000000000000  0.8390136850111958
  0.8313521908306285  0.8313521908306285  0.8313521908306285
  0.5000000000000000  0.3135744218457717  0.3135744218457717
  0.8118338653630630  0.1881661346369370  0.5000000000000000
  0.3135744218457717  0.5000000000000000  0.6864255781542354
  0.7682109536350765  0.0000000000000000  0.5000000000000000
  0.6956720994150203  0.0000000000000000  0.8410520138254185
  0.8410520138254185  0.0000000000000000  0.6956720994150203
  0.5000000000000000  0.0000000000000000  0.2317890463649235
  0.3043279005849797  0.8410520138254185  0.0000000000000000
  0.0000000000000000  0.7682109536350765  0.5000000000000000
  0.2317890463649235  0.0000000000000000  0.5000000000000000
  0.6956720994150203  0.0000000000000000  0.1589479861745815
  0.5000000000000000  0.8118338653630630  0.1881661346369370
  0.7682109536350765  0.5000000000000000  0.0000000000000000
  0.1589479861745815  0.6956720994150203  0.0000000000000000
  0.8118338653630630  0.5000000000000000  0.1881661346369370
  0.2657499303793713  0.5000000000000000  0.5000000000000000
  0.1589479861745815  0.3043279005849797  0.0000000000000000
  0.5000000000000000  0.5000000000000000  0.2657499303793713
  0.5000000000000000  0.8118338653630630  0.8118338653630630
  0.5000000000000000  0.0000000000000000  0.7682109536350765
  0.3135744218457717  0.3135744218457717  0.5000000000000000
  0.5000000000000000  0.1881661346369370  0.1881661346369370
  0.5000000000000000  0.6864255781542354  0.3135744218457717
  0.3043279005849797  0.0000000000000000  0.1589479861745815
  0.1589479861745815  0.0000000000000000  0.6956720994150203
  0.8410520138254185  0.0000000000000000  0.3043279005849797
  0.1881661346369370  0.5000000000000000  0.1881661346369370
  0.0000000000000000  0.1589479861745815  0.6956720994150203
  0.3043279005849797  0.0000000000000000  0.8410520138254185
  0.0000000000000000  0.8410520138254185  0.3043279005849797
  0.1881661346369370  0.1881661346369370  0.5000000000000000
  0.5000000000000000  0.5000000000000000  0.5000000000000000
  0.5000000000000000  0.2317890463649235  0.0000000000000000
  0.5000000000000000  0.6864255781542354  0.6864255781542354
  0.6864255781542354  0.3135744218457717  0.5000000000000000
  0.1589479861745815  0.0000000000000000  0.3043279005849797
  0.6864255781542354  0.5000000000000000  0.6864255781542354
  0.5000000000000000  0.7682109536350765  0.0000000000000000
  0.0000000000000000  0.3043279005849797  0.8410520138254185
  0.0000000000000000  0.6956720994150203  0.8410520138254185
  0.5000000000000000  0.2657499303793713  0.5000000000000000
  0.5000000000000000  0.7342500696206287  0.5000000000000000
  0.8118338653630630  0.8118338653630630  0.5000000000000000
  0.0000000000000000  0.1589479861745815  0.3043279005849797
  0.1881661346369370  0.8118338653630630  0.5000000000000000
  0.0000000000000000  0.3043279005849797  0.1589479861745815
  0.0000000000000000  0.6956720994150203  0.1589479861745815
  0.0000000000000000  0.8410520138254185  0.6956720994150203
  0.3135744218457717  0.6864255781542354  0.5000000000000000
  0.6956720994150203  0.1589479861745815  0.0000000000000000
  0.8410520138254185  0.6956720994150203  0.0000000000000000
  0.2317890463649235  0.5000000000000000  0.0000000000000000
  0.3043279005849797  0.1589479861745815  0.0000000000000000
  0.6956720994150203  0.8410520138254185  0.0000000000000000
  0.8118338653630630  0.5000000000000000  0.8118338653630630
  0.7342500696206287  0.5000000000000000  0.5000000000000000
  0.0000000000000000  0.5000000000000000  0.2317890463649235
  0.5000000000000000  0.1881661346369370  0.8118338653630630
  0.5000000000000000  0.3135744218457717  0.6864255781542354
  0.3135744218457717  0.5000000000000000  0.3135744218457717
  0.0000000000000000  0.2317890463649235  0.5000000000000000
  0.8410520138254185  0.3043279005849797  0.0000000000000000
  0.1881661346369370  0.5000000000000000  0.8118338653630630
  0.6864255781542354  0.5000000000000000  0.3135744218457717
  0.6864255781542354  0.6864255781542354  0.5000000000000000
  0.5000000000000000  0.5000000000000000  0.7342500696206287
  0.0000000000000000  0.5000000000000000  0.7682109536350765
 
  0.00000000E+00  0.00000000E+00  0.00000000E+00
  0.00000000E+00  0.00000000E+00  0.00000000E+00
  0.00000000E+00  0.00000000E+00  0.00000000E+00
  0.00000000E+00  0.00000000E+00  0.00000000E+00
  0.00000000E+00  0.00000000E+00  0.00000000E+00
  0.00000000E+00  0.00000000E+00  0.00000000E+00
  0.00000000E+00  0.00000000E+00  0.00000000E+00
  0.00000000E+00  0.00000000E+00  0.00000000E+00
  0.00000000E+00  0.00000000E+00  0.00000000E+00
  0.00000000E+00  0.00000000E+00  0.00000000E+00
  0.00000000E+00  0.00000000E+00  0.00000000E+00
  0.00000000E+00  0.00000000E+00  0.00000000E+00
  0.00000000E+00  0.00000000E+00  0.00000000E+00
  0.00000000E+00  0.00000000E+00  0.00000000E+00
  0.00000000E+00  0.00000000E+00  0.00000000E+00
  0.00000000E+00  0.00000000E+00  0.00000000E+00
  0.00000000E+00  0.00000000E+00  0.00000000E+00
  0.00000000E+00  0.00000000E+00  0.00000000E+00
  0.00000000E+00  0.00000000E+00  0.00000000E+00
  0.00000000E+00  0.00000000E+00  0.00000000E+00
  0.00000000E+00  0.00000000E+00  0.00000000E+00
  0.00000000E+00  0.00000000E+00  0.00000000E+00
  0.00000000E+00  0.00000000E+00  0.00000000E+00
  0.00000000E+00  0.00000000E+00  0.00000000E+00
  0.00000000E+00  0.00000000E+00  0.00000000E+00
  0.00000000E+00  0.00000000E+00  0.00000000E+00
  0.00000000E+00  0.00000000E+00  0.00000000E+00
  0.00000000E+00  0.00000000E+00  0.00000000E+00
  0.00000000E+00  0.00000000E+00  0.00000000E+00
  0.00000000E+00  0.00000000E+00  0.00000000E+00
  0.00000000E+00  0.00000000E+00  0.00000000E+00
  0.00000000E+00  0.00000000E+00  0.00000000E+00
  0.00000000E+00  0.00000000E+00  0.00000000E+00
  0.00000000E+00  0.00000000E+00  0.00000000E+00
  0.00000000E+00  0.00000000E+00  0.00000000E+00
  0.00000000E+00  0.00000000E+00  0.00000000E+00
  0.00000000E+00  0.00000000E+00  0.00000000E+00
  0.00000000E+00  0.00000000E+00  0.00000000E+00
  0.00000000E+00  0.00000000E+00  0.00000000E+00
  0.00000000E+00  0.00000000E+00  0.00000000E+00
  0.00000000E+00  0.00000000E+00  0.00000000E+00
  0.00000000E+00  0.00000000E+00  0.00000000E+00
  0.00000000E+00  0.00000000E+00  0.00000000E+00
  0.00000000E+00  0.00000000E+00  0.00000000E+00
  0.00000000E+00  0.00000000E+00  0.00000000E+00
  0.00000000E+00  0.00000000E+00  0.00000000E+00
  0.00000000E+00  0.00000000E+00  0.00000000E+00
  0.00000000E+00  0.00000000E+00  0.00000000E+00
  0.00000000E+00  0.00000000E+00  0.00000000E+00
  0.00000000E+00  0.00000000E+00  0.00000000E+00
  0.00000000E+00  0.00000000E+00  0.00000000E+00
  0.00000000E+00  0.00000000E+00  0.00000000E+00
  0.00000000E+00  0.00000000E+00  0.00000000E+00
  0.00000000E+00  0.00000000E+00  0.00000000E+00
  0.00000000E+00  0.00000000E+00  0.00000000E+00
  0.00000000E+00  0.00000000E+00  0.00000000E+00
  0.00000000E+00  0.00000000E+00  0.00000000E+00
  0.00000000E+00  0.00000000E+00  0.00000000E+00
  0.00000000E+00  0.00000000E+00  0.00000000E+00
  0.00000000E+00  0.00000000E+00  0.00000000E+00
  0.00000000E+00  0.00000000E+00  0.00000000E+00
  0.00000000E+00  0.00000000E+00  0.00000000E+00
  0.00000000E+00  0.00000000E+00  0.00000000E+00
  0.00000000E+00  0.00000000E+00  0.00000000E+00
  0.00000000E+00  0.00000000E+00  0.00000000E+00
  0.00000000E+00  0.00000000E+00  0.00000000E+00
  0.00000000E+00  0.00000000E+00  0.00000000E+00
  0.00000000E+00  0.00000000E+00  0.00000000E+00
  0.00000000E+00  0.00000000E+00  0.00000000E+00
  0.00000000E+00  0.00000000E+00  0.00000000E+00
  0.00000000E+00  0.00000000E+00  0.00000000E+00
  0.00000000E+00  0.00000000E+00  0.00000000E+00
  0.00000000E+00  0.00000000E+00  0.00000000E+00
  0.00000000E+00  0.00000000E+00  0.00000000E+00
  0.00000000E+00  0.00000000E+00  0.00000000E+00
  0.00000000E+00  0.00000000E+00  0.00000000E+00
  0.00000000E+00  0.00000000E+00  0.00000000E+00
  0.00000000E+00  0.00000000E+00  0.00000000E+00
  0.00000000E+00  0.00000000E+00  0.00000000E+00
  0.00000000E+00  0.00000000E+00  0.00000000E+00
  0.00000000E+00  0.00000000E+00  0.00000000E+00
  0.00000000E+00  0.00000000E+00  0.00000000E+00
  0.00000000E+00  0.00000000E+00  0.00000000E+00
  0.00000000E+00  0.00000000E+00  0.00000000E+00
  0.00000000E+00  0.00000000E+00  0.00000000E+00
  0.00000000E+00  0.00000000E+00  0.00000000E+00
  0.00000000E+00  0.00000000E+00  0.00000000E+00
  0.00000000E+00  0.00000000E+00  0.00000000E+00
  0.00000000E+00  0.00000000E+00  0.00000000E+00
  0.00000000E+00  0.00000000E+00  0.00000000E+00
  0.00000000E+00  0.00000000E+00  0.00000000E+00
  0.00000000E+00  0.00000000E+00  0.00000000E+00
  0.00000000E+00  0.00000000E+00  0.00000000E+00
  0.00000000E+00  0.00000000E+00  0.00000000E+00
  0.00000000E+00  0.00000000E+00  0.00000000E+00
  0.00000000E+00  0.00000000E+00  0.00000000E+00
  0.00000000E+00  0.00000000E+00  0.00000000E+00
  0.00000000E+00  0.00000000E+00  0.00000000E+00
  0.00000000E+00  0.00000000E+00  0.00000000E+00
  0.00000000E+00  0.00000000E+00  0.00000000E+00
  0.00000000E+00  0.00000000E+00  0.00000000E+00
  0.00000000E+00  0.00000000E+00  0.00000000E+00
  0.00000000E+00  0.00000000E+00  0.00000000E+00
  0.00000000E+00  0.00000000E+00  0.00000000E+00
  0.00000000E+00  0.00000000E+00  0.00000000E+00
  0.00000000E+00  0.00000000E+00  0.00000000E+00
  0.00000000E+00  0.00000000E+00  0.00000000E+00
  0.00000000E+00  0.00000000E+00  0.00000000E+00
