Ca16 Tl6                                
   1.0000000000000000     
     9.6406136982173471    0.0054593215740801   -0.0061718196772247
    -4.8043069044844851    8.4227843932274808    0.0049651925327051
    -1.9049794599677494   -2.8275303466919453    9.1637539915475745
   Tl   Ca
     6    16
Direct
  0.0001445761369965  0.5002577611723709  0.0001523890745290
  0.6759440486225614  0.8395374755633895  0.0258471233958204
  0.8275464512233413  0.6640008310290639  0.4997449781767145
  0.5007174582534830  0.0001606830564711  0.5003487626941094
  0.1724948166344120  0.3358252859495181  0.5001163779157238
  0.3238400924991396  0.1604298150160446  0.9741848794515491
  0.0831013416439887  0.2322877835390216  0.1070892349903119
  0.7015927041167416  0.4940498728763103  0.1120662418746790
  0.3305797550214891  0.8812145178267912  0.1129127580406148
  0.5440581706390759  0.7099751625671402  0.2947166037228612
  0.7747165282962669  0.1518850572995802  0.2978337274206240
  0.0387296928048286  0.9381354194672795  0.3297053452071594
  0.4690831396707793  0.2993431061243683  0.3523649435928036
  0.1237812862279100  0.5988976435466071  0.3535264808496024
  0.8763582072744001  0.4012709460669726  0.6466389887480020
  0.5308078523864239  0.7004313788785481  0.6477410402585733
  0.9607259486393573  0.0614738547912452  0.6698608264135473
  0.2254486311790771  0.8480698262599802  0.7023275430012319
  0.4556582721548992  0.2896544824866325  0.7052559358771902
  0.6698647019581472  0.1190941762710267  0.8871262055476521
  0.2982397141235182  0.5056965163223808  0.8878877782938517
  0.9169666104931764  0.7680084038892545  0.8929518354528483

  0.00000000E+00  0.00000000E+00  0.00000000E+00
  0.00000000E+00  0.00000000E+00  0.00000000E+00
  0.00000000E+00  0.00000000E+00  0.00000000E+00
  0.00000000E+00  0.00000000E+00  0.00000000E+00
  0.00000000E+00  0.00000000E+00  0.00000000E+00
  0.00000000E+00  0.00000000E+00  0.00000000E+00
  0.00000000E+00  0.00000000E+00  0.00000000E+00
  0.00000000E+00  0.00000000E+00  0.00000000E+00
  0.00000000E+00  0.00000000E+00  0.00000000E+00
  0.00000000E+00  0.00000000E+00  0.00000000E+00
  0.00000000E+00  0.00000000E+00  0.00000000E+00
  0.00000000E+00  0.00000000E+00  0.00000000E+00
  0.00000000E+00  0.00000000E+00  0.00000000E+00
  0.00000000E+00  0.00000000E+00  0.00000000E+00
  0.00000000E+00  0.00000000E+00  0.00000000E+00
  0.00000000E+00  0.00000000E+00  0.00000000E+00
  0.00000000E+00  0.00000000E+00  0.00000000E+00
  0.00000000E+00  0.00000000E+00  0.00000000E+00
  0.00000000E+00  0.00000000E+00  0.00000000E+00
  0.00000000E+00  0.00000000E+00  0.00000000E+00
  0.00000000E+00  0.00000000E+00  0.00000000E+00
  0.00000000E+00  0.00000000E+00  0.00000000E+00
