Be4 Tl4 Cl20                            
   1.0000000000000000     
     6.8815265785627142   -0.0000000000000001    0.0000000000000006
    -0.0000000000000005    7.6252325316380727    0.0000000000000005
     0.0000000000000003    0.0000000000000003   18.5292993119268203
   Be   Tl   Cl
     4     4    20
Direct
  0.0442154915385657  0.6082150435438294  0.5860810162545604
  0.5442154915385657  0.8917849564561706  0.4139189837454325
  0.9557845084614343  0.1082150435438294  0.9139189837454396
  0.4557845084614343  0.3917849564561706  0.0860810162545675
  0.2554985229415507  0.0993158274445634  0.5832887479190632
  0.7554985229415436  0.4006841725554366  0.4167112520809368
  0.7445014770584564  0.5993158274445634  0.9167112520809368
  0.2445014770584493  0.9006841725554366  0.0832887479190632
  0.0428375051176744  0.6213002399265406  0.4821461850786761
  0.5428375051176744  0.8786997600734594  0.5178538149213239
  0.9571624948823256  0.1213002399265406  0.0178538149213239
  0.4571624948823185  0.3786997600734594  0.9821461850786761
  0.5534290956766483  0.6781922318207876  0.3560550340044983
  0.0534290956766483  0.8218077681792124  0.6439449659954946
  0.4465709043233517  0.1781922318207876  0.1439449659954946
  0.9465709043233517  0.3218077681792124  0.8560550340044983
  0.0405064509944566  0.3926754192100148  0.6403727310194398
  0.5405064509944566  0.1073245807899852  0.3596272689805602
  0.9594935490055434  0.8926754192100148  0.8596272689805602
  0.4594935490055434  0.6073245807899852  0.1403727310194398
  0.4601972122950073  0.1272445224091143  0.6851292209003006
  0.9601972122950073  0.3727554775908857  0.3148707790996994
  0.5398027877049927  0.6272445224091143  0.8148707790996994
  0.0398027877049927  0.8727554775908857  0.1851292209003006
  0.5806438876951319  0.3868192443173868  0.5279852550835287
  0.0806438876951319  0.1131807556826132  0.4720147449164713
  0.4193561123048681  0.8868192443173868  0.9720147449164713
  0.9193561123048681  0.6131807556826132  0.0279852550835287

  0.00000000E+00  0.00000000E+00  0.00000000E+00
  0.00000000E+00  0.00000000E+00  0.00000000E+00
  0.00000000E+00  0.00000000E+00  0.00000000E+00
  0.00000000E+00  0.00000000E+00  0.00000000E+00
  0.00000000E+00  0.00000000E+00  0.00000000E+00
  0.00000000E+00  0.00000000E+00  0.00000000E+00
  0.00000000E+00  0.00000000E+00  0.00000000E+00
  0.00000000E+00  0.00000000E+00  0.00000000E+00
  0.00000000E+00  0.00000000E+00  0.00000000E+00
  0.00000000E+00  0.00000000E+00  0.00000000E+00
  0.00000000E+00  0.00000000E+00  0.00000000E+00
  0.00000000E+00  0.00000000E+00  0.00000000E+00
  0.00000000E+00  0.00000000E+00  0.00000000E+00
  0.00000000E+00  0.00000000E+00  0.00000000E+00
  0.00000000E+00  0.00000000E+00  0.00000000E+00
  0.00000000E+00  0.00000000E+00  0.00000000E+00
  0.00000000E+00  0.00000000E+00  0.00000000E+00
  0.00000000E+00  0.00000000E+00  0.00000000E+00
  0.00000000E+00  0.00000000E+00  0.00000000E+00
  0.00000000E+00  0.00000000E+00  0.00000000E+00
  0.00000000E+00  0.00000000E+00  0.00000000E+00
  0.00000000E+00  0.00000000E+00  0.00000000E+00
  0.00000000E+00  0.00000000E+00  0.00000000E+00
  0.00000000E+00  0.00000000E+00  0.00000000E+00
  0.00000000E+00  0.00000000E+00  0.00000000E+00
  0.00000000E+00  0.00000000E+00  0.00000000E+00
  0.00000000E+00  0.00000000E+00  0.00000000E+00
  0.00000000E+00  0.00000000E+00  0.00000000E+00
