Be1 Al3 I6                              
   1.00000000000000     
     7.8215562476565053    0.0008930889659896    0.0007443499174932
     0.0008930889659896    7.8215562476565053    0.0007443499174932
     3.9117506993369777    3.9117506993369773    5.5509694153848583
   I    Be   Al
     6     1     3
Direct
  0.7565966772794965  0.2434033227205035  0.0000000000000000
  0.2435154877680432  0.2435154877680432  0.9997952156494563
  0.2434033227205035  0.7565966772794965  0.0000000000000000
  0.7564845122319568  0.7564845122319568  0.0002047843505437
  0.7567715451489718  0.7567715451489718  0.4871504694124127
  0.2432284548510282  0.2432284548510282  0.5128495305875873
  0.0000000000000000  0.0000000000000000  0.0000000000000000
  0.5000000000000000  0.5000000000000000  0.0000000000000000
  0.2496292988222990  0.7503707011777010  0.5000000000000000
  0.7503707011777010  0.2496292988222990  0.5000000000000000
 
  0.00000000E+00  0.00000000E+00  0.00000000E+00
  0.00000000E+00  0.00000000E+00  0.00000000E+00
  0.00000000E+00  0.00000000E+00  0.00000000E+00
  0.00000000E+00  0.00000000E+00  0.00000000E+00
  0.00000000E+00  0.00000000E+00  0.00000000E+00
  0.00000000E+00  0.00000000E+00  0.00000000E+00
  0.00000000E+00  0.00000000E+00  0.00000000E+00
  0.00000000E+00  0.00000000E+00  0.00000000E+00
  0.00000000E+00  0.00000000E+00  0.00000000E+00
  0.00000000E+00  0.00000000E+00  0.00000000E+00
