Be2 In2 I10                             
   1.0000000000000000     
     5.7280772450185653   -0.0000000000000004    0.0000000000000002
    -0.0000000000000015   13.8656382073560618    0.0000000000000007
     0.0000000000000000    0.0000000000000006    9.4649736011148100
   Be   In   I 
     2     2    10
Direct
  0.0000000000000000  0.0000000000000000  0.5000000000000000
  0.5000000000000000  0.5000000000000000  0.0000000000000000
  0.5000000000000000  0.0000000000000000  0.0000000000000000
  0.0000000000000000  0.5000000000000000  0.5000000000000000
  0.5000000000000000  0.7108862077025861  0.5000000000000000
  0.5000000000000000  0.2891137922974139  0.5000000000000000
  0.5000000000000000  0.0000000000000000  0.6783227244765371
  0.5000000000000000  0.0000000000000000  0.3216772755234629
  0.0000000000000000  0.0000000000000000  0.0000000000000000
  0.0000000000000000  0.2108862077025861  0.0000000000000000
  0.0000000000000000  0.7891137922974139  0.0000000000000000
  0.0000000000000000  0.5000000000000000  0.1783227244765371
  0.0000000000000000  0.5000000000000000  0.8216772755234629
  0.5000000000000000  0.5000000000000000  0.5000000000000000

  0.00000000E+00  0.00000000E+00  0.00000000E+00
  0.00000000E+00  0.00000000E+00  0.00000000E+00
  0.00000000E+00  0.00000000E+00  0.00000000E+00
  0.00000000E+00  0.00000000E+00  0.00000000E+00
  0.00000000E+00  0.00000000E+00  0.00000000E+00
  0.00000000E+00  0.00000000E+00  0.00000000E+00
  0.00000000E+00  0.00000000E+00  0.00000000E+00
  0.00000000E+00  0.00000000E+00  0.00000000E+00
  0.00000000E+00  0.00000000E+00  0.00000000E+00
  0.00000000E+00  0.00000000E+00  0.00000000E+00
  0.00000000E+00  0.00000000E+00  0.00000000E+00
  0.00000000E+00  0.00000000E+00  0.00000000E+00
  0.00000000E+00  0.00000000E+00  0.00000000E+00
  0.00000000E+00  0.00000000E+00  0.00000000E+00
