Mg1 Al3 I6                              
   1.00000000000000     
     8.2544432589663153    0.0255758471769746    0.0509433504528153
     0.0255758471769746    8.2544432589663153    0.0509433504528153
     4.1774425081041517    4.1774425081041509    5.9166595834429536
   I    Mg   Al
     6     1     3
Direct
  0.7472518296904482  0.2527481703095518  0.0000000000000000
  0.2361769488221910  0.2361769488221910  0.0306082270978933
  0.2527481703095518  0.7472518296904482  0.0000000000000000
  0.7638230511778161  0.7638230511778161  0.9693917729021067
  0.7652412326406335  0.7652412326406335  0.5029607537128769
  0.2347587673593665  0.2347587673593665  0.4970392462871231
  0.0000000000000000  0.0000000000000000  0.0000000000000000
  0.5000000000000000  0.5000000000000000  0.0000000000000000
  0.1571271955065328  0.8428728044934672  0.5000000000000000
  0.8428728044934672  0.1571271955065328  0.5000000000000000
 
  0.00000000E+00  0.00000000E+00  0.00000000E+00
  0.00000000E+00  0.00000000E+00  0.00000000E+00
  0.00000000E+00  0.00000000E+00  0.00000000E+00
  0.00000000E+00  0.00000000E+00  0.00000000E+00
  0.00000000E+00  0.00000000E+00  0.00000000E+00
  0.00000000E+00  0.00000000E+00  0.00000000E+00
  0.00000000E+00  0.00000000E+00  0.00000000E+00
  0.00000000E+00  0.00000000E+00  0.00000000E+00
  0.00000000E+00  0.00000000E+00  0.00000000E+00
  0.00000000E+00  0.00000000E+00  0.00000000E+00
