Mg1 B2 I8                               
   1.00000000000000     
     6.4601435583377489   -3.8095525716974601    0.1567735017384884
     6.4601435583377489    3.8095525716974601    0.1567735017384884
     0.3125155252468627    0.0000000000000000   10.1175122053489410
   B    Mg   I 
     2     1     8
Direct
  0.2980211719745043  0.2980211719745043  0.2469914406896976
  0.7019788280254957  0.7019788280254957  0.7530085593103024
  0.0000000000000000  0.0000000000000000  0.0000000000000000
  0.6031869314227194  0.0954308615950623  0.1419237394630599
  0.0954308615950623  0.6031869314227194  0.1419237394630599
  0.1184604708024182  0.1184604708024182  0.2428973547810216
  0.6606587465071740  0.6606587465071740  0.5476164202340996
  0.3393412534928189  0.3393412534928189  0.4523835797659004
  0.8815395291975818  0.8815395291975818  0.7571026452189784
  0.9045691384049377  0.3968130685772806  0.8580762605369401
  0.3968130685772806  0.9045691384049377  0.8580762605369401
 
  0.00000000E+00  0.00000000E+00  0.00000000E+00
  0.00000000E+00  0.00000000E+00  0.00000000E+00
  0.00000000E+00  0.00000000E+00  0.00000000E+00
  0.00000000E+00  0.00000000E+00  0.00000000E+00
  0.00000000E+00  0.00000000E+00  0.00000000E+00
  0.00000000E+00  0.00000000E+00  0.00000000E+00
  0.00000000E+00  0.00000000E+00  0.00000000E+00
  0.00000000E+00  0.00000000E+00  0.00000000E+00
  0.00000000E+00  0.00000000E+00  0.00000000E+00
  0.00000000E+00  0.00000000E+00  0.00000000E+00
  0.00000000E+00  0.00000000E+00  0.00000000E+00
