Ca2                                     
   1.00000000000000     
     4.1609772683333688    0.0000000000000000    0.0000000000000000
     0.0000000000000000   -4.8506261685252268    0.0000000000000000
     0.0000000000000000    0.0000000000000000   -4.1662117624830088
   Ca
     2
Direct
  0.7499747457625929  0.2500020000000021  0.3851990000000001
  0.2500272542374020  0.7500009999999975  0.8851990000000001
 
  0.00000000E+00  0.00000000E+00  0.00000000E+00
  0.00000000E+00  0.00000000E+00  0.00000000E+00
