Be2 Ga2 Br10                            
   1.0000000000000000     
     4.9239514100818740   -0.0000000000000002    0.0000000000000002
    -0.0000000000000012   12.2938807046870462    0.0000000000000006
    -0.0000000000000000    0.0000000000000003    8.7723847884066846
   Be   Ga   Br
     2     2    10
Direct
  0.0000000000000000  0.0000000000000000  0.5000000000000000
  0.5000000000000000  0.5000000000000000  0.0000000000000000
  0.5000000000000000  0.0000000000000000  0.0000000000000000
  0.0000000000000000  0.5000000000000000  0.5000000000000000
  0.5000000000000000  0.7085435345082800  0.5000000000000000
  0.5000000000000000  0.2914564654917200  0.5000000000000000
  0.5000000000000000  0.0000000000000000  0.3220103903520410
  0.5000000000000000  0.0000000000000000  0.6779896096479590
  0.0000000000000000  0.0000000000000000  0.0000000000000000
  0.0000000000000000  0.2085435345082800  0.0000000000000000
  0.0000000000000000  0.7914564654917200  0.0000000000000000
  0.0000000000000000  0.5000000000000000  0.8220103903520410
  0.0000000000000000  0.5000000000000000  0.1779896096479590
  0.5000000000000000  0.5000000000000000  0.5000000000000000

  0.00000000E+00  0.00000000E+00  0.00000000E+00
  0.00000000E+00  0.00000000E+00  0.00000000E+00
  0.00000000E+00  0.00000000E+00  0.00000000E+00
  0.00000000E+00  0.00000000E+00  0.00000000E+00
  0.00000000E+00  0.00000000E+00  0.00000000E+00
  0.00000000E+00  0.00000000E+00  0.00000000E+00
  0.00000000E+00  0.00000000E+00  0.00000000E+00
  0.00000000E+00  0.00000000E+00  0.00000000E+00
  0.00000000E+00  0.00000000E+00  0.00000000E+00
  0.00000000E+00  0.00000000E+00  0.00000000E+00
  0.00000000E+00  0.00000000E+00  0.00000000E+00
  0.00000000E+00  0.00000000E+00  0.00000000E+00
  0.00000000E+00  0.00000000E+00  0.00000000E+00
  0.00000000E+00  0.00000000E+00  0.00000000E+00
