Sr17 Al11 F1                            
   1.00000000000000     
     8.4373110198967947   -5.5229298627521297    3.2061995647157708
     0.0811668762936345   11.8575297920267282    4.2419641150453886
    -8.2891874688931022   -5.4909239223106336    2.8473030829547623
   Al   F    Sr
    11     1    17
Direct
  0.6060146776544002  0.8766732697817616  0.0000197856542599
  0.3845814675833878  0.3481318140736107  0.2449319633204254
  0.1905556634715779  0.8995413207610099  0.1781975089960071
  0.8398442105932489  0.1622211482214979  0.1840381281584982
  0.1981414517330791  0.3300137050427026  0.3840513381258432
  0.3770710177013470  0.2027536903582288  0.3893442503110478
  0.9879183349940348  0.8127511710766555  0.6108094207589332
  0.8130070167655177  0.9440136160845825  0.6151167790342242
  0.6550985121722803  0.9777428261292513  0.8153362199660776
  0.0122914555315745  0.7213453580627558  0.8225534527532190
  0.1390287853789545  0.1020227278594064  0.7538496289528283
  0.6836925228170116  0.4868992242976731  0.0014468480984391
  0.0482602507041392  0.3041471092184764  0.9981631926067607
  0.2716244222674646  0.6657080006535452  0.0001126494362040
  0.3623315666530473  0.0272950715665701  0.0005475750103443
  0.6757773719500548  0.2790670213745301  0.0008652763956292
  0.0052402474728694  0.0106954961714578  0.9999375128484971
  0.6360426244834585  0.6159102434717809  0.2372044486186695
  0.0008416673196976  0.6545701833727975  0.2309426246248378
  0.5965313193578936  0.0272793921453314  0.3605057561325467
  0.9568395406440757  0.9781631734905574  0.3309871606712989
  0.4181491845851042  0.7079141786118726  0.4061362269169493
  0.7642248628918296  0.4375575871187323  0.4314909446444872
  0.3344231043031414  0.0065057828475759  0.5692477206262296
  0.0127859379811213  0.3032481189880230  0.5923835875874346
  0.6250055807802752  0.6465702567141776  0.6693744949566991
  0.2355697553935272  0.6679167501930507  0.6398990577617880
  0.7700234554335239  0.4225968820288770  0.7687034591308688
  0.3994979913823897  0.3789008802835099  0.7638029879009522
 
  0.00000000E+00  0.00000000E+00  0.00000000E+00
  0.00000000E+00  0.00000000E+00  0.00000000E+00
  0.00000000E+00  0.00000000E+00  0.00000000E+00
  0.00000000E+00  0.00000000E+00  0.00000000E+00
  0.00000000E+00  0.00000000E+00  0.00000000E+00
  0.00000000E+00  0.00000000E+00  0.00000000E+00
  0.00000000E+00  0.00000000E+00  0.00000000E+00
  0.00000000E+00  0.00000000E+00  0.00000000E+00
  0.00000000E+00  0.00000000E+00  0.00000000E+00
  0.00000000E+00  0.00000000E+00  0.00000000E+00
  0.00000000E+00  0.00000000E+00  0.00000000E+00
  0.00000000E+00  0.00000000E+00  0.00000000E+00
  0.00000000E+00  0.00000000E+00  0.00000000E+00
  0.00000000E+00  0.00000000E+00  0.00000000E+00
  0.00000000E+00  0.00000000E+00  0.00000000E+00
  0.00000000E+00  0.00000000E+00  0.00000000E+00
  0.00000000E+00  0.00000000E+00  0.00000000E+00
  0.00000000E+00  0.00000000E+00  0.00000000E+00
  0.00000000E+00  0.00000000E+00  0.00000000E+00
  0.00000000E+00  0.00000000E+00  0.00000000E+00
  0.00000000E+00  0.00000000E+00  0.00000000E+00
  0.00000000E+00  0.00000000E+00  0.00000000E+00
  0.00000000E+00  0.00000000E+00  0.00000000E+00
  0.00000000E+00  0.00000000E+00  0.00000000E+00
  0.00000000E+00  0.00000000E+00  0.00000000E+00
  0.00000000E+00  0.00000000E+00  0.00000000E+00
  0.00000000E+00  0.00000000E+00  0.00000000E+00
  0.00000000E+00  0.00000000E+00  0.00000000E+00
  0.00000000E+00  0.00000000E+00  0.00000000E+00
