Mg10 B6                                 
   1.00000000000000     
    -0.0065525855323556   -6.1775613138326646    0.0102090823381018
    -6.1775615385314548   -0.0065525599776230    0.0102030975431181
     3.1015501729601986    3.1015468284515961   -6.0037774779731539
   Mg   B 
    10     6
Direct
  0.0000095190701117  0.0000075031826086  0.9999930290255747
  0.5000191115340300  0.5000212841033331  0.0000130675833319
  0.8280510873864770  0.3280467896155770  0.2846611096179217
  0.3283181570394618  0.4563304414353624  0.2840560133409298
  0.9563370753068980  0.8283221587079268  0.2840579871824573
  0.4570862406116660  0.9570908402734091  0.2845790285574736
  0.5429375160435868  0.0429427602102095  0.7154247808683252
  0.0436962504009557  0.1717062874979263  0.7159444093591105
  0.6716999069892964  0.5436906148141318  0.7159431328063945
  0.1719767317240368  0.6719720581996427  0.7153380226114479
  0.4082893641854781  0.0917344988700464  0.9999992833878082
  0.9085311462386088  0.4085314430586564  0.9997705254107601
  0.0914917731852825  0.5914920191250133  0.0002271580462647
  0.5917347616496755  0.9082890384818754  0.9999992339620363
  0.2497437303778085  0.2502778961637304  0.4999965394246715
  0.7502776282566401  0.7497443662605576  0.4999966788154779
 
  0.00000000E+00  0.00000000E+00  0.00000000E+00
  0.00000000E+00  0.00000000E+00  0.00000000E+00
  0.00000000E+00  0.00000000E+00  0.00000000E+00
  0.00000000E+00  0.00000000E+00  0.00000000E+00
  0.00000000E+00  0.00000000E+00  0.00000000E+00
  0.00000000E+00  0.00000000E+00  0.00000000E+00
  0.00000000E+00  0.00000000E+00  0.00000000E+00
  0.00000000E+00  0.00000000E+00  0.00000000E+00
  0.00000000E+00  0.00000000E+00  0.00000000E+00
  0.00000000E+00  0.00000000E+00  0.00000000E+00
  0.00000000E+00  0.00000000E+00  0.00000000E+00
  0.00000000E+00  0.00000000E+00  0.00000000E+00
  0.00000000E+00  0.00000000E+00  0.00000000E+00
  0.00000000E+00  0.00000000E+00  0.00000000E+00
  0.00000000E+00  0.00000000E+00  0.00000000E+00
  0.00000000E+00  0.00000000E+00  0.00000000E+00
