Sr4 Tl4 Cl20                            
   1.0000000000000000     
     4.7199903876557743    0.0000000000000001    0.0000000000000003
    -0.0000000000000002    5.6938006620210198    0.0000000000000003
    -0.0000000000000013   -0.0000000000000007   36.8781223673294605
   Sr   Tl   Cl
     4     4    20
Direct
  0.7447829845269496  0.1450240248198824  0.3008453160932305
  0.2447829845269496  0.3549759751801247  0.6991546839067695
  0.2552170154730504  0.6450240248198753  0.1991546839067695
  0.7552170154730362  0.8549759751801247  0.8008453160932305
  0.2096491075968032  0.6337696912314996  0.3863937328074485
  0.7096491075968103  0.8662303087685004  0.6136062671925373
  0.7903508924031897  0.1337696912314996  0.1136062671925444
  0.2903508924031968  0.3662303087685004  0.8863937328074485
  0.2865810981236550  0.3142850086215034  0.5322919475032180
  0.7865810981236478  0.1857149913784966  0.4677080524967749
  0.7134189018763450  0.8142850086215034  0.9677080524967820
  0.2134189018763379  0.6857149913784966  0.0322919475032180
  0.7271776286891125  0.6402106606696805  0.3339903385913843
  0.2271776286891125  0.8597893393303195  0.6660096614086299
  0.2728223713108875  0.1402106606696805  0.1660096614086157
  0.7728223713108875  0.3597893393303195  0.8339903385913701
  0.9350765607624894  0.8512873286719937  0.9199335935678263
  0.4350765607624894  0.6487126713280063  0.0800664064321737
  0.0649234392375106  0.3512873286719937  0.5800664064321737
  0.5649234392375106  0.1487126713280063  0.4199335935678263
  0.2461428541431090  0.3127293462762566  0.2616683935690247
  0.7461428541431090  0.1872706537237434  0.7383316064309824
  0.7538571458568910  0.8127293462762424  0.2383316064309824
  0.2538571458568910  0.6872706537237576  0.7616683935690176
  0.2455948665242218  0.8704727523678031  0.8541743088689344
  0.7455948665242218  0.6295272476321969  0.1458256911310656
  0.7544051334757782  0.3704727523678031  0.6458256911310656
  0.2544051334757782  0.1295272476321969  0.3541743088689344

  0.00000000E+00  0.00000000E+00  0.00000000E+00
  0.00000000E+00  0.00000000E+00  0.00000000E+00
  0.00000000E+00  0.00000000E+00  0.00000000E+00
  0.00000000E+00  0.00000000E+00  0.00000000E+00
  0.00000000E+00  0.00000000E+00  0.00000000E+00
  0.00000000E+00  0.00000000E+00  0.00000000E+00
  0.00000000E+00  0.00000000E+00  0.00000000E+00
  0.00000000E+00  0.00000000E+00  0.00000000E+00
  0.00000000E+00  0.00000000E+00  0.00000000E+00
  0.00000000E+00  0.00000000E+00  0.00000000E+00
  0.00000000E+00  0.00000000E+00  0.00000000E+00
  0.00000000E+00  0.00000000E+00  0.00000000E+00
  0.00000000E+00  0.00000000E+00  0.00000000E+00
  0.00000000E+00  0.00000000E+00  0.00000000E+00
  0.00000000E+00  0.00000000E+00  0.00000000E+00
  0.00000000E+00  0.00000000E+00  0.00000000E+00
  0.00000000E+00  0.00000000E+00  0.00000000E+00
  0.00000000E+00  0.00000000E+00  0.00000000E+00
  0.00000000E+00  0.00000000E+00  0.00000000E+00
  0.00000000E+00  0.00000000E+00  0.00000000E+00
  0.00000000E+00  0.00000000E+00  0.00000000E+00
  0.00000000E+00  0.00000000E+00  0.00000000E+00
  0.00000000E+00  0.00000000E+00  0.00000000E+00
  0.00000000E+00  0.00000000E+00  0.00000000E+00
  0.00000000E+00  0.00000000E+00  0.00000000E+00
  0.00000000E+00  0.00000000E+00  0.00000000E+00
  0.00000000E+00  0.00000000E+00  0.00000000E+00
  0.00000000E+00  0.00000000E+00  0.00000000E+00
