Mg4 Al4 Br20                            
   1.0000000000000000     
     0.0000000000000000    7.2030810972714114    0.3715556966990801
    14.8402561574809120    0.0000000000000000    0.0000000000000000
     0.0000000000000000   -0.8416683639824656  -10.5366851769483283
   Mg   Al   Br
     4     4    20
Direct
  0.5098731910232175  0.5181188600132884  0.6516247111073241
  0.4901268089767825  0.0181188600132884  0.3483752888926759
  0.8506518640757292  0.1252799107551823  0.6533973193566638
  0.1493481359242708  0.6252799107551823  0.3466026806433433
  0.5905825332910410  0.7631447798989512  0.1718992715671277
  0.4094174667089590  0.2631447798989512  0.8281007284328723
  0.9732343181551428  0.5891165239012679  0.6432472579619031
  0.0267656818448643  0.0891165239012679  0.3567527420380969
  0.1725867680464788  0.9587063304367405  0.2453427163632753
  0.2573542448056045  0.5754678432774654  0.7906083710431631
  0.7426457551943884  0.0754678432774654  0.2093916289568298
  0.8033963036990670  0.6418851601265274  0.1788052586565101
  0.9620875761491021  0.4990789223721279  0.4552844375286824
  0.6036735780776397  0.8503992583413265  0.9968979027983238
  0.8859458233798563  0.2244353946681414  0.4649541639796198
  0.6371461991503651  0.8419667550798096  0.3653181865916295
  0.0379124238508979  0.9990789223721279  0.5447155624713176
  0.7112714341248747  0.6781211299308723  0.6780820067972613
  0.3963264219223603  0.3503992583413265  0.0031020972016762
  0.8274132319535212  0.4587063304367405  0.7546572836367247
  0.5522187426299681  0.0315410031710073  0.5909287276340791
  0.7180763821239324  0.2003371080272913  0.8521877782388003
  0.2887285658751253  0.1781211299308723  0.3219179932027387
  0.1140541766201437  0.7244353946681414  0.5350458360203802
  0.1966036963009330  0.1418851601265203  0.8211947413434899
  0.2819236178760676  0.7003371080272913  0.1478122217611997
  0.3628538008496349  0.3419667550798096  0.6346818134083634
  0.4477812573700319  0.5315410031710002  0.4090712723659280

  0.00000000E+00  0.00000000E+00  0.00000000E+00
  0.00000000E+00  0.00000000E+00  0.00000000E+00
  0.00000000E+00  0.00000000E+00  0.00000000E+00
  0.00000000E+00  0.00000000E+00  0.00000000E+00
  0.00000000E+00  0.00000000E+00  0.00000000E+00
  0.00000000E+00  0.00000000E+00  0.00000000E+00
  0.00000000E+00  0.00000000E+00  0.00000000E+00
  0.00000000E+00  0.00000000E+00  0.00000000E+00
  0.00000000E+00  0.00000000E+00  0.00000000E+00
  0.00000000E+00  0.00000000E+00  0.00000000E+00
  0.00000000E+00  0.00000000E+00  0.00000000E+00
  0.00000000E+00  0.00000000E+00  0.00000000E+00
  0.00000000E+00  0.00000000E+00  0.00000000E+00
  0.00000000E+00  0.00000000E+00  0.00000000E+00
  0.00000000E+00  0.00000000E+00  0.00000000E+00
  0.00000000E+00  0.00000000E+00  0.00000000E+00
  0.00000000E+00  0.00000000E+00  0.00000000E+00
  0.00000000E+00  0.00000000E+00  0.00000000E+00
  0.00000000E+00  0.00000000E+00  0.00000000E+00
  0.00000000E+00  0.00000000E+00  0.00000000E+00
  0.00000000E+00  0.00000000E+00  0.00000000E+00
  0.00000000E+00  0.00000000E+00  0.00000000E+00
  0.00000000E+00  0.00000000E+00  0.00000000E+00
  0.00000000E+00  0.00000000E+00  0.00000000E+00
  0.00000000E+00  0.00000000E+00  0.00000000E+00
  0.00000000E+00  0.00000000E+00  0.00000000E+00
  0.00000000E+00  0.00000000E+00  0.00000000E+00
  0.00000000E+00  0.00000000E+00  0.00000000E+00
