Mg40 Tl4                                
   1.0000000000000000     
     0.0000000000000000    8.1816149983519821    8.1816149983519839
     8.1816149983519857   -0.0000000000000000    8.1816149983519839
     8.1816149983519857    8.1816149983519821   -0.0000000000000000
   Mg   Tl
    40     4
Direct
  0.6116474945400867  0.6116474945400867  0.8883525054599133
  0.3616474945400867  0.6383525054599133  0.6383525054599133
  0.6383525054599133  0.3616474945400867  0.3616474945400867
  0.3616474945400867  0.3616474945400867  0.6383525054599133
  0.3616474945400867  0.6383525054599133  0.3616474945400867
  0.6383525054599133  0.3616474945400867  0.6383525054599133
  0.8883525054599133  0.6116474945400867  0.8883525054599133
  0.8883525054599133  0.6116474945400867  0.6116474945400867
  0.6116474945400867  0.8883525054599133  0.8883525054599133
  0.6116474945400867  0.8883525054599133  0.6116474945400867
  0.6383525054599133  0.6383525054599133  0.3616474945400867
  0.8883525054599133  0.8883525054599133  0.6116474945400867
  0.8051604729407558  0.0668980444867131  0.3227800096317779
  0.4448395270592513  0.4448395270592442  0.1831019555132869
  0.1831019555132869  0.9272199903682221  0.4448395270592442
  0.4448395270592442  0.9272199903682221  0.4448395270592442
  0.9272199903682221  0.4448395270592442  0.1831019555132869
  0.9272199903682221  0.4448395270592513  0.4448395270592442
  0.1831019555132869  0.4448395270592442  0.4448395270592442
  0.3227800096317779  0.0668980444867131  0.8051604729407558
  0.8051604729407558  0.0668980444867131  0.8051604729407558
  0.0668980444867131  0.8051604729407558  0.3227800096317779
  0.8051604729407558  0.8051604729407558  0.3227800096317779
  0.0668980444867131  0.3227800096317779  0.8051604729407558
  0.3227800096317779  0.8051604729407558  0.0668980444867131
  0.8051604729407558  0.8051604729407558  0.0668980444867131
  0.8051604729407558  0.3227800096317779  0.8051604729407558
  0.1831019555132869  0.4448395270592442  0.9272199903682221
  0.4448395270592513  0.4448395270592513  0.9272199903682221
  0.4448395270592442  0.9272199903682221  0.1831019555132869
  0.4448395270592442  0.1831019555132869  0.9272199903682221
  0.9272199903682221  0.1831019555132869  0.4448395270592442
  0.4448395270592442  0.1831019555132869  0.4448395270592442
  0.3227800096317779  0.8051604729407558  0.8051604729407558
  0.0668980444867131  0.8051604729407558  0.8051604729407558
  0.8051604729407558  0.3227800096317779  0.0668980444867131
  0.1250000000000000  0.1250000000000000  0.1250000000000000
  0.6250000000000000  0.1250000000000000  0.1250000000000000
  0.1250000000000000  0.1250000000000000  0.6250000000000000
  0.1250000000000000  0.6250000000000000  0.1250000000000000
  0.6250000000000000  0.6250000000000000  0.6250000000000000
  0.1250000000000000  0.6250000000000000  0.6250000000000000
  0.6250000000000000  0.6250000000000000  0.1250000000000000
  0.6250000000000000  0.1250000000000000  0.6250000000000000

  0.00000000E+00  0.00000000E+00  0.00000000E+00
  0.00000000E+00  0.00000000E+00  0.00000000E+00
  0.00000000E+00  0.00000000E+00  0.00000000E+00
  0.00000000E+00  0.00000000E+00  0.00000000E+00
  0.00000000E+00  0.00000000E+00  0.00000000E+00
  0.00000000E+00  0.00000000E+00  0.00000000E+00
  0.00000000E+00  0.00000000E+00  0.00000000E+00
  0.00000000E+00  0.00000000E+00  0.00000000E+00
  0.00000000E+00  0.00000000E+00  0.00000000E+00
  0.00000000E+00  0.00000000E+00  0.00000000E+00
  0.00000000E+00  0.00000000E+00  0.00000000E+00
  0.00000000E+00  0.00000000E+00  0.00000000E+00
  0.00000000E+00  0.00000000E+00  0.00000000E+00
  0.00000000E+00  0.00000000E+00  0.00000000E+00
  0.00000000E+00  0.00000000E+00  0.00000000E+00
  0.00000000E+00  0.00000000E+00  0.00000000E+00
  0.00000000E+00  0.00000000E+00  0.00000000E+00
  0.00000000E+00  0.00000000E+00  0.00000000E+00
  0.00000000E+00  0.00000000E+00  0.00000000E+00
  0.00000000E+00  0.00000000E+00  0.00000000E+00
  0.00000000E+00  0.00000000E+00  0.00000000E+00
  0.00000000E+00  0.00000000E+00  0.00000000E+00
  0.00000000E+00  0.00000000E+00  0.00000000E+00
  0.00000000E+00  0.00000000E+00  0.00000000E+00
  0.00000000E+00  0.00000000E+00  0.00000000E+00
  0.00000000E+00  0.00000000E+00  0.00000000E+00
  0.00000000E+00  0.00000000E+00  0.00000000E+00
  0.00000000E+00  0.00000000E+00  0.00000000E+00
  0.00000000E+00  0.00000000E+00  0.00000000E+00
  0.00000000E+00  0.00000000E+00  0.00000000E+00
  0.00000000E+00  0.00000000E+00  0.00000000E+00
  0.00000000E+00  0.00000000E+00  0.00000000E+00
  0.00000000E+00  0.00000000E+00  0.00000000E+00
  0.00000000E+00  0.00000000E+00  0.00000000E+00
  0.00000000E+00  0.00000000E+00  0.00000000E+00
  0.00000000E+00  0.00000000E+00  0.00000000E+00
  0.00000000E+00  0.00000000E+00  0.00000000E+00
  0.00000000E+00  0.00000000E+00  0.00000000E+00
  0.00000000E+00  0.00000000E+00  0.00000000E+00
  0.00000000E+00  0.00000000E+00  0.00000000E+00
  0.00000000E+00  0.00000000E+00  0.00000000E+00
  0.00000000E+00  0.00000000E+00  0.00000000E+00
  0.00000000E+00  0.00000000E+00  0.00000000E+00
  0.00000000E+00  0.00000000E+00  0.00000000E+00
