Mg1 Tl2 Br10                            
   1.0000000000000000     
     6.8143062439409920    4.8389166769569387   -0.0611122603591593
    -6.8143062439409920    4.8389166769569387   -0.0611122603591593
     0.0000000000000000    3.2141323409384661    9.7820343455751360
   Mg   Tl   Br
     1     2    10
Direct
  0.3550732924091804  0.6449267075908196  0.0000000000000000
  0.1065495085381372  0.9269583337132588  0.7619506829419862
  0.0730416662867412  0.8934504914618628  0.2380493170580138
  0.4892975175191836  0.1103827132506652  0.7049961886122276
  0.8896172867493348  0.5107024824808164  0.2950038113877724
  0.6313148465801035  0.7103083200448168  0.8165864797681408
  0.2896916799551832  0.3686851534199036  0.1834135202318592
  0.9808745865850526  0.0191254134149474  0.0000000000000000
  0.0659120188258058  0.9340879811741942  0.5000000000000000
  0.5494359219494314  0.4005713490602290  0.7628805286431586
  0.5994286509397710  0.4505640780505686  0.2371194713568414
  0.1064466650818403  0.5926846414197797  0.8842724929129417
  0.4073153585802203  0.8935533349181597  0.1157275070870583

  0.00000000E+00  0.00000000E+00  0.00000000E+00
  0.00000000E+00  0.00000000E+00  0.00000000E+00
  0.00000000E+00  0.00000000E+00  0.00000000E+00
  0.00000000E+00  0.00000000E+00  0.00000000E+00
  0.00000000E+00  0.00000000E+00  0.00000000E+00
  0.00000000E+00  0.00000000E+00  0.00000000E+00
  0.00000000E+00  0.00000000E+00  0.00000000E+00
  0.00000000E+00  0.00000000E+00  0.00000000E+00
  0.00000000E+00  0.00000000E+00  0.00000000E+00
  0.00000000E+00  0.00000000E+00  0.00000000E+00
  0.00000000E+00  0.00000000E+00  0.00000000E+00
  0.00000000E+00  0.00000000E+00  0.00000000E+00
  0.00000000E+00  0.00000000E+00  0.00000000E+00
