Be2 B2 F10                              
   1.00000000000000     
     4.2154346083706891   -0.7649184866670370    1.6132984800571175
     0.1774539410705586    4.2805956131020064    1.6132983230780349
     0.0178936823233761    0.0143217466133890    6.3932667226288160
   Be   B    F 
     2     2    10
Direct
  0.6229476084351120  0.3770523923074052  0.2499999999398241
  0.3770523915648880  0.6229476076925948  0.7500000000601759
  0.0000000000000000  0.0000000000000000  0.5000000000000000
  0.0000000000000000  0.0000000000000000  0.0000000000000000
  0.7417945254081530  0.6953571299417831  0.6480262526688136
  0.3046428701604071  0.2582044744026106  0.8519737475466727
  0.2582044745918495  0.3046428700582169  0.3519747473311909
  0.6953571298395929  0.7417945255973848  0.1480262524533273
  0.9337921249260717  0.0662078748572128  0.7500000001415970
  0.0662078750739283  0.9337921251427872  0.2499999998584030
  0.7815465418030954  0.2625236503662265  0.0413527022614488
  0.7374763495399392  0.2184534580994111  0.4586472983175085
  0.2184534581969046  0.7374763496337735  0.9586472977385512
  0.2625236504600608  0.7815465419005889  0.5413527016824915
 
  0.00000000E+00  0.00000000E+00  0.00000000E+00
  0.00000000E+00  0.00000000E+00  0.00000000E+00
  0.00000000E+00  0.00000000E+00  0.00000000E+00
  0.00000000E+00  0.00000000E+00  0.00000000E+00
  0.00000000E+00  0.00000000E+00  0.00000000E+00
  0.00000000E+00  0.00000000E+00  0.00000000E+00
  0.00000000E+00  0.00000000E+00  0.00000000E+00
  0.00000000E+00  0.00000000E+00  0.00000000E+00
  0.00000000E+00  0.00000000E+00  0.00000000E+00
  0.00000000E+00  0.00000000E+00  0.00000000E+00
  0.00000000E+00  0.00000000E+00  0.00000000E+00
  0.00000000E+00  0.00000000E+00  0.00000000E+00
  0.00000000E+00  0.00000000E+00  0.00000000E+00
  0.00000000E+00  0.00000000E+00  0.00000000E+00
