Be3Al4                                  
   1.00000000000000     
     1.9969180709081584    1.1521430513902482    6.8997035842587549
    -1.9969180709081584    1.1521430513902482    6.8997035842587549
     0.0000000000000000   -2.3060297066441149    6.8999944419896169
   Al   Be
     4     3
Direct
  0.1300366306993652  0.1300366306993652  0.1300252614323014
  0.2878583953161211  0.2878583953161211  0.2878572149631466
  0.7170230416245644  0.7170230416245644  0.7170211588284374
  0.8747430729080534  0.8747430729080534  0.8747633023770049
  0.0023522355443291  0.0023522355443291  0.0023442036442489
  0.4118852101093537  0.4118852101093537  0.4119025167536989
  0.5931614137982208  0.5931614137982208  0.5931463420011625
 
  0.00000000E+00  0.00000000E+00  0.00000000E+00
  0.00000000E+00  0.00000000E+00  0.00000000E+00
  0.00000000E+00  0.00000000E+00  0.00000000E+00
  0.00000000E+00  0.00000000E+00  0.00000000E+00
  0.00000000E+00  0.00000000E+00  0.00000000E+00
  0.00000000E+00  0.00000000E+00  0.00000000E+00
  0.00000000E+00  0.00000000E+00  0.00000000E+00
