Ba4 Al4 F20                             
   1.0000000000000000     
     8.8956474969695964    0.0000000000000000    0.0000000000000000
     0.0000000000000000    5.6230697524752955    0.0402276539137736
     0.0000000000000000    2.6821895204954158    7.3763061616056982
   Ba   Al   F 
     4     4    20
Direct
  0.0237309011069939  0.4528701285921244  0.2714095062264974
  0.5237309011069939  0.5471298714078756  0.2285904937735026
  0.9762690988930061  0.5471298714078756  0.7285904937735026
  0.4762690988930061  0.4528701285921244  0.7714095062264974
  0.7445304314778980  0.1283291299791145  0.5889277141585580
  0.2445304314778980  0.8716708700208855  0.9110722858414420
  0.2554695685221020  0.8716708700208855  0.4110722858414420
  0.7554695685221020  0.1283291299791145  0.0889277141585580
  0.5499485957272583  0.2036790438300571  0.5555594033869795
  0.0499485957272583  0.7963209561699429  0.9444405966130205
  0.4500514042727417  0.7963209561699429  0.4444405966130205
  0.9500514042727417  0.2036790438300571  0.0555594033869795
  0.7627774522956159  0.1531044356222253  0.3291163505431030
  0.2627774522956088  0.8468955643777676  0.1708836494568899
  0.2372225477043841  0.8468955643777676  0.6708836494568970
  0.7372225477043841  0.1531044356222253  0.8291163505431030
  0.4435810538888205  0.8949378357227928  0.8877010471215883
  0.9435810538888205  0.1050621642772072  0.6122989528784117
  0.5564189461111795  0.1050621642772072  0.1122989528784117
  0.0564189461111795  0.8949378357227928  0.3877010471215883
  0.7154372453795048  0.8025992782772775  0.6626351931078887
  0.2154372453795048  0.1974007217227296  0.8373648068921113
  0.2845627546204952  0.1974007217227296  0.3373648068921185
  0.7845627546204952  0.8025992782772775  0.1626351931078815
  0.2764613365190272  0.5318260375861072  0.0048924015426977
  0.7764613365190272  0.4681739624138928  0.4951075984573023
  0.7235386634809728  0.4681739624138928  0.9951075984573023
  0.2235386634809728  0.5318260375861072  0.5048924015426977

  0.00000000E+00  0.00000000E+00  0.00000000E+00
  0.00000000E+00  0.00000000E+00  0.00000000E+00
  0.00000000E+00  0.00000000E+00  0.00000000E+00
  0.00000000E+00  0.00000000E+00  0.00000000E+00
  0.00000000E+00  0.00000000E+00  0.00000000E+00
  0.00000000E+00  0.00000000E+00  0.00000000E+00
  0.00000000E+00  0.00000000E+00  0.00000000E+00
  0.00000000E+00  0.00000000E+00  0.00000000E+00
  0.00000000E+00  0.00000000E+00  0.00000000E+00
  0.00000000E+00  0.00000000E+00  0.00000000E+00
  0.00000000E+00  0.00000000E+00  0.00000000E+00
  0.00000000E+00  0.00000000E+00  0.00000000E+00
  0.00000000E+00  0.00000000E+00  0.00000000E+00
  0.00000000E+00  0.00000000E+00  0.00000000E+00
  0.00000000E+00  0.00000000E+00  0.00000000E+00
  0.00000000E+00  0.00000000E+00  0.00000000E+00
  0.00000000E+00  0.00000000E+00  0.00000000E+00
  0.00000000E+00  0.00000000E+00  0.00000000E+00
  0.00000000E+00  0.00000000E+00  0.00000000E+00
  0.00000000E+00  0.00000000E+00  0.00000000E+00
  0.00000000E+00  0.00000000E+00  0.00000000E+00
  0.00000000E+00  0.00000000E+00  0.00000000E+00
  0.00000000E+00  0.00000000E+00  0.00000000E+00
  0.00000000E+00  0.00000000E+00  0.00000000E+00
  0.00000000E+00  0.00000000E+00  0.00000000E+00
  0.00000000E+00  0.00000000E+00  0.00000000E+00
  0.00000000E+00  0.00000000E+00  0.00000000E+00
  0.00000000E+00  0.00000000E+00  0.00000000E+00
