Be10 In4 F32                            
   1.00000000000000     
     3.0200877390996155   -4.6857042985278214    0.0000000000000000
     3.0200877390996155    4.6857042985278214    0.0000000000000000
     0.0000000000000000    0.0000000000000000   18.5764661207586634
   Be   In   F 
    10     4    32
Direct
  0.0000000000000000  0.0000000000000000  0.8099678803502854
  0.0000000000000000  0.0000000000000000  0.1900321196497146
  0.5000000000000000  0.5000000000000000  0.6900321196497146
  0.5000000000000000  0.5000000000000000  0.3099678803502854
  0.5000000000000000  0.5000000000000000  0.5000000000000000
  0.0000000000000000  0.0000000000000000  0.0000000000000000
  0.0000000000000000  0.5000000000000000  0.6155177155088438
  0.5000000000000000  0.0000000000000000  0.3844822844911562
  0.5000000000000000  0.0000000000000000  0.8844822844911562
  0.0000000000000000  0.5000000000000000  0.1155177155088438
  0.5000000000000000  0.0000000000000000  0.6175309739694086
  0.0000000000000000  0.5000000000000000  0.3824690260305914
  0.0000000000000000  0.5000000000000000  0.8824690260305914
  0.5000000000000000  0.0000000000000000  0.1175309739694086
  0.3735293207681281  0.1772658749307539  0.7026563281736955
  0.6264706792318719  0.8227341250692461  0.7026563281736955
  0.1772658749307539  0.3735293207681281  0.2973436718262974
  0.8227341250692461  0.6264706792318719  0.2973436718262974
  0.1264706792318719  0.3227341250692461  0.7973436718263045
  0.8735293207681281  0.6772658749307539  0.7973436718263045
  0.3227341250692461  0.1264706792318719  0.2026563281736955
  0.6772658749307539  0.8735293207681281  0.2026563281736955
  0.1136625179697077  0.7677146940601673  0.5779079487419452
  0.8863374820302923  0.2322853059398327  0.5779079487419452
  0.7677146940601673  0.1136625179697077  0.4220920512580477
  0.2322853059398327  0.8863374820302923  0.4220920512580477
  0.3863374820302923  0.7322853059398327  0.9220920512580548
  0.6136625179697077  0.2677146940601602  0.9220920512580548
  0.7579686287542202  0.9296441596310530  0.0489841430836151
  0.2420313712457798  0.0703558403689470  0.0489841430836151
  0.9296441596310530  0.7579686287542202  0.9510158569163849
  0.0703558403689470  0.2420313712457798  0.9510158569163849
  0.7420313712457798  0.5703558403689470  0.4510158569163849
  0.2579686287542202  0.4296441596310530  0.4510158569163849
  0.5703558403689470  0.7420313712457798  0.5489841430836151
  0.4296441596310530  0.2579686287542202  0.5489841430836151
  0.0037351292026457  0.7319004278654120  0.1630513981279123
  0.9962648707973543  0.2680995721345809  0.1630513981279123
  0.7319004278654120  0.0037351292026457  0.8369486018720877
  0.2680995721345809  0.9962648707973543  0.8369486018720877
  0.4962648707973543  0.7680995721345880  0.3369486018720877
  0.5037351292026457  0.2319004278654191  0.3369486018720877
  0.7680995721345880  0.4962648707973543  0.6630513981279123
  0.2319004278654191  0.5037351292026457  0.6630513981279123
  0.2677146940601602  0.6136625179697077  0.0779079487419523
  0.7322853059398327  0.3863374820302923  0.0779079487419523
 
  0.00000000E+00  0.00000000E+00  0.00000000E+00
  0.00000000E+00  0.00000000E+00  0.00000000E+00
  0.00000000E+00  0.00000000E+00  0.00000000E+00
  0.00000000E+00  0.00000000E+00  0.00000000E+00
  0.00000000E+00  0.00000000E+00  0.00000000E+00
  0.00000000E+00  0.00000000E+00  0.00000000E+00
  0.00000000E+00  0.00000000E+00  0.00000000E+00
  0.00000000E+00  0.00000000E+00  0.00000000E+00
  0.00000000E+00  0.00000000E+00  0.00000000E+00
  0.00000000E+00  0.00000000E+00  0.00000000E+00
  0.00000000E+00  0.00000000E+00  0.00000000E+00
  0.00000000E+00  0.00000000E+00  0.00000000E+00
  0.00000000E+00  0.00000000E+00  0.00000000E+00
  0.00000000E+00  0.00000000E+00  0.00000000E+00
  0.00000000E+00  0.00000000E+00  0.00000000E+00
  0.00000000E+00  0.00000000E+00  0.00000000E+00
  0.00000000E+00  0.00000000E+00  0.00000000E+00
  0.00000000E+00  0.00000000E+00  0.00000000E+00
  0.00000000E+00  0.00000000E+00  0.00000000E+00
  0.00000000E+00  0.00000000E+00  0.00000000E+00
  0.00000000E+00  0.00000000E+00  0.00000000E+00
  0.00000000E+00  0.00000000E+00  0.00000000E+00
  0.00000000E+00  0.00000000E+00  0.00000000E+00
  0.00000000E+00  0.00000000E+00  0.00000000E+00
  0.00000000E+00  0.00000000E+00  0.00000000E+00
  0.00000000E+00  0.00000000E+00  0.00000000E+00
  0.00000000E+00  0.00000000E+00  0.00000000E+00
  0.00000000E+00  0.00000000E+00  0.00000000E+00
  0.00000000E+00  0.00000000E+00  0.00000000E+00
  0.00000000E+00  0.00000000E+00  0.00000000E+00
  0.00000000E+00  0.00000000E+00  0.00000000E+00
  0.00000000E+00  0.00000000E+00  0.00000000E+00
  0.00000000E+00  0.00000000E+00  0.00000000E+00
  0.00000000E+00  0.00000000E+00  0.00000000E+00
  0.00000000E+00  0.00000000E+00  0.00000000E+00
  0.00000000E+00  0.00000000E+00  0.00000000E+00
  0.00000000E+00  0.00000000E+00  0.00000000E+00
  0.00000000E+00  0.00000000E+00  0.00000000E+00
  0.00000000E+00  0.00000000E+00  0.00000000E+00
  0.00000000E+00  0.00000000E+00  0.00000000E+00
  0.00000000E+00  0.00000000E+00  0.00000000E+00
  0.00000000E+00  0.00000000E+00  0.00000000E+00
  0.00000000E+00  0.00000000E+00  0.00000000E+00
  0.00000000E+00  0.00000000E+00  0.00000000E+00
  0.00000000E+00  0.00000000E+00  0.00000000E+00
  0.00000000E+00  0.00000000E+00  0.00000000E+00
