Ca10 In12                               
   1.00000000000000     
    -3.8972576569223749   -6.7500243457321423    0.0000000000000000
    -3.8974778010845195    6.7501508549446694    0.0000000000000000
     0.0000000000000000    0.0000000000000000  -12.7653203787417677
   Ca   In
    10    12
Direct
  0.7490927787525195  0.6667050369313259  0.2500000000000000
  0.9175445749361870  0.2508875596585511  0.2500000000000000
  0.3333908571666271  0.0824485319927462  0.2500000000000000
  0.9176099919503855  0.6666952491976943  0.7500000000000000
  0.3333556177782881  0.2509131556240405  0.7500000000000000
  0.7490987125509321  0.0824243875523294  0.7500000000000000
  0.0000339842510044  0.0000318997093629  0.9999992581953805
  0.0000339842510044  0.0000318997093629  0.5000007418046195
  0.6666877170898857  0.3333481973266146  0.0000097032026787
  0.6666877170898857  0.3333481973266146  0.4999902967973213
  0.5635184565702929  0.8968773647604280  0.1048360453548440
  0.3333245762095061  0.4363587164472733  0.1049559580620496
  0.1030381386330319  0.6666255160088568  0.1049536997438949
  0.5635184565702929  0.8968773647604280  0.3951639546451560
  0.3333245762095061  0.4363587164472733  0.3950440419379504
  0.1030381386330319  0.6666255160088568  0.3950463002561051
  0.3333489183836988  0.8969282263801333  0.6049342658585601
  0.1030945078742747  0.4364402359626567  0.6049338003977383
  0.5636074344208239  0.6666528829263356  0.6049346646392948
  0.3333489183836988  0.8969282263801333  0.8950657341414399
  0.1030945078742747  0.4364402359626567  0.8950661996022617
  0.5636074344208239  0.6666528829263356  0.8950653353607052
 
  0.00000000E+00  0.00000000E+00  0.00000000E+00
  0.00000000E+00  0.00000000E+00  0.00000000E+00
  0.00000000E+00  0.00000000E+00  0.00000000E+00
  0.00000000E+00  0.00000000E+00  0.00000000E+00
  0.00000000E+00  0.00000000E+00  0.00000000E+00
  0.00000000E+00  0.00000000E+00  0.00000000E+00
  0.00000000E+00  0.00000000E+00  0.00000000E+00
  0.00000000E+00  0.00000000E+00  0.00000000E+00
  0.00000000E+00  0.00000000E+00  0.00000000E+00
  0.00000000E+00  0.00000000E+00  0.00000000E+00
  0.00000000E+00  0.00000000E+00  0.00000000E+00
  0.00000000E+00  0.00000000E+00  0.00000000E+00
  0.00000000E+00  0.00000000E+00  0.00000000E+00
  0.00000000E+00  0.00000000E+00  0.00000000E+00
  0.00000000E+00  0.00000000E+00  0.00000000E+00
  0.00000000E+00  0.00000000E+00  0.00000000E+00
  0.00000000E+00  0.00000000E+00  0.00000000E+00
  0.00000000E+00  0.00000000E+00  0.00000000E+00
  0.00000000E+00  0.00000000E+00  0.00000000E+00
  0.00000000E+00  0.00000000E+00  0.00000000E+00
  0.00000000E+00  0.00000000E+00  0.00000000E+00
  0.00000000E+00  0.00000000E+00  0.00000000E+00
