Ba10 Al6 Br38                           
   1.00000000000000     
    -9.5456752361238983    9.5456726679672208    4.9617244625092143
     9.5456752361238983   -9.5456726679672208    4.9617244625092143
     9.5456726679672208    9.5456752361238966   -4.9617244625092143
   Ba   Al   Br
    10     6    38
Direct
  0.7849111377532623  0.0395018745195514  0.8244130122728279
  0.2150888622467377  0.9604981254804486  0.1755869877271721
  0.0395018745195514  0.2150888622467377  0.2545907367662892
  0.9604981254804486  0.7849111377532623  0.7454092632337108
  0.5650761264924924  0.2458947725759941  0.8109708990684865
  0.4349238735075076  0.7541052274240059  0.1890291009315135
  0.2458947725759941  0.4349238735075076  0.6808186460835088
  0.7541052274240059  0.5650761264924924  0.3191813539164983
  0.7500000000000000  0.2500000000000000  0.5000000000000000
  0.2500000000000000  0.7500000000000000  0.5000000000000000
  0.8185722721683248  0.3424903698769413  0.1610616420452686
  0.1814277278316752  0.6575096301230587  0.8389383579547314
  0.3424903698769413  0.1814277278316752  0.5239180977086235
  0.6575096301230587  0.8185722721683248  0.4760819022913765
  0.7478399878677848  0.7478399878677848  0.0000000000000000
  0.2521600121322152  0.2521600121322152  0.0000000000000000
  0.4293163715617965  0.7700088642607952  0.8510484966302414
  0.5706836284382035  0.2299911357392048  0.1489515033697586
  0.9189593676305705  0.5782678749315551  0.1489515033697586
  0.7700088642607952  0.9189593676305705  0.3406924926989987
  0.0810406323694295  0.4217321250684449  0.8510484966302414
  0.2299911357392048  0.0810406323694295  0.6593075073010013
  0.5782678749315551  0.4293163715617965  0.6593075073010013
  0.4217321250684449  0.5706836284382035  0.3406924926989987
  0.7069539738337198  0.8805492663918457  0.0661190946758339
  0.2930460261662802  0.1194507336081543  0.9338809053241661
  0.8144301717160189  0.6408348791578860  0.9338809053241661
  0.8805492663918457  0.8144301717160189  0.1735952925581330
  0.1855698282839811  0.3591651208421140  0.0661190946758339
  0.1194507336081543  0.1855698282839811  0.8264047074418670
  0.6408348791578860  0.7069539738337198  0.8264047074418670
  0.3591651208421140  0.2930460261662802  0.1735952925581330
  0.6235229984905999  0.0763789770281562  0.6999019755187561
  0.3764770015094001  0.9236210229718438  0.3000980244812439
  0.0763789770281562  0.3764770015094001  0.4528559785375421
  0.9236210229718438  0.6235229984905999  0.5471440214624579
  0.0000000000000000  0.0000000000000000  0.0000000000000000
  0.8929722886388234  0.4551513611510529  0.3481236497898834
  0.1070277113611766  0.5448486388489471  0.6518763502101166
  0.4551513611510529  0.1070277113611766  0.5621780725122392
  0.5448486388489471  0.8929722886388234  0.4378219274877608
  0.7292890982220044  0.1209322914268895  0.2038176605098343
  0.2707109017779956  0.8790677085731105  0.7961823394901657
  0.9171146309170481  0.5254714377121701  0.7961823394901657
  0.1209322914268895  0.9171146309170481  0.3916441932048897
  0.0828853690829519  0.4745285622878299  0.2038176605098343
  0.8790677085731105  0.0828853690829519  0.6083558067951103
  0.5254714377121701  0.7292890982220044  0.6083558067951103
  0.4745285622878299  0.2707109017779956  0.3916441932048897
  0.7483685789304033  0.2354834692403571  0.9838520481707533
  0.2516314210695967  0.7645165307596429  0.0161479518292467
  0.2354834692403571  0.2516314210695967  0.4871148903099467
  0.7645165307596429  0.7483685789304033  0.5128851096900533
  0.5000000000000000  0.5000000000000000  0.0000000000000000
 
  0.00000000E+00  0.00000000E+00  0.00000000E+00
  0.00000000E+00  0.00000000E+00  0.00000000E+00
  0.00000000E+00  0.00000000E+00  0.00000000E+00
  0.00000000E+00  0.00000000E+00  0.00000000E+00
  0.00000000E+00  0.00000000E+00  0.00000000E+00
  0.00000000E+00  0.00000000E+00  0.00000000E+00
  0.00000000E+00  0.00000000E+00  0.00000000E+00
  0.00000000E+00  0.00000000E+00  0.00000000E+00
  0.00000000E+00  0.00000000E+00  0.00000000E+00
  0.00000000E+00  0.00000000E+00  0.00000000E+00
  0.00000000E+00  0.00000000E+00  0.00000000E+00
  0.00000000E+00  0.00000000E+00  0.00000000E+00
  0.00000000E+00  0.00000000E+00  0.00000000E+00
  0.00000000E+00  0.00000000E+00  0.00000000E+00
  0.00000000E+00  0.00000000E+00  0.00000000E+00
  0.00000000E+00  0.00000000E+00  0.00000000E+00
  0.00000000E+00  0.00000000E+00  0.00000000E+00
  0.00000000E+00  0.00000000E+00  0.00000000E+00
  0.00000000E+00  0.00000000E+00  0.00000000E+00
  0.00000000E+00  0.00000000E+00  0.00000000E+00
  0.00000000E+00  0.00000000E+00  0.00000000E+00
  0.00000000E+00  0.00000000E+00  0.00000000E+00
  0.00000000E+00  0.00000000E+00  0.00000000E+00
  0.00000000E+00  0.00000000E+00  0.00000000E+00
  0.00000000E+00  0.00000000E+00  0.00000000E+00
  0.00000000E+00  0.00000000E+00  0.00000000E+00
  0.00000000E+00  0.00000000E+00  0.00000000E+00
  0.00000000E+00  0.00000000E+00  0.00000000E+00
  0.00000000E+00  0.00000000E+00  0.00000000E+00
  0.00000000E+00  0.00000000E+00  0.00000000E+00
  0.00000000E+00  0.00000000E+00  0.00000000E+00
  0.00000000E+00  0.00000000E+00  0.00000000E+00
  0.00000000E+00  0.00000000E+00  0.00000000E+00
  0.00000000E+00  0.00000000E+00  0.00000000E+00
  0.00000000E+00  0.00000000E+00  0.00000000E+00
  0.00000000E+00  0.00000000E+00  0.00000000E+00
  0.00000000E+00  0.00000000E+00  0.00000000E+00
  0.00000000E+00  0.00000000E+00  0.00000000E+00
  0.00000000E+00  0.00000000E+00  0.00000000E+00
  0.00000000E+00  0.00000000E+00  0.00000000E+00
  0.00000000E+00  0.00000000E+00  0.00000000E+00
  0.00000000E+00  0.00000000E+00  0.00000000E+00
  0.00000000E+00  0.00000000E+00  0.00000000E+00
  0.00000000E+00  0.00000000E+00  0.00000000E+00
  0.00000000E+00  0.00000000E+00  0.00000000E+00
  0.00000000E+00  0.00000000E+00  0.00000000E+00
  0.00000000E+00  0.00000000E+00  0.00000000E+00
  0.00000000E+00  0.00000000E+00  0.00000000E+00
  0.00000000E+00  0.00000000E+00  0.00000000E+00
  0.00000000E+00  0.00000000E+00  0.00000000E+00
  0.00000000E+00  0.00000000E+00  0.00000000E+00
  0.00000000E+00  0.00000000E+00  0.00000000E+00
  0.00000000E+00  0.00000000E+00  0.00000000E+00
  0.00000000E+00  0.00000000E+00  0.00000000E+00
