Sr32 In28                               
   1.0000000000000000     
    13.1849083955682556    0.0001259043211688    0.0001258895971889
     0.0001258895971889   13.1849083955682556    0.0001259043211688
     0.0001259043211688    0.0001258895971889   13.1849083955682556
   In   Sr
    28    32
Direct
  0.5624159569584961  0.9375544551190487  0.0624282593204981
  0.7571593397109098  0.8069464572155525  0.0707431739294293
  0.7389523178219761  0.3152721426990226  0.0724678955064277
  0.9275054753181635  0.2389455366162565  0.1847323082379901
  0.5707358003740737  0.7428180400903130  0.1930331373956946
  0.6930321569799460  0.9292398948541916  0.2571677655063596
  0.1847323082379901  0.9275054753181635  0.2389455366162565
  0.8152579240312221  0.4274981439539758  0.2610181527946338
  0.3069540556515946  0.4292315909401978  0.2428067305834958
  0.4292315909401978  0.2428067305834958  0.3069540556515946
  0.0724678955064277  0.7389523178219761  0.3152721426990226
  0.2610181527946338  0.8152579240312221  0.4274981439539758
  0.2428067305834958  0.3069540556515946  0.4292315909401978
  0.4375481586516941  0.4375481586516941  0.4375481586516941
  0.9375544551190487  0.0624282593204981  0.5624159569584961
  0.7428180400903130  0.1930331373956946  0.5707358003740737
  0.7610326396526403  0.6847280300532432  0.5724659692142637
  0.5724659692142637  0.7610326396526403  0.6847280300532432
  0.9292398948541916  0.2571677655063596  0.6930321569799460
  0.8069464572155525  0.0707431739294293  0.7571593397109098
  0.3152721426990226  0.0724678955064277  0.7389523178219761
  0.6847280300532432  0.5724659692142637  0.7610326396526403
  0.1930331373956946  0.5707358003740737  0.7428180400903130
  0.0707431739294293  0.7571593397109098  0.8069464572155525
  0.4274981439539758  0.2610181527946338  0.8152579240312221
  0.2389455366162565  0.1847323082379901  0.9275054753181635
  0.2571677655063596  0.6930321569799460  0.9292398948541916
  0.0624282593204981  0.5624159569584961  0.9375544551190487
  0.8036209777921073  0.5582082301201865  0.0076692606037412
  0.7926894869947319  0.0640254923495291  0.0250404581655914
  0.4922794995508326  0.1963616454227477  0.0582000683322050
  0.0250404581655914  0.7926894869947319  0.0640254923495291
  0.1864723568456270  0.1864723568456270  0.1864723568456270
  0.3103026678699550  0.6896821306081549  0.1896758060977390
  0.0582000683322050  0.4922794995508326  0.1963616454227477
  0.5640162657808006  0.4749491119059925  0.2072807785392143
  0.4359582525232852  0.9749306191763623  0.2927014548681086
  0.9417769130528484  0.9922877627165860  0.3036372746705709
  0.6896821306081549  0.1896758060977390  0.3103026678699550
  0.8134963298038755  0.6864617611721187  0.3135165015330372
  0.9749306191763623  0.2927014548681086  0.4359582525232852
  0.5076972727319742  0.6963441902385128  0.4417889906543593
  0.2072807785392143  0.5640162657808006  0.4749491119059925
  0.1963616454227477  0.0582000683322050  0.4922794995508326
  0.6963441902385128  0.4417889906543593  0.5076972727319742
  0.7072761693668355  0.9359575182817892  0.5250464412098026
  0.0076692606037412  0.8036209777921073  0.5582082301201865
  0.4749491119059925  0.2072807785392143  0.5640162657808006
  0.3135165015330372  0.8134963298038755  0.6864617611721187
  0.1896758060977390  0.3103026678699550  0.6896821306081549
  0.4417889906543593  0.5076972727319742  0.6963441902385128
  0.9359575182817892  0.5250464412098026  0.7072761693668355
  0.0640254923495291  0.0250404581655914  0.7926894869947319
  0.5582082301201865  0.0076692606037412  0.8036209777921073
  0.8102768018394499  0.8102768018394499  0.8102768018394499
  0.6864617611721187  0.3135165015330372  0.8134963298038755
  0.5250464412098026  0.7072761693668355  0.9359575182817892
  0.9922877627165860  0.3036372746705709  0.9417769130528484
  0.2927014548681086  0.4359582525232852  0.9749306191763623
  0.3036372746705709  0.9417769130528484  0.9922877627165860

  0.00000000E+00  0.00000000E+00  0.00000000E+00
  0.00000000E+00  0.00000000E+00  0.00000000E+00
  0.00000000E+00  0.00000000E+00  0.00000000E+00
  0.00000000E+00  0.00000000E+00  0.00000000E+00
  0.00000000E+00  0.00000000E+00  0.00000000E+00
  0.00000000E+00  0.00000000E+00  0.00000000E+00
  0.00000000E+00  0.00000000E+00  0.00000000E+00
  0.00000000E+00  0.00000000E+00  0.00000000E+00
  0.00000000E+00  0.00000000E+00  0.00000000E+00
  0.00000000E+00  0.00000000E+00  0.00000000E+00
  0.00000000E+00  0.00000000E+00  0.00000000E+00
  0.00000000E+00  0.00000000E+00  0.00000000E+00
  0.00000000E+00  0.00000000E+00  0.00000000E+00
  0.00000000E+00  0.00000000E+00  0.00000000E+00
  0.00000000E+00  0.00000000E+00  0.00000000E+00
  0.00000000E+00  0.00000000E+00  0.00000000E+00
  0.00000000E+00  0.00000000E+00  0.00000000E+00
  0.00000000E+00  0.00000000E+00  0.00000000E+00
  0.00000000E+00  0.00000000E+00  0.00000000E+00
  0.00000000E+00  0.00000000E+00  0.00000000E+00
  0.00000000E+00  0.00000000E+00  0.00000000E+00
  0.00000000E+00  0.00000000E+00  0.00000000E+00
  0.00000000E+00  0.00000000E+00  0.00000000E+00
  0.00000000E+00  0.00000000E+00  0.00000000E+00
  0.00000000E+00  0.00000000E+00  0.00000000E+00
  0.00000000E+00  0.00000000E+00  0.00000000E+00
  0.00000000E+00  0.00000000E+00  0.00000000E+00
  0.00000000E+00  0.00000000E+00  0.00000000E+00
  0.00000000E+00  0.00000000E+00  0.00000000E+00
  0.00000000E+00  0.00000000E+00  0.00000000E+00
  0.00000000E+00  0.00000000E+00  0.00000000E+00
  0.00000000E+00  0.00000000E+00  0.00000000E+00
  0.00000000E+00  0.00000000E+00  0.00000000E+00
  0.00000000E+00  0.00000000E+00  0.00000000E+00
  0.00000000E+00  0.00000000E+00  0.00000000E+00
  0.00000000E+00  0.00000000E+00  0.00000000E+00
  0.00000000E+00  0.00000000E+00  0.00000000E+00
  0.00000000E+00  0.00000000E+00  0.00000000E+00
  0.00000000E+00  0.00000000E+00  0.00000000E+00
  0.00000000E+00  0.00000000E+00  0.00000000E+00
  0.00000000E+00  0.00000000E+00  0.00000000E+00
  0.00000000E+00  0.00000000E+00  0.00000000E+00
  0.00000000E+00  0.00000000E+00  0.00000000E+00
  0.00000000E+00  0.00000000E+00  0.00000000E+00
  0.00000000E+00  0.00000000E+00  0.00000000E+00
  0.00000000E+00  0.00000000E+00  0.00000000E+00
  0.00000000E+00  0.00000000E+00  0.00000000E+00
  0.00000000E+00  0.00000000E+00  0.00000000E+00
  0.00000000E+00  0.00000000E+00  0.00000000E+00
  0.00000000E+00  0.00000000E+00  0.00000000E+00
  0.00000000E+00  0.00000000E+00  0.00000000E+00
  0.00000000E+00  0.00000000E+00  0.00000000E+00
  0.00000000E+00  0.00000000E+00  0.00000000E+00
  0.00000000E+00  0.00000000E+00  0.00000000E+00
  0.00000000E+00  0.00000000E+00  0.00000000E+00
  0.00000000E+00  0.00000000E+00  0.00000000E+00
  0.00000000E+00  0.00000000E+00  0.00000000E+00
  0.00000000E+00  0.00000000E+00  0.00000000E+00
  0.00000000E+00  0.00000000E+00  0.00000000E+00
  0.00000000E+00  0.00000000E+00  0.00000000E+00
