Mg2 Tl2 I10                             
   1.0000000000000000     
     8.0462347105044891   -4.7154707980508315   -1.0466671226513637
     7.4926047346691371    3.7913746281658516   -1.2702220979046626
    -7.5059860059525452    0.0500925921247720   12.2710691145268207
   Tl   Mg   I 
     2     2    10
Direct
  0.0586332033359014  0.9894733818622257  0.9207189172657948
  0.9365965188064180  0.0086516284808056  0.4283090804910401
  0.3480604596813350  0.4111574788147294  0.2051597913369889
  0.8107894483756795  0.4964785695556131  0.7896162124239865
  0.3145692210952546  0.4490034337407209  0.0209923947925788
  0.2608428929805555  0.1359802214227912  0.1916228178835979
  0.7393096905290264  0.2551062039752594  0.2878282519581958
  0.8064019265234492  0.7280309108233283  0.3704691712114112
  0.2891109485649466  0.8086627536678535  0.3918642833126142
  0.5065232056925666  0.4140717374106515  0.5951648322554490
  0.0873092517569631  0.2441272272002450  0.6873381539486587
  0.2697074301329110  0.7150506234178238  0.7636247009424650
  0.7544752587673429  0.9113069190694532  0.8878109081956183
  0.8178705437576497  0.4330989105584919  0.9597804839816035

  0.00000000E+00  0.00000000E+00  0.00000000E+00
  0.00000000E+00  0.00000000E+00  0.00000000E+00
  0.00000000E+00  0.00000000E+00  0.00000000E+00
  0.00000000E+00  0.00000000E+00  0.00000000E+00
  0.00000000E+00  0.00000000E+00  0.00000000E+00
  0.00000000E+00  0.00000000E+00  0.00000000E+00
  0.00000000E+00  0.00000000E+00  0.00000000E+00
  0.00000000E+00  0.00000000E+00  0.00000000E+00
  0.00000000E+00  0.00000000E+00  0.00000000E+00
  0.00000000E+00  0.00000000E+00  0.00000000E+00
  0.00000000E+00  0.00000000E+00  0.00000000E+00
  0.00000000E+00  0.00000000E+00  0.00000000E+00
  0.00000000E+00  0.00000000E+00  0.00000000E+00
  0.00000000E+00  0.00000000E+00  0.00000000E+00
