Sr4 In4 I20                             
   1.0000000000000000     
    12.8202418844306187    0.0000000000000000    0.0000000000000000
     0.0000000000000000    9.2150935877276741   -2.0575853220923235
     0.0000000000000000    1.3302622993771882   13.1247990165664437
   Sr   In   I 
     4     4    20
Direct
  0.9454064367661132  0.3993017216124102  0.3316693731279869
  0.4454064367661132  0.6006982783875969  0.1683306268720131
  0.0545935632338868  0.6006982783875969  0.6683306268720131
  0.5545935632338868  0.3993017216124102  0.8316693731279869
  0.7421544077964768  0.1939716282098303  0.5768992498083350
  0.2421544077964697  0.8060283717901697  0.9231007501916650
  0.2578455922035303  0.8060283717901697  0.4231007501916650
  0.7578455922035232  0.1939716282098303  0.0768992498083350
  0.5101973589834188  0.8570934409326370  0.3547092341605875
  0.0101973589834188  0.1429065590673630  0.1452907658394054
  0.4898026410165812  0.1429065590673630  0.6452907658394054
  0.9898026410165812  0.8570934409326370  0.8547092341605946
  0.7184596890340842  0.2591339756942475  0.3379695919153320
  0.2184596890340842  0.7408660243057525  0.1620304080846680
  0.2815403109659158  0.7408660243057525  0.6620304080846751
  0.7815403109659158  0.2591339756942475  0.8379695919153249
  0.6471407531651323  0.5373886162547379  0.6246626222239655
  0.1471407531651323  0.4626113837452621  0.8753373777760345
  0.3528592468348677  0.4626113837452621  0.3753373777760487
  0.8528592468348677  0.5373886162547379  0.1246626222239655
  0.3110743066253434  0.2922259563094869  0.7534854397978350
  0.8110743066253505  0.7077740436905131  0.7465145602021650
  0.6889256933746495  0.7077740436905131  0.2465145602021650
  0.1889256933746566  0.2922259563094869  0.2534854397978350
  0.5078973228950190  0.2851544021174064  0.0534572437851040
  0.0078973228950190  0.7148455978825936  0.4465427562148960
  0.4921026771049810  0.7148455978825936  0.9465427562148960
  0.9921026771049810  0.2851544021174064  0.5534572437851040

  0.00000000E+00  0.00000000E+00  0.00000000E+00
  0.00000000E+00  0.00000000E+00  0.00000000E+00
  0.00000000E+00  0.00000000E+00  0.00000000E+00
  0.00000000E+00  0.00000000E+00  0.00000000E+00
  0.00000000E+00  0.00000000E+00  0.00000000E+00
  0.00000000E+00  0.00000000E+00  0.00000000E+00
  0.00000000E+00  0.00000000E+00  0.00000000E+00
  0.00000000E+00  0.00000000E+00  0.00000000E+00
  0.00000000E+00  0.00000000E+00  0.00000000E+00
  0.00000000E+00  0.00000000E+00  0.00000000E+00
  0.00000000E+00  0.00000000E+00  0.00000000E+00
  0.00000000E+00  0.00000000E+00  0.00000000E+00
  0.00000000E+00  0.00000000E+00  0.00000000E+00
  0.00000000E+00  0.00000000E+00  0.00000000E+00
  0.00000000E+00  0.00000000E+00  0.00000000E+00
  0.00000000E+00  0.00000000E+00  0.00000000E+00
  0.00000000E+00  0.00000000E+00  0.00000000E+00
  0.00000000E+00  0.00000000E+00  0.00000000E+00
  0.00000000E+00  0.00000000E+00  0.00000000E+00
  0.00000000E+00  0.00000000E+00  0.00000000E+00
  0.00000000E+00  0.00000000E+00  0.00000000E+00
  0.00000000E+00  0.00000000E+00  0.00000000E+00
  0.00000000E+00  0.00000000E+00  0.00000000E+00
  0.00000000E+00  0.00000000E+00  0.00000000E+00
  0.00000000E+00  0.00000000E+00  0.00000000E+00
  0.00000000E+00  0.00000000E+00  0.00000000E+00
  0.00000000E+00  0.00000000E+00  0.00000000E+00
  0.00000000E+00  0.00000000E+00  0.00000000E+00
