Ga10 F18                                
   1.00000000000000     
     0.0000001210221351   -5.6825622466212851    4.5503722130378303
     4.9214778088801916   -2.8416024631277108   -4.5502853519472630
     4.9214464272886085    2.8415842093399100    4.5502639262201656
   F    Ga
    18    10
Direct
  0.2602351139535415  0.0775979455391607  0.0803407031777752
  0.9198064403253596  0.2601026776075699  0.0777617511873245
  0.3968274310389646  0.7499813067400609  0.1033537484733671
  0.4198470433632835  0.4223177094856538  0.2398508454487995
  0.1033471635080332  0.6032307421148673  0.2500758766553872
  0.9224342601633921  0.9197478018676861  0.2602845169354993
  0.2500707403538414  0.8966882367333895  0.3967946846990955
  0.7603493641571859  0.4197710727470607  0.4225034740395159
  0.5777355774862372  0.7602143155830277  0.4198209237490218
  0.4224468759931241  0.2397896903664574  0.5803303187505691
  0.2399051448188416  0.5802780004645314  0.5777519087895158
  0.7501268700648254  0.1032410700386421  0.6033259062933638
  0.0777748546118744  0.0802659569274979  0.7399444240504423
  0.8967970755110031  0.3966870489281646  0.7501512854034260
  0.5803635801211300  0.5775843282611106  0.7603279523765067
  0.6033401895227684  0.2499078582560941  0.8968016594829678
  0.0803350157908014  0.7398028417164326  0.9224245062869869
  0.7398803700209911  0.9222494946231663  0.9198157488113736
  0.7498159710242049  0.5892547407687587  0.0882718280414068
  0.1459093449899243  0.8540895927905581  0.1459270287159598
  0.5886435811477071  0.0890007176661953  0.2500408912686822
  0.3542832938861409  0.6457532680279598  0.3542610175823171
  0.0883884943650273  0.2501531991536226  0.4105294514486886
  0.9107783827586005  0.7500578920649872  0.5884925324884378
  0.6459262872825633  0.3540988772580178  0.6459262488233577
  0.4105988102745854  0.9113572596126005  0.7499530576530873
  0.8542469166808928  0.1457228904721006  0.8542726442205364
  0.2498858067851444  0.4111534641846148  0.9107650651466201
 
  0.00000000E+00  0.00000000E+00  0.00000000E+00
  0.00000000E+00  0.00000000E+00  0.00000000E+00
  0.00000000E+00  0.00000000E+00  0.00000000E+00
  0.00000000E+00  0.00000000E+00  0.00000000E+00
  0.00000000E+00  0.00000000E+00  0.00000000E+00
  0.00000000E+00  0.00000000E+00  0.00000000E+00
  0.00000000E+00  0.00000000E+00  0.00000000E+00
  0.00000000E+00  0.00000000E+00  0.00000000E+00
  0.00000000E+00  0.00000000E+00  0.00000000E+00
  0.00000000E+00  0.00000000E+00  0.00000000E+00
  0.00000000E+00  0.00000000E+00  0.00000000E+00
  0.00000000E+00  0.00000000E+00  0.00000000E+00
  0.00000000E+00  0.00000000E+00  0.00000000E+00
  0.00000000E+00  0.00000000E+00  0.00000000E+00
  0.00000000E+00  0.00000000E+00  0.00000000E+00
  0.00000000E+00  0.00000000E+00  0.00000000E+00
  0.00000000E+00  0.00000000E+00  0.00000000E+00
  0.00000000E+00  0.00000000E+00  0.00000000E+00
  0.00000000E+00  0.00000000E+00  0.00000000E+00
  0.00000000E+00  0.00000000E+00  0.00000000E+00
  0.00000000E+00  0.00000000E+00  0.00000000E+00
  0.00000000E+00  0.00000000E+00  0.00000000E+00
  0.00000000E+00  0.00000000E+00  0.00000000E+00
  0.00000000E+00  0.00000000E+00  0.00000000E+00
  0.00000000E+00  0.00000000E+00  0.00000000E+00
  0.00000000E+00  0.00000000E+00  0.00000000E+00
  0.00000000E+00  0.00000000E+00  0.00000000E+00
  0.00000000E+00  0.00000000E+00  0.00000000E+00
