Be4 B2 Br10                             
   1.00000000000000     
     5.8900726608308780   -3.9459812979142606   -0.9676191543321293
    10.0573802363448834    8.3547627734917160   -0.4661709762747715
    -4.5135203774980379   -0.1090853509972725    6.8596780851858581
   Br   B    Be
    10     2     4
Direct
  0.9722866795634388  0.2301333028246191  0.1086983080727038
  0.8492661216809410  0.3164272349339541  0.7291479665859910
  0.5100135576497351  0.7394177320370758  0.5185153722992695
  0.7537037409312504  0.6077819075967810  0.2097305785956038
  0.9360437381378617  0.9327184138011404  0.7187863777642320
  0.4944406178077472  0.4563613521970353  0.2373043719029866
  0.6726157165851205  0.9961302380681047  0.9963883950217749
  0.0468409012717785  0.7368480793146972  0.9691299813770868
  0.4876703155719539  0.1607940056113861  0.6634608238572781
  0.2444487350394340  0.4617497947336204  0.6928934771734205
  0.7151167482886152  0.3099316699355299  0.8797673025027493
  0.7116943038333545  0.5927152011605301  0.4321560678330343
  0.7941029221710423  0.8489736123343192  0.8027866153134653
  0.5626176826447278  0.4413283894532043  0.9877176697934686
  0.9818171759308925  0.5889806511025313  0.6805409320029767
  0.7676210428921451  0.0800084148954099  0.8732757599039758
 
  0.00000000E+00  0.00000000E+00  0.00000000E+00
  0.00000000E+00  0.00000000E+00  0.00000000E+00
  0.00000000E+00  0.00000000E+00  0.00000000E+00
  0.00000000E+00  0.00000000E+00  0.00000000E+00
  0.00000000E+00  0.00000000E+00  0.00000000E+00
  0.00000000E+00  0.00000000E+00  0.00000000E+00
  0.00000000E+00  0.00000000E+00  0.00000000E+00
  0.00000000E+00  0.00000000E+00  0.00000000E+00
  0.00000000E+00  0.00000000E+00  0.00000000E+00
  0.00000000E+00  0.00000000E+00  0.00000000E+00
  0.00000000E+00  0.00000000E+00  0.00000000E+00
  0.00000000E+00  0.00000000E+00  0.00000000E+00
  0.00000000E+00  0.00000000E+00  0.00000000E+00
  0.00000000E+00  0.00000000E+00  0.00000000E+00
  0.00000000E+00  0.00000000E+00  0.00000000E+00
  0.00000000E+00  0.00000000E+00  0.00000000E+00
