Ca13 In14                               
   1.00000000000000     
     5.8651483539960054    5.8651483539960063    5.8680645694911915
     5.8651483539960054   -5.8680645694911924   -5.8651483539960054
    -5.8680645694911915    5.8651483539960063   -5.8651483539960054
   In   Ca
    14    13
Direct
  0.3385055764749225  0.9994201282781106  0.9994201282781106
  0.6614944235250775  0.0005798717218894  0.0005798717218894
  0.3252723696590962  0.3252723696590962  0.0001523636538252
  0.9994201282781106  0.3385055764749225  0.9994201282781106
  0.0005798717218894  0.6614944235250775  0.0005798717218894
  0.6747276303409038  0.6747276303409038  0.9998476363461748
  0.3252723696590962  0.0001523636538252  0.3252723696590962
  0.0001523636538252  0.3252723696590962  0.3252723696590962
  0.9994201282781106  0.9994201282781106  0.3385055764749225
  0.3388530009042867  0.3388530009042867  0.3388530009042867
  0.0005798717218894  0.0005798717218894  0.6614944235250775
  0.6611469990957133  0.6611469990957133  0.6611469990957133
  0.6747276303409038  0.9998476363461748  0.6747276303409038
  0.9998476363461748  0.6747276303409038  0.6747276303409038
  0.0000000000000000  0.0000000000000000  0.0000000000000000
  0.6689696900008073  0.3310303099991927  0.0000000000000000
  0.3310303099991927  0.6689696900008073  0.0000000000000000
  0.6696961895040729  0.6696961895040729  0.3391144961594108
  0.6689696900008073  0.0000000000000000  0.3310303099991927
  0.0000000000000000  0.6689696900008073  0.3310303099991927
  0.6608855038405892  0.3303038104959271  0.3303038104959271
  0.3303038104959271  0.6608855038405892  0.3303038104959271
  0.3310303099991927  0.0000000000000000  0.6689696900008073
  0.6696961895040729  0.3391144961594108  0.6696961895040729
  0.0000000000000000  0.3310303099991927  0.6689696900008073
  0.3391144961594108  0.6696961895040729  0.6696961895040729
  0.3303038104959271  0.3303038104959271  0.6608855038405892
 
  0.00000000E+00  0.00000000E+00  0.00000000E+00
  0.00000000E+00  0.00000000E+00  0.00000000E+00
  0.00000000E+00  0.00000000E+00  0.00000000E+00
  0.00000000E+00  0.00000000E+00  0.00000000E+00
  0.00000000E+00  0.00000000E+00  0.00000000E+00
  0.00000000E+00  0.00000000E+00  0.00000000E+00
  0.00000000E+00  0.00000000E+00  0.00000000E+00
  0.00000000E+00  0.00000000E+00  0.00000000E+00
  0.00000000E+00  0.00000000E+00  0.00000000E+00
  0.00000000E+00  0.00000000E+00  0.00000000E+00
  0.00000000E+00  0.00000000E+00  0.00000000E+00
  0.00000000E+00  0.00000000E+00  0.00000000E+00
  0.00000000E+00  0.00000000E+00  0.00000000E+00
  0.00000000E+00  0.00000000E+00  0.00000000E+00
  0.00000000E+00  0.00000000E+00  0.00000000E+00
  0.00000000E+00  0.00000000E+00  0.00000000E+00
  0.00000000E+00  0.00000000E+00  0.00000000E+00
  0.00000000E+00  0.00000000E+00  0.00000000E+00
  0.00000000E+00  0.00000000E+00  0.00000000E+00
  0.00000000E+00  0.00000000E+00  0.00000000E+00
  0.00000000E+00  0.00000000E+00  0.00000000E+00
  0.00000000E+00  0.00000000E+00  0.00000000E+00
  0.00000000E+00  0.00000000E+00  0.00000000E+00
  0.00000000E+00  0.00000000E+00  0.00000000E+00
  0.00000000E+00  0.00000000E+00  0.00000000E+00
  0.00000000E+00  0.00000000E+00  0.00000000E+00
  0.00000000E+00  0.00000000E+00  0.00000000E+00
