Ba1 Ga2 Br6                             
   1.00000000000000     
     3.7542565475008636    1.1325953575857552    7.9595721473705492
    -3.7542565475008627    1.1325953575857550    7.9595721473705492
     0.0000000000000005   -6.3296191363980112    9.0424045107520854
   Ba   Br   Ga
     1     6     2
Direct
  0.0000000000000000  0.0000000000000000  0.0000000000000000
  0.7072867340473934  0.7072867340473934  0.3083662740616475
  0.8306135184316190  0.3120674741370451  0.1638835568939925
  0.3120674741370451  0.8306135184316190  0.1638835568939925
  0.2927132659526066  0.2927132659526066  0.6916337259383525
  0.6879325258629549  0.1693864815683810  0.8361164431060075
  0.1693864815683810  0.6879325258629549  0.8361164431060075
  0.2683989036587064  0.2683989036587064  0.9455829018315285
  0.7316010963412936  0.7316010963412936  0.0544170981684715
 
  0.00000000E+00  0.00000000E+00  0.00000000E+00
  0.00000000E+00  0.00000000E+00  0.00000000E+00
  0.00000000E+00  0.00000000E+00  0.00000000E+00
  0.00000000E+00  0.00000000E+00  0.00000000E+00
  0.00000000E+00  0.00000000E+00  0.00000000E+00
  0.00000000E+00  0.00000000E+00  0.00000000E+00
  0.00000000E+00  0.00000000E+00  0.00000000E+00
  0.00000000E+00  0.00000000E+00  0.00000000E+00
  0.00000000E+00  0.00000000E+00  0.00000000E+00
