Mg6 Al10                                
   1.00000000000000     
     5.2707958434997400    0.0003042929651783    0.0000000000000000
    -2.6355695616233206    4.5645486517272600    0.0000000000000000
     0.0000000000000000    0.0000000000000000   13.2671687656059341
   Al   Mg
    10     6
Direct
  0.3332992814770535  0.6666984662188824  0.0774995556102525
  0.1645581865466781  0.3291419092970997  0.2500000000000000
  0.1645647383128832  0.8354389117962384  0.2500000000000000
  0.6708604970966547  0.8354448917522532  0.2500000000000000
  0.3332992814770535  0.6666984662188824  0.4225004443897475
  0.6667007185229465  0.3333015337811176  0.5774995556102525
  0.3291395029033453  0.1645551082477468  0.7500000000000000
  0.8354352616871168  0.1645610882037616  0.7500000000000000
  0.8354418134533219  0.6708580907029003  0.7500000000000000
  0.6667007185229465  0.3333015337811176  0.9225004443897475
  0.0000000000000000  0.0000000000000000  0.0000000000000000
  0.6666788915915518  0.3333225105465800  0.1322689037359979
  0.6666788915915518  0.3333225105465800  0.3677310962640021
  0.0000000000000000  0.0000000000000000  0.5000000000000000
  0.3333211084084482  0.6666774894534200  0.6322689037359979
  0.3333211084084482  0.6666774894534200  0.8677310962640021
 
  0.00000000E+00  0.00000000E+00  0.00000000E+00
  0.00000000E+00  0.00000000E+00  0.00000000E+00
  0.00000000E+00  0.00000000E+00  0.00000000E+00
  0.00000000E+00  0.00000000E+00  0.00000000E+00
  0.00000000E+00  0.00000000E+00  0.00000000E+00
  0.00000000E+00  0.00000000E+00  0.00000000E+00
  0.00000000E+00  0.00000000E+00  0.00000000E+00
  0.00000000E+00  0.00000000E+00  0.00000000E+00
  0.00000000E+00  0.00000000E+00  0.00000000E+00
  0.00000000E+00  0.00000000E+00  0.00000000E+00
  0.00000000E+00  0.00000000E+00  0.00000000E+00
  0.00000000E+00  0.00000000E+00  0.00000000E+00
  0.00000000E+00  0.00000000E+00  0.00000000E+00
  0.00000000E+00  0.00000000E+00  0.00000000E+00
  0.00000000E+00  0.00000000E+00  0.00000000E+00
  0.00000000E+00  0.00000000E+00  0.00000000E+00
