Be17 Ga12                               
   1.00000000000000     
    -4.5050867451462633   -4.5050867451462659    4.5816965792410986
    -4.5050867451462642    4.5816965792410977   -4.5050867451462642
     4.5816965792411004   -4.5050867451462651   -4.5050867451462651
   Ga   Be
    12    17
Direct
  0.3830342002133520  0.1833580036196167  0.9835578031543761
  0.1833580036196167  0.3830342002133520  0.9835578031543761
  0.7831292396989014  0.7831292396989014  0.3166261144534843
  0.3830342002133520  0.9835578031543761  0.1833580036196167
  0.9835578031543761  0.3830342002133520  0.1833580036196167
  0.1833580036196167  0.9835578031543761  0.3830342002133520
  0.9835578031543761  0.1833580036196167  0.3830342002133520
  0.8689544990951035  0.6315768597007363  0.6315768597007363
  0.6315768597007363  0.8689544990951035  0.6315768597007363
  0.7831292396989014  0.3166261144534843  0.7831292396989014
  0.3166261144534843  0.7831292396989014  0.7831292396989014
  0.6315768597007363  0.6315768597007363  0.8689544990951035
  0.9113786778855371  0.9113786778855371  0.9113786778855371
  0.6972498757327728  0.9976089621932260  0.9976089621932260
  0.7030042875715452  0.4424870303352790  0.0603776221937196
  0.9976089621932260  0.6972498757327728  0.9976089621932260
  0.4424870303352790  0.7030042875715452  0.0603776221937196
  0.4964459446114091  0.4964459446114091  0.3219813964169376
  0.7189464318686305  0.3167764701085005  0.3167764701085005
  0.3167764701085005  0.7189464318686305  0.3167764701085005
  0.2021501577462033  0.2021501577462033  0.2021501577462033
  0.7030042875715452  0.0603776221937196  0.4424870303352790
  0.0603776221937196  0.7030042875715452  0.4424870303352790
  0.4964459446114091  0.3219813964169376  0.4964459446114091
  0.3219813964169376  0.4964459446114091  0.4964459446114091
  0.9976089621932260  0.9976089621932260  0.6972498757327728
  0.4424870303352790  0.0603776221937196  0.7030042875715452
  0.0603776221937196  0.4424870303352790  0.7030042875715452
  0.3167764701085005  0.3167764701085005  0.7189464318686305
 
  0.00000000E+00  0.00000000E+00  0.00000000E+00
  0.00000000E+00  0.00000000E+00  0.00000000E+00
  0.00000000E+00  0.00000000E+00  0.00000000E+00
  0.00000000E+00  0.00000000E+00  0.00000000E+00
  0.00000000E+00  0.00000000E+00  0.00000000E+00
  0.00000000E+00  0.00000000E+00  0.00000000E+00
  0.00000000E+00  0.00000000E+00  0.00000000E+00
  0.00000000E+00  0.00000000E+00  0.00000000E+00
  0.00000000E+00  0.00000000E+00  0.00000000E+00
  0.00000000E+00  0.00000000E+00  0.00000000E+00
  0.00000000E+00  0.00000000E+00  0.00000000E+00
  0.00000000E+00  0.00000000E+00  0.00000000E+00
  0.00000000E+00  0.00000000E+00  0.00000000E+00
  0.00000000E+00  0.00000000E+00  0.00000000E+00
  0.00000000E+00  0.00000000E+00  0.00000000E+00
  0.00000000E+00  0.00000000E+00  0.00000000E+00
  0.00000000E+00  0.00000000E+00  0.00000000E+00
  0.00000000E+00  0.00000000E+00  0.00000000E+00
  0.00000000E+00  0.00000000E+00  0.00000000E+00
  0.00000000E+00  0.00000000E+00  0.00000000E+00
  0.00000000E+00  0.00000000E+00  0.00000000E+00
  0.00000000E+00  0.00000000E+00  0.00000000E+00
  0.00000000E+00  0.00000000E+00  0.00000000E+00
  0.00000000E+00  0.00000000E+00  0.00000000E+00
  0.00000000E+00  0.00000000E+00  0.00000000E+00
  0.00000000E+00  0.00000000E+00  0.00000000E+00
  0.00000000E+00  0.00000000E+00  0.00000000E+00
  0.00000000E+00  0.00000000E+00  0.00000000E+00
  0.00000000E+00  0.00000000E+00  0.00000000E+00
