Ca13 Tl14                               
   1.0000000000000000     
     5.9794219177167935    5.9794219177167935    5.9752523198720917
     5.9794219177167935   -5.9752523198720917   -5.9794219177167935
    -5.9752523198720917    5.9794219177167935   -5.9794219177167935
   Tl   Ca
    14    13
Direct
  0.3317884028942615  0.0009764807516461  0.0009764807516461
  0.6682115971057385  0.9990235192483539  0.9990235192483539
  0.3465012968816694  0.3465012968816694  0.9995071306733507
  0.0009764807516461  0.3317884028942615  0.0009764807516461
  0.9990235192483539  0.6682115971057385  0.9990235192483539
  0.6534987031183306  0.6534987031183306  0.0004928693266493
  0.3465012968816694  0.9995071306733507  0.3465012968816694
  0.9995071306733507  0.3465012968816694  0.3465012968816694
  0.0009764807516461  0.0009764807516461  0.3317884028942615
  0.3309998507667657  0.3309998507667657  0.3309998507667657
  0.9990235192483539  0.9990235192483539  0.6682115971057385
  0.6690001492332343  0.6690001492332343  0.6690001492332343
  0.6534987031183306  0.0004928693266493  0.6534987031183306
  0.0004928693266493  0.6534987031183306  0.6534987031183306
  0.0000000000000000  0.0000000000000000  0.0000000000000000
  0.6789419115971427  0.3210580884028573  0.0000000000000000
  0.3210580884028573  0.6789419115971427  0.0000000000000000
  0.6779371038183868  0.6779371038183868  0.3562995429759397
  0.6789419115971427  0.0000000000000000  0.3210580884028573
  0.0000000000000000  0.6789419115971427  0.3210580884028573
  0.6437004570240603  0.3220628961816132  0.3220628961816132
  0.3220628961816132  0.6437004570240603  0.3220628961816132
  0.3210580884028573  0.0000000000000000  0.6789419115971427
  0.6779371038183868  0.3562995429759397  0.6779371038183868
  0.0000000000000000  0.3210580884028573  0.6789419115971427
  0.3562995429759397  0.6779371038183868  0.6779371038183868
  0.3220628961816132  0.3220628961816132  0.6437004570240603

  0.00000000E+00  0.00000000E+00  0.00000000E+00
  0.00000000E+00  0.00000000E+00  0.00000000E+00
  0.00000000E+00  0.00000000E+00  0.00000000E+00
  0.00000000E+00  0.00000000E+00  0.00000000E+00
  0.00000000E+00  0.00000000E+00  0.00000000E+00
  0.00000000E+00  0.00000000E+00  0.00000000E+00
  0.00000000E+00  0.00000000E+00  0.00000000E+00
  0.00000000E+00  0.00000000E+00  0.00000000E+00
  0.00000000E+00  0.00000000E+00  0.00000000E+00
  0.00000000E+00  0.00000000E+00  0.00000000E+00
  0.00000000E+00  0.00000000E+00  0.00000000E+00
  0.00000000E+00  0.00000000E+00  0.00000000E+00
  0.00000000E+00  0.00000000E+00  0.00000000E+00
  0.00000000E+00  0.00000000E+00  0.00000000E+00
  0.00000000E+00  0.00000000E+00  0.00000000E+00
  0.00000000E+00  0.00000000E+00  0.00000000E+00
  0.00000000E+00  0.00000000E+00  0.00000000E+00
  0.00000000E+00  0.00000000E+00  0.00000000E+00
  0.00000000E+00  0.00000000E+00  0.00000000E+00
  0.00000000E+00  0.00000000E+00  0.00000000E+00
  0.00000000E+00  0.00000000E+00  0.00000000E+00
  0.00000000E+00  0.00000000E+00  0.00000000E+00
  0.00000000E+00  0.00000000E+00  0.00000000E+00
  0.00000000E+00  0.00000000E+00  0.00000000E+00
  0.00000000E+00  0.00000000E+00  0.00000000E+00
  0.00000000E+00  0.00000000E+00  0.00000000E+00
  0.00000000E+00  0.00000000E+00  0.00000000E+00
