Ba6 In4                                 
   1.0000000000000000     
    -8.1990624426530392   -0.0058351035137536   -0.0027581742375183
     4.0944933729031900   -7.0956281676710065    0.0038508657030770
    -4.0956835447631494    2.3604352641815249    8.1453562494919289
   In   Ba
     4     6
Direct
  0.3082175792703410  0.6910482538760903  0.0762273477172357
  0.1912784756700248  0.8078044729459251  0.4240912033658191
  0.8086985851834783  0.1922274951294369  0.5760155931645627
  0.6917354279538941  0.3088850850132729  0.9238813772799048
  0.6720515181541060  0.7498066126719038  0.2508820400457807
  0.8273938030269292  0.3274731476571517  0.2498396591197647
  0.2496180499462994  0.1721315301139654  0.2492790209636979
  0.7503871965779254  0.8278897697462000  0.7508470162893275
  0.1726227847898301  0.6725327372421077  0.7502615455213899
  0.3279965794271718  0.2502008956039461  0.7491751965325264

  0.00000000E+00  0.00000000E+00  0.00000000E+00
  0.00000000E+00  0.00000000E+00  0.00000000E+00
  0.00000000E+00  0.00000000E+00  0.00000000E+00
  0.00000000E+00  0.00000000E+00  0.00000000E+00
  0.00000000E+00  0.00000000E+00  0.00000000E+00
  0.00000000E+00  0.00000000E+00  0.00000000E+00
  0.00000000E+00  0.00000000E+00  0.00000000E+00
  0.00000000E+00  0.00000000E+00  0.00000000E+00
  0.00000000E+00  0.00000000E+00  0.00000000E+00
  0.00000000E+00  0.00000000E+00  0.00000000E+00
