Ca4 Tl10 Br2                            
   1.0000000000000000     
     8.3140574204846800   -0.0040947757284780    0.0223208576693677
    -0.0113601163071571    8.3117344084127200   -0.0218397977824515
     4.1279148458718415    4.1359434331466245    7.1227971360351026
   Br   Ca   Tl
     2     4    10
Direct
  0.5632088895240557  0.5629680108369257  0.8734046523083308
  0.0628670323148626  0.0630088704162475  0.8736225986698116
  0.3972913450311708  0.2316603197855898  0.8703994751769315
  0.8942416935967827  0.3939192349612668  0.8790541045260412
  0.2302988026880257  0.7303961725962935  0.8718480221261231
  0.7260051239447449  0.8915599953201578  0.8813272888564612
  0.8117989461620922  0.8134856583400207  0.3722279088711105
  0.3155921302646831  0.3141323171431196  0.3737510785285707
  0.5300174258714136  0.0345288660501311  0.2198880243222874
  0.0382732768892993  0.2471373143354612  0.2182698420873308
  0.7487087329399813  0.5317820296161386  0.2222670844100989
  0.2452947952847282  0.7482302995895864  0.2167864886007038
  0.8789414159376605  0.3758951829104404  0.5345289606333807
  0.3764263536685348  0.5930703909119899  0.5286669177675734
  0.0863458718621715  0.8777077292673852  0.5327933350095506
  0.5945881640197967  0.0904176079192354  0.5311642181057010

  0.00000000E+00  0.00000000E+00  0.00000000E+00
  0.00000000E+00  0.00000000E+00  0.00000000E+00
  0.00000000E+00  0.00000000E+00  0.00000000E+00
  0.00000000E+00  0.00000000E+00  0.00000000E+00
  0.00000000E+00  0.00000000E+00  0.00000000E+00
  0.00000000E+00  0.00000000E+00  0.00000000E+00
  0.00000000E+00  0.00000000E+00  0.00000000E+00
  0.00000000E+00  0.00000000E+00  0.00000000E+00
  0.00000000E+00  0.00000000E+00  0.00000000E+00
  0.00000000E+00  0.00000000E+00  0.00000000E+00
  0.00000000E+00  0.00000000E+00  0.00000000E+00
  0.00000000E+00  0.00000000E+00  0.00000000E+00
  0.00000000E+00  0.00000000E+00  0.00000000E+00
  0.00000000E+00  0.00000000E+00  0.00000000E+00
  0.00000000E+00  0.00000000E+00  0.00000000E+00
  0.00000000E+00  0.00000000E+00  0.00000000E+00
