Be1 B13                                 
   1.00000000000000     
     3.3423277053353093   -2.9109196771108934    0.2391625670069992
     3.3423277053353093    2.9109196771108934    0.2391625670069992
    -0.2431643384109797    0.0000000000000000    5.0718174789200177
   Be   B 
     1    13
Direct
  0.9555721792363698  0.9555721792363698  0.8852339333407144
  0.6770467795871085  0.6770467795871085  0.8654120218600241
  0.6974156048208471  0.1868167767122912  0.3683767945508478
  0.1868167767122912  0.6974156048208471  0.3683767945508478
  0.9356534324675394  0.4390456008032046  0.3672510410463303
  0.4390456008032046  0.9356534324675394  0.3672510410463303
  0.5796196721798168  0.5796196721798168  0.1985024499434260
  0.0641780980687798  0.0641780980687798  0.2273646656323791
  0.4189301965567083  0.4189301965567083  0.8586669827114903
  0.5620788888919108  0.0554386780282528  0.7112184161216391
  0.0554386780282528  0.5620788888919108  0.7112184161216391
  0.7952643894418756  0.3176396019722532  0.6904358219012110
  0.3176396019722532  0.7952643894418756  0.6904358219012110
  0.3151891012330523  0.3151891012330523  0.1902557992719238
 
  0.00000000E+00  0.00000000E+00  0.00000000E+00
  0.00000000E+00  0.00000000E+00  0.00000000E+00
  0.00000000E+00  0.00000000E+00  0.00000000E+00
  0.00000000E+00  0.00000000E+00  0.00000000E+00
  0.00000000E+00  0.00000000E+00  0.00000000E+00
  0.00000000E+00  0.00000000E+00  0.00000000E+00
  0.00000000E+00  0.00000000E+00  0.00000000E+00
  0.00000000E+00  0.00000000E+00  0.00000000E+00
  0.00000000E+00  0.00000000E+00  0.00000000E+00
  0.00000000E+00  0.00000000E+00  0.00000000E+00
  0.00000000E+00  0.00000000E+00  0.00000000E+00
  0.00000000E+00  0.00000000E+00  0.00000000E+00
  0.00000000E+00  0.00000000E+00  0.00000000E+00
  0.00000000E+00  0.00000000E+00  0.00000000E+00
