Sr10 Tl6                                
   1.0000000000000000     
     8.8173787996561241   -0.0000000000000017   -0.0000000254896549
    -4.4086899125828580    4.4086899125828580    8.2674305630262026
     0.0000000000000017   -8.8173787996561241   -0.0000000254896548
   Sr   Tl
    10     6
Direct
  0.5000000000000000  0.0000000000000000  0.5000000000000000
  0.0000000000000000  0.0000000000000000  0.0000000000000000
  0.0258129879220448  0.7079415811670060  0.1821285932446841
  0.6821285932446841  0.7079415811670060  0.5258129879220448
  0.1821285932448333  0.7079415811672831  0.6821285932448333
  0.5258129879218956  0.7079415811667147  0.0258129879218956
  0.9741870120779552  0.2920584188329940  0.8178714067553159
  0.3178714067553159  0.2920584188329940  0.4741870120779552
  0.8178714067551667  0.2920584188327169  0.3178714067551667
  0.4741870120781044  0.2920584188332853  0.9741870120781044
  0.2500000000000000  0.5000000000000000  0.2500000000000000
  0.7500000000000000  0.5000000000000000  0.7500000000000000
  0.3779248434587146  0.0000000000000000  0.1220751565412854
  0.6220751565412854  0.0000000000000000  0.8779248434587146
  0.1220751565416123  0.0000000000006537  0.6220751565416123
  0.8779248434583877  0.9999999999993463  0.3779248434583877

  0.00000000E+00  0.00000000E+00  0.00000000E+00
  0.00000000E+00  0.00000000E+00  0.00000000E+00
  0.00000000E+00  0.00000000E+00  0.00000000E+00
  0.00000000E+00  0.00000000E+00  0.00000000E+00
  0.00000000E+00  0.00000000E+00  0.00000000E+00
  0.00000000E+00  0.00000000E+00  0.00000000E+00
  0.00000000E+00  0.00000000E+00  0.00000000E+00
  0.00000000E+00  0.00000000E+00  0.00000000E+00
  0.00000000E+00  0.00000000E+00  0.00000000E+00
  0.00000000E+00  0.00000000E+00  0.00000000E+00
  0.00000000E+00  0.00000000E+00  0.00000000E+00
  0.00000000E+00  0.00000000E+00  0.00000000E+00
  0.00000000E+00  0.00000000E+00  0.00000000E+00
  0.00000000E+00  0.00000000E+00  0.00000000E+00
  0.00000000E+00  0.00000000E+00  0.00000000E+00
  0.00000000E+00  0.00000000E+00  0.00000000E+00
