Mg6 Al4 Cl24                            
   1.00000000000000     
    12.5805920346568190   -0.2488380772085660    0.0000000000000000
    -0.2200669873893954   13.0078076319962754    0.0000000000000000
     0.0000000000000000    0.0000000000000000    6.6540502202347920
   Cl   Al   Mg
    24     4     6
Direct
  0.7201458513907610  0.0221810785837491  0.0000000000000000
  0.1350273544791065  0.3856529361708709  0.0000000000000000
  0.8318998184236150  0.4910501128137383  0.0000000000000000
  0.4725207963475597  0.7929586548969354  0.0000000000000000
  0.4526072506748093  0.0521226513597668  0.2548220593714916
  0.0148566888820980  0.6984996269683350  0.2570740981479034
  0.1777246390756915  0.1663165592243203  0.2350490290519218
  0.8911160927226547  0.2062742026694693  0.2394547208566635
  0.3823897724643146  0.3255210835185594  0.2362316263370374
  0.6449942538797870  0.2573293714675131  0.2370293228164826
  0.2804397489715313  0.6289103176140358  0.2442836900221437
  0.5868097137538726  0.5199159318978559  0.2349966402988741
  0.2377757117531445  0.8684494573843651  0.2481983437834643
  0.7405501897077187  0.7192590945232524  0.2408504075486420
  0.1777246390756915  0.1663165592243203  0.7649509709480782
  0.8911160927226547  0.2062742026694693  0.7605452791433365
  0.3823897724643146  0.3255210835185594  0.7637683736629555
  0.6449942538797870  0.2573293714675131  0.7629706771835174
  0.2804397489715313  0.6289103176140358  0.7557163099778563
  0.5868097137538726  0.5199159318978559  0.7650033597011259
  0.2377757117531445  0.8684494573843651  0.7518016562165357
  0.7405501897077187  0.7192590945232524  0.7591495924513580
  0.4526072506748093  0.0521226513597668  0.7451779406285155
  0.0148566888820980  0.6984996269683350  0.7429259018520966
  0.2618334376789022  0.2705937524921040  0.0000000000000000
  0.7636002462518974  0.1801081986452502  0.0000000000000000
  0.3098373304048962  0.7453262136077328  0.0000000000000000
  0.7021948326123635  0.5942957412720773  0.0000000000000000
  0.0349222969533045  0.2181056536248178  0.0000000000000000
  0.5295713225430703  0.3864659546431781  0.0000000000000000
  0.5321905801313562  0.1628194417383568  0.5000000000000000
  0.1580271759893961  0.7132552998506725  0.5000000000000000
  0.8761443702744103  0.6942886388256682  0.5000000000000000
  0.3531564627481032  0.9573017295799247  0.5000000000000000
 
  0.00000000E+00  0.00000000E+00  0.00000000E+00
  0.00000000E+00  0.00000000E+00  0.00000000E+00
  0.00000000E+00  0.00000000E+00  0.00000000E+00
  0.00000000E+00  0.00000000E+00  0.00000000E+00
  0.00000000E+00  0.00000000E+00  0.00000000E+00
  0.00000000E+00  0.00000000E+00  0.00000000E+00
  0.00000000E+00  0.00000000E+00  0.00000000E+00
  0.00000000E+00  0.00000000E+00  0.00000000E+00
  0.00000000E+00  0.00000000E+00  0.00000000E+00
  0.00000000E+00  0.00000000E+00  0.00000000E+00
  0.00000000E+00  0.00000000E+00  0.00000000E+00
  0.00000000E+00  0.00000000E+00  0.00000000E+00
  0.00000000E+00  0.00000000E+00  0.00000000E+00
  0.00000000E+00  0.00000000E+00  0.00000000E+00
  0.00000000E+00  0.00000000E+00  0.00000000E+00
  0.00000000E+00  0.00000000E+00  0.00000000E+00
  0.00000000E+00  0.00000000E+00  0.00000000E+00
  0.00000000E+00  0.00000000E+00  0.00000000E+00
  0.00000000E+00  0.00000000E+00  0.00000000E+00
  0.00000000E+00  0.00000000E+00  0.00000000E+00
  0.00000000E+00  0.00000000E+00  0.00000000E+00
  0.00000000E+00  0.00000000E+00  0.00000000E+00
  0.00000000E+00  0.00000000E+00  0.00000000E+00
  0.00000000E+00  0.00000000E+00  0.00000000E+00
  0.00000000E+00  0.00000000E+00  0.00000000E+00
  0.00000000E+00  0.00000000E+00  0.00000000E+00
  0.00000000E+00  0.00000000E+00  0.00000000E+00
  0.00000000E+00  0.00000000E+00  0.00000000E+00
  0.00000000E+00  0.00000000E+00  0.00000000E+00
  0.00000000E+00  0.00000000E+00  0.00000000E+00
  0.00000000E+00  0.00000000E+00  0.00000000E+00
  0.00000000E+00  0.00000000E+00  0.00000000E+00
  0.00000000E+00  0.00000000E+00  0.00000000E+00
  0.00000000E+00  0.00000000E+00  0.00000000E+00
