B8 I14                                  
   1.00000000000000     
     4.3454425578114098   -9.9164319833323429   -0.0473531208175409
    -4.3454425578114106   -9.9164319833323447   -0.0473531208175409
     0.0000000000000007    7.2198334752470110  -15.7802798399445425
   I    B 
    14     8
Direct
  0.3078969192357022  0.3078969192357022  0.0745094286180645
  0.8487148870588612  0.4260698610063542  0.1242033706913404
  0.4260698610063542  0.8487148870588612  0.1242033706913404
  0.9538773164184278  0.9538773164184278  0.1452836709628187
  0.6719330942194546  0.1277949654297572  0.3651196958647986
  0.1277949654297572  0.6719330942194546  0.3651196958647986
  0.5938011404912160  0.5938011404912160  0.3354971253167776
  0.4059268119055801  0.4059268119055801  0.6074585271149004
  0.9070252390484512  0.3311741256918310  0.6243957902813335
  0.3311741256918310  0.9070252390484512  0.6243957902813335
  0.1293787810546476  0.1293787810546476  0.8132272728283354
  0.5943338655641952  0.1633902980766635  0.9390537037624256
  0.1633902980766635  0.5943338655641952  0.9390537037624256
  0.6319050197622929  0.6319050197622929  0.9373015986078599
  0.9349009444817327  0.9349009444817327  0.0126069343782120
  0.6361327168277526  0.6361327168277526  0.0612692316565173
  0.5378550716099824  0.5378550716099824  0.4122046156294061
  0.1249900572420799  0.1249900572420799  0.6881817253233109
  0.4934866051547289  0.4934866051547289  0.4648549646827647
  0.8707156268667759  0.8707156268667759  0.3334360451047758
  0.4580126432851657  0.4580126432851657  0.5268484747495350
  0.3514840095683169  0.3514840095683169  0.9814752638269155
 
  0.00000000E+00  0.00000000E+00  0.00000000E+00
  0.00000000E+00  0.00000000E+00  0.00000000E+00
  0.00000000E+00  0.00000000E+00  0.00000000E+00
  0.00000000E+00  0.00000000E+00  0.00000000E+00
  0.00000000E+00  0.00000000E+00  0.00000000E+00
  0.00000000E+00  0.00000000E+00  0.00000000E+00
  0.00000000E+00  0.00000000E+00  0.00000000E+00
  0.00000000E+00  0.00000000E+00  0.00000000E+00
  0.00000000E+00  0.00000000E+00  0.00000000E+00
  0.00000000E+00  0.00000000E+00  0.00000000E+00
  0.00000000E+00  0.00000000E+00  0.00000000E+00
  0.00000000E+00  0.00000000E+00  0.00000000E+00
  0.00000000E+00  0.00000000E+00  0.00000000E+00
  0.00000000E+00  0.00000000E+00  0.00000000E+00
  0.00000000E+00  0.00000000E+00  0.00000000E+00
  0.00000000E+00  0.00000000E+00  0.00000000E+00
  0.00000000E+00  0.00000000E+00  0.00000000E+00
  0.00000000E+00  0.00000000E+00  0.00000000E+00
  0.00000000E+00  0.00000000E+00  0.00000000E+00
  0.00000000E+00  0.00000000E+00  0.00000000E+00
  0.00000000E+00  0.00000000E+00  0.00000000E+00
  0.00000000E+00  0.00000000E+00  0.00000000E+00
