Ca2 Al2 F10                             
   1.00000000000000     
     5.0166533230389261    0.0198633452831120    1.8381673331255319
     1.1187407422865507    4.8903599274223009    1.8381673277858150
     0.0116273875744696    0.0093069649286881    7.2944291767368421
   Ca   Al   F 
     2     2    10
Direct
  0.4535157773633571  0.5464842226361029  0.2499999999995950
  0.5464842226366429  0.4535157773638971  0.7500000000004050
  0.0000000000000000  0.0000000000000000  0.5000000000000000
  0.0000000000000000  0.0000000000000000  0.0000000000000000
  0.8150739654474322  0.7402945556624871  0.6188516798517085
  0.2597054443448314  0.1849250345452589  0.8811483201470764
  0.1849250345525704  0.2597054443375129  0.3811493201482961
  0.7402945556551686  0.8150739654547436  0.1188516798529236
  0.9370404920508335  0.0629595079499623  0.7500000000004263
  0.0629595079491665  0.9370404920500377  0.2499999999995737
  0.7416392093156787  0.3124413620427404  0.0227853175111932
  0.6875586379512555  0.2583607906817988  0.4772146824945693
  0.2583607906843213  0.6875586379572596  0.9772146824888068
  0.3124413620487445  0.7416392093182012  0.5227853175054307
 
  0.00000000E+00  0.00000000E+00  0.00000000E+00
  0.00000000E+00  0.00000000E+00  0.00000000E+00
  0.00000000E+00  0.00000000E+00  0.00000000E+00
  0.00000000E+00  0.00000000E+00  0.00000000E+00
  0.00000000E+00  0.00000000E+00  0.00000000E+00
  0.00000000E+00  0.00000000E+00  0.00000000E+00
  0.00000000E+00  0.00000000E+00  0.00000000E+00
  0.00000000E+00  0.00000000E+00  0.00000000E+00
  0.00000000E+00  0.00000000E+00  0.00000000E+00
  0.00000000E+00  0.00000000E+00  0.00000000E+00
  0.00000000E+00  0.00000000E+00  0.00000000E+00
  0.00000000E+00  0.00000000E+00  0.00000000E+00
  0.00000000E+00  0.00000000E+00  0.00000000E+00
  0.00000000E+00  0.00000000E+00  0.00000000E+00
