Mg4 Ga8 Br32                            
   1.00000000000000     
    -6.1841881676953792    6.1841881676953792   10.3552647322343319
     6.1841881676953792   -6.1841881676953792   10.3552647322343319
     6.1841881676953792    6.1841881676953792  -10.3552647322343319
   Mg   Ga   Br
     4     8    32
Direct
  0.0000000000000000  0.0000000000000000  0.0000000000000000
  0.7500000000000000  0.2500000000000000  0.5000000000000000
  0.2500000000000000  0.7500000000000000  0.5000000000000000
  0.5000000000000000  0.5000000000000000  0.0000000000000000
  0.5828352815230460  0.8750000000000000  0.2078352815230460
  0.1250000000000000  0.8328352815230460  0.2078352815230460
  0.1250000000000000  0.3328352815230460  0.7078352815230460
  0.6671647184769540  0.3750000000000000  0.7921647184769540
  0.6250000000000000  0.9171647184769540  0.7921647184769540
  0.0828352815230460  0.8750000000000000  0.7078352815230460
  0.1671647184769540  0.3750000000000000  0.2921647184769540
  0.6250000000000000  0.4171647184769540  0.2921647184769540
  0.5976742942490532  0.2119063757082600  0.2346283367036293
  0.1130459575454168  0.8476742942490532  0.8857679185407932
  0.7727219609953764  0.8869540424545832  0.7346283367036293
  0.2873575655934886  0.2451624707454485  0.2305984064731703
  0.7873575655934886  0.5567591591203112  0.0421960948480375
  0.8067591591203112  0.5373575655934886  0.5421960948480375
  0.1523257057509539  0.0380936242917400  0.2653716632963707
  0.9619063757082600  0.2272780390046236  0.1142320814592068
  0.4772780390046236  0.7119063757082600  0.6142320814592068
  0.2548375292545515  0.2126424344065114  0.7694015935268297
  0.0145630642722736  0.0567591591203112  0.7694015935268297
  0.9626424344065114  0.6932408408796888  0.4578039051519625
  0.9432408408796888  0.7126424344065114  0.9578039051519625
  0.1369540424545832  0.5227219609953764  0.2346283367036293
  0.2727219609953764  0.5380936242917400  0.8857679185407932
  0.6130459575454168  0.7272780390046236  0.2653716632963707
  0.7354369357277264  0.1932408408796888  0.7305984064731703
  0.2880936242917400  0.9023257057509468  0.7653716632963707
  0.4619063757082600  0.3476742942490461  0.7346283367036293
  0.9772780390046236  0.3630459575454168  0.7653716632963707
  0.3067591591203112  0.7645630642722736  0.2694015935268297
  0.4432408408796888  0.4854369357277264  0.2305984064731703
  0.6369540424545832  0.4023257057509539  0.6142320814592068
  0.6523257057509468  0.3869540424545832  0.1142320814592068
  0.2354369357277264  0.5048375292545515  0.5421960948480375
  0.4626424344065114  0.0048375292545515  0.2694015935268297
  0.0976742942490532  0.8630459575454168  0.3857679185407932
  0.4951624707454485  0.0373575655934886  0.7305984064731703
  0.5145630642722736  0.7451624707454485  0.9578039051519625
  0.9951624707454485  0.2645630642722736  0.4578039051519625
  0.7880936242917400  0.0227219609953764  0.3857679185407932
  0.7548375292545515  0.9854369357277264  0.0421960948480375
 
  0.00000000E+00  0.00000000E+00  0.00000000E+00
  0.00000000E+00  0.00000000E+00  0.00000000E+00
  0.00000000E+00  0.00000000E+00  0.00000000E+00
  0.00000000E+00  0.00000000E+00  0.00000000E+00
  0.00000000E+00  0.00000000E+00  0.00000000E+00
  0.00000000E+00  0.00000000E+00  0.00000000E+00
  0.00000000E+00  0.00000000E+00  0.00000000E+00
  0.00000000E+00  0.00000000E+00  0.00000000E+00
  0.00000000E+00  0.00000000E+00  0.00000000E+00
  0.00000000E+00  0.00000000E+00  0.00000000E+00
  0.00000000E+00  0.00000000E+00  0.00000000E+00
  0.00000000E+00  0.00000000E+00  0.00000000E+00
  0.00000000E+00  0.00000000E+00  0.00000000E+00
  0.00000000E+00  0.00000000E+00  0.00000000E+00
  0.00000000E+00  0.00000000E+00  0.00000000E+00
  0.00000000E+00  0.00000000E+00  0.00000000E+00
  0.00000000E+00  0.00000000E+00  0.00000000E+00
  0.00000000E+00  0.00000000E+00  0.00000000E+00
  0.00000000E+00  0.00000000E+00  0.00000000E+00
  0.00000000E+00  0.00000000E+00  0.00000000E+00
  0.00000000E+00  0.00000000E+00  0.00000000E+00
  0.00000000E+00  0.00000000E+00  0.00000000E+00
  0.00000000E+00  0.00000000E+00  0.00000000E+00
  0.00000000E+00  0.00000000E+00  0.00000000E+00
  0.00000000E+00  0.00000000E+00  0.00000000E+00
  0.00000000E+00  0.00000000E+00  0.00000000E+00
  0.00000000E+00  0.00000000E+00  0.00000000E+00
  0.00000000E+00  0.00000000E+00  0.00000000E+00
  0.00000000E+00  0.00000000E+00  0.00000000E+00
  0.00000000E+00  0.00000000E+00  0.00000000E+00
  0.00000000E+00  0.00000000E+00  0.00000000E+00
  0.00000000E+00  0.00000000E+00  0.00000000E+00
  0.00000000E+00  0.00000000E+00  0.00000000E+00
  0.00000000E+00  0.00000000E+00  0.00000000E+00
  0.00000000E+00  0.00000000E+00  0.00000000E+00
  0.00000000E+00  0.00000000E+00  0.00000000E+00
  0.00000000E+00  0.00000000E+00  0.00000000E+00
  0.00000000E+00  0.00000000E+00  0.00000000E+00
  0.00000000E+00  0.00000000E+00  0.00000000E+00
  0.00000000E+00  0.00000000E+00  0.00000000E+00
  0.00000000E+00  0.00000000E+00  0.00000000E+00
  0.00000000E+00  0.00000000E+00  0.00000000E+00
  0.00000000E+00  0.00000000E+00  0.00000000E+00
  0.00000000E+00  0.00000000E+00  0.00000000E+00
