Ca3 Al11                                
   1.00000000000000     
     4.4004232245554595    0.0000000000000000    0.0000000000000000
    -2.2002116122777298   -5.0946152910252431    6.3930021355108559
    -2.2002116122777298   -5.0946152910252431   -6.3930021355108559
   Al   Ca
    11     3
Direct
  0.3705461929906662  0.7113906771044185  0.0297017088769209
  0.2771114560735839  0.4165708776462864  0.1376520345008672
  0.6294538070093338  0.9702982911230791  0.2886093228955815
  0.7996757582581395  0.2996757582581395  0.2996757582581395
  0.2771114560735839  0.1376520345008672  0.4165708776462864
  0.5000000000000000  0.5000000000000000  0.5000000000000000
  0.7228885439264161  0.8623479654991328  0.5834291223537136
  0.2003242417418605  0.7003242417418605  0.7003242417418605
  0.3705461929906662  0.0297017088769209  0.7113906771044185
  0.7228885439264161  0.5834291223537136  0.8623479654991328
  0.6294538070093338  0.2886093228955815  0.9702982911230791
  0.0000000000000000  0.0000000000000000  0.0000000000000000
  0.0000000000000000  0.6919404703819652  0.3080595296180348
  0.0000000000000000  0.3080595296180348  0.6919404703819652
 
  0.00000000E+00  0.00000000E+00  0.00000000E+00
  0.00000000E+00  0.00000000E+00  0.00000000E+00
  0.00000000E+00  0.00000000E+00  0.00000000E+00
  0.00000000E+00  0.00000000E+00  0.00000000E+00
  0.00000000E+00  0.00000000E+00  0.00000000E+00
  0.00000000E+00  0.00000000E+00  0.00000000E+00
  0.00000000E+00  0.00000000E+00  0.00000000E+00
  0.00000000E+00  0.00000000E+00  0.00000000E+00
  0.00000000E+00  0.00000000E+00  0.00000000E+00
  0.00000000E+00  0.00000000E+00  0.00000000E+00
  0.00000000E+00  0.00000000E+00  0.00000000E+00
  0.00000000E+00  0.00000000E+00  0.00000000E+00
  0.00000000E+00  0.00000000E+00  0.00000000E+00
  0.00000000E+00  0.00000000E+00  0.00000000E+00
