Ga3Cl2                                  
   1.00000000000000     
    -4.9838533494049955    1.4317468479237008    0.4727751607575312
     3.4253699014137542   -6.4442282748411293    0.0376595038403610
    -3.8442108316084425    2.0788494158329156    9.3936218489143446
   Cl   Ga
     4     6
Direct
  0.5512880447279898  0.2422753889852487  0.9355895912572052
  0.4486860060745030  0.7577035656467501  0.0643778808892961
  0.0666523894162552  0.7566756358410984  0.4450460409607402
  0.9334076853917566  0.2433559961572342  0.5549412111458736
  0.1445553184739978  0.2042767660275828  0.2624885080531811
  0.5825796890609496  0.1314952354160894  0.2494519583154755
  0.5981074086339362  0.7006948513029343  0.2502840822162113
  0.4018388213109247  0.2992917616765141  0.7496887500675271
  0.4174616729633485  0.8685238458830824  0.7505182765739562
  0.8554229639463102  0.7957069530634584  0.7375137005205161
 
  0.00000000E+00  0.00000000E+00  0.00000000E+00
  0.00000000E+00  0.00000000E+00  0.00000000E+00
  0.00000000E+00  0.00000000E+00  0.00000000E+00
  0.00000000E+00  0.00000000E+00  0.00000000E+00
  0.00000000E+00  0.00000000E+00  0.00000000E+00
  0.00000000E+00  0.00000000E+00  0.00000000E+00
  0.00000000E+00  0.00000000E+00  0.00000000E+00
  0.00000000E+00  0.00000000E+00  0.00000000E+00
  0.00000000E+00  0.00000000E+00  0.00000000E+00
  0.00000000E+00  0.00000000E+00  0.00000000E+00
