Ba3 In33                                
   1.0000000000000000     
    10.1881612396271510    0.0000000000000000   -0.0000000000000000
     0.0000000000000000   10.1881612396271510   -0.0000000000000000
    -0.0000000000000000    0.0000000000000000   10.1881612396271510
   Ba   In
     3    33
Direct
  0.5000000000000000  0.0000000000000000  0.0000000000000000
  0.0000000000000000  0.5000000000000000  0.0000000000000000
  0.0000000000000000  0.0000000000000000  0.5000000000000000
  0.3457303974493797  0.3457303974493797  0.0000000000000000
  0.6542696025506203  0.3457303974493797  0.0000000000000000
  0.3457303974493797  0.6542696025506203  0.0000000000000000
  0.6542696025506203  0.6542696025506203  0.0000000000000000
  0.1583392580201632  0.1583392580201632  0.1583392580201632
  0.8416607419798368  0.1583392580201632  0.1583392580201632
  0.1583392580201632  0.8416607419798368  0.1583392580201632
  0.8416607419798368  0.8416607419798368  0.1583392580201632
  0.5000000000000000  0.2689134000959967  0.2689134000959967
  0.2689134000959967  0.5000000000000000  0.2689134000959967
  0.7310865999040033  0.5000000000000000  0.2689134000959967
  0.5000000000000000  0.7310865999040033  0.2689134000959967
  0.3457303974493797  0.0000000000000000  0.3457303974493797
  0.6542696025506203  0.0000000000000000  0.3457303974493797
  0.0000000000000000  0.3457303974493797  0.3457303974493797
  0.0000000000000000  0.6542696025506203  0.3457303974493797
  0.2689134000959967  0.2689134000959967  0.5000000000000000
  0.7310865999040033  0.2689134000959967  0.5000000000000000
  0.5000000000000000  0.5000000000000000  0.5000000000000000
  0.2689134000959967  0.7310865999040033  0.5000000000000000
  0.7310865999040033  0.7310865999040033  0.5000000000000000
  0.3457303974493797  0.0000000000000000  0.6542696025506203
  0.6542696025506203  0.0000000000000000  0.6542696025506203
  0.0000000000000000  0.3457303974493797  0.6542696025506203
  0.0000000000000000  0.6542696025506203  0.6542696025506203
  0.5000000000000000  0.2689134000959967  0.7310865999040033
  0.2689134000959967  0.5000000000000000  0.7310865999040033
  0.7310865999040033  0.5000000000000000  0.7310865999040033
  0.5000000000000000  0.7310865999040033  0.7310865999040033
  0.1583392580201632  0.1583392580201632  0.8416607419798368
  0.8416607419798368  0.1583392580201632  0.8416607419798368
  0.1583392580201632  0.8416607419798368  0.8416607419798368
  0.8416607419798368  0.8416607419798368  0.8416607419798368

  0.00000000E+00  0.00000000E+00  0.00000000E+00
  0.00000000E+00  0.00000000E+00  0.00000000E+00
  0.00000000E+00  0.00000000E+00  0.00000000E+00
  0.00000000E+00  0.00000000E+00  0.00000000E+00
  0.00000000E+00  0.00000000E+00  0.00000000E+00
  0.00000000E+00  0.00000000E+00  0.00000000E+00
  0.00000000E+00  0.00000000E+00  0.00000000E+00
  0.00000000E+00  0.00000000E+00  0.00000000E+00
  0.00000000E+00  0.00000000E+00  0.00000000E+00
  0.00000000E+00  0.00000000E+00  0.00000000E+00
  0.00000000E+00  0.00000000E+00  0.00000000E+00
  0.00000000E+00  0.00000000E+00  0.00000000E+00
  0.00000000E+00  0.00000000E+00  0.00000000E+00
  0.00000000E+00  0.00000000E+00  0.00000000E+00
  0.00000000E+00  0.00000000E+00  0.00000000E+00
  0.00000000E+00  0.00000000E+00  0.00000000E+00
  0.00000000E+00  0.00000000E+00  0.00000000E+00
  0.00000000E+00  0.00000000E+00  0.00000000E+00
  0.00000000E+00  0.00000000E+00  0.00000000E+00
  0.00000000E+00  0.00000000E+00  0.00000000E+00
  0.00000000E+00  0.00000000E+00  0.00000000E+00
  0.00000000E+00  0.00000000E+00  0.00000000E+00
  0.00000000E+00  0.00000000E+00  0.00000000E+00
  0.00000000E+00  0.00000000E+00  0.00000000E+00
  0.00000000E+00  0.00000000E+00  0.00000000E+00
  0.00000000E+00  0.00000000E+00  0.00000000E+00
  0.00000000E+00  0.00000000E+00  0.00000000E+00
  0.00000000E+00  0.00000000E+00  0.00000000E+00
  0.00000000E+00  0.00000000E+00  0.00000000E+00
  0.00000000E+00  0.00000000E+00  0.00000000E+00
  0.00000000E+00  0.00000000E+00  0.00000000E+00
  0.00000000E+00  0.00000000E+00  0.00000000E+00
  0.00000000E+00  0.00000000E+00  0.00000000E+00
  0.00000000E+00  0.00000000E+00  0.00000000E+00
  0.00000000E+00  0.00000000E+00  0.00000000E+00
  0.00000000E+00  0.00000000E+00  0.00000000E+00
