I1                                      
   1.00000000000000     
     3.4029247667745466   -0.0000000064108317   -1.2031165404438238
    -1.7014638912932782    2.9470199968546265   -1.2031165404222581
     0.0000000018767179   -0.0000000066966079    3.6093476219477951
   I 
     1
Direct
  0.0000000000000000  0.0000000000000000  0.0000000000000000
 
  0.00000000E+00  0.00000000E+00  0.00000000E+00
