Be1 Ga2 Br6                             
   1.00000000000000     
     3.6872144852657351    0.4853945093730896    7.1774108459623607
    -3.6872144852657387    0.4853945093730916    7.1774108459623616
    -0.0000000000000018   -6.4308318165489364    8.5327470829737759
   Be   Br   Ga
     1     6     2
Direct
  0.0000000000000000  0.0000000000000000  0.0000000000000000
  0.7854499324383966  0.7854499324383966  0.1851981290767313
  0.7119586710427654  0.2002435735573087  0.2786554467079654
  0.2002435735573087  0.7119586710427654  0.2786554467079654
  0.2145500675616105  0.2145500675616105  0.8148018709232616
  0.7997564264426913  0.2880413289572346  0.7213445532920346
  0.2880413289572346  0.7997564264426913  0.7213445532920346
  0.2571757441873288  0.2571757441873288  0.5139653802271624
  0.7428242558126712  0.7428242558126712  0.4860346197728447
 
  0.00000000E+00  0.00000000E+00  0.00000000E+00
  0.00000000E+00  0.00000000E+00  0.00000000E+00
  0.00000000E+00  0.00000000E+00  0.00000000E+00
  0.00000000E+00  0.00000000E+00  0.00000000E+00
  0.00000000E+00  0.00000000E+00  0.00000000E+00
  0.00000000E+00  0.00000000E+00  0.00000000E+00
  0.00000000E+00  0.00000000E+00  0.00000000E+00
  0.00000000E+00  0.00000000E+00  0.00000000E+00
  0.00000000E+00  0.00000000E+00  0.00000000E+00
