Mg15 B1                                 
   1.00000000000000     
     3.1213587463348551   -5.4063521689399474    0.0000000000000000
     3.1213587463348551    5.4063521689399474    0.0000000000000000
     0.0000000000000000    0.0000000000000000   10.0701735333392506
   Mg   B 
    15     1
Direct
  0.0000000000000000  0.0000000000000000  0.5000000000000000
  0.9926567450275314  0.4963283725136804  0.0000000000000000
  0.0041934338216834  0.5020972169107267  0.5000000000000000
  0.5036716274861632  0.4963283725138368  0.0000000000000000
  0.4979027830890388  0.5020972169109612  0.5000000000000000
  0.5036716274863196  0.0073432549724757  0.0000000000000000
  0.4979027830892733  0.9958065661783166  0.5000000000000000
  0.1610213955568582  0.3220427911135246  0.7683580650579813
  0.1610213955568582  0.3220427911135246  0.2316419349420187
  0.1610213955566664  0.8389786044433336  0.7683580650579813
  0.1610213955566664  0.8389786044433336  0.2316419349420187
  0.6779572088864754  0.8389786044431418  0.7683580650579813
  0.6779572088864754  0.8389786044431418  0.2316419349420187
  0.6666669999999968  0.3333330000000032  0.7484839023688750
  0.6666669999999968  0.3333330000000032  0.2515160976311250
  0.0000000000000000  0.0000000000000000  0.0000000000000000
 
  0.00000000E+00  0.00000000E+00  0.00000000E+00
  0.00000000E+00  0.00000000E+00  0.00000000E+00
  0.00000000E+00  0.00000000E+00  0.00000000E+00
  0.00000000E+00  0.00000000E+00  0.00000000E+00
  0.00000000E+00  0.00000000E+00  0.00000000E+00
  0.00000000E+00  0.00000000E+00  0.00000000E+00
  0.00000000E+00  0.00000000E+00  0.00000000E+00
  0.00000000E+00  0.00000000E+00  0.00000000E+00
  0.00000000E+00  0.00000000E+00  0.00000000E+00
  0.00000000E+00  0.00000000E+00  0.00000000E+00
  0.00000000E+00  0.00000000E+00  0.00000000E+00
  0.00000000E+00  0.00000000E+00  0.00000000E+00
  0.00000000E+00  0.00000000E+00  0.00000000E+00
  0.00000000E+00  0.00000000E+00  0.00000000E+00
  0.00000000E+00  0.00000000E+00  0.00000000E+00
  0.00000000E+00  0.00000000E+00  0.00000000E+00
