Be4 Tl4 I20                             
   1.0000000000000000     
    16.9172105741857415    0.0000000000000000    0.0000000000000000
     0.0000000000000000    7.3512854764955158   -2.4309448640495663
     0.0000000000000000   -0.5342445554914705   12.0051914332147938
   Be   Tl   I 
     4     4    20
Direct
  0.8838131421525190  0.3237750765337637  0.2208227396050617
  0.3838131421525190  0.6762249234662363  0.2791772603949383
  0.1161868578474810  0.6762249234662363  0.7791772603949383
  0.6161868578474810  0.3237750765337637  0.7208227396050617
  0.8083310048042378  0.1676781691555220  0.7514093145067307
  0.3083310048042378  0.8323218308444780  0.7485906854932693
  0.1916689951957622  0.8323218308444780  0.2485906854932693
  0.6916689951957622  0.1676781691555220  0.2514093145067307
  0.3356515558467592  0.8978363463138450  0.4628505183794829
  0.8356515558467663  0.1021636536861550  0.0371494816205171
  0.6643484441532337  0.1021636536861550  0.5371494816205242
  0.1643484441532408  0.8978363463138450  0.9628505183794758
  0.9060767454677432  0.1031815076181530  0.3276497029333001
  0.4060767454677503  0.8968184923818541  0.1723502970666999
  0.0939232545322568  0.8968184923818541  0.6723502970666999
  0.5939232545322568  0.1031815076181530  0.8276497029333001
  0.7069877335800214  0.5552344084158776  0.8272557760293324
  0.2069877335800214  0.4447655915841224  0.6727442239706676
  0.2930122664199786  0.4447655915841224  0.1727442239706676
  0.7930122664199786  0.5552344084158776  0.3272557760293324
  0.4904008684055157  0.4401812303829473  0.6769919406676763
  0.9904008684055086  0.5598187696170598  0.8230080593323237
  0.5095991315944914  0.5598187696170598  0.3230080593323237
  0.0095991315944843  0.4401812303829473  0.1769919406676763
  0.5553874456876287  0.3258110237118146  0.0757105919179395
  0.0553874456876287  0.6741889762881854  0.4242894080820605
  0.4446125543123713  0.6741889762881854  0.9242894080820605
  0.9446125543123713  0.3258110237118146  0.5757105919179395

  0.00000000E+00  0.00000000E+00  0.00000000E+00
  0.00000000E+00  0.00000000E+00  0.00000000E+00
  0.00000000E+00  0.00000000E+00  0.00000000E+00
  0.00000000E+00  0.00000000E+00  0.00000000E+00
  0.00000000E+00  0.00000000E+00  0.00000000E+00
  0.00000000E+00  0.00000000E+00  0.00000000E+00
  0.00000000E+00  0.00000000E+00  0.00000000E+00
  0.00000000E+00  0.00000000E+00  0.00000000E+00
  0.00000000E+00  0.00000000E+00  0.00000000E+00
  0.00000000E+00  0.00000000E+00  0.00000000E+00
  0.00000000E+00  0.00000000E+00  0.00000000E+00
  0.00000000E+00  0.00000000E+00  0.00000000E+00
  0.00000000E+00  0.00000000E+00  0.00000000E+00
  0.00000000E+00  0.00000000E+00  0.00000000E+00
  0.00000000E+00  0.00000000E+00  0.00000000E+00
  0.00000000E+00  0.00000000E+00  0.00000000E+00
  0.00000000E+00  0.00000000E+00  0.00000000E+00
  0.00000000E+00  0.00000000E+00  0.00000000E+00
  0.00000000E+00  0.00000000E+00  0.00000000E+00
  0.00000000E+00  0.00000000E+00  0.00000000E+00
  0.00000000E+00  0.00000000E+00  0.00000000E+00
  0.00000000E+00  0.00000000E+00  0.00000000E+00
  0.00000000E+00  0.00000000E+00  0.00000000E+00
  0.00000000E+00  0.00000000E+00  0.00000000E+00
  0.00000000E+00  0.00000000E+00  0.00000000E+00
  0.00000000E+00  0.00000000E+00  0.00000000E+00
  0.00000000E+00  0.00000000E+00  0.00000000E+00
  0.00000000E+00  0.00000000E+00  0.00000000E+00
