Mg2 B7                                  
   1.00000000000000     
     5.1600897483214494   -0.6865051271762586    0.4501704946527265
    -3.1757360180181293    4.3412807931270621   -0.1831487888075617
     0.5581061869758681   -0.0286386104754970    4.2265499495741006
   B    Mg
     7     2
Direct
  0.2715005959016707  0.3628213496317230  0.1189501305003162
  0.0654981918978734  0.9119514101563908  0.1166072974557153
  0.5974316989130770  0.7823643089262333  0.2071188421490362
  0.0000000000000000  0.0000000000000000  0.5000000000000000
  0.4025683010869230  0.2176356910737667  0.7928811578509638
  0.9345018081021266  0.0880485898436092  0.8833927025442847
  0.7284994040983293  0.6371786503682770  0.8810498694996838
  0.6861868785125580  0.2876611730040963  0.2701909655419428
  0.3138131214874420  0.7123388269959037  0.7298090344580572
 
  0.00000000E+00  0.00000000E+00  0.00000000E+00
  0.00000000E+00  0.00000000E+00  0.00000000E+00
  0.00000000E+00  0.00000000E+00  0.00000000E+00
  0.00000000E+00  0.00000000E+00  0.00000000E+00
  0.00000000E+00  0.00000000E+00  0.00000000E+00
  0.00000000E+00  0.00000000E+00  0.00000000E+00
  0.00000000E+00  0.00000000E+00  0.00000000E+00
  0.00000000E+00  0.00000000E+00  0.00000000E+00
  0.00000000E+00  0.00000000E+00  0.00000000E+00
