Mg9 B4                                  
   1.00000000000000     
    -0.0039482025264937   -0.0211057650038610    3.2391524676164507
    -5.6346839579067387    5.6112326640694290    1.6256917511357738
    -5.6369534078672547   -5.6157803075370243   -1.6206376315699271
   Mg   B 
     9     4
Direct
  0.5000010371820238  0.9999756735294980  0.9999799876985023
  0.8745972249160445  0.2990477213807736  0.0433299168788821
  0.3788086184742454  0.5223916457194022  0.2771648276028031
  0.1705121532516358  0.9568944499977547  0.2987688659037602
  0.8987628861678729  0.7233787338001960  0.5219779566507796
  0.1012379805968848  0.2765732202236322  0.4779751222460149
  0.8294855425844432  0.0430596206005447  0.7011796728028372
  0.6211916343754211  0.4775606738836800  0.7227893946994186
  0.1254044869867030  0.7009091835733230  0.9566284598897141
  0.7340543935346133  0.7386988301352133  0.2024488915599179
  0.5321920541591112  0.2031643504957330  0.2618540218876575
  0.4678085772463376  0.7967912998500353  0.7380998050771552
  0.2659434105246987  0.2612545968102182  0.7975030771025544
 
  0.00000000E+00  0.00000000E+00  0.00000000E+00
  0.00000000E+00  0.00000000E+00  0.00000000E+00
  0.00000000E+00  0.00000000E+00  0.00000000E+00
  0.00000000E+00  0.00000000E+00  0.00000000E+00
  0.00000000E+00  0.00000000E+00  0.00000000E+00
  0.00000000E+00  0.00000000E+00  0.00000000E+00
  0.00000000E+00  0.00000000E+00  0.00000000E+00
  0.00000000E+00  0.00000000E+00  0.00000000E+00
  0.00000000E+00  0.00000000E+00  0.00000000E+00
  0.00000000E+00  0.00000000E+00  0.00000000E+00
  0.00000000E+00  0.00000000E+00  0.00000000E+00
  0.00000000E+00  0.00000000E+00  0.00000000E+00
  0.00000000E+00  0.00000000E+00  0.00000000E+00
