Ca10 Al4 Br32                           
   1.00000000000000     
     4.9921293494739745   -7.6153374143007122    0.0000000000000000
     4.9921293494739745    7.6153374143007122    0.0000000000000000
     0.0000000000000000    0.0000000000000000   18.1395064604730685
   Ca   Al   Br
    10     4    32
Direct
  0.0000000000000000  0.0000000000000000  0.7256767173826333
  0.0000000000000000  0.0000000000000000  0.2743232826173667
  0.5000000000000000  0.5000000000000000  0.7743232826173667
  0.5000000000000000  0.5000000000000000  0.2256767173826333
  0.5000000000000000  0.5000000000000000  0.5000000000000000
  0.0000000000000000  0.0000000000000000  0.0000000000000000
  0.0000000000000000  0.5000000000000000  0.6372270953125465
  0.5000000000000000  0.0000000000000000  0.3627729046874535
  0.5000000000000000  0.0000000000000000  0.8627729046874535
  0.0000000000000000  0.5000000000000000  0.1372270953125465
  0.5000000000000000  0.0000000000000000  0.6184048817272014
  0.0000000000000000  0.5000000000000000  0.3815951182727986
  0.0000000000000000  0.5000000000000000  0.8815951182727986
  0.5000000000000000  0.0000000000000000  0.1184048817272014
  0.5328975059130343  0.1933996718691873  0.7175326382420977
  0.4671024940869657  0.8066003281308127  0.7175326382420977
  0.1933996718691873  0.5328975059130343  0.2824673617579094
  0.8066003281308127  0.4671024940869657  0.2824673617579094
  0.9671024940869657  0.3066003281308127  0.7824673617579023
  0.0328975059130343  0.6933996718691873  0.7824673617579023
  0.3066003281308127  0.9671024940869657  0.2175326382420906
  0.6933996718691873  0.0328975059130343  0.2175326382420906
  0.1758305100477742  0.8778295437560431  0.6141325857747049
  0.8241694899522258  0.1221704562439569  0.6141325857747049
  0.8778295437560431  0.1758305100477742  0.3858674142252951
  0.1221704562439569  0.8241694899522258  0.3858674142252951
  0.3241694899522258  0.6221704562439569  0.8858674142252951
  0.6758305100477742  0.3778295437560431  0.8858674142252951
  0.6715723514341079  0.9792944713052165  0.0175309551110345
  0.3284276485658921  0.0207055286947835  0.0175309551110345
  0.9792944713052165  0.6715723514341079  0.9824690448889655
  0.0207055286947835  0.3284276485658921  0.9824690448889655
  0.8284276485658921  0.5207055286947835  0.4824690448889655
  0.1715723514341079  0.4792944713052165  0.4824690448889655
  0.5207055286947835  0.8284276485658921  0.5175309551110345
  0.4792944713052165  0.1715723514341079  0.5175309551110345
  0.8849288322864197  0.7733553534698174  0.1501412999174505
  0.1150711677135803  0.2266446465301826  0.1501412999174505
  0.7733553534698174  0.8849288322864197  0.8498587000825495
  0.2266446465301826  0.1150711677135803  0.8498587000825495
  0.6150711677135803  0.7266446465301826  0.3498587000825495
  0.3849288322864197  0.2733553534698174  0.3498587000825495
  0.7266446465301826  0.6150711677135803  0.6501412999174505
  0.2733553534698174  0.3849288322864197  0.6501412999174505
  0.3778295437560431  0.6758305100477742  0.1141325857747049
  0.6221704562439569  0.3241694899522258  0.1141325857747049
 
  0.00000000E+00  0.00000000E+00  0.00000000E+00
  0.00000000E+00  0.00000000E+00  0.00000000E+00
  0.00000000E+00  0.00000000E+00  0.00000000E+00
  0.00000000E+00  0.00000000E+00  0.00000000E+00
  0.00000000E+00  0.00000000E+00  0.00000000E+00
  0.00000000E+00  0.00000000E+00  0.00000000E+00
  0.00000000E+00  0.00000000E+00  0.00000000E+00
  0.00000000E+00  0.00000000E+00  0.00000000E+00
  0.00000000E+00  0.00000000E+00  0.00000000E+00
  0.00000000E+00  0.00000000E+00  0.00000000E+00
  0.00000000E+00  0.00000000E+00  0.00000000E+00
  0.00000000E+00  0.00000000E+00  0.00000000E+00
  0.00000000E+00  0.00000000E+00  0.00000000E+00
  0.00000000E+00  0.00000000E+00  0.00000000E+00
  0.00000000E+00  0.00000000E+00  0.00000000E+00
  0.00000000E+00  0.00000000E+00  0.00000000E+00
  0.00000000E+00  0.00000000E+00  0.00000000E+00
  0.00000000E+00  0.00000000E+00  0.00000000E+00
  0.00000000E+00  0.00000000E+00  0.00000000E+00
  0.00000000E+00  0.00000000E+00  0.00000000E+00
  0.00000000E+00  0.00000000E+00  0.00000000E+00
  0.00000000E+00  0.00000000E+00  0.00000000E+00
  0.00000000E+00  0.00000000E+00  0.00000000E+00
  0.00000000E+00  0.00000000E+00  0.00000000E+00
  0.00000000E+00  0.00000000E+00  0.00000000E+00
  0.00000000E+00  0.00000000E+00  0.00000000E+00
  0.00000000E+00  0.00000000E+00  0.00000000E+00
  0.00000000E+00  0.00000000E+00  0.00000000E+00
  0.00000000E+00  0.00000000E+00  0.00000000E+00
  0.00000000E+00  0.00000000E+00  0.00000000E+00
  0.00000000E+00  0.00000000E+00  0.00000000E+00
  0.00000000E+00  0.00000000E+00  0.00000000E+00
  0.00000000E+00  0.00000000E+00  0.00000000E+00
  0.00000000E+00  0.00000000E+00  0.00000000E+00
  0.00000000E+00  0.00000000E+00  0.00000000E+00
  0.00000000E+00  0.00000000E+00  0.00000000E+00
  0.00000000E+00  0.00000000E+00  0.00000000E+00
  0.00000000E+00  0.00000000E+00  0.00000000E+00
  0.00000000E+00  0.00000000E+00  0.00000000E+00
  0.00000000E+00  0.00000000E+00  0.00000000E+00
  0.00000000E+00  0.00000000E+00  0.00000000E+00
  0.00000000E+00  0.00000000E+00  0.00000000E+00
  0.00000000E+00  0.00000000E+00  0.00000000E+00
  0.00000000E+00  0.00000000E+00  0.00000000E+00
  0.00000000E+00  0.00000000E+00  0.00000000E+00
  0.00000000E+00  0.00000000E+00  0.00000000E+00
