SrAl4                                   
   1.00000000000000     
    -4.4432628259370412    0.0000000000000000    0.0000000000000000
     0.0000000000000000   -4.4432628259370412    0.0000000000000000
     2.2216314129685206    2.2216314129685206    5.6560370707856817
   Al   Sr
     4     1
Direct
  0.6162867488208192  0.6162867488208192  0.2325734976416456
  0.7500000000000000  0.2500000000000000  0.5000000000000000
  0.2500000000000000  0.7500000000000000  0.5000000000000000
  0.3837132511791808  0.3837132511791808  0.7674265023583615
  0.0000000000000000  0.0000000000000000  0.0000000000000000
 
  0.00000000E+00  0.00000000E+00  0.00000000E+00
  0.00000000E+00  0.00000000E+00  0.00000000E+00
  0.00000000E+00  0.00000000E+00  0.00000000E+00
  0.00000000E+00  0.00000000E+00  0.00000000E+00
  0.00000000E+00  0.00000000E+00  0.00000000E+00
