Ba8 B6                                  
   1.00000000000000     
     5.1710469247897697    6.6072463659819807    0.0000000000000000
   -10.0608322162019341   13.2480016162324361    0.0000000000000000
     0.0000000000000000    0.0000000000000000    3.3412736733599178
   B    Ba
     6     8
Direct
  0.2649446496949892  0.1800011670812793  0.0000000000000000
  0.2676936829163949  0.6815042025117890  0.0000000000000000
  0.7678208077586888  0.6822887066907484  0.0000000000000000
  0.2544740835150776  0.2010525137984018  0.5000000000000000
  0.7591487626571904  0.6993487581908084  0.5000000000000000
  0.2592543256508151  0.6986926796958883  0.5000000000000000
  0.4373181069651650  0.3129018763828597  0.0000000000000000
  0.9632636337521276  0.3157311863913890  0.0000000000000000
  0.4508077836582487  0.8130566810134923  0.0000000000000000
  0.9518722018852870  0.8130804159119265  0.0000000000000000
  0.0820709465839187  0.0682657236493256  0.5000000000000000
  0.5756587527619033  0.5679512121752097  0.5000000000000000
  0.0755249274937881  0.5676418632794693  0.5000000000000000
  0.5563473347064019  0.0652830132274076  0.5000000000000000
 
  0.00000000E+00  0.00000000E+00  0.00000000E+00
  0.00000000E+00  0.00000000E+00  0.00000000E+00
  0.00000000E+00  0.00000000E+00  0.00000000E+00
  0.00000000E+00  0.00000000E+00  0.00000000E+00
  0.00000000E+00  0.00000000E+00  0.00000000E+00
  0.00000000E+00  0.00000000E+00  0.00000000E+00
  0.00000000E+00  0.00000000E+00  0.00000000E+00
  0.00000000E+00  0.00000000E+00  0.00000000E+00
  0.00000000E+00  0.00000000E+00  0.00000000E+00
  0.00000000E+00  0.00000000E+00  0.00000000E+00
  0.00000000E+00  0.00000000E+00  0.00000000E+00
  0.00000000E+00  0.00000000E+00  0.00000000E+00
  0.00000000E+00  0.00000000E+00  0.00000000E+00
  0.00000000E+00  0.00000000E+00  0.00000000E+00
