Sr3 In4                                 
   1.0000000000000000     
     2.8000495907170144    1.6161213451047700    8.6950667752278807
    -2.8000495907170144    1.6161213451047700    8.6950667752278807
     0.0000000000000000   -3.2340897692529551    8.6954188544277375
   In   Sr
     4     3
Direct
  0.1696186548400433  0.1696186548400433  0.1692104561306564
  0.2970956106379603  0.2970956106379603  0.2975893055811412
  0.7076273252754248  0.7076273252754248  0.7077345162707118
  0.8357420496633239  0.8357420496633239  0.8351885852185603
  0.0022004578739043  0.0022004578739043  0.0024713404475563
  0.4309994571842424  0.4309994571842424  0.4308172695003449
  0.5737764445251088  0.5737764445251088  0.5740485268510227

  0.00000000E+00  0.00000000E+00  0.00000000E+00
  0.00000000E+00  0.00000000E+00  0.00000000E+00
  0.00000000E+00  0.00000000E+00  0.00000000E+00
  0.00000000E+00  0.00000000E+00  0.00000000E+00
  0.00000000E+00  0.00000000E+00  0.00000000E+00
  0.00000000E+00  0.00000000E+00  0.00000000E+00
  0.00000000E+00  0.00000000E+00  0.00000000E+00
