Sr40 Al4                                
   1.00000000000000     
     0.0000000000000000   10.5223908267674062   10.5223908267674062
    10.5223908267674062    0.0000000000000000   10.5223908267674062
    10.5223908267674062   10.5223908267674062    0.0000000000000000
   Sr   Al
    40     4
Direct
  0.6182616304853070  0.6182616304853070  0.8817383695146930
  0.3682616304853070  0.6317383695146930  0.6317383695146930
  0.6317383695146930  0.3682616304853070  0.3682616304853070
  0.3682616304853070  0.3682616304853070  0.6317383695146930
  0.3682616304853070  0.6317383695146930  0.3682616304853070
  0.6317383695146930  0.3682616304853070  0.6317383695146930
  0.8817383695146930  0.6182616304853070  0.8817383695146930
  0.8817383695146930  0.6182616304853070  0.6182616304853070
  0.6182616304853070  0.8817383695146930  0.8817383695146930
  0.6182616304853070  0.8817383695146930  0.6182616304853070
  0.6317383695146930  0.6317383695146930  0.3682616304853070
  0.8817383695146930  0.8817383695146930  0.6182616304853070
  0.7917796099779579  0.0700710912090585  0.3463686888350352
  0.4582203900220421  0.4582203900220421  0.1799289087909415
  0.1799289087909415  0.9036313111649648  0.4582203900220421
  0.4582203900220421  0.9036313111649648  0.4582203900220421
  0.9036313111649648  0.4582203900220421  0.1799289087909415
  0.9036313111649648  0.4582203900220421  0.4582203900220421
  0.1799289087909415  0.4582203900220421  0.4582203900220421
  0.3463686888350352  0.0700710912090585  0.7917796099779579
  0.7917796099779579  0.0700710912090585  0.7917796099779579
  0.0700710912090585  0.7917796099779579  0.3463686888350352
  0.7917796099779579  0.7917796099779579  0.3463686888350352
  0.0700710912090585  0.3463686888350352  0.7917796099779579
  0.3463686888350352  0.7917796099779579  0.0700710912090585
  0.7917796099779579  0.7917796099779579  0.0700710912090585
  0.7917796099779579  0.3463686888350352  0.7917796099779579
  0.1799289087909415  0.4582203900220421  0.9036313111649648
  0.4582203900220421  0.4582203900220421  0.9036313111649648
  0.4582203900220421  0.9036313111649648  0.1799289087909415
  0.4582203900220421  0.1799289087909415  0.9036313111649648
  0.9036313111649648  0.1799289087909415  0.4582203900220421
  0.4582203900220421  0.1799289087909415  0.4582203900220421
  0.3463686888350352  0.7917796099779579  0.7917796099779579
  0.0700710912090585  0.7917796099779579  0.7917796099779579
  0.7917796099779579  0.3463686888350352  0.0700710912090585
  0.1250000000000000  0.1250000000000000  0.1250000000000000
  0.6250000000000000  0.1250000000000000  0.1250000000000000
  0.1250000000000000  0.1250000000000000  0.6250000000000000
  0.1250000000000000  0.6250000000000000  0.1250000000000000
  0.6250000000000000  0.6250000000000000  0.6250000000000000
  0.1250000000000000  0.6250000000000000  0.6250000000000000
  0.6250000000000000  0.6250000000000000  0.1250000000000000
  0.6250000000000000  0.1250000000000000  0.6250000000000000
 
  0.00000000E+00  0.00000000E+00  0.00000000E+00
  0.00000000E+00  0.00000000E+00  0.00000000E+00
  0.00000000E+00  0.00000000E+00  0.00000000E+00
  0.00000000E+00  0.00000000E+00  0.00000000E+00
  0.00000000E+00  0.00000000E+00  0.00000000E+00
  0.00000000E+00  0.00000000E+00  0.00000000E+00
  0.00000000E+00  0.00000000E+00  0.00000000E+00
  0.00000000E+00  0.00000000E+00  0.00000000E+00
  0.00000000E+00  0.00000000E+00  0.00000000E+00
  0.00000000E+00  0.00000000E+00  0.00000000E+00
  0.00000000E+00  0.00000000E+00  0.00000000E+00
  0.00000000E+00  0.00000000E+00  0.00000000E+00
  0.00000000E+00  0.00000000E+00  0.00000000E+00
  0.00000000E+00  0.00000000E+00  0.00000000E+00
  0.00000000E+00  0.00000000E+00  0.00000000E+00
  0.00000000E+00  0.00000000E+00  0.00000000E+00
  0.00000000E+00  0.00000000E+00  0.00000000E+00
  0.00000000E+00  0.00000000E+00  0.00000000E+00
  0.00000000E+00  0.00000000E+00  0.00000000E+00
  0.00000000E+00  0.00000000E+00  0.00000000E+00
  0.00000000E+00  0.00000000E+00  0.00000000E+00
  0.00000000E+00  0.00000000E+00  0.00000000E+00
  0.00000000E+00  0.00000000E+00  0.00000000E+00
  0.00000000E+00  0.00000000E+00  0.00000000E+00
  0.00000000E+00  0.00000000E+00  0.00000000E+00
  0.00000000E+00  0.00000000E+00  0.00000000E+00
  0.00000000E+00  0.00000000E+00  0.00000000E+00
  0.00000000E+00  0.00000000E+00  0.00000000E+00
  0.00000000E+00  0.00000000E+00  0.00000000E+00
  0.00000000E+00  0.00000000E+00  0.00000000E+00
  0.00000000E+00  0.00000000E+00  0.00000000E+00
  0.00000000E+00  0.00000000E+00  0.00000000E+00
  0.00000000E+00  0.00000000E+00  0.00000000E+00
  0.00000000E+00  0.00000000E+00  0.00000000E+00
  0.00000000E+00  0.00000000E+00  0.00000000E+00
  0.00000000E+00  0.00000000E+00  0.00000000E+00
  0.00000000E+00  0.00000000E+00  0.00000000E+00
  0.00000000E+00  0.00000000E+00  0.00000000E+00
  0.00000000E+00  0.00000000E+00  0.00000000E+00
  0.00000000E+00  0.00000000E+00  0.00000000E+00
  0.00000000E+00  0.00000000E+00  0.00000000E+00
  0.00000000E+00  0.00000000E+00  0.00000000E+00
  0.00000000E+00  0.00000000E+00  0.00000000E+00
  0.00000000E+00  0.00000000E+00  0.00000000E+00
