Be4                                     
   1.00000000000000     
     3.5734422868377149    0.0000000000000000    0.0000000000000000
     0.0000000000000000    3.9373228426450546    0.0000000000000000
     0.0000000000000000    0.0000000000000000    2.2545086281209974
   Be
     4
Direct
  0.7500031923315902  0.3336298389863614  0.2499989439115780
  0.2499968076684098  0.6663701610136386  0.2499989439115780
  0.2500031923315902  0.1663701610136386  0.7500010560884220
  0.7499968076684098  0.8336298389863614  0.7500010560884220
 
  0.00000000E+00  0.00000000E+00  0.00000000E+00
  0.00000000E+00  0.00000000E+00  0.00000000E+00
  0.00000000E+00  0.00000000E+00  0.00000000E+00
  0.00000000E+00  0.00000000E+00  0.00000000E+00
