Ca13 Al16                               
   1.00000000000000     
    -5.7663763926951859   -5.7663763926951859    5.7663763926951859
    -5.7663763926951859    5.7663763926951859   -5.7663763926951859
     5.7663763926951859   -5.7663763926951859   -5.7663763926951859
   Al   Ca
    16    13
Direct
  0.7112370872661415  0.0000000000000000  0.0000000000000000
  0.3350610997967607  0.1681480000448659  0.0000000000000000
  0.1681480000448659  0.3350610997967607  0.0000000000000000
  0.0000000000000000  0.7112370872661415  0.0000000000000000
  0.8318519999551341  0.8318519999551341  0.1669130997519019
  0.3350610997967607  0.0000000000000000  0.1681480000448659
  0.0000000000000000  0.3350610997967607  0.1681480000448659
  0.2887629127338585  0.2887629127338585  0.2887629127338585
  0.1681480000448659  0.0000000000000000  0.3350610997967607
  0.0000000000000000  0.1681480000448659  0.3350610997967607
  0.8330869002481052  0.6649389002032393  0.6649389002032393
  0.6649389002032393  0.8330869002481052  0.6649389002032393
  0.0000000000000000  0.0000000000000000  0.7112370872661415
  0.8318519999551341  0.1669130997519019  0.8318519999551341
  0.1669130997519019  0.8318519999551341  0.8318519999551341
  0.6649389002032393  0.6649389002032393  0.8330869002481052
  0.0000000000000000  0.0000000000000000  0.0000000000000000
  0.7342777043287398  0.4418866461497046  0.0000000000000000
  0.4418866461497046  0.7342777043287398  0.0000000000000000
  0.5581133538502954  0.5581133538502954  0.2923910581790352
  0.7076089418209648  0.2657222956712602  0.2657222956712602
  0.2657222956712602  0.7076089418209648  0.2657222956712602
  0.7342777043287398  0.0000000000000000  0.4418866461497046
  0.0000000000000000  0.7342777043287398  0.4418866461497046
  0.5581133538502954  0.2923910581790352  0.5581133538502954
  0.2923910581790352  0.5581133538502954  0.5581133538502954
  0.4418866461497046  0.0000000000000000  0.7342777043287398
  0.0000000000000000  0.4418866461497046  0.7342777043287398
  0.2657222956712602  0.2657222956712602  0.7076089418209648
 
  0.00000000E+00  0.00000000E+00  0.00000000E+00
  0.00000000E+00  0.00000000E+00  0.00000000E+00
  0.00000000E+00  0.00000000E+00  0.00000000E+00
  0.00000000E+00  0.00000000E+00  0.00000000E+00
  0.00000000E+00  0.00000000E+00  0.00000000E+00
  0.00000000E+00  0.00000000E+00  0.00000000E+00
  0.00000000E+00  0.00000000E+00  0.00000000E+00
  0.00000000E+00  0.00000000E+00  0.00000000E+00
  0.00000000E+00  0.00000000E+00  0.00000000E+00
  0.00000000E+00  0.00000000E+00  0.00000000E+00
  0.00000000E+00  0.00000000E+00  0.00000000E+00
  0.00000000E+00  0.00000000E+00  0.00000000E+00
  0.00000000E+00  0.00000000E+00  0.00000000E+00
  0.00000000E+00  0.00000000E+00  0.00000000E+00
  0.00000000E+00  0.00000000E+00  0.00000000E+00
  0.00000000E+00  0.00000000E+00  0.00000000E+00
  0.00000000E+00  0.00000000E+00  0.00000000E+00
  0.00000000E+00  0.00000000E+00  0.00000000E+00
  0.00000000E+00  0.00000000E+00  0.00000000E+00
  0.00000000E+00  0.00000000E+00  0.00000000E+00
  0.00000000E+00  0.00000000E+00  0.00000000E+00
  0.00000000E+00  0.00000000E+00  0.00000000E+00
  0.00000000E+00  0.00000000E+00  0.00000000E+00
  0.00000000E+00  0.00000000E+00  0.00000000E+00
  0.00000000E+00  0.00000000E+00  0.00000000E+00
  0.00000000E+00  0.00000000E+00  0.00000000E+00
  0.00000000E+00  0.00000000E+00  0.00000000E+00
  0.00000000E+00  0.00000000E+00  0.00000000E+00
  0.00000000E+00  0.00000000E+00  0.00000000E+00
