Ga2 Cl8                                 
   1.00000000000000     
     3.0743333732420242   -5.3262662664746383    0.0018107315253766
     3.0743333732420242    5.3262662664746383    0.0018107315253767
    -1.3398160655828619    0.0000000000000000   10.0096917215271919
   Cl   Ga
     8     2
Direct
  0.8918447367781042  0.8918447367781042  0.1370872844085724
  0.5292858105685099  0.1667548139848094  0.1374842610566418
  0.1667548139848094  0.5292858105685099  0.1374842610566418
  0.6467272591103139  0.6467272591103139  0.4674263014267694
  0.3532727408896932  0.3532727408896932  0.5325736985732306
  0.8332451860151906  0.4707141894314901  0.8625157389433582
  0.4707141894314901  0.8332451860151906  0.8625157389433582
  0.1081552632218887  0.1081552632218887  0.8629127155914276
  0.8329591643582575  0.1670408356417425  0.0000000000000000
  0.1670408356417425  0.8329591643582575  0.0000000000000000
 
  0.00000000E+00  0.00000000E+00  0.00000000E+00
  0.00000000E+00  0.00000000E+00  0.00000000E+00
  0.00000000E+00  0.00000000E+00  0.00000000E+00
  0.00000000E+00  0.00000000E+00  0.00000000E+00
  0.00000000E+00  0.00000000E+00  0.00000000E+00
  0.00000000E+00  0.00000000E+00  0.00000000E+00
  0.00000000E+00  0.00000000E+00  0.00000000E+00
  0.00000000E+00  0.00000000E+00  0.00000000E+00
  0.00000000E+00  0.00000000E+00  0.00000000E+00
  0.00000000E+00  0.00000000E+00  0.00000000E+00
