Tl3I2                                   
   1.0000000000000000     
    -6.9453620392256195    0.1342432505239182   -0.0883735270732912
     3.5889404344836437   -5.9259736199836368    0.1300274031756884
    -3.3817491814349676    1.8732102872845673    9.9547196494285970
   I    Tl
     4     6
Direct
  0.3159271357772369  0.6736895818283699  0.0538352179709420
  0.1781965024780021  0.8198744447688213  0.4460684346495682
  0.8218175133866978  0.1786764947195323  0.5539169364361953
  0.6827434727592916  0.3265547351673206  0.9461562775395223
  0.8009662540983626  0.3047119510800869  0.2554368320716591
  0.2288505466922430  0.1522428179131055  0.2420792212473302
  0.6529730314356001  0.7275204965362931  0.2518242292338471
  0.3470222064595418  0.2734492711306729  0.7483116657135866
  0.1993946193207208  0.6955784054031753  0.7446842391461388
  0.7721087175923032  0.8477018014526294  0.7579869459912203

  0.00000000E+00  0.00000000E+00  0.00000000E+00
  0.00000000E+00  0.00000000E+00  0.00000000E+00
  0.00000000E+00  0.00000000E+00  0.00000000E+00
  0.00000000E+00  0.00000000E+00  0.00000000E+00
  0.00000000E+00  0.00000000E+00  0.00000000E+00
  0.00000000E+00  0.00000000E+00  0.00000000E+00
  0.00000000E+00  0.00000000E+00  0.00000000E+00
  0.00000000E+00  0.00000000E+00  0.00000000E+00
  0.00000000E+00  0.00000000E+00  0.00000000E+00
  0.00000000E+00  0.00000000E+00  0.00000000E+00
