Ba2 Al4 F16                             
   1.00000000000000     
     6.2765040006717578    3.2981769507302836    0.3055683963603739
    -6.2765040006717570    3.2981769507302836    0.3055683963603738
     0.0000000000000000    0.9111465727820013    6.7567597133280461
   Ba   Al   F 
     2     4    16
Direct
  0.5490350099108667  0.4509649900891333  0.7500000000000000
  0.4509649900891333  0.5490350099108667  0.2500000000000000
  0.8579605759577689  0.1420394240422311  0.7500000000000000
  0.1420394240422311  0.8579605759577689  0.2500000000000000
  0.5000000000000000  0.0000000000000000  0.5000000000000000
  0.0000000000000000  0.5000000000000000  0.0000000000000000
  0.7561131448683582  0.8545170952880383  0.8461174483358676
  0.2438868551316418  0.1454829047119688  0.1538825516641253
  0.1454829047119688  0.2438868551316418  0.6538825516641324
  0.8545170952880383  0.7561131448683582  0.3461174483358676
  0.5477175468341926  0.0543024461821062  0.7649088667161976
  0.4522824531658074  0.9456975538178938  0.2350911332838024
  0.9456975538178938  0.4522824531658074  0.7350911332838024
  0.0543024461821062  0.5477175468341926  0.2649088667161976
  0.1898804690803715  0.8783738299799779  0.5162149996034486
  0.8101195309196356  0.1216261700200221  0.4837850003965514
  0.1216261700200221  0.8101195309196356  0.9837850003965514
  0.8783738299799779  0.1898804690803715  0.0162149996034486
  0.4411150276948064  0.7225104781880063  0.5574538044373867
  0.5588849723051936  0.2774895218119866  0.4425461955626133
  0.2774895218119866  0.5588849723051936  0.9425461955626133
  0.7225104781880063  0.4411150276948064  0.0574538044373867
 
  0.00000000E+00  0.00000000E+00  0.00000000E+00
  0.00000000E+00  0.00000000E+00  0.00000000E+00
  0.00000000E+00  0.00000000E+00  0.00000000E+00
  0.00000000E+00  0.00000000E+00  0.00000000E+00
  0.00000000E+00  0.00000000E+00  0.00000000E+00
  0.00000000E+00  0.00000000E+00  0.00000000E+00
  0.00000000E+00  0.00000000E+00  0.00000000E+00
  0.00000000E+00  0.00000000E+00  0.00000000E+00
  0.00000000E+00  0.00000000E+00  0.00000000E+00
  0.00000000E+00  0.00000000E+00  0.00000000E+00
  0.00000000E+00  0.00000000E+00  0.00000000E+00
  0.00000000E+00  0.00000000E+00  0.00000000E+00
  0.00000000E+00  0.00000000E+00  0.00000000E+00
  0.00000000E+00  0.00000000E+00  0.00000000E+00
  0.00000000E+00  0.00000000E+00  0.00000000E+00
  0.00000000E+00  0.00000000E+00  0.00000000E+00
  0.00000000E+00  0.00000000E+00  0.00000000E+00
  0.00000000E+00  0.00000000E+00  0.00000000E+00
  0.00000000E+00  0.00000000E+00  0.00000000E+00
  0.00000000E+00  0.00000000E+00  0.00000000E+00
  0.00000000E+00  0.00000000E+00  0.00000000E+00
  0.00000000E+00  0.00000000E+00  0.00000000E+00
