Ca1 In12                                
   1.00000000000000     
    -5.4444112769126525    5.4444112769126525    3.1664842592979334
     5.4444112769126525   -5.4444112769126525    3.1664842592979334
     5.4444112769126525    5.4444112769126525   -3.1664842592979334
   In   Ca
    12     1
Direct
  0.5000000000000000  0.0000000000000000  0.0000000000000000
  0.0000000000000000  0.5000000000000000  0.0000000000000000
  0.7083287380243277  0.5000000000000000  0.2083287380243277
  0.5000000000000000  0.7083287380243277  0.2083287380243277
  0.3560436768856405  0.0000000000000000  0.3560436768856405
  0.0000000000000000  0.3560436768856405  0.3560436768856405
  0.0000000000000000  0.0000000000000000  0.5000000000000000
  0.5000000000000000  0.5000000000000000  0.5000000000000000
  0.6439563231143595  0.0000000000000000  0.6439563231143595
  0.0000000000000000  0.6439563231143595  0.6439563231143595
  0.5000000000000000  0.2916712619756723  0.7916712619756723
  0.2916712619756723  0.5000000000000000  0.7916712619756723
  0.0000000000000000  0.0000000000000000  0.0000000000000000
 
  0.00000000E+00  0.00000000E+00  0.00000000E+00
  0.00000000E+00  0.00000000E+00  0.00000000E+00
  0.00000000E+00  0.00000000E+00  0.00000000E+00
  0.00000000E+00  0.00000000E+00  0.00000000E+00
  0.00000000E+00  0.00000000E+00  0.00000000E+00
  0.00000000E+00  0.00000000E+00  0.00000000E+00
  0.00000000E+00  0.00000000E+00  0.00000000E+00
  0.00000000E+00  0.00000000E+00  0.00000000E+00
  0.00000000E+00  0.00000000E+00  0.00000000E+00
  0.00000000E+00  0.00000000E+00  0.00000000E+00
  0.00000000E+00  0.00000000E+00  0.00000000E+00
  0.00000000E+00  0.00000000E+00  0.00000000E+00
  0.00000000E+00  0.00000000E+00  0.00000000E+00
