Sr4 Tl4 F2                              
   1.0000000000000000     
     4.8146829649696175    1.3976117433073096   -0.0630789721430477
    -1.1090323538519176    3.7278014673520548    0.4698104131989689
    -0.6405948723629106    1.7658143919046350   17.0509842308569972
   F    Tl   Sr
     2     4     4
Direct
  0.7547439847261117  0.2668708984675590  0.2318657910783699
  0.2451286345789967  0.7330881533063618  0.7681477058895751
  0.2533100460977593  0.4454571707520572  0.0527119276718793
  0.2464885042778349  0.5585444427865411  0.4414928532188540
  0.7540409946721454  0.4415247323431473  0.5585451667519621
  0.7462314492844442  0.5544850005761717  0.9472941610681289
  0.7598172269729488  0.8527812726936759  0.1451620013204291
  0.7424372225282880  0.1245326572898975  0.3748375341592052
  0.2580894590170431  0.8755370663003532  0.6251883401353098
  0.2397124778444422  0.1471786054842354  0.8548545187062828

  0.00000000E+00  0.00000000E+00  0.00000000E+00
  0.00000000E+00  0.00000000E+00  0.00000000E+00
  0.00000000E+00  0.00000000E+00  0.00000000E+00
  0.00000000E+00  0.00000000E+00  0.00000000E+00
  0.00000000E+00  0.00000000E+00  0.00000000E+00
  0.00000000E+00  0.00000000E+00  0.00000000E+00
  0.00000000E+00  0.00000000E+00  0.00000000E+00
  0.00000000E+00  0.00000000E+00  0.00000000E+00
  0.00000000E+00  0.00000000E+00  0.00000000E+00
  0.00000000E+00  0.00000000E+00  0.00000000E+00
