Ba23 Al30                               
   1.00000000000000     
    -0.0010878673254383   -8.3589181064536699    9.0989396915897416
     7.2409193501458322   -4.1772506024084564   -9.0966292573434941
     7.2372385969324107    4.1765252622520723    9.0944722390295620
   Al   Ba
    30    23
Direct
  0.2207095357592763  0.6856300988186064  0.0910530820678019
  0.4622944335009507  0.7677804167359952  0.0736721154364730
  0.7829333406287091  0.8560897787647122  0.0933639490265534
  0.3364139046968333  0.1711404138078052  0.1155758007890952
  0.0932898978670167  0.2171014283389141  0.1438764524841218
  0.8938439899431501  0.3251589310636476  0.1791295040409935
  0.3143203266874437  0.9088276944326381  0.2206830822372581
  0.8665149323267727  0.0820521336846483  0.2324464192151865
  0.0737603087104759  0.5374747098426553  0.2322132924824274
  0.6591930893744973  0.6997815722144907  0.2582976716723380
  0.0912847964388845  0.7791530304128358  0.3142712203613272
  0.2585574505802413  0.3408442539639935  0.3000357234022246
  0.8287627433182934  0.8845157754669870  0.3362635913640872
  0.7123345498563722  0.2346868853598849  0.3375892713499127
  0.2322427342770865  0.9261209805618407  0.4624114185427004
  0.7665991346502494  0.0856036984133866  0.5127536058927546
  0.3001371875812993  0.7420495535072646  0.6591238008239486
  0.1786645393408364  0.1057911577248376  0.6743170026107208
  0.7646367854587623  0.6636955697024192  0.7123979128401672
  0.8930420539278501  0.2322744899501075  0.6772469785567878
  0.3365240907575213  0.2877499028150439  0.7646692028179984
  0.9149540364314390  0.4864942572642335  0.7666415651217520
  0.1439349435234192  0.9068059108644135  0.7827926999382839
  0.6773813025659408  0.1070417011446239  0.7676075693113162
  0.1156787835186748  0.6636435301976960  0.8288311940894886
  0.9179117203540628  0.7675630372823079  0.8664751032760947
  0.6741267633949946  0.8213461497440804  0.8942398537765044
  0.2323414842268718  0.1336333202670730  0.9178558304502786
  0.5136670375358747  0.2335577221715894  0.9149998073042482
  0.7676715014465358  0.3226597888821843  0.8931157478459326
  0.3298781083573985  0.4345590340027030  0.0534861086552638
  0.0834610627785253  0.9165306991371267  0.0832990104557823
  0.9154014745852805  0.6132973900828773  0.0802522800651815
  0.6224922533381374  0.0730736603455071  0.0723601709390564
  0.6006097474305534  0.3734062592594043  0.1752630562654076
  0.3290625752712373  0.6706572499449237  0.3291621626459218
  0.5650161046926243  0.9458351132481937  0.3296636169475136
  0.8040785953464038  0.5810339593269447  0.3994794564280113
  0.0805237575133475  0.0845185627016676  0.3863434135438979
  0.3993875535122413  0.1959088387756509  0.4190328449626151
  0.9724550982817561  0.3505153275810429  0.4303869066385957
  0.4529552529517318  0.5471298929559367  0.4531130047963714
  0.0534663102301352  0.6702898973467057  0.5655336936673478
  0.6265345362252077  0.8252424644797145  0.6004547234564868
  0.9270967860278887  0.9279019174928393  0.6218000741878527
  0.1750192223647247  0.3993411776378508  0.6267779593976925
  0.4304110720053629  0.0284035923129835  0.6496997885693006
  0.6540611083496728  0.3462752106140954  0.6542876976176757
  0.4188425569548002  0.6006995417841807  0.8040291700372606
  0.3868576266345585  0.9199775009702478  0.9154240617358838
  0.0718878424042657  0.3777512870901347  0.9274885096024903
  0.9275979342605751  0.0722112683464502  0.9273481609974041
  0.6497760218032340  0.5697722611619227  0.9719636592581935
 
  0.00000000E+00  0.00000000E+00  0.00000000E+00
  0.00000000E+00  0.00000000E+00  0.00000000E+00
  0.00000000E+00  0.00000000E+00  0.00000000E+00
  0.00000000E+00  0.00000000E+00  0.00000000E+00
  0.00000000E+00  0.00000000E+00  0.00000000E+00
  0.00000000E+00  0.00000000E+00  0.00000000E+00
  0.00000000E+00  0.00000000E+00  0.00000000E+00
  0.00000000E+00  0.00000000E+00  0.00000000E+00
  0.00000000E+00  0.00000000E+00  0.00000000E+00
  0.00000000E+00  0.00000000E+00  0.00000000E+00
  0.00000000E+00  0.00000000E+00  0.00000000E+00
  0.00000000E+00  0.00000000E+00  0.00000000E+00
  0.00000000E+00  0.00000000E+00  0.00000000E+00
  0.00000000E+00  0.00000000E+00  0.00000000E+00
  0.00000000E+00  0.00000000E+00  0.00000000E+00
  0.00000000E+00  0.00000000E+00  0.00000000E+00
  0.00000000E+00  0.00000000E+00  0.00000000E+00
  0.00000000E+00  0.00000000E+00  0.00000000E+00
  0.00000000E+00  0.00000000E+00  0.00000000E+00
  0.00000000E+00  0.00000000E+00  0.00000000E+00
  0.00000000E+00  0.00000000E+00  0.00000000E+00
  0.00000000E+00  0.00000000E+00  0.00000000E+00
  0.00000000E+00  0.00000000E+00  0.00000000E+00
  0.00000000E+00  0.00000000E+00  0.00000000E+00
  0.00000000E+00  0.00000000E+00  0.00000000E+00
  0.00000000E+00  0.00000000E+00  0.00000000E+00
  0.00000000E+00  0.00000000E+00  0.00000000E+00
  0.00000000E+00  0.00000000E+00  0.00000000E+00
  0.00000000E+00  0.00000000E+00  0.00000000E+00
  0.00000000E+00  0.00000000E+00  0.00000000E+00
  0.00000000E+00  0.00000000E+00  0.00000000E+00
  0.00000000E+00  0.00000000E+00  0.00000000E+00
  0.00000000E+00  0.00000000E+00  0.00000000E+00
  0.00000000E+00  0.00000000E+00  0.00000000E+00
  0.00000000E+00  0.00000000E+00  0.00000000E+00
  0.00000000E+00  0.00000000E+00  0.00000000E+00
  0.00000000E+00  0.00000000E+00  0.00000000E+00
  0.00000000E+00  0.00000000E+00  0.00000000E+00
  0.00000000E+00  0.00000000E+00  0.00000000E+00
  0.00000000E+00  0.00000000E+00  0.00000000E+00
  0.00000000E+00  0.00000000E+00  0.00000000E+00
  0.00000000E+00  0.00000000E+00  0.00000000E+00
  0.00000000E+00  0.00000000E+00  0.00000000E+00
  0.00000000E+00  0.00000000E+00  0.00000000E+00
  0.00000000E+00  0.00000000E+00  0.00000000E+00
  0.00000000E+00  0.00000000E+00  0.00000000E+00
  0.00000000E+00  0.00000000E+00  0.00000000E+00
  0.00000000E+00  0.00000000E+00  0.00000000E+00
  0.00000000E+00  0.00000000E+00  0.00000000E+00
  0.00000000E+00  0.00000000E+00  0.00000000E+00
  0.00000000E+00  0.00000000E+00  0.00000000E+00
  0.00000000E+00  0.00000000E+00  0.00000000E+00
  0.00000000E+00  0.00000000E+00  0.00000000E+00
