Be2 Ga2 Cl10                            
   1.00000000000000     
     4.4943794057625182   -4.6030331557362461   -0.4178513249037284
     4.4943794057625182    4.6030331557362461   -0.4178513249037284
    -3.8987156610316949    0.0000000000000000    8.2296690304772326
   Be   Cl   Ga
     2    10     2
Direct
  0.3655239785095077  0.6344296665352900  0.2500052561260162
  0.6344296665352900  0.3655239785095077  0.7500052561260162
  0.2385909329454705  0.7248212296019076  0.0498786696057962
  0.3275451832254817  0.2835670280350939  0.1615223109056103
  0.9091916211615683  0.0907463125015511  0.2499992501000108
  0.7163742890914833  0.6723978042338743  0.3384709211656158
  0.2751247563099213  0.7613417318331486  0.4501223879618053
  0.7248212296019076  0.2385909329454705  0.5498786696057962
  0.2835670280350939  0.3275451832254817  0.6615223109056103
  0.0907463125015511  0.9091916211615683  0.7499992501000108
  0.6723978042338743  0.7163742890914833  0.8384709211656158
  0.7613417318331486  0.2751247563099213  0.9501223879618053
  0.9999692738156654  0.9999761922000445  0.0000012041351454
  0.9999761922000445  0.9999692738156654  0.5000012041351454
 
  0.00000000E+00  0.00000000E+00  0.00000000E+00
  0.00000000E+00  0.00000000E+00  0.00000000E+00
  0.00000000E+00  0.00000000E+00  0.00000000E+00
  0.00000000E+00  0.00000000E+00  0.00000000E+00
  0.00000000E+00  0.00000000E+00  0.00000000E+00
  0.00000000E+00  0.00000000E+00  0.00000000E+00
  0.00000000E+00  0.00000000E+00  0.00000000E+00
  0.00000000E+00  0.00000000E+00  0.00000000E+00
  0.00000000E+00  0.00000000E+00  0.00000000E+00
  0.00000000E+00  0.00000000E+00  0.00000000E+00
  0.00000000E+00  0.00000000E+00  0.00000000E+00
  0.00000000E+00  0.00000000E+00  0.00000000E+00
  0.00000000E+00  0.00000000E+00  0.00000000E+00
  0.00000000E+00  0.00000000E+00  0.00000000E+00
