Ba2 Tl3                                 
   1.0000000000000000     
    -2.5463249307064220    3.5300369273754870    5.4449346849993843
     2.5463249307064220   -3.5300369273754870    5.4449346849993843
     2.5463249307064220    3.5300369273754870   -5.4449346849993843
   Tl   Ba
     3     2
Direct
  0.2738323599103296  0.0000000000000000  0.2738323599103296
  0.0000000000000000  0.5000000000000000  0.5000000000000000
  0.7261676400896704  0.0000000000000000  0.7261676400896704
  0.2910129707255393  0.2910129707255393  0.0000000000000000
  0.7089870292744607  0.7089870292744607  0.0000000000000000

  0.00000000E+00  0.00000000E+00  0.00000000E+00
  0.00000000E+00  0.00000000E+00  0.00000000E+00
  0.00000000E+00  0.00000000E+00  0.00000000E+00
  0.00000000E+00  0.00000000E+00  0.00000000E+00
  0.00000000E+00  0.00000000E+00  0.00000000E+00
