Ca4 Tl2 Br10                            
   1.0000000000000000     
     8.2748094056623120    0.0006987599713571   -0.0121931218353512
     0.0006987599713571    8.2748094056623120   -0.0121931218353512
     4.1273675226709621    4.1273675226709621    7.2791510359036344
   Br   Ca   Tl
    10     4     2
Direct
  0.5000290250814743  0.0000316320166291  0.9999611467527600
  0.0000316320166291  0.5000290250814743  0.9999611467527600
  0.7239444097560792  0.0223034720989332  0.2558325049355759
  0.2250455473566149  0.2250455473566149  0.2545716213871358
  0.5220841214605869  0.5220841214605869  0.2571172766323002
  0.0223034720989332  0.7239444097560792  0.2558325049355759
  0.9777626527175869  0.2761683305833387  0.7440492789390873
  0.4779548108990710  0.4779548108990710  0.7428128805053618
  0.7750181268876375  0.7750181268876375  0.7453453546808149
  0.2761683305833387  0.9777626527175869  0.7440492789390873
  0.1602606887419356  0.1602606887419356  0.9998278230402065
  0.6602468466550846  0.3397972064314274  0.9999937838050670
  0.3397972064314274  0.6602468466550846  0.9999937838050670
  0.8397527793908850  0.8397527793908850  0.0002203747868634
  0.7492168476443410  0.2504835022783567  0.5002156200511720
  0.2504835022783567  0.7492168476443410  0.5002156200511720

  0.00000000E+00  0.00000000E+00  0.00000000E+00
  0.00000000E+00  0.00000000E+00  0.00000000E+00
  0.00000000E+00  0.00000000E+00  0.00000000E+00
  0.00000000E+00  0.00000000E+00  0.00000000E+00
  0.00000000E+00  0.00000000E+00  0.00000000E+00
  0.00000000E+00  0.00000000E+00  0.00000000E+00
  0.00000000E+00  0.00000000E+00  0.00000000E+00
  0.00000000E+00  0.00000000E+00  0.00000000E+00
  0.00000000E+00  0.00000000E+00  0.00000000E+00
  0.00000000E+00  0.00000000E+00  0.00000000E+00
  0.00000000E+00  0.00000000E+00  0.00000000E+00
  0.00000000E+00  0.00000000E+00  0.00000000E+00
  0.00000000E+00  0.00000000E+00  0.00000000E+00
  0.00000000E+00  0.00000000E+00  0.00000000E+00
  0.00000000E+00  0.00000000E+00  0.00000000E+00
  0.00000000E+00  0.00000000E+00  0.00000000E+00
