Mg2 Ga2 Br10                            
   1.00000000000000     
     7.7539441199459516    2.1089335458293985    2.9814644452162451
     3.7568873489341454    7.1033114112257190    2.9814647408540518
     0.3229756165795823    0.2584827339636854   10.8189478244978989
   Mg   Ga   Br
     2     2    10
Direct
  0.6290116436553603  0.3709883455229388  0.2500000043669672
  0.3709883563446397  0.6290116544770612  0.7499999956330328
  0.0000000000000000  0.0000000000000000  0.5000000000000000
  0.0000000000000000  0.0000000000000000  0.0000000000000000
  0.1141214381854994  0.6448717075883224  0.6548730430646330
  0.3551282892254761  0.8858775588125738  0.8451269580223553
  0.8858775618145032  0.3551282924116776  0.3451279569353716
  0.6448717107745168  0.1141214411874358  0.1548730419776447
  0.7709938835035928  0.2290061143140960  0.7500000017538397
  0.2290061164964072  0.7709938856858969  0.2499999982461603
  0.8822459621734779  0.3573118683072707  0.0090186113932873
  0.6426881307206997  0.1177540372583437  0.4909813922165824
  0.1177540378265221  0.6426881316927293  0.9909813886067127
  0.3573118692793003  0.8822459627416563  0.5090186077834176
 
  0.00000000E+00  0.00000000E+00  0.00000000E+00
  0.00000000E+00  0.00000000E+00  0.00000000E+00
  0.00000000E+00  0.00000000E+00  0.00000000E+00
  0.00000000E+00  0.00000000E+00  0.00000000E+00
  0.00000000E+00  0.00000000E+00  0.00000000E+00
  0.00000000E+00  0.00000000E+00  0.00000000E+00
  0.00000000E+00  0.00000000E+00  0.00000000E+00
  0.00000000E+00  0.00000000E+00  0.00000000E+00
  0.00000000E+00  0.00000000E+00  0.00000000E+00
  0.00000000E+00  0.00000000E+00  0.00000000E+00
  0.00000000E+00  0.00000000E+00  0.00000000E+00
  0.00000000E+00  0.00000000E+00  0.00000000E+00
  0.00000000E+00  0.00000000E+00  0.00000000E+00
  0.00000000E+00  0.00000000E+00  0.00000000E+00
