Ca4 B4 Cl2                              
   1.00000000000000     
     3.4600036582289775   -0.0001157301373294    0.0000115412798153
    -1.7301013207695566    2.9963907336149438   -0.0000120035870066
    -0.0000165256172687    0.0000068292408730   15.7265283523435038
   B    Cl   Ca
     4     2     4
Direct
  0.3333193896611846  0.6666825223165702  0.0010025912879996
  0.3333257069637696  0.6666724111059210  0.4990675326223339
  0.6666784370997760  0.3333187668499704  0.5009532200854068
  0.6666723675477968  0.3333286907380639  0.9990935075064655
  0.6668758640182162  0.3331206304955856  0.2500115230469788
  0.3331295574274904  0.6668757285181499  0.7500395482478837
  0.0000276488094357  0.9999743348341283  0.1138966340561751
  0.0000350179697648  0.9999634740167949  0.3861221700595294
  0.9999704256218251  0.0000283416946587  0.6139086420121203
  0.9999655848807478  0.0000350994301428  0.8861846310751389
 
  0.00000000E+00  0.00000000E+00  0.00000000E+00
  0.00000000E+00  0.00000000E+00  0.00000000E+00
  0.00000000E+00  0.00000000E+00  0.00000000E+00
  0.00000000E+00  0.00000000E+00  0.00000000E+00
  0.00000000E+00  0.00000000E+00  0.00000000E+00
  0.00000000E+00  0.00000000E+00  0.00000000E+00
  0.00000000E+00  0.00000000E+00  0.00000000E+00
  0.00000000E+00  0.00000000E+00  0.00000000E+00
  0.00000000E+00  0.00000000E+00  0.00000000E+00
  0.00000000E+00  0.00000000E+00  0.00000000E+00
