Sr8 Al12                                
   1.00000000000000     
     7.3407611536956123   -0.0000000000000001    0.0000000004908010
    -0.0000000000000001    7.3407611536956123    0.0000000004908010
    -3.6703795239204844   -3.6703795239204848   10.4622665443145610
   Sr   Al
     8    12
Direct
  0.2964967328205930  0.5106284559441647  0.5929934656604416
  0.2964967328134023  0.0823650096898376  0.5929934656460674
  0.3323650096898376  0.0464967328134023  0.0929934656460674
  0.9535032671865906  0.6676349903101624  0.9070065343539326
  0.9535032671794070  0.2393715440558353  0.9070065343395584
  0.7606284559441647  0.0464967328205930  0.0929934656604416
  0.9176349903101624  0.7035032671865906  0.4070065343539326
  0.4893715440558353  0.7035032671794070  0.4070065343395584
  0.8004175112233582  0.1165339908566310  0.6008350224463186
  0.8004175112161533  0.4843020315828923  0.6008350224319159
  0.7343020315828923  0.5504175112161533  0.1008350224319159
  0.4495824887838467  0.2656979684171077  0.8991649775680841
  0.4495824887766418  0.6334660091433690  0.8991649775536814
  0.3665339908566310  0.5504175112233582  0.1008350224463186
  0.5156979684171077  0.1995824887838467  0.3991649775680841
  0.8834660091433690  0.1995824887766418  0.3991649775536814
  0.1250000000000000  0.3750000000000000  0.2500000000000000
  0.1250000000000000  0.8750000000000000  0.2500000000000000
  0.1250000000000000  0.8750000000000000  0.7500000000000000
  0.6250000000000000  0.8750000000000000  0.7500000000000000
 
  0.00000000E+00  0.00000000E+00  0.00000000E+00
  0.00000000E+00  0.00000000E+00  0.00000000E+00
  0.00000000E+00  0.00000000E+00  0.00000000E+00
  0.00000000E+00  0.00000000E+00  0.00000000E+00
  0.00000000E+00  0.00000000E+00  0.00000000E+00
  0.00000000E+00  0.00000000E+00  0.00000000E+00
  0.00000000E+00  0.00000000E+00  0.00000000E+00
  0.00000000E+00  0.00000000E+00  0.00000000E+00
  0.00000000E+00  0.00000000E+00  0.00000000E+00
  0.00000000E+00  0.00000000E+00  0.00000000E+00
  0.00000000E+00  0.00000000E+00  0.00000000E+00
  0.00000000E+00  0.00000000E+00  0.00000000E+00
  0.00000000E+00  0.00000000E+00  0.00000000E+00
  0.00000000E+00  0.00000000E+00  0.00000000E+00
  0.00000000E+00  0.00000000E+00  0.00000000E+00
  0.00000000E+00  0.00000000E+00  0.00000000E+00
  0.00000000E+00  0.00000000E+00  0.00000000E+00
  0.00000000E+00  0.00000000E+00  0.00000000E+00
  0.00000000E+00  0.00000000E+00  0.00000000E+00
  0.00000000E+00  0.00000000E+00  0.00000000E+00
