Ca16 Al12 I1                            
   1.00000000000000     
     9.2244803486912996   -5.3257225542676521    3.7652431497807592
    -0.4297279362920837    9.4102428048376670    3.0638084738841385
    -8.3644152113289287   -4.3327234016345999    3.0640464817128277
   Al   I    Ca
    12     1    16
Direct
  0.8168411266953584  0.6209956074786405  0.0000258306889762
  0.6978388043369463  0.8230135578722297  0.9999807983190792
  0.3366380299396070  0.3845889665670157  0.1964847962949463
  0.1401932851487615  0.8035997921466844  0.1881646490783808
  0.8748385420019744  0.1769460487895103  0.1769570876678159
  0.3366607074062387  0.1965088036993237  0.3846014158643385
  0.1958515524994979  0.3790168061319648  0.3790150573749358
  0.8168106389746512  0.9999625347516243  0.6209729225967848
  0.9520641453993903  0.8118831270911357  0.6153820229527867
  0.6978546509275318  0.9999779846742385  0.8230376352264415
  0.9520586687130219  0.6153858520402054  0.8119565921536775
  0.1401063579823614  0.1880486491046724  0.8034586249558728
  0.3704302576693195  0.0000149876652529  0.0000209316660715
  0.0031455775050659  0.3616871303633005  0.9999930362679663
  0.6352386414970965  0.2624375106583656  0.0000032166575181
  0.2802494303011329  0.6220646475346783  0.0000017291102736
  0.0312916928125020  0.9999787941892535  0.9999752951555081
  0.6525614394917341  0.6571528739174610  0.2386727846577159
  0.6352426687407089  0.0000249555477012  0.2624419486503058
  0.9954670367422338  0.5815423817191387  0.3428321504585483
  0.0031205634174469  0.9999707224158598  0.3616987975372083
  0.6583845239830737  0.3781008147123472  0.3780706195189936
  0.4139253731719776  0.7613071323290086  0.4184702509605387
  0.9954445138599226  0.3428353410570892  0.5815390486507184
  0.2803175975110861  0.0000290613914231  0.6219437358230380
  0.6413928978397223  0.6382365720195580  0.6382891210987509
  0.6526118135938930  0.2386732225263302  0.6571491590278953
  0.3727636155805030  0.7375588258369987  0.7375419272147283
  0.4138558462572277  0.4184582957689642  0.7613198143701823
 
  0.00000000E+00  0.00000000E+00  0.00000000E+00
  0.00000000E+00  0.00000000E+00  0.00000000E+00
  0.00000000E+00  0.00000000E+00  0.00000000E+00
  0.00000000E+00  0.00000000E+00  0.00000000E+00
  0.00000000E+00  0.00000000E+00  0.00000000E+00
  0.00000000E+00  0.00000000E+00  0.00000000E+00
  0.00000000E+00  0.00000000E+00  0.00000000E+00
  0.00000000E+00  0.00000000E+00  0.00000000E+00
  0.00000000E+00  0.00000000E+00  0.00000000E+00
  0.00000000E+00  0.00000000E+00  0.00000000E+00
  0.00000000E+00  0.00000000E+00  0.00000000E+00
  0.00000000E+00  0.00000000E+00  0.00000000E+00
  0.00000000E+00  0.00000000E+00  0.00000000E+00
  0.00000000E+00  0.00000000E+00  0.00000000E+00
  0.00000000E+00  0.00000000E+00  0.00000000E+00
  0.00000000E+00  0.00000000E+00  0.00000000E+00
  0.00000000E+00  0.00000000E+00  0.00000000E+00
  0.00000000E+00  0.00000000E+00  0.00000000E+00
  0.00000000E+00  0.00000000E+00  0.00000000E+00
  0.00000000E+00  0.00000000E+00  0.00000000E+00
  0.00000000E+00  0.00000000E+00  0.00000000E+00
  0.00000000E+00  0.00000000E+00  0.00000000E+00
  0.00000000E+00  0.00000000E+00  0.00000000E+00
  0.00000000E+00  0.00000000E+00  0.00000000E+00
  0.00000000E+00  0.00000000E+00  0.00000000E+00
  0.00000000E+00  0.00000000E+00  0.00000000E+00
  0.00000000E+00  0.00000000E+00  0.00000000E+00
  0.00000000E+00  0.00000000E+00  0.00000000E+00
  0.00000000E+00  0.00000000E+00  0.00000000E+00
