Ba12 Tl8 F48                            
   1.0000000000000000     
    10.2309908108678922    0.0037091558242327    0.0000000000000000
     0.0038522531287255   10.5015844533814704    0.0000000000000000
     0.0000000000000000    0.0000000000000000   10.2899586828422684
   Tl   Ba   F 
     8    12    48
Direct
  0.3455722689147933  0.3745075192069010  0.1964001512500957
  0.6535835279150461  0.6253667629171389  0.1957583156319060
  0.8461040739438843  0.1253036181054057  0.3040178988737026
  0.1544467104021763  0.8743690021162251  0.3037715059334829
  0.8461040739438843  0.1253036181054057  0.6959821011262903
  0.1544467104021763  0.8743690021162251  0.6962284940665171
  0.3455722689147933  0.3745075192069010  0.8035998487499043
  0.6535835279150461  0.6253667629171389  0.8042416843681011
  0.1682153706449370  0.1202069292423289  0.0000000000000000
  0.6861312509303303  0.2880860530079090  0.0000000000000000
  0.3140147242721696  0.7107030060811184  0.0000000000000000
  0.8314140580889671  0.8790599151600844  0.0000000000000000
  0.9994940554799996  0.4998594447816203  0.2175629381327084
  0.5003129237687602  0.9998966981061841  0.2824678132959093
  0.1849332452616892  0.2103285443625822  0.5000000000000000
  0.6690547339410386  0.3793533022377247  0.5000000000000000
  0.3319659901257594  0.6199657213331591  0.5000000000000000
  0.8136339159658803  0.7877930244521920  0.5000000000000000
  0.5003129237687602  0.9998966981061841  0.7175321867040907
  0.9994940554799996  0.4998594447816203  0.7824370618672916
  0.6610606835536359  0.0521836822626298  0.0000000000000000
  0.9227194048256138  0.3781514057883726  0.0000000000000000
  0.2472732862096407  0.3858681877100523  0.0000000000000000
  0.7525065615271416  0.6131344972379509  0.0000000000000000
  0.0772682999919496  0.6214862054625314  0.0000000000000000
  0.3383988999589747  0.9469124097151962  0.0000000000000000
  0.4978468501168365  0.5020342958130755  0.1161975841270646
  0.9292426320048506  0.1150319591075117  0.1171954156669415
  0.0697499108057329  0.8851054264898082  0.1175722571424558
  0.4298971957451485  0.2038205704030389  0.1270556393808420
  0.5714306317982789  0.7973207328601859  0.1269054614262259
  0.7428740405470364  0.4407172894088802  0.2275351771862617
  0.2553056900088535  0.5586002874914868  0.2290378714361765
  0.1555263728274454  0.2898011591295031  0.2364594422158603
  0.8439956420288226  0.7093600738700729  0.2359882455202609
  0.6557248988433528  0.2094580880975414  0.2637819976255926
  0.3446775413908014  0.7896489712723778  0.2636788847172653
  0.2443975734395210  0.0584282589950362  0.2709148404058013
  0.7570783376324783  0.9407004355808368  0.2725562586872741
  0.9285501320179748  0.2970449648172035  0.3729681007975998
  0.0698034834846197  0.7039007089697620  0.3730117060652560
  0.4311483612014300  0.3861629595573817  0.3821720452225534
  0.5713789955398809  0.6158542811701295  0.3829687341700421
  0.0020560544751547  0.0020819947101813  0.3838531192742423
  0.7474634496607706  0.1135728247799719  0.5000000000000000
  0.4221423757796998  0.1218719119712404  0.5000000000000000
  0.1619542762225805  0.4467211223886878  0.5000000000000000
  0.8395563413707379  0.5518992395247295  0.5000000000000000
  0.5772335753597417  0.8787240954017506  0.5000000000000000
  0.2528637476429338  0.8858269159247101  0.5000000000000000
  0.0020560544751547  0.0020819947101813  0.6161468807257577
  0.4311483612014300  0.3861629595573817  0.6178279547774466
  0.5713789955398809  0.6158542811701295  0.6170312658299650
  0.9285501320179748  0.2970449648172035  0.6270318992024002
  0.0698034834846197  0.7039007089697620  0.6269882939347440
  0.2443975734395210  0.0584282589950362  0.7290851595941987
  0.7570783376324783  0.9407004355808368  0.7274437413127259
  0.6557248988433528  0.2094580880975414  0.7362180023744074
  0.3446775413908014  0.7896489712723778  0.7363211152827347
  0.1555263728274454  0.2898011591295031  0.7635405577841397
  0.8439956420288226  0.7093600738700729  0.7640117544797391
  0.7428740405470364  0.4407172894088802  0.7724648228137383
  0.2553056900088535  0.5586002874914868  0.7709621285638235
  0.4298971957451485  0.2038205704030389  0.8729443606191580
  0.5714306317982789  0.7973207328601859  0.8730945385737741
  0.9292426320048506  0.1150319591075117  0.8828045843330585
  0.0697499108057329  0.8851054264898082  0.8824277428575513
  0.4978468501168365  0.5020342958130755  0.8838024158729283

  0.00000000E+00  0.00000000E+00  0.00000000E+00
  0.00000000E+00  0.00000000E+00  0.00000000E+00
  0.00000000E+00  0.00000000E+00  0.00000000E+00
  0.00000000E+00  0.00000000E+00  0.00000000E+00
  0.00000000E+00  0.00000000E+00  0.00000000E+00
  0.00000000E+00  0.00000000E+00  0.00000000E+00
  0.00000000E+00  0.00000000E+00  0.00000000E+00
  0.00000000E+00  0.00000000E+00  0.00000000E+00
  0.00000000E+00  0.00000000E+00  0.00000000E+00
  0.00000000E+00  0.00000000E+00  0.00000000E+00
  0.00000000E+00  0.00000000E+00  0.00000000E+00
  0.00000000E+00  0.00000000E+00  0.00000000E+00
  0.00000000E+00  0.00000000E+00  0.00000000E+00
  0.00000000E+00  0.00000000E+00  0.00000000E+00
  0.00000000E+00  0.00000000E+00  0.00000000E+00
  0.00000000E+00  0.00000000E+00  0.00000000E+00
  0.00000000E+00  0.00000000E+00  0.00000000E+00
  0.00000000E+00  0.00000000E+00  0.00000000E+00
  0.00000000E+00  0.00000000E+00  0.00000000E+00
  0.00000000E+00  0.00000000E+00  0.00000000E+00
  0.00000000E+00  0.00000000E+00  0.00000000E+00
  0.00000000E+00  0.00000000E+00  0.00000000E+00
  0.00000000E+00  0.00000000E+00  0.00000000E+00
  0.00000000E+00  0.00000000E+00  0.00000000E+00
  0.00000000E+00  0.00000000E+00  0.00000000E+00
  0.00000000E+00  0.00000000E+00  0.00000000E+00
  0.00000000E+00  0.00000000E+00  0.00000000E+00
  0.00000000E+00  0.00000000E+00  0.00000000E+00
  0.00000000E+00  0.00000000E+00  0.00000000E+00
  0.00000000E+00  0.00000000E+00  0.00000000E+00
  0.00000000E+00  0.00000000E+00  0.00000000E+00
  0.00000000E+00  0.00000000E+00  0.00000000E+00
  0.00000000E+00  0.00000000E+00  0.00000000E+00
  0.00000000E+00  0.00000000E+00  0.00000000E+00
  0.00000000E+00  0.00000000E+00  0.00000000E+00
  0.00000000E+00  0.00000000E+00  0.00000000E+00
  0.00000000E+00  0.00000000E+00  0.00000000E+00
  0.00000000E+00  0.00000000E+00  0.00000000E+00
  0.00000000E+00  0.00000000E+00  0.00000000E+00
  0.00000000E+00  0.00000000E+00  0.00000000E+00
  0.00000000E+00  0.00000000E+00  0.00000000E+00
  0.00000000E+00  0.00000000E+00  0.00000000E+00
  0.00000000E+00  0.00000000E+00  0.00000000E+00
  0.00000000E+00  0.00000000E+00  0.00000000E+00
  0.00000000E+00  0.00000000E+00  0.00000000E+00
  0.00000000E+00  0.00000000E+00  0.00000000E+00
  0.00000000E+00  0.00000000E+00  0.00000000E+00
  0.00000000E+00  0.00000000E+00  0.00000000E+00
  0.00000000E+00  0.00000000E+00  0.00000000E+00
  0.00000000E+00  0.00000000E+00  0.00000000E+00
  0.00000000E+00  0.00000000E+00  0.00000000E+00
  0.00000000E+00  0.00000000E+00  0.00000000E+00
  0.00000000E+00  0.00000000E+00  0.00000000E+00
  0.00000000E+00  0.00000000E+00  0.00000000E+00
  0.00000000E+00  0.00000000E+00  0.00000000E+00
  0.00000000E+00  0.00000000E+00  0.00000000E+00
  0.00000000E+00  0.00000000E+00  0.00000000E+00
  0.00000000E+00  0.00000000E+00  0.00000000E+00
  0.00000000E+00  0.00000000E+00  0.00000000E+00
  0.00000000E+00  0.00000000E+00  0.00000000E+00
  0.00000000E+00  0.00000000E+00  0.00000000E+00
  0.00000000E+00  0.00000000E+00  0.00000000E+00
  0.00000000E+00  0.00000000E+00  0.00000000E+00
  0.00000000E+00  0.00000000E+00  0.00000000E+00
  0.00000000E+00  0.00000000E+00  0.00000000E+00
  0.00000000E+00  0.00000000E+00  0.00000000E+00
  0.00000000E+00  0.00000000E+00  0.00000000E+00
  0.00000000E+00  0.00000000E+00  0.00000000E+00
