Sr12 Al4 Cl36                           
   1.00000000000000     
    11.8763357071493019   -0.0013995487093720    0.0024366415430566
     0.0014308945676413    6.8943647290404018   -0.5501208178970050
    -0.0104809259731274   -1.3543872714773590   17.1887567406492714
   Al   Sr   Cl
     4    12    36
Direct
  0.5085688063807297  0.2185772866873066  0.1787754897048401
  0.0089292757991473  0.2825238795575800  0.3212106799955592
  0.9916157199924385  0.7177279866297823  0.6795628999820522
  0.4910936598725897  0.7799205350819065  0.8202822844766686
  0.6791041859604547  0.7858103344574090  0.0311042911892372
  0.9461015239796282  0.3034283890298681  0.0998957280413606
  0.2550223643634979  0.7870787692213170  0.1771681572187447
  0.7551551044546443  0.7128699389032178  0.3231148083000832
  0.4466464499776066  0.1981760399829540  0.3998648388439037
  0.1798904014905816  0.7154583134687229  0.4688999849745485
  0.8207085926347020  0.2891918184029620  0.5309794354021378
  0.5529208878715792  0.8073652171324142  0.5986362430951786
  0.2432620368581979  0.2850821426347352  0.6785133155461480
  0.7440640988242393  0.2121987741049551  0.8221938843664773
  0.0527707802048738  0.6931318682357741  0.9010888398071586
  0.3203577064491085  0.2104612886379726  0.9691901259790825
  0.1445010226291643  0.5228420521752426  0.0432081101536639
  0.1380773572103706  0.0132739628810725  0.0319568705353177
  0.4414940889251753  0.9492975896498947  0.0839517958043317
  0.4352395056983340  0.4528855706811044  0.1015305008382867
  0.6709004840250401  0.2080432192807464  0.1059351289034609
  0.8151872644968705  0.6891283729622231  0.1572439993459156
  0.3352940520747225  0.2078162997506965  0.2361742118405985
  0.5770562814673212  0.9904291508519165  0.2558280620074811
  0.5535527862956684  0.4726529533791890  0.2763993773518791
  0.0538886657780964  0.0286660894658226  0.2235301182491796
  0.0769974374339171  0.5107993825176464  0.2439854455320756
  0.8355018753729269  0.2930285692949042  0.2637752142821839
  0.3157654990224756  0.8122598476207870  0.3428264821342211
  0.1714443389567109  0.2933949999442476  0.3939313188760849
  0.9358467356039810  0.0480565478708854  0.3984782773959381
  0.9421460627209086  0.5516388339311646  0.4160172142737437
  0.6395235301894999  0.4876527732650899  0.4674803058501666
  0.6447528129008901  0.9782297218821228  0.4568032631463197
  0.3550397530425187  0.0296167996681262  0.5427863230296381
  0.3640386966982092  0.5200561210621757  0.5298998935439911
  0.0592235036818636  0.4500850956501097  0.5843043426449057
  0.0665809919839617  0.9531950596063652  0.6033543504489387
  0.8301437513473715  0.7099125089311897  0.6061219247646505
  0.6841829975726199  0.1905547358150983  0.6566001671306623
  0.1640209789698233  0.7054368257416783  0.7379115617929912
  0.9223583513541129  0.4878911707597311  0.7558251362211337
  0.9456116571575279  0.9703048453053285  0.7774972090646486
  0.4450827171349516  0.5265777622972578  0.7227382094727801
  0.4216465045448743  0.0090231122419908  0.7436939331597543
  0.6635467138442621  0.7922894785916199  0.7619006405109943
  0.1833383747692423  0.3080302003768054  0.8437882069634384
  0.3296600526233533  0.7891495931971662  0.8939977262623628
  0.5661950622242173  0.5459582761766058  0.8969489115109681
  0.5585448506547550  0.0488114585174131  0.9152609402124838
  0.8623290026096697  0.9820445551917061  0.9692133446265174
  0.8548746438705663  0.4725438812959410  0.9572204751951148
 
  0.00000000E+00  0.00000000E+00  0.00000000E+00
  0.00000000E+00  0.00000000E+00  0.00000000E+00
  0.00000000E+00  0.00000000E+00  0.00000000E+00
  0.00000000E+00  0.00000000E+00  0.00000000E+00
  0.00000000E+00  0.00000000E+00  0.00000000E+00
  0.00000000E+00  0.00000000E+00  0.00000000E+00
  0.00000000E+00  0.00000000E+00  0.00000000E+00
  0.00000000E+00  0.00000000E+00  0.00000000E+00
  0.00000000E+00  0.00000000E+00  0.00000000E+00
  0.00000000E+00  0.00000000E+00  0.00000000E+00
  0.00000000E+00  0.00000000E+00  0.00000000E+00
  0.00000000E+00  0.00000000E+00  0.00000000E+00
  0.00000000E+00  0.00000000E+00  0.00000000E+00
  0.00000000E+00  0.00000000E+00  0.00000000E+00
  0.00000000E+00  0.00000000E+00  0.00000000E+00
  0.00000000E+00  0.00000000E+00  0.00000000E+00
  0.00000000E+00  0.00000000E+00  0.00000000E+00
  0.00000000E+00  0.00000000E+00  0.00000000E+00
  0.00000000E+00  0.00000000E+00  0.00000000E+00
  0.00000000E+00  0.00000000E+00  0.00000000E+00
  0.00000000E+00  0.00000000E+00  0.00000000E+00
  0.00000000E+00  0.00000000E+00  0.00000000E+00
  0.00000000E+00  0.00000000E+00  0.00000000E+00
  0.00000000E+00  0.00000000E+00  0.00000000E+00
  0.00000000E+00  0.00000000E+00  0.00000000E+00
  0.00000000E+00  0.00000000E+00  0.00000000E+00
  0.00000000E+00  0.00000000E+00  0.00000000E+00
  0.00000000E+00  0.00000000E+00  0.00000000E+00
  0.00000000E+00  0.00000000E+00  0.00000000E+00
  0.00000000E+00  0.00000000E+00  0.00000000E+00
  0.00000000E+00  0.00000000E+00  0.00000000E+00
  0.00000000E+00  0.00000000E+00  0.00000000E+00
  0.00000000E+00  0.00000000E+00  0.00000000E+00
  0.00000000E+00  0.00000000E+00  0.00000000E+00
  0.00000000E+00  0.00000000E+00  0.00000000E+00
  0.00000000E+00  0.00000000E+00  0.00000000E+00
  0.00000000E+00  0.00000000E+00  0.00000000E+00
  0.00000000E+00  0.00000000E+00  0.00000000E+00
  0.00000000E+00  0.00000000E+00  0.00000000E+00
  0.00000000E+00  0.00000000E+00  0.00000000E+00
  0.00000000E+00  0.00000000E+00  0.00000000E+00
  0.00000000E+00  0.00000000E+00  0.00000000E+00
  0.00000000E+00  0.00000000E+00  0.00000000E+00
  0.00000000E+00  0.00000000E+00  0.00000000E+00
  0.00000000E+00  0.00000000E+00  0.00000000E+00
  0.00000000E+00  0.00000000E+00  0.00000000E+00
  0.00000000E+00  0.00000000E+00  0.00000000E+00
  0.00000000E+00  0.00000000E+00  0.00000000E+00
  0.00000000E+00  0.00000000E+00  0.00000000E+00
  0.00000000E+00  0.00000000E+00  0.00000000E+00
  0.00000000E+00  0.00000000E+00  0.00000000E+00
  0.00000000E+00  0.00000000E+00  0.00000000E+00
