Be8 In10                                
   1.00000000000000     
     6.1710785859013324    0.0787534355421926    0.3025123408992224
    -3.0241024314701330    5.3771495118316706   -0.3117289051907039
     0.5666355480097782   -0.3102210453086682   10.9707192618777150
   In   Be
    10     8
Direct
  0.8172783620840676  0.5181408497571383  0.0388553959792688
  0.0443746902185396  0.2081910711649684  0.1774752550867902
  0.5669761624289364  0.6410429668661948  0.3190287369341576
  0.4772494041023165  0.1088135621548787  0.2510558153347660
  0.8925412252764957  0.2957380395896294  0.4558715426571354
  0.2941456670888414  0.8927164642784788  0.5444996392865491
  0.2068919811602541  0.0431656899004480  0.8238171942787602
  0.6401618881096880  0.5659082189048092  0.6824781187502325
  0.1086389991041514  0.4764496708304478  0.7489041026581376
  0.5190474543690016  0.8181447033437692  0.9610071358036549
  0.2478280750720145  0.6552932381727743  0.1400168367828272
  0.0089330448248290  0.8035602241190816  0.2171703140681771
  0.9923327241063191  0.8971861853507050  0.4070493127687769
  0.1665492078348763  0.6641675437848278  0.3329674184491296
  0.6638496337260733  0.1658008816530980  0.6665930303686807
  0.8951400166122738  0.9904009730106225  0.5920235516710335
  0.8034922860236549  0.0084709870798250  0.7822227128514498
  0.6550691778576834  0.2473087300383341  0.8594638862704755
 
  0.00000000E+00  0.00000000E+00  0.00000000E+00
  0.00000000E+00  0.00000000E+00  0.00000000E+00
  0.00000000E+00  0.00000000E+00  0.00000000E+00
  0.00000000E+00  0.00000000E+00  0.00000000E+00
  0.00000000E+00  0.00000000E+00  0.00000000E+00
  0.00000000E+00  0.00000000E+00  0.00000000E+00
  0.00000000E+00  0.00000000E+00  0.00000000E+00
  0.00000000E+00  0.00000000E+00  0.00000000E+00
  0.00000000E+00  0.00000000E+00  0.00000000E+00
  0.00000000E+00  0.00000000E+00  0.00000000E+00
  0.00000000E+00  0.00000000E+00  0.00000000E+00
  0.00000000E+00  0.00000000E+00  0.00000000E+00
  0.00000000E+00  0.00000000E+00  0.00000000E+00
  0.00000000E+00  0.00000000E+00  0.00000000E+00
  0.00000000E+00  0.00000000E+00  0.00000000E+00
  0.00000000E+00  0.00000000E+00  0.00000000E+00
  0.00000000E+00  0.00000000E+00  0.00000000E+00
  0.00000000E+00  0.00000000E+00  0.00000000E+00
