Br1                                     
   1.00000000000000     
     3.0822054368094349   -0.0000000022029825   -1.0897245671671822
    -1.5411032132464413    2.6692698786391498   -1.0897245671180089
    -0.0000000020868619    0.0000000065059058    3.2691727096964707
   Br
     1
Direct
  0.0000000000000000  0.0000000000000000  0.0000000000000000
 
  0.00000000E+00  0.00000000E+00  0.00000000E+00
