Ca1 Tl2 F10                             
   1.0000000000000000     
     3.1733449110538197    4.6887165887475124    0.9071996781775253
    -3.1733449110538197    4.6887165887475124    0.9071996781775253
     0.0000000000000000    4.8734642277629234    6.9438882596285776
   Ca   Tl   F 
     1     2    10
Direct
  0.5478023229413225  0.4521976770586775  0.0000000000000000
  0.0789224464208687  0.0497192682353997  0.6975828457999640
  0.9502807317646003  0.9210775535791313  0.3024171542000289
  0.3873030771458801  0.4701489803836267  0.6212722017728964
  0.5298510196163733  0.6126969228541270  0.3787277982271036
  0.8632121655396574  0.6461835189019141  0.9627272554100585
  0.3538164810980930  0.1367878344603497  0.0372727445899415
  0.9081895734376459  0.0918104265623541  0.0000000000000000
  0.9731250003901337  0.0268749996098663  0.5000000000000000
  0.8599497715201352  0.4799125258042523  0.6420428204839723
  0.5200874741957477  0.1400502284798648  0.3579571795160277
  0.4332923124108490  0.8618333764813286  0.7575692398760197
  0.1381666235186714  0.5667076875891510  0.2424307601239803

  0.00000000E+00  0.00000000E+00  0.00000000E+00
  0.00000000E+00  0.00000000E+00  0.00000000E+00
  0.00000000E+00  0.00000000E+00  0.00000000E+00
  0.00000000E+00  0.00000000E+00  0.00000000E+00
  0.00000000E+00  0.00000000E+00  0.00000000E+00
  0.00000000E+00  0.00000000E+00  0.00000000E+00
  0.00000000E+00  0.00000000E+00  0.00000000E+00
  0.00000000E+00  0.00000000E+00  0.00000000E+00
  0.00000000E+00  0.00000000E+00  0.00000000E+00
  0.00000000E+00  0.00000000E+00  0.00000000E+00
  0.00000000E+00  0.00000000E+00  0.00000000E+00
  0.00000000E+00  0.00000000E+00  0.00000000E+00
  0.00000000E+00  0.00000000E+00  0.00000000E+00
