Sr2 B2 F10                              
   1.00000000000000     
     4.3675734460811313    0.3164162157505195    2.0427160907990340
     1.2658444649356826    4.1920702842399944    2.0427161822069904
    -0.0189992175866264   -0.0152039891509616    8.1991865348370574
   Sr   B    F 
     2     2    10
Direct
  0.5057106658355011  0.4942893341783900  0.2500000002253628
  0.4942893341644989  0.5057106658216100  0.7499999997746372
  0.0000000000000000  0.0000000000000000  0.5000000000000000
  0.0000000000000000  0.0000000000000000  0.0000000000000000
  0.0281936488755292  0.6546550278730621  0.5813524479339875
  0.3453449720448774  0.9718053518999028  0.9186475521085669
  0.9718053511244875  0.3453449721269379  0.4186485520660170
  0.6546550279551226  0.0281936481000997  0.0813524478914331
  0.9938624710140544  0.0061375289050076  0.7500000002073079
  0.0061375289859456  0.9938624710949924  0.2499999997926921
  0.8871927414628047  0.3789929301635766  0.9357307027222959
  0.6210070679688116  0.1128072603655852  0.5642692973513874
  0.1128072585371953  0.6210070698364234  0.0642692972777041
  0.3789929320311884  0.8871927396344148  0.4357307026486126
 
  0.00000000E+00  0.00000000E+00  0.00000000E+00
  0.00000000E+00  0.00000000E+00  0.00000000E+00
  0.00000000E+00  0.00000000E+00  0.00000000E+00
  0.00000000E+00  0.00000000E+00  0.00000000E+00
  0.00000000E+00  0.00000000E+00  0.00000000E+00
  0.00000000E+00  0.00000000E+00  0.00000000E+00
  0.00000000E+00  0.00000000E+00  0.00000000E+00
  0.00000000E+00  0.00000000E+00  0.00000000E+00
  0.00000000E+00  0.00000000E+00  0.00000000E+00
  0.00000000E+00  0.00000000E+00  0.00000000E+00
  0.00000000E+00  0.00000000E+00  0.00000000E+00
  0.00000000E+00  0.00000000E+00  0.00000000E+00
  0.00000000E+00  0.00000000E+00  0.00000000E+00
  0.00000000E+00  0.00000000E+00  0.00000000E+00
