Tl28 I36                                
   1.0000000000000000     
    13.9913371106752518    0.0027352237331166    0.0027353276096299
     0.0027353276096299   13.9913371106752518    0.0027352237331166
     0.0027352237331166    0.0027353276096299   13.9913371106752518
   I    Tl
    36    28
Direct
  0.0000601025950928  0.0000601025950928  0.0000601025950928
  0.4999354691167355  0.5000529744731139  0.9999543795386430
  0.4471118554040885  0.2082690692240803  0.0421125181640321
  0.0528836126254575  0.7083284702136297  0.0422675563403629
  0.7083284702136297  0.0422675563403629  0.0528836126254575
  0.7918286662851415  0.5422372686480514  0.0528716967206222
  0.1862754177796120  0.1862754177796120  0.1862754177796120
  0.3138628110376587  0.6862738913531103  0.1862017689274822
  0.0421125181640321  0.4471118554040885  0.2082690692240803
  0.4578922634303524  0.9471788082649084  0.2082169103778710
  0.5421327258666224  0.4470711962627689  0.2916929452239856
  0.9579108492786332  0.9471271664546634  0.2917572505673149
  0.6862738913531103  0.1862017689274822  0.3138628110376587
  0.8138515928452392  0.6861723256964467  0.3140040146247927
  0.2082690692240803  0.0421125181640321  0.4471118554040885
  0.2916929452239856  0.5421327258666224  0.4470711962627689
  0.9471788082649084  0.2082169103778710  0.4578922634303524
  0.5528724421513758  0.7082632741095622  0.4577867522145738
  0.5000529744731139  0.9999543795386430  0.4999354691167355
  0.9999543795386430  0.4999354691167355  0.5000529744731139
  0.4470711962627689  0.2916929452239856  0.5421327258666224
  0.0528716967206222  0.7918286662851415  0.5422372686480514
  0.7082632741095622  0.4577867522145738  0.5528724421513758
  0.7918012338755176  0.9578026995522393  0.5529569789841133
  0.1862017689274822  0.3138628110376587  0.6862738913531103
  0.3140040146247927  0.8138515928452392  0.6861723256964467
  0.0422675563403629  0.0528836126254575  0.7083284702136297
  0.4577867522145738  0.5528724421513758  0.7082632741095622
  0.5422372686480514  0.0528716967206222  0.7918286662851415
  0.9578026995522393  0.5529569789841133  0.7918012338755176
  0.6861723256964467  0.3140040146247927  0.8138515928452392
  0.8138401660080277  0.8138401660080277  0.8138401660080277
  0.2082169103778710  0.4578922634303524  0.9471788082649084
  0.2917572505673149  0.9579108492786332  0.9471271664546634
  0.9471271664546634  0.2917572505673149  0.9579108492786332
  0.5529569789841133  0.7918012338755176  0.9578026995522393
  0.5000352765210891  0.0001069117357559  0.9998759577654539
  0.9998759577654539  0.5000352765210891  0.0001069117357559
  0.6703580598645971  0.3109103845320220  0.0534696443439273
  0.8296837663147372  0.8109132851260981  0.0535878285312350
  0.3108078844462057  0.4465853670809992  0.1704289017039429
  0.1893087701048941  0.9465924575519438  0.1704066590550539
  0.9465924575519438  0.1704066590550539  0.1893087701048941
  0.5535703773996659  0.6703202669606085  0.1891548878848397
  0.4465853670809992  0.1704289017039429  0.3108078844462057
  0.0534696443439273  0.6703580598645971  0.3109103845320220
  0.8107506955167807  0.4465141893534081  0.3296277432761769
  0.6892372895283003  0.9464717624766621  0.3296904465511474
  0.1704289017039429  0.3108078844462057  0.4465853670809992
  0.3296277432761769  0.8107506955167807  0.4465141893534081
  0.0001069117357559  0.9998759577654539  0.5000352765210891
  0.4999286822527864  0.4999286822527864  0.4999286822527864
  0.6703202669606085  0.1891548878848397  0.5535703773996659
  0.8297602617796329  0.6890555345089169  0.5535875835972135
  0.3109103845320220  0.0534696443439273  0.6703580598645971
  0.1891548878848397  0.5535703773996659  0.6703202669606085
  0.9464717624766621  0.3296904465511474  0.6892372895283003
  0.5535875835972135  0.8297602617796329  0.6890555345089169
  0.4465141893534081  0.3296277432761769  0.8107506955167807
  0.0535878285312350  0.8296837663147372  0.8109132851260981
  0.8109132851260981  0.0535878285312350  0.8296837663147372
  0.6890555345089169  0.5535875835972135  0.8297602617796329
  0.1704066590550539  0.1893087701048941  0.9465924575519438
  0.3296904465511474  0.6892372895283003  0.9464717624766621

  0.00000000E+00  0.00000000E+00  0.00000000E+00
  0.00000000E+00  0.00000000E+00  0.00000000E+00
  0.00000000E+00  0.00000000E+00  0.00000000E+00
  0.00000000E+00  0.00000000E+00  0.00000000E+00
  0.00000000E+00  0.00000000E+00  0.00000000E+00
  0.00000000E+00  0.00000000E+00  0.00000000E+00
  0.00000000E+00  0.00000000E+00  0.00000000E+00
  0.00000000E+00  0.00000000E+00  0.00000000E+00
  0.00000000E+00  0.00000000E+00  0.00000000E+00
  0.00000000E+00  0.00000000E+00  0.00000000E+00
  0.00000000E+00  0.00000000E+00  0.00000000E+00
  0.00000000E+00  0.00000000E+00  0.00000000E+00
  0.00000000E+00  0.00000000E+00  0.00000000E+00
  0.00000000E+00  0.00000000E+00  0.00000000E+00
  0.00000000E+00  0.00000000E+00  0.00000000E+00
  0.00000000E+00  0.00000000E+00  0.00000000E+00
  0.00000000E+00  0.00000000E+00  0.00000000E+00
  0.00000000E+00  0.00000000E+00  0.00000000E+00
  0.00000000E+00  0.00000000E+00  0.00000000E+00
  0.00000000E+00  0.00000000E+00  0.00000000E+00
  0.00000000E+00  0.00000000E+00  0.00000000E+00
  0.00000000E+00  0.00000000E+00  0.00000000E+00
  0.00000000E+00  0.00000000E+00  0.00000000E+00
  0.00000000E+00  0.00000000E+00  0.00000000E+00
  0.00000000E+00  0.00000000E+00  0.00000000E+00
  0.00000000E+00  0.00000000E+00  0.00000000E+00
  0.00000000E+00  0.00000000E+00  0.00000000E+00
  0.00000000E+00  0.00000000E+00  0.00000000E+00
  0.00000000E+00  0.00000000E+00  0.00000000E+00
  0.00000000E+00  0.00000000E+00  0.00000000E+00
  0.00000000E+00  0.00000000E+00  0.00000000E+00
  0.00000000E+00  0.00000000E+00  0.00000000E+00
  0.00000000E+00  0.00000000E+00  0.00000000E+00
  0.00000000E+00  0.00000000E+00  0.00000000E+00
  0.00000000E+00  0.00000000E+00  0.00000000E+00
  0.00000000E+00  0.00000000E+00  0.00000000E+00
  0.00000000E+00  0.00000000E+00  0.00000000E+00
  0.00000000E+00  0.00000000E+00  0.00000000E+00
  0.00000000E+00  0.00000000E+00  0.00000000E+00
  0.00000000E+00  0.00000000E+00  0.00000000E+00
  0.00000000E+00  0.00000000E+00  0.00000000E+00
  0.00000000E+00  0.00000000E+00  0.00000000E+00
  0.00000000E+00  0.00000000E+00  0.00000000E+00
  0.00000000E+00  0.00000000E+00  0.00000000E+00
  0.00000000E+00  0.00000000E+00  0.00000000E+00
  0.00000000E+00  0.00000000E+00  0.00000000E+00
  0.00000000E+00  0.00000000E+00  0.00000000E+00
  0.00000000E+00  0.00000000E+00  0.00000000E+00
  0.00000000E+00  0.00000000E+00  0.00000000E+00
  0.00000000E+00  0.00000000E+00  0.00000000E+00
  0.00000000E+00  0.00000000E+00  0.00000000E+00
  0.00000000E+00  0.00000000E+00  0.00000000E+00
  0.00000000E+00  0.00000000E+00  0.00000000E+00
  0.00000000E+00  0.00000000E+00  0.00000000E+00
  0.00000000E+00  0.00000000E+00  0.00000000E+00
  0.00000000E+00  0.00000000E+00  0.00000000E+00
  0.00000000E+00  0.00000000E+00  0.00000000E+00
  0.00000000E+00  0.00000000E+00  0.00000000E+00
  0.00000000E+00  0.00000000E+00  0.00000000E+00
  0.00000000E+00  0.00000000E+00  0.00000000E+00
  0.00000000E+00  0.00000000E+00  0.00000000E+00
  0.00000000E+00  0.00000000E+00  0.00000000E+00
  0.00000000E+00  0.00000000E+00  0.00000000E+00
  0.00000000E+00  0.00000000E+00  0.00000000E+00
