In3Cl                                   
   1.00000000000000     
    -2.2612837671321282    2.2612837671321282    5.6263408728629729
     2.2612837671321282   -2.2612837671321282    5.6263408728629729
     2.2612837671321282    2.2612837671321282   -5.6263408728629729
   Cl   In
     1     3
Direct
  0.0000000000000000  0.0000000000000000  0.0000000000000000
  0.7500000000000000  0.2500000000000000  0.5000000000000000
  0.2500000000000000  0.7500000000000000  0.5000000000000000
  0.5000000000000000  0.5000000000000000  0.0000000000000000
 
  0.00000000E+00  0.00000000E+00  0.00000000E+00
  0.00000000E+00  0.00000000E+00  0.00000000E+00
  0.00000000E+00  0.00000000E+00  0.00000000E+00
  0.00000000E+00  0.00000000E+00  0.00000000E+00
