Be1 Al4                                 
   1.00000000000000     
    -4.4557561246936750   -0.7115735350025973    0.8705030719558148
    -0.7115735350025973   -4.4557561246936732    0.8705030719558150
     1.0185201724297874    1.0185201724297881    3.8265005307516238
   Al   Be
     4     1
Direct
  0.6893719483302050  0.6893719483302050  0.0631829638804504
  0.7495376546223866  0.2504623453776134  0.5000000000000000
  0.2504623453776134  0.7495376546223866  0.5000000000000000
  0.3106280516697950  0.3106280516697950  0.9368170361195496
  0.0000000000000000  0.0000000000000000  0.0000000000000000
 
  0.00000000E+00  0.00000000E+00  0.00000000E+00
  0.00000000E+00  0.00000000E+00  0.00000000E+00
  0.00000000E+00  0.00000000E+00  0.00000000E+00
  0.00000000E+00  0.00000000E+00  0.00000000E+00
  0.00000000E+00  0.00000000E+00  0.00000000E+00
