Mg16 B16 F80                            
   1.0000000000000000     
    13.0784691736166661    0.0000024841779227    0.0000000000000007
    -0.0000024841779232   13.0784691736166661    0.0000000000000007
     0.0000000000000000    0.0000000000000000    7.2540345093590339
   Mg   B    F 
    16    16    80
Direct
  0.4449844533147740  0.7490336811105465  0.5131354761036917
  0.2490336811105465  0.0550155466852260  0.0131354761036846
  0.7509663188894393  0.9449844533147740  0.0131354761036846
  0.5550155466852260  0.2509663188894464  0.5131354761036917
  0.3093313180641672  0.1066492673872048  0.5056790423504580
  0.6066492673871977  0.1906686819358256  0.0056790423504438
  0.3933507326127881  0.8093313180641601  0.0056790423504438
  0.6906686819358399  0.8933507326128023  0.5056790423504580
  0.9449844533147740  0.2490336811105465  0.0131354761036846
  0.7490336811105465  0.5550155466852260  0.5131354761036917
  0.2509663188894464  0.4449844533147740  0.5131354761036917
  0.0550155466852260  0.7509663188894393  0.0131354761036846
  0.8093313180641601  0.6066492673871977  0.0056790423504438
  0.1066492673872048  0.6906686819358399  0.5056790423504580
  0.8933507326128023  0.3093313180641672  0.5056790423504580
  0.1906686819358256  0.3933507326127881  0.0056790423504438
  0.0000000000000000  0.0000000000000000  0.5970587997613634
  0.0000000000000000  0.0000000000000000  0.1017968492996957
  0.5000000000000000  0.0000000000000000  0.1175396517244423
  0.5000000000000000  0.0000000000000000  0.6175396517244280
  0.3967900366002155  0.3052770276279588  0.0781326993266021
  0.8052770276279517  0.1032099633997845  0.5781326993265878
  0.1947229723720412  0.8967900366002155  0.5781326993265878
  0.6032099633997845  0.6947229723720483  0.0781326993266021
  0.5000000000000000  0.5000000000000000  0.0970587997613777
  0.5000000000000000  0.5000000000000000  0.6017968492996957
  0.0000000000000000  0.5000000000000000  0.6175396517244280
  0.0000000000000000  0.5000000000000000  0.1175396517244423
  0.8967900366002155  0.8052770276279517  0.5781326993265878
  0.3052770276279588  0.6032099633997845  0.0781326993266021
  0.6947229723720483  0.3967900366002155  0.0781326993266021
  0.1032099633997845  0.1947229723720412  0.5781326993265878
  0.0000000000000000  0.0000000000000000  0.7775126535095964
  0.0000000000000000  0.0000000000000000  0.2890791917467936
  0.0925272391367287  0.0785846448761021  0.5436837401802563
  0.5785846448761021  0.4074727608632855  0.0436837401802705
  0.4214153551239050  0.5925272391367358  0.0436837401802705
  0.9074727608632642  0.9214153551238979  0.5436837401802563
  0.1030471553513976  0.0609163839294879  0.0526571166868521
  0.5609163839294951  0.3969528446486024  0.5526571166868521
  0.4390836160705049  0.6030471553513905  0.5526571166868521
  0.8969528446486095  0.9390836160705049  0.0526571166868521
  0.5000000000000000  0.0000000000000000  0.7944954113793088
  0.5000000000000000  0.0000000000000000  0.2944954113792946
  0.4711196032738130  0.0891951870649166  0.0436530907996300
  0.5891951870649308  0.0288803967261870  0.5436530907996300
  0.4108048129350763  0.9711196032738059  0.5436530907996300
  0.5288803967261941  0.9108048129350692  0.0436530907996300
  0.4401899275505627  0.1638298167970120  0.5507328181806770
  0.6638298167970049  0.0598100724494373  0.0507328181806841
  0.3361701832029738  0.9401899275505698  0.0507328181806841
  0.5598100724494159  0.8361701832029951  0.5507328181806770
  0.4671599982831580  0.2630702575511492  0.9584459561155612
  0.7630702575511421  0.0328400017168491  0.4584459561155469
  0.2369297424488366  0.9671599982831438  0.4584459561155469
  0.5328400017168562  0.7369297424488579  0.9584459561155612
  0.4115430938717353  0.2905394049843935  0.2601624471186170
  0.7905394049843864  0.0884569061282718  0.7601624471186170
  0.2094605950156065  0.9115430938717211  0.7601624471186170
  0.5884569061282789  0.7094605950156136  0.2601624471186170
  0.2807541305968755  0.0996419902903156  0.7708961487883315
  0.5996419902903156  0.2192458694031245  0.2708961487883386
  0.4003580097096773  0.7807541305968897  0.2708961487883386
  0.7192458694031103  0.9003580097096844  0.7708961487883315
  0.2898893871812191  0.1138473961502768  0.2427687335600410
  0.6138473961502626  0.2101106128187809  0.7427687335600339
  0.3861526038497232  0.7898893871812120  0.7427687335600339
  0.7101106128187880  0.8861526038497374  0.2427687335600410
  0.7986878207963528  0.7824294273187249  0.5155170756580176
  0.2824294273187462  0.7013121792036472  0.0155170756580247
  0.7175705726812751  0.2986878207963457  0.0155170756580247
  0.2013121792036401  0.2175705726812609  0.5155170756580176
  0.5000000000000000  0.5000000000000000  0.2775126535095893
  0.5000000000000000  0.5000000000000000  0.7890791917467794
  0.5925272391367358  0.5785846448761021  0.0436837401802705
  0.0785846448761021  0.9074727608632642  0.5436837401802563
  0.9214153551238979  0.0925272391367287  0.5436837401802563
  0.4074727608632855  0.4214153551239050  0.0436837401802705
  0.6030471553513905  0.5609163839294951  0.5526571166868521
  0.0609163839294879  0.8969528446486095  0.0526571166868521
  0.9390836160705049  0.1030471553513976  0.0526571166868521
  0.3969528446486024  0.4390836160705049  0.5526571166868521
  0.0000000000000000  0.5000000000000000  0.2944954113792946
  0.0000000000000000  0.5000000000000000  0.7944954113793088
  0.9711196032738059  0.5891951870649308  0.5436530907996300
  0.0891951870649166  0.5288803967261941  0.0436530907996300
  0.9108048129350692  0.4711196032738130  0.0436530907996300
  0.0288803967261870  0.4108048129350763  0.5436530907996300
  0.9401899275505698  0.6638298167970049  0.0507328181806841
  0.1638298167970120  0.5598100724494159  0.5507328181806770
  0.8361701832029951  0.4401899275505627  0.5507328181806770
  0.0598100724494373  0.3361701832029738  0.0507328181806841
  0.9671599982831438  0.7630702575511421  0.4584459561155469
  0.2630702575511492  0.5328400017168562  0.9584459561155612
  0.7369297424488579  0.4671599982831580  0.9584459561155612
  0.0328400017168491  0.2369297424488366  0.4584459561155469
  0.9115430938717211  0.7905394049843864  0.7601624471186170
  0.2905394049843935  0.5884569061282789  0.2601624471186170
  0.7094605950156136  0.4115430938717353  0.2601624471186170
  0.0884569061282718  0.2094605950156065  0.7601624471186170
  0.7807541305968897  0.5996419902903156  0.2708961487883386
  0.0996419902903156  0.7192458694031103  0.7708961487883315
  0.9003580097096844  0.2807541305968755  0.7708961487883315
  0.2192458694031245  0.4003580097096773  0.2708961487883386
  0.7898893871812120  0.6138473961502626  0.7427687335600339
  0.1138473961502768  0.7101106128187880  0.2427687335600410
  0.8861526038497374  0.2898893871812191  0.2427687335600410
  0.2101106128187809  0.3861526038497232  0.7427687335600339
  0.2986878207963457  0.2824294273187462  0.0155170756580247
  0.7824294273187249  0.2013121792036401  0.5155170756580176
  0.2175705726812609  0.7986878207963528  0.5155170756580176
  0.7013121792036472  0.7175705726812751  0.0155170756580247

  0.00000000E+00  0.00000000E+00  0.00000000E+00
  0.00000000E+00  0.00000000E+00  0.00000000E+00
  0.00000000E+00  0.00000000E+00  0.00000000E+00
  0.00000000E+00  0.00000000E+00  0.00000000E+00
  0.00000000E+00  0.00000000E+00  0.00000000E+00
  0.00000000E+00  0.00000000E+00  0.00000000E+00
  0.00000000E+00  0.00000000E+00  0.00000000E+00
  0.00000000E+00  0.00000000E+00  0.00000000E+00
  0.00000000E+00  0.00000000E+00  0.00000000E+00
  0.00000000E+00  0.00000000E+00  0.00000000E+00
  0.00000000E+00  0.00000000E+00  0.00000000E+00
  0.00000000E+00  0.00000000E+00  0.00000000E+00
  0.00000000E+00  0.00000000E+00  0.00000000E+00
  0.00000000E+00  0.00000000E+00  0.00000000E+00
  0.00000000E+00  0.00000000E+00  0.00000000E+00
  0.00000000E+00  0.00000000E+00  0.00000000E+00
  0.00000000E+00  0.00000000E+00  0.00000000E+00
  0.00000000E+00  0.00000000E+00  0.00000000E+00
  0.00000000E+00  0.00000000E+00  0.00000000E+00
  0.00000000E+00  0.00000000E+00  0.00000000E+00
  0.00000000E+00  0.00000000E+00  0.00000000E+00
  0.00000000E+00  0.00000000E+00  0.00000000E+00
  0.00000000E+00  0.00000000E+00  0.00000000E+00
  0.00000000E+00  0.00000000E+00  0.00000000E+00
  0.00000000E+00  0.00000000E+00  0.00000000E+00
  0.00000000E+00  0.00000000E+00  0.00000000E+00
  0.00000000E+00  0.00000000E+00  0.00000000E+00
  0.00000000E+00  0.00000000E+00  0.00000000E+00
  0.00000000E+00  0.00000000E+00  0.00000000E+00
  0.00000000E+00  0.00000000E+00  0.00000000E+00
  0.00000000E+00  0.00000000E+00  0.00000000E+00
  0.00000000E+00  0.00000000E+00  0.00000000E+00
  0.00000000E+00  0.00000000E+00  0.00000000E+00
  0.00000000E+00  0.00000000E+00  0.00000000E+00
  0.00000000E+00  0.00000000E+00  0.00000000E+00
  0.00000000E+00  0.00000000E+00  0.00000000E+00
  0.00000000E+00  0.00000000E+00  0.00000000E+00
  0.00000000E+00  0.00000000E+00  0.00000000E+00
  0.00000000E+00  0.00000000E+00  0.00000000E+00
  0.00000000E+00  0.00000000E+00  0.00000000E+00
  0.00000000E+00  0.00000000E+00  0.00000000E+00
  0.00000000E+00  0.00000000E+00  0.00000000E+00
  0.00000000E+00  0.00000000E+00  0.00000000E+00
  0.00000000E+00  0.00000000E+00  0.00000000E+00
  0.00000000E+00  0.00000000E+00  0.00000000E+00
  0.00000000E+00  0.00000000E+00  0.00000000E+00
  0.00000000E+00  0.00000000E+00  0.00000000E+00
  0.00000000E+00  0.00000000E+00  0.00000000E+00
  0.00000000E+00  0.00000000E+00  0.00000000E+00
  0.00000000E+00  0.00000000E+00  0.00000000E+00
  0.00000000E+00  0.00000000E+00  0.00000000E+00
  0.00000000E+00  0.00000000E+00  0.00000000E+00
  0.00000000E+00  0.00000000E+00  0.00000000E+00
  0.00000000E+00  0.00000000E+00  0.00000000E+00
  0.00000000E+00  0.00000000E+00  0.00000000E+00
  0.00000000E+00  0.00000000E+00  0.00000000E+00
  0.00000000E+00  0.00000000E+00  0.00000000E+00
  0.00000000E+00  0.00000000E+00  0.00000000E+00
  0.00000000E+00  0.00000000E+00  0.00000000E+00
  0.00000000E+00  0.00000000E+00  0.00000000E+00
  0.00000000E+00  0.00000000E+00  0.00000000E+00
  0.00000000E+00  0.00000000E+00  0.00000000E+00
  0.00000000E+00  0.00000000E+00  0.00000000E+00
  0.00000000E+00  0.00000000E+00  0.00000000E+00
  0.00000000E+00  0.00000000E+00  0.00000000E+00
  0.00000000E+00  0.00000000E+00  0.00000000E+00
  0.00000000E+00  0.00000000E+00  0.00000000E+00
  0.00000000E+00  0.00000000E+00  0.00000000E+00
  0.00000000E+00  0.00000000E+00  0.00000000E+00
  0.00000000E+00  0.00000000E+00  0.00000000E+00
  0.00000000E+00  0.00000000E+00  0.00000000E+00
  0.00000000E+00  0.00000000E+00  0.00000000E+00
  0.00000000E+00  0.00000000E+00  0.00000000E+00
  0.00000000E+00  0.00000000E+00  0.00000000E+00
  0.00000000E+00  0.00000000E+00  0.00000000E+00
  0.00000000E+00  0.00000000E+00  0.00000000E+00
  0.00000000E+00  0.00000000E+00  0.00000000E+00
  0.00000000E+00  0.00000000E+00  0.00000000E+00
  0.00000000E+00  0.00000000E+00  0.00000000E+00
  0.00000000E+00  0.00000000E+00  0.00000000E+00
  0.00000000E+00  0.00000000E+00  0.00000000E+00
  0.00000000E+00  0.00000000E+00  0.00000000E+00
  0.00000000E+00  0.00000000E+00  0.00000000E+00
  0.00000000E+00  0.00000000E+00  0.00000000E+00
  0.00000000E+00  0.00000000E+00  0.00000000E+00
  0.00000000E+00  0.00000000E+00  0.00000000E+00
  0.00000000E+00  0.00000000E+00  0.00000000E+00
  0.00000000E+00  0.00000000E+00  0.00000000E+00
  0.00000000E+00  0.00000000E+00  0.00000000E+00
  0.00000000E+00  0.00000000E+00  0.00000000E+00
  0.00000000E+00  0.00000000E+00  0.00000000E+00
  0.00000000E+00  0.00000000E+00  0.00000000E+00
  0.00000000E+00  0.00000000E+00  0.00000000E+00
  0.00000000E+00  0.00000000E+00  0.00000000E+00
  0.00000000E+00  0.00000000E+00  0.00000000E+00
  0.00000000E+00  0.00000000E+00  0.00000000E+00
  0.00000000E+00  0.00000000E+00  0.00000000E+00
  0.00000000E+00  0.00000000E+00  0.00000000E+00
  0.00000000E+00  0.00000000E+00  0.00000000E+00
  0.00000000E+00  0.00000000E+00  0.00000000E+00
  0.00000000E+00  0.00000000E+00  0.00000000E+00
  0.00000000E+00  0.00000000E+00  0.00000000E+00
  0.00000000E+00  0.00000000E+00  0.00000000E+00
  0.00000000E+00  0.00000000E+00  0.00000000E+00
  0.00000000E+00  0.00000000E+00  0.00000000E+00
  0.00000000E+00  0.00000000E+00  0.00000000E+00
  0.00000000E+00  0.00000000E+00  0.00000000E+00
  0.00000000E+00  0.00000000E+00  0.00000000E+00
  0.00000000E+00  0.00000000E+00  0.00000000E+00
  0.00000000E+00  0.00000000E+00  0.00000000E+00
  0.00000000E+00  0.00000000E+00  0.00000000E+00
  0.00000000E+00  0.00000000E+00  0.00000000E+00
