Ba4 In10 Cl2                            
   1.0000000000000000     
    10.7521997349372587    1.7531029869875916   -4.5532216333365607
     1.7022724191497800   10.9039215569387942   -4.6435301347083469
     2.9799552402123117    2.9896583306499771    2.7299076124593769
   Cl   Ba   In
     2     4    10
Direct
  0.8352362887544373  0.6278800578697457  0.5411700028650088
  0.1645569053406817  0.3545911992435009  0.4773502364231561
  0.3263362315429745  0.2189928353755093  0.9474311095083081
  0.8641652581588559  0.3382478145422780  0.8006789624817827
  0.1092294179924522  0.6514100829338005  0.2371063828210822
  0.6672123329366357  0.7525806027628050  0.0831356740686786
  0.1020459937587006  0.9899900706426052  0.9092462804452808
  0.4865864150824422  0.5915894206328502  0.9246391948261561
  0.4163426213823485  0.9058793136911731  0.6770372492078280
  0.0209220993592183  0.1360963108040849  0.3457247695335610
  0.6215309269176643  0.4314694718650784  0.4471357079607614
  0.2769818247409219  0.8502196391844592  0.3707910367038636
  0.7152900886849380  0.1362309305617160  0.6483269340769908
  0.3359883633071803  0.5597503988303032  0.6056123151222792
  0.9465311048402612  0.8874271992403635  0.6654508998695903
  0.6109441272002769  0.0675446518197234  0.3191632440856651

  0.00000000E+00  0.00000000E+00  0.00000000E+00
  0.00000000E+00  0.00000000E+00  0.00000000E+00
  0.00000000E+00  0.00000000E+00  0.00000000E+00
  0.00000000E+00  0.00000000E+00  0.00000000E+00
  0.00000000E+00  0.00000000E+00  0.00000000E+00
  0.00000000E+00  0.00000000E+00  0.00000000E+00
  0.00000000E+00  0.00000000E+00  0.00000000E+00
  0.00000000E+00  0.00000000E+00  0.00000000E+00
  0.00000000E+00  0.00000000E+00  0.00000000E+00
  0.00000000E+00  0.00000000E+00  0.00000000E+00
  0.00000000E+00  0.00000000E+00  0.00000000E+00
  0.00000000E+00  0.00000000E+00  0.00000000E+00
  0.00000000E+00  0.00000000E+00  0.00000000E+00
  0.00000000E+00  0.00000000E+00  0.00000000E+00
  0.00000000E+00  0.00000000E+00  0.00000000E+00
  0.00000000E+00  0.00000000E+00  0.00000000E+00
