Ba6 Tl10                                
   1.0000000000000000     
    -5.7152707703393606   -4.5808354089804899    0.0913717135634480
    -5.7165614941248082    4.5821456974146590   -0.0891377205314478
     0.0026159164089617    0.2168288505232793  -11.6017301016622838
   Ba   Tl
     6    10
Direct
  0.2890220153142380  0.2890349932693823  0.9999600665430393
  0.7108752088844810  0.7112033480936688  0.0001133661556096
  0.1302010076629543  0.8700806429005752  0.2474297255200568
  0.3016178546119122  0.3012099082678787  0.5000618135845940
  0.6984159483470265  0.6987429438661152  0.4999199014184512
  0.8699862054174403  0.1298066610680593  0.7524660404043146
  0.7958942105578757  0.2043469017343114  0.0563564062338671
  0.5873806812423084  0.0210143869515420  0.2500020916261718
  0.9801268456067049  0.4127094997658247  0.2499878837325511
  0.5163376281114438  0.4842171882379276  0.2429558468413049
  0.8179619518596724  0.1827717818057124  0.4439887653800199
  0.1821296255812470  0.8169577741907759  0.5560744743099093
  0.4838044287861365  0.5157267235819418  0.7573279845091108
  0.0197432784061604  0.5871593418279559  0.7500813528958687
  0.4128176805167101  0.9789950714196323  0.7499657593657432
  0.2037854290936778  0.7961228330187069  0.9435085214793730

  0.00000000E+00  0.00000000E+00  0.00000000E+00
  0.00000000E+00  0.00000000E+00  0.00000000E+00
  0.00000000E+00  0.00000000E+00  0.00000000E+00
  0.00000000E+00  0.00000000E+00  0.00000000E+00
  0.00000000E+00  0.00000000E+00  0.00000000E+00
  0.00000000E+00  0.00000000E+00  0.00000000E+00
  0.00000000E+00  0.00000000E+00  0.00000000E+00
  0.00000000E+00  0.00000000E+00  0.00000000E+00
  0.00000000E+00  0.00000000E+00  0.00000000E+00
  0.00000000E+00  0.00000000E+00  0.00000000E+00
  0.00000000E+00  0.00000000E+00  0.00000000E+00
  0.00000000E+00  0.00000000E+00  0.00000000E+00
  0.00000000E+00  0.00000000E+00  0.00000000E+00
  0.00000000E+00  0.00000000E+00  0.00000000E+00
  0.00000000E+00  0.00000000E+00  0.00000000E+00
  0.00000000E+00  0.00000000E+00  0.00000000E+00
