Sr2 Al4 Br16                            
   1.00000000000000     
    13.4067799159954326    0.0000000000000000    0.2141059283643168
     0.0000000000000000    7.4726836416638482    0.0000000000000000
    -1.5277371412396743    0.0000000000000000    8.5962755461600366
   Al   Sr   Br
     4     2    16
Direct
  0.5657798459294838  0.2680259321882019  0.3261638392679060
  0.0657764687290268  0.7319297165481160  0.3261500295031468
  0.9342201540705162  0.2680259321882019  0.6738361607320940
  0.4342235312709732  0.7319297165481160  0.6738499704968532
  0.7500000000000000  0.8593205429016706  0.5000000000000000
  0.2500000000000000  0.1406153994861228  0.5000000000000000
  0.6297681671448956  0.0409556977905936  0.1857243630187568
  0.1297621140797034  0.9589851300298378  0.1857364892427782
  0.8905818543784534  0.7110011697952530  0.2566588720387060
  0.3905755566805382  0.2889462525022282  0.2566624259166730
  0.6306750394690397  0.5455742823513745  0.2707529821230779
  0.1306751073468462  0.4543787375203010  0.2707516040943005
  0.8871754583102032  0.1904493520500949  0.4146110731473343
  0.3871808794593719  0.8094857580301067  0.4146219593673592
  0.6128245416897968  0.1904493520500949  0.5853889268526657
  0.1128191205406281  0.8094857580301067  0.5853780406326408
  0.8693249605309603  0.5455742823513745  0.7292470178769221
  0.3693248926531538  0.4543787375203010  0.7292483959056995
  0.6094181456215466  0.7110011697952530  0.7433411279612940
  0.1094244433194618  0.2889462525022282  0.7433375740833270
  0.8702318328551044  0.0409556977905936  0.8142756369812432
  0.3702378859202966  0.9589851300298378  0.8142635107572218
 
  0.00000000E+00  0.00000000E+00  0.00000000E+00
  0.00000000E+00  0.00000000E+00  0.00000000E+00
  0.00000000E+00  0.00000000E+00  0.00000000E+00
  0.00000000E+00  0.00000000E+00  0.00000000E+00
  0.00000000E+00  0.00000000E+00  0.00000000E+00
  0.00000000E+00  0.00000000E+00  0.00000000E+00
  0.00000000E+00  0.00000000E+00  0.00000000E+00
  0.00000000E+00  0.00000000E+00  0.00000000E+00
  0.00000000E+00  0.00000000E+00  0.00000000E+00
  0.00000000E+00  0.00000000E+00  0.00000000E+00
  0.00000000E+00  0.00000000E+00  0.00000000E+00
  0.00000000E+00  0.00000000E+00  0.00000000E+00
  0.00000000E+00  0.00000000E+00  0.00000000E+00
  0.00000000E+00  0.00000000E+00  0.00000000E+00
  0.00000000E+00  0.00000000E+00  0.00000000E+00
  0.00000000E+00  0.00000000E+00  0.00000000E+00
  0.00000000E+00  0.00000000E+00  0.00000000E+00
  0.00000000E+00  0.00000000E+00  0.00000000E+00
  0.00000000E+00  0.00000000E+00  0.00000000E+00
  0.00000000E+00  0.00000000E+00  0.00000000E+00
  0.00000000E+00  0.00000000E+00  0.00000000E+00
  0.00000000E+00  0.00000000E+00  0.00000000E+00
