Mg16 B12 I1                             
   1.00000000000000     
     5.3338011877179321   -3.1475639961335125    2.7723022011429661
     0.9447514360457518    8.3000754241871313    3.3802445470824529
    -6.6675463958453518   -5.0341938274590241    3.5572079436736126
   B    I    Mg
    12     1    16
Direct
  0.8068506617678040  0.6055451097050977  0.9353809472455126
  0.6207948030446531  0.6923729766247817  0.9242072763663458
  0.3028153215888594  0.5014544239215084  0.3921328452926005
  0.9767934779497054  0.5320351002176977  0.0294444635611484
  0.8410126174421606  0.2622978818382364  0.2738313256906153
  0.3255361310295797  0.3631937107663958  0.4644796090700396
  0.0959357580008700  0.3259278160034143  0.3211039920584042
  0.7808252055171465  0.9182448706060669  0.6340645405856691
  0.8251012521861725  0.7451304361606503  0.4879334042372960
  0.6398439446319344  0.0043437259735200  0.7609133952002338
  0.9576383141904472  0.5053788772751560  0.8281814188569570
  0.9319013121290922  0.9438957853682126  0.5057308548821311
  0.2257325972144244  0.0051687933800011  0.0244523712166327
  0.2496293632215654  0.4048002285852661  0.0906115246940118
  0.6873554356442284  0.2934690623986000  0.0131932968621982
  0.3089618429347567  0.6942049282091958  0.0126333829921137
  0.7383638441857556  0.9911872537741075  0.0268796715750668
  0.7494377979396631  0.7316366919360533  0.2018067825213237
  0.6331470149732041  0.0988721773716961  0.3768464318213987
  0.0152165192559721  0.5801348527726233  0.3254392978870442
  0.1441049233630451  0.0817086100254301  0.3931629597752035
  0.6230069595345640  0.4477670762708001  0.3700639798033478
  0.4560562306641600  0.7863443158920447  0.4171457173311524
  0.0310146992699103  0.4174957060009561  0.5782594070728848
  0.2956332355305733  0.0357565008094411  0.7053930885653728
  0.8806479843806727  0.7214395242540590  0.7487840166657875
  0.9190324466141178  0.2120740160890549  0.7451399397865401
  0.4268690124172494  0.7135659035505597  0.6944953105152862
  0.5039412933776930  0.3845546442193637  0.7182897478676580
 
  0.00000000E+00  0.00000000E+00  0.00000000E+00
  0.00000000E+00  0.00000000E+00  0.00000000E+00
  0.00000000E+00  0.00000000E+00  0.00000000E+00
  0.00000000E+00  0.00000000E+00  0.00000000E+00
  0.00000000E+00  0.00000000E+00  0.00000000E+00
  0.00000000E+00  0.00000000E+00  0.00000000E+00
  0.00000000E+00  0.00000000E+00  0.00000000E+00
  0.00000000E+00  0.00000000E+00  0.00000000E+00
  0.00000000E+00  0.00000000E+00  0.00000000E+00
  0.00000000E+00  0.00000000E+00  0.00000000E+00
  0.00000000E+00  0.00000000E+00  0.00000000E+00
  0.00000000E+00  0.00000000E+00  0.00000000E+00
  0.00000000E+00  0.00000000E+00  0.00000000E+00
  0.00000000E+00  0.00000000E+00  0.00000000E+00
  0.00000000E+00  0.00000000E+00  0.00000000E+00
  0.00000000E+00  0.00000000E+00  0.00000000E+00
  0.00000000E+00  0.00000000E+00  0.00000000E+00
  0.00000000E+00  0.00000000E+00  0.00000000E+00
  0.00000000E+00  0.00000000E+00  0.00000000E+00
  0.00000000E+00  0.00000000E+00  0.00000000E+00
  0.00000000E+00  0.00000000E+00  0.00000000E+00
  0.00000000E+00  0.00000000E+00  0.00000000E+00
  0.00000000E+00  0.00000000E+00  0.00000000E+00
  0.00000000E+00  0.00000000E+00  0.00000000E+00
  0.00000000E+00  0.00000000E+00  0.00000000E+00
  0.00000000E+00  0.00000000E+00  0.00000000E+00
  0.00000000E+00  0.00000000E+00  0.00000000E+00
  0.00000000E+00  0.00000000E+00  0.00000000E+00
  0.00000000E+00  0.00000000E+00  0.00000000E+00
