Ba22 Al14                               
   1.00000000000000     
     0.0000000000000000    9.1199004521437441    9.1199004521437441
     9.1199004521437441    0.0000000000000000    9.1199004521437441
     9.1199004521437441    9.1199004521437441    0.0000000000000000
   Ba   Al
    22    14
Direct
  0.0000000000000000  0.0000000000000000  0.0000000000000000
  0.5000000000000000  0.5000000000000000  0.5000000000000000
  0.1301578299208543  0.1301578299208543  0.1301578299208543
  0.3904724897625584  0.8698421700791457  0.8698421700791457
  0.8698421700791457  0.3904724897625584  0.8698421700791457
  0.8698421700791457  0.8698421700791457  0.3904724897625584
  0.1301578299208543  0.6095275102374416  0.1301578299208543
  0.1301578299208543  0.1301578299208543  0.6095275102374416
  0.6095275102374416  0.1301578299208543  0.1301578299208543
  0.8698421700791457  0.8698421700791457  0.8698421700791457
  0.5000000000000000  0.8351042515372598  0.5000000000000000
  0.8351042515372598  0.5000000000000000  0.5000000000000000
  0.5000000000000000  0.8351042515372598  0.1648957484627402
  0.1648957484627402  0.5000000000000000  0.8351042515372598
  0.8351042515372598  0.5000000000000000  0.1648957484627402
  0.5000000000000000  0.5000000000000000  0.8351042515372598
  0.1648957484627402  0.8351042515372598  0.5000000000000000
  0.5000000000000000  0.1648957484627402  0.8351042515372598
  0.5000000000000000  0.5000000000000000  0.1648957484627402
  0.8351042515372598  0.1648957484627402  0.5000000000000000
  0.1648957484627402  0.5000000000000000  0.5000000000000000
  0.5000000000000000  0.1648957484627402  0.5000000000000000
  0.2210397524384220  0.7789602475615780  0.2210397524384220
  0.2210397524384220  0.7789602475615780  0.7789602475615780
  0.7789602475615780  0.2210397524384220  0.2210397524384220
  0.7789602475615780  0.7789602475615780  0.2210397524384220
  0.2210397524384220  0.2210397524384220  0.7789602475615780
  0.7789602475615780  0.2210397524384220  0.7789602475615780
  0.3031135140273022  0.3031125140273048  0.3031125140273048
  0.9093385420819047  0.6968874859726952  0.6968874859726952
  0.6968874859726952  0.9093385420819047  0.6968874859726952
  0.6968874859726952  0.6968874859726952  0.9093385420819047
  0.3031125140273048  0.0906614579180953  0.3031125140273048
  0.3031125140273048  0.3031125140273048  0.0906614579180953
  0.0906614579180953  0.3031125140273048  0.3031125140273048
  0.6968874859726952  0.6968874859726952  0.6968864859726978
 
  0.00000000E+00  0.00000000E+00  0.00000000E+00
  0.00000000E+00  0.00000000E+00  0.00000000E+00
  0.00000000E+00  0.00000000E+00  0.00000000E+00
  0.00000000E+00  0.00000000E+00  0.00000000E+00
  0.00000000E+00  0.00000000E+00  0.00000000E+00
  0.00000000E+00  0.00000000E+00  0.00000000E+00
  0.00000000E+00  0.00000000E+00  0.00000000E+00
  0.00000000E+00  0.00000000E+00  0.00000000E+00
  0.00000000E+00  0.00000000E+00  0.00000000E+00
  0.00000000E+00  0.00000000E+00  0.00000000E+00
  0.00000000E+00  0.00000000E+00  0.00000000E+00
  0.00000000E+00  0.00000000E+00  0.00000000E+00
  0.00000000E+00  0.00000000E+00  0.00000000E+00
  0.00000000E+00  0.00000000E+00  0.00000000E+00
  0.00000000E+00  0.00000000E+00  0.00000000E+00
  0.00000000E+00  0.00000000E+00  0.00000000E+00
  0.00000000E+00  0.00000000E+00  0.00000000E+00
  0.00000000E+00  0.00000000E+00  0.00000000E+00
  0.00000000E+00  0.00000000E+00  0.00000000E+00
  0.00000000E+00  0.00000000E+00  0.00000000E+00
  0.00000000E+00  0.00000000E+00  0.00000000E+00
  0.00000000E+00  0.00000000E+00  0.00000000E+00
  0.00000000E+00  0.00000000E+00  0.00000000E+00
  0.00000000E+00  0.00000000E+00  0.00000000E+00
  0.00000000E+00  0.00000000E+00  0.00000000E+00
  0.00000000E+00  0.00000000E+00  0.00000000E+00
  0.00000000E+00  0.00000000E+00  0.00000000E+00
  0.00000000E+00  0.00000000E+00  0.00000000E+00
  0.00000000E+00  0.00000000E+00  0.00000000E+00
  0.00000000E+00  0.00000000E+00  0.00000000E+00
  0.00000000E+00  0.00000000E+00  0.00000000E+00
  0.00000000E+00  0.00000000E+00  0.00000000E+00
  0.00000000E+00  0.00000000E+00  0.00000000E+00
  0.00000000E+00  0.00000000E+00  0.00000000E+00
  0.00000000E+00  0.00000000E+00  0.00000000E+00
  0.00000000E+00  0.00000000E+00  0.00000000E+00
