Sr4 Tl4 F20                             
   1.0000000000000000     
     0.0000000000000000    5.4551792448596172    0.0398061282417334
     8.4971326677238324    0.0000000000000000    0.0000000000000000
     0.0000000000000000   -0.2063033989712353   -8.3187188455921071
   Sr   Tl   F 
     4     4    20
Direct
  0.4955037042317088  0.3029762009866985  0.4523542639409470
  0.5044962957682912  0.8029762009866985  0.5476457360590530
  0.0030449139908697  0.0329993378474143  0.2096211546204216
  0.9969550860091303  0.5329993378474143  0.7903788453795784
  0.5084372643072399  0.6975822009580099  0.0653225144619753
  0.4915627356927601  0.1975822009580099  0.9346774855380247
  0.0181902791077135  0.5698724643995163  0.3234075591095120
  0.9818097208922865  0.0698724643995163  0.6765924408904880
  0.2487519322217935  0.0512248860827640  0.4802358740647392
  0.2581534813259978  0.5508673771280712  0.5490247114619677
  0.7418465186740022  0.0508673771280712  0.4509752885380252
  0.6136927125546094  0.6857861586419673  0.8111995508790173
  0.8322083342503319  0.5362335572107426  0.0844343068227076
  0.6282354801357286  0.9451825730575294  0.0571719260404748
  0.7506225297240618  0.2927204812913331  0.7101760031658912
  0.7564682806018226  0.7695473649878650  0.2930454938644758
  0.1677916657496681  0.0362335572107426  0.9155656931772924
  0.0239726455737923  0.8151866889215071  0.6403744867461683
  0.3717645198642714  0.4451825730575294  0.9428280739595323
  0.7512480677782065  0.5512248860827711  0.5197641259352608
  0.6022701219879352  0.0087871180815782  0.7522316060728826
  0.8558297339240966  0.2386325704049952  0.0221427465868373
  0.9760273544262077  0.3151866889215071  0.3596255132538317
  0.2493774702759382  0.7927204812913331  0.2898239968341159
  0.3863072874453835  0.1857861586419673  0.1888004491209756
  0.1441702660759034  0.7386325704049952  0.9778572534131698
  0.2435317193981774  0.2695473649878650  0.7069545061355242
  0.3977298780120648  0.5087871180815782  0.2477683939271174

  0.00000000E+00  0.00000000E+00  0.00000000E+00
  0.00000000E+00  0.00000000E+00  0.00000000E+00
  0.00000000E+00  0.00000000E+00  0.00000000E+00
  0.00000000E+00  0.00000000E+00  0.00000000E+00
  0.00000000E+00  0.00000000E+00  0.00000000E+00
  0.00000000E+00  0.00000000E+00  0.00000000E+00
  0.00000000E+00  0.00000000E+00  0.00000000E+00
  0.00000000E+00  0.00000000E+00  0.00000000E+00
  0.00000000E+00  0.00000000E+00  0.00000000E+00
  0.00000000E+00  0.00000000E+00  0.00000000E+00
  0.00000000E+00  0.00000000E+00  0.00000000E+00
  0.00000000E+00  0.00000000E+00  0.00000000E+00
  0.00000000E+00  0.00000000E+00  0.00000000E+00
  0.00000000E+00  0.00000000E+00  0.00000000E+00
  0.00000000E+00  0.00000000E+00  0.00000000E+00
  0.00000000E+00  0.00000000E+00  0.00000000E+00
  0.00000000E+00  0.00000000E+00  0.00000000E+00
  0.00000000E+00  0.00000000E+00  0.00000000E+00
  0.00000000E+00  0.00000000E+00  0.00000000E+00
  0.00000000E+00  0.00000000E+00  0.00000000E+00
  0.00000000E+00  0.00000000E+00  0.00000000E+00
  0.00000000E+00  0.00000000E+00  0.00000000E+00
  0.00000000E+00  0.00000000E+00  0.00000000E+00
  0.00000000E+00  0.00000000E+00  0.00000000E+00
  0.00000000E+00  0.00000000E+00  0.00000000E+00
  0.00000000E+00  0.00000000E+00  0.00000000E+00
  0.00000000E+00  0.00000000E+00  0.00000000E+00
  0.00000000E+00  0.00000000E+00  0.00000000E+00
