Be13 Tl16                               
   1.0000000000000000     
    -5.3482382091461353   -5.3482382091461353    5.3482382091461353
    -5.3482382091461353    5.3482382091461353   -5.3482382091461353
     5.3482382091461353   -5.3482382091461353   -5.3482382091461353
   Tl   Be
    16    13
Direct
  0.7481358262601603  0.0000000000000000  0.0000000000000000
  0.4814089604063483  0.2671082287931057  0.0000000000000000
  0.2671082287931057  0.4814089604063483  0.0000000000000000
  0.0000000000000000  0.7481358262601603  0.0000000000000000
  0.7328917712068943  0.7328917712068943  0.2143007316132426
  0.4814089604063483  0.0000000000000000  0.2671082287931057
  0.0000000000000000  0.4814089604063483  0.2671082287931057
  0.2518641737398397  0.2518641737398397  0.2518641737398397
  0.2671082287931057  0.0000000000000000  0.4814089604063483
  0.0000000000000000  0.2671082287931057  0.4814089604063483
  0.7856992683867574  0.5185910395936588  0.5185910395936588
  0.5185910395936588  0.7856992683867574  0.5185910395936588
  0.0000000000000000  0.0000000000000000  0.7481358262601603
  0.7328917712068943  0.2143007316132426  0.7328917712068943
  0.2143007316132426  0.7328917712068943  0.7328917712068943
  0.5185910395936517  0.5185910395936588  0.7856992683867574
  0.0000000000000000  0.0000000000000000  0.0000000000000000
  0.7833634945803709  0.4837028769691827  0.0000000000000000
  0.4837028769691827  0.7833634945803709  0.0000000000000000
  0.5162971230308173  0.5162971230308173  0.2996606176111882
  0.7003393823888118  0.2166365054196291  0.2166365054196291
  0.2166365054196291  0.7003393823888118  0.2166365054196291
  0.7833634945803709  0.0000000000000000  0.4837028769691827
  0.0000000000000000  0.7833634945803709  0.4837028769691827
  0.5162971230308173  0.2996606176111882  0.5162971230308173
  0.2996606176111882  0.5162971230308173  0.5162971230308173
  0.4837028769691827  0.0000000000000000  0.7833634945803709
  0.0000000000000000  0.4837028769691827  0.7833634945803709
  0.2166365054196291  0.2166365054196291  0.7003393823888118

  0.00000000E+00  0.00000000E+00  0.00000000E+00
  0.00000000E+00  0.00000000E+00  0.00000000E+00
  0.00000000E+00  0.00000000E+00  0.00000000E+00
  0.00000000E+00  0.00000000E+00  0.00000000E+00
  0.00000000E+00  0.00000000E+00  0.00000000E+00
  0.00000000E+00  0.00000000E+00  0.00000000E+00
  0.00000000E+00  0.00000000E+00  0.00000000E+00
  0.00000000E+00  0.00000000E+00  0.00000000E+00
  0.00000000E+00  0.00000000E+00  0.00000000E+00
  0.00000000E+00  0.00000000E+00  0.00000000E+00
  0.00000000E+00  0.00000000E+00  0.00000000E+00
  0.00000000E+00  0.00000000E+00  0.00000000E+00
  0.00000000E+00  0.00000000E+00  0.00000000E+00
  0.00000000E+00  0.00000000E+00  0.00000000E+00
  0.00000000E+00  0.00000000E+00  0.00000000E+00
  0.00000000E+00  0.00000000E+00  0.00000000E+00
  0.00000000E+00  0.00000000E+00  0.00000000E+00
  0.00000000E+00  0.00000000E+00  0.00000000E+00
  0.00000000E+00  0.00000000E+00  0.00000000E+00
  0.00000000E+00  0.00000000E+00  0.00000000E+00
  0.00000000E+00  0.00000000E+00  0.00000000E+00
  0.00000000E+00  0.00000000E+00  0.00000000E+00
  0.00000000E+00  0.00000000E+00  0.00000000E+00
  0.00000000E+00  0.00000000E+00  0.00000000E+00
  0.00000000E+00  0.00000000E+00  0.00000000E+00
  0.00000000E+00  0.00000000E+00  0.00000000E+00
  0.00000000E+00  0.00000000E+00  0.00000000E+00
  0.00000000E+00  0.00000000E+00  0.00000000E+00
  0.00000000E+00  0.00000000E+00  0.00000000E+00
