Sr2 In4 I16                             
   1.0000000000000000     
     8.8210702813833652    0.7949383033468878   -0.0102216228912931
    -0.9786001545630081    8.8000785947917723    0.0071426623305146
    -3.9012531844603999   -4.7477310840121296   15.8629242868340246
   In   I    Sr
     4    16     2
Direct
  0.8774494682148060  0.1219965137418271  0.2495448370241888
  0.3777244893715945  0.6226187821659792  0.2505692080261994
  0.6221676306305284  0.3775094124313156  0.7494058787491298
  0.1226046240916148  0.8781074427595073  0.7504604218993833
  0.6243676014665098  0.9232426851040003  0.1370400503205147
  0.0178800752504742  0.2093640946584472  0.1368429883913080
  0.4702471635902654  0.3796725392443960  0.1388621550676490
  0.1739103787557141  0.7554909502510867  0.1389430918089971
  0.7453324552947862  0.3252948120165655  0.3611314572019637
  0.1211033461473576  0.0289723878619199  0.3612107010830314
  0.5769752174471421  0.8750743158274261  0.3632321097098341
  0.2911068216794774  0.4811380936857432  0.3631620314559996
  0.7089070683712109  0.5189545970748739  0.6367787711138604
  0.4229886054511738  0.1250985710932966  0.6368792061509154
  0.8790688657488772  0.9711612917729440  0.6388945642186528
  0.2547317806167655  0.6745580213520199  0.6388762536648827
  0.8262147850553347  0.2446558969553294  0.8610670505720321
  0.5298513097809519  0.6203760379517789  0.8610831724247490
  0.9821434299556202  0.7904780971820458  0.8631123478103788
  0.3755443544426598  0.0767786270366173  0.8629091037329388
  0.3777162621049470  0.1222815397534589  0.2500081700820758
  0.6222642665321914  0.8778752900794373  0.7499864294913294

  0.00000000E+00  0.00000000E+00  0.00000000E+00
  0.00000000E+00  0.00000000E+00  0.00000000E+00
  0.00000000E+00  0.00000000E+00  0.00000000E+00
  0.00000000E+00  0.00000000E+00  0.00000000E+00
  0.00000000E+00  0.00000000E+00  0.00000000E+00
  0.00000000E+00  0.00000000E+00  0.00000000E+00
  0.00000000E+00  0.00000000E+00  0.00000000E+00
  0.00000000E+00  0.00000000E+00  0.00000000E+00
  0.00000000E+00  0.00000000E+00  0.00000000E+00
  0.00000000E+00  0.00000000E+00  0.00000000E+00
  0.00000000E+00  0.00000000E+00  0.00000000E+00
  0.00000000E+00  0.00000000E+00  0.00000000E+00
  0.00000000E+00  0.00000000E+00  0.00000000E+00
  0.00000000E+00  0.00000000E+00  0.00000000E+00
  0.00000000E+00  0.00000000E+00  0.00000000E+00
  0.00000000E+00  0.00000000E+00  0.00000000E+00
  0.00000000E+00  0.00000000E+00  0.00000000E+00
  0.00000000E+00  0.00000000E+00  0.00000000E+00
  0.00000000E+00  0.00000000E+00  0.00000000E+00
  0.00000000E+00  0.00000000E+00  0.00000000E+00
  0.00000000E+00  0.00000000E+00  0.00000000E+00
  0.00000000E+00  0.00000000E+00  0.00000000E+00
