Ba1 In2 F10                             
   1.0000000000000000     
     2.8121136382684062    4.7773311309085029    0.8117329066344603
    -2.8121136382684062    4.7773311309085029    0.8117329066344603
     0.0000000000000000    4.5930287618614249    7.5094725175854773
   Ba   In   F 
     1     2    10
Direct
  0.4835834682536841  0.5164165317463230  0.0000000000000000
  0.0863211230239642  0.0821060373036460  0.6826676225558757
  0.9178939626963540  0.9136788769760287  0.3173323774441243
  0.0018027515576335  0.5270092761102205  0.6515451839945996
  0.4729907238897795  0.9981972484423665  0.3484548160054004
  0.0609233514984808  0.6539050948700407  0.8693423906926157
  0.3460949051299664  0.9390766485015192  0.1306576093073915
  0.9747253504301909  0.0252746495698091  0.0000000000000000
  0.2477842674918591  0.7522157325081409  0.5000000000000000
  0.6430625121817215  0.2760131785167985  0.7517318641874695
  0.7239868214832086  0.3569374878182785  0.2482681358125234
  0.5413937399034694  0.9565639775403199  0.6227797414556306
  0.0434360224596873  0.4586062600965306  0.3772202585443694

  0.00000000E+00  0.00000000E+00  0.00000000E+00
  0.00000000E+00  0.00000000E+00  0.00000000E+00
  0.00000000E+00  0.00000000E+00  0.00000000E+00
  0.00000000E+00  0.00000000E+00  0.00000000E+00
  0.00000000E+00  0.00000000E+00  0.00000000E+00
  0.00000000E+00  0.00000000E+00  0.00000000E+00
  0.00000000E+00  0.00000000E+00  0.00000000E+00
  0.00000000E+00  0.00000000E+00  0.00000000E+00
  0.00000000E+00  0.00000000E+00  0.00000000E+00
  0.00000000E+00  0.00000000E+00  0.00000000E+00
  0.00000000E+00  0.00000000E+00  0.00000000E+00
  0.00000000E+00  0.00000000E+00  0.00000000E+00
  0.00000000E+00  0.00000000E+00  0.00000000E+00
