Be1 Al2 I6                              
   1.00000000000000     
     3.7608726876801279    2.1712458293311485    6.1398624515725118
    -3.7608726876801279    2.1712458293311485    6.1398624515725118
     0.0000000000000000   -4.3387154036374866    6.1385274581267026
   Be   I    Al
     1     6     2
Direct
  0.0000000000000000  0.0000000000000000  0.0000000000000000
  0.7545192996459420  0.7545192996459420  0.2454904449598132
  0.7545607815582329  0.2454329414197787  0.2454911657800309
  0.2454329414197787  0.7545607815582329  0.2454911657800309
  0.2454807003540580  0.2454807003540580  0.7545095550401868
  0.7545670585802213  0.2454392184417671  0.7545088342199691
  0.2454392184417671  0.7545670585802213  0.7545088342199691
  0.2499945857639005  0.2499945857639005  0.2500103833935725
  0.7500054142360995  0.7500054142360995  0.7499896166064275
 
  0.00000000E+00  0.00000000E+00  0.00000000E+00
  0.00000000E+00  0.00000000E+00  0.00000000E+00
  0.00000000E+00  0.00000000E+00  0.00000000E+00
  0.00000000E+00  0.00000000E+00  0.00000000E+00
  0.00000000E+00  0.00000000E+00  0.00000000E+00
  0.00000000E+00  0.00000000E+00  0.00000000E+00
  0.00000000E+00  0.00000000E+00  0.00000000E+00
  0.00000000E+00  0.00000000E+00  0.00000000E+00
  0.00000000E+00  0.00000000E+00  0.00000000E+00
