Mg8 In2                                 
   1.00000000000000     
    -5.2825001455134055   -5.2825001455134064    0.0000000000000000
    -5.2825001455134055    0.0000000000000000   -5.2825001455134055
     0.0000000000000000   -5.2825001455134064   -5.2825001455134055
   Mg   In
     8     2
Direct
  0.6002595865690878  0.6002595865690878  0.6002595865690878
  0.1992222402927268  0.6002595865690878  0.6002595865690878
  0.6002595865690878  0.1992222402927268  0.6002595865690878
  0.5507777597072732  0.1497404134309122  0.1497404134309122
  0.1497404134309122  0.1497404134309122  0.1497404134309122
  0.6002595865690878  0.6002595865690878  0.1992222402927268
  0.1497404134309122  0.5507777597072732  0.1497404134309122
  0.1497404134309122  0.1497404134309122  0.5507777597072732
  0.0000000000000000  0.0000000000000000  0.0000000000000000
  0.7500000000000000  0.7500000000000000  0.7500000000000000
 
  0.00000000E+00  0.00000000E+00  0.00000000E+00
  0.00000000E+00  0.00000000E+00  0.00000000E+00
  0.00000000E+00  0.00000000E+00  0.00000000E+00
  0.00000000E+00  0.00000000E+00  0.00000000E+00
  0.00000000E+00  0.00000000E+00  0.00000000E+00
  0.00000000E+00  0.00000000E+00  0.00000000E+00
  0.00000000E+00  0.00000000E+00  0.00000000E+00
  0.00000000E+00  0.00000000E+00  0.00000000E+00
  0.00000000E+00  0.00000000E+00  0.00000000E+00
  0.00000000E+00  0.00000000E+00  0.00000000E+00
