Ba2 Ga2 Cl6                             
   1.00000000000000     
     2.6419946380161670   -7.2839891350214359   -0.0007169372470512
     2.0777217581786145    7.0942514333058320    0.0001799716937060
    -0.0005939714399468    0.0019023201289256   11.3856219392766356
   Ba   Cl   Ga
     2     6     2
Direct
  0.0289265924891069  0.9873620312466755  0.0101735139918517
  0.9709558929518423  0.0125422198718610  0.5101999943870368
  0.6279426030518778  0.3273042104386761  0.0716317437962815
  0.9191495112471557  0.0847993386157313  0.2492465896690206
  0.5755194482038490  0.3389022699447466  0.4813690013086429
  0.3719840162413348  0.6727186168698864  0.5714460300823490
  0.0808862028673687  0.9151015187230698  0.7492785926029057
  0.4243819193586305  0.6609730382877359  0.9812025389489776
  0.3936565015500122  0.8103858635274150  0.1878803450802096
  0.6063973120388155  0.1897108924742028  0.6879716501327309
 
  0.00000000E+00  0.00000000E+00  0.00000000E+00
  0.00000000E+00  0.00000000E+00  0.00000000E+00
  0.00000000E+00  0.00000000E+00  0.00000000E+00
  0.00000000E+00  0.00000000E+00  0.00000000E+00
  0.00000000E+00  0.00000000E+00  0.00000000E+00
  0.00000000E+00  0.00000000E+00  0.00000000E+00
  0.00000000E+00  0.00000000E+00  0.00000000E+00
  0.00000000E+00  0.00000000E+00  0.00000000E+00
  0.00000000E+00  0.00000000E+00  0.00000000E+00
  0.00000000E+00  0.00000000E+00  0.00000000E+00
