Sr1 Al3 F6                              
   1.00000000000000     
    -3.2516568548109079    4.2820724523736962    2.7595789878083434
     3.2539738584863898   -4.6411722859734965    3.2539738584863906
     2.7595789878083434    4.2820724523736962   -3.2516568548109079
   F    Sr   Al
     6     1     3
Direct
  0.2571145944239248  0.5649384111903899  0.2571145944239248
  0.7142523094383861  0.0000000000000000  0.2857476905616139
  0.2600940030281222  0.9533261252903529  0.2600940030281222
  0.7399059969718778  0.0466738747096471  0.7399059969718778
  0.7428854055760752  0.4350615888096101  0.7428854055760752
  0.2857476905616139  0.0000000000000000  0.7142523094383861
  0.0000000000000000  0.0000000000000000  0.0000000000000000
  0.7753643414558553  0.5000000000000000  0.2246356585441447
  0.5000000000000000  0.0000000000000000  0.5000000000000000
  0.2246356585441447  0.5000000000000000  0.7753643414558553
 
  0.00000000E+00  0.00000000E+00  0.00000000E+00
  0.00000000E+00  0.00000000E+00  0.00000000E+00
  0.00000000E+00  0.00000000E+00  0.00000000E+00
  0.00000000E+00  0.00000000E+00  0.00000000E+00
  0.00000000E+00  0.00000000E+00  0.00000000E+00
  0.00000000E+00  0.00000000E+00  0.00000000E+00
  0.00000000E+00  0.00000000E+00  0.00000000E+00
  0.00000000E+00  0.00000000E+00  0.00000000E+00
  0.00000000E+00  0.00000000E+00  0.00000000E+00
  0.00000000E+00  0.00000000E+00  0.00000000E+00
