Mg16 B12 Cl1                            
   1.00000000000000     
     6.0182381358057073   -3.4746914966896401    2.4559474857668198
     0.3474667777369058    7.9515939067966874    3.0238092479761560
    -6.7125935538781594   -4.2764861698098775    3.0240838099392584
   B    Cl   Mg
    12     1    16
Direct
  0.8212061646675721  0.6651331699386702  0.0000340368764995
  0.6292261180601884  0.7279305363301347  0.9999935834489335
  0.3912878529706134  0.4730978353691953  0.3506031065643285
  0.0406837560546407  0.6493837420938249  0.1225388132189380
  0.9012757758576910  0.2721057995269263  0.2721044914827999
  0.3912886943765272  0.3506064222306620  0.4730980846919408
  0.1560339831327795  0.3348536637663102  0.3348508964407912
  0.8212016776626356  0.0000280642290207  0.6651321846394254
  0.9181699378135022  0.8775179840911704  0.5268656412780288
  0.6292228734640943  0.9999932757341341  0.7279295571685864
  0.9181719026665007  0.5268665918930182  0.8775218322595535
  0.0406822723577633  0.1225385072515763  0.6493843790844664
  0.2496176028360821  0.9999806999843841  0.9999808921315747
  0.1410138064909958  0.3505060506833289  0.9999055152388081
  0.7433174493589547  0.3216592227412676  0.0000122743548729
  0.3036062234704318  0.7287305731773799  0.0000325872508284
  0.8159452816207420  0.0000361345536035  0.0000349407546025
  0.6274296746883934  0.6095621618398752  0.2195418095890460
  0.7433165065117180  0.0000138019986409  0.3216557825509696
  0.0178589118589159  0.6100465594813187  0.3904762983477710
  0.1410128032653972  0.9999041307395373  0.3505117949907088
  0.5748678835170011  0.2712702573459111  0.2712700990754513
  0.4078734103531545  0.7803842711467510  0.3899864247887095
  0.0178590919912267  0.3904753737718138  0.6100455764586101
  0.3036051417395456  0.0000332209602973  0.7287317037142245
  0.7904644965254164  0.6494305864419800  0.6494322377095330
  0.6274282186422226  0.2195414829662639  0.6095602174182417
  0.4216590160663500  0.6783835676397274  0.6783830613243182
  0.4078734719789239  0.3899873120732806  0.7803831771473995
 
  0.00000000E+00  0.00000000E+00  0.00000000E+00
  0.00000000E+00  0.00000000E+00  0.00000000E+00
  0.00000000E+00  0.00000000E+00  0.00000000E+00
  0.00000000E+00  0.00000000E+00  0.00000000E+00
  0.00000000E+00  0.00000000E+00  0.00000000E+00
  0.00000000E+00  0.00000000E+00  0.00000000E+00
  0.00000000E+00  0.00000000E+00  0.00000000E+00
  0.00000000E+00  0.00000000E+00  0.00000000E+00
  0.00000000E+00  0.00000000E+00  0.00000000E+00
  0.00000000E+00  0.00000000E+00  0.00000000E+00
  0.00000000E+00  0.00000000E+00  0.00000000E+00
  0.00000000E+00  0.00000000E+00  0.00000000E+00
  0.00000000E+00  0.00000000E+00  0.00000000E+00
  0.00000000E+00  0.00000000E+00  0.00000000E+00
  0.00000000E+00  0.00000000E+00  0.00000000E+00
  0.00000000E+00  0.00000000E+00  0.00000000E+00
  0.00000000E+00  0.00000000E+00  0.00000000E+00
  0.00000000E+00  0.00000000E+00  0.00000000E+00
  0.00000000E+00  0.00000000E+00  0.00000000E+00
  0.00000000E+00  0.00000000E+00  0.00000000E+00
  0.00000000E+00  0.00000000E+00  0.00000000E+00
  0.00000000E+00  0.00000000E+00  0.00000000E+00
  0.00000000E+00  0.00000000E+00  0.00000000E+00
  0.00000000E+00  0.00000000E+00  0.00000000E+00
  0.00000000E+00  0.00000000E+00  0.00000000E+00
  0.00000000E+00  0.00000000E+00  0.00000000E+00
  0.00000000E+00  0.00000000E+00  0.00000000E+00
  0.00000000E+00  0.00000000E+00  0.00000000E+00
  0.00000000E+00  0.00000000E+00  0.00000000E+00
