Ba32 B28                                
   1.00000000000000     
    11.7493040365987209    0.0001458502717399    0.0001458380478607
     0.0001458380478607   11.7493040365987209    0.0001458502717399
     0.0001458502717399    0.0001458380478607   11.7493040365987209
   B    Ba
    28    32
Direct
  0.4075275332061636  0.5924815514343678  0.0924794969315457
  0.2871241973402334  0.6830452968262506  0.0929674957571436
  0.2280033761285409  0.1910493734140957  0.1139752330039485
  0.1139752330039485  0.2280033761285409  0.1910493734140957
  0.4070501353224714  0.7128938116610257  0.1830363423106789
  0.3169860906780713  0.5929688865052327  0.2129029162553167
  0.8090188536479701  0.6139553764623429  0.2720491949652910
  0.1910493734140957  0.1139752330039485  0.2280033761285409
  0.6830452968262506  0.0929674957571436  0.2871241973402334
  0.5929688865052327  0.2129029162553167  0.3169860906780713
  0.8860753745533145  0.7279939415054244  0.3090127825874234
  0.7720461928664548  0.6910131251766174  0.3860784162292816
  0.7128938116610257  0.1830363423106789  0.4070501353224714
  0.5924815514343678  0.0924794969315457  0.4075275332061636
  0.0924794969315457  0.4075275332061636  0.5924815514343678
  0.2129029162553167  0.3169860906780713  0.5929688865052327
  0.2720491949652910  0.8090188536479701  0.6139553764623429
  0.3860784162292816  0.7720461928664548  0.6910131251766174
  0.0929674957571436  0.2871241973402334  0.6830452968262506
  0.1830363423106789  0.4070501353224714  0.7128938116610257
  0.6910131251766174  0.3860784162292816  0.7720461928664548
  0.3090127825874234  0.8860753745533145  0.7279939415054244
  0.8169790312200362  0.9070439724587374  0.7871060129149470
  0.9070439724587374  0.7871060129149470  0.8169790312200362
  0.6139553764623429  0.2720491949652910  0.8090188536479701
  0.7279939415054244  0.3090127825874234  0.8860753745533145
  0.7871060129149470  0.8169790312200362  0.9070439724587374
  0.9075212785360662  0.9075212785360662  0.9075212785360662
  0.2265931273010224  0.9557888283264475  0.0083881801062589
  0.2202527439009927  0.4426701251138851  0.0265455716864551
  0.5083765016113091  0.2734476697543755  0.0442585419048029
  0.9734862482643862  0.7202669139114661  0.0573694640690334
  0.8003751288367553  0.3003886445161044  0.1996685340882465
  0.6772195684765308  0.8228429570175066  0.1772065357872421
  0.9557888283264475  0.0083881801062589  0.2265931273010224
  0.4426701251138851  0.0265455716864551  0.2202527439009927
  0.5573623029530879  0.5265401141142334  0.2797654974575536
  0.0442585419048029  0.5083765016113091  0.2734476697543755
  0.3228413927287477  0.3228413927287477  0.3228413927287477
  0.1996685340882465  0.8003751288367553  0.3003886445161044
  0.0265455716864551  0.2202527439009927  0.4426701251138851
  0.4916667163689539  0.7734387848022095  0.4557743128012177
  0.7797726003967895  0.9426739250883998  0.4734927192915421
  0.7734387848022095  0.4557743128012177  0.4916667163689539
  0.2734476697543755  0.0442585419048029  0.5083765016113091
  0.2797654974575536  0.5573623029530879  0.5265401141142334
  0.9916495749438852  0.7265857025132263  0.5442630523533225
  0.5265401141142334  0.2797654974575536  0.5573623029530879
  0.6996427296150074  0.6996427296150074  0.6996427296150074
  0.8228429570175066  0.1772065357872421  0.6772195684765308
  0.5442630523533225  0.9916495749438852  0.7265857025132263
  0.0573694640690334  0.9734862482643862  0.7202669139114661
  0.9426739250883998  0.4734927192915421  0.7797726003967895
  0.4557743128012177  0.4916667163689539  0.7734387848022095
  0.1772065357872421  0.6772195684765308  0.8228429570175066
  0.3003886445161044  0.1996685340882465  0.8003751288367553
  0.4734927192915421  0.7797726003967895  0.9426739250883998
  0.0083881801062589  0.2265931273010224  0.9557888283264475
  0.7202669139114661  0.0573694640690334  0.9734862482643862
  0.7265857025132263  0.5442630523533225  0.9916495749438852
 
  0.00000000E+00  0.00000000E+00  0.00000000E+00
  0.00000000E+00  0.00000000E+00  0.00000000E+00
  0.00000000E+00  0.00000000E+00  0.00000000E+00
  0.00000000E+00  0.00000000E+00  0.00000000E+00
  0.00000000E+00  0.00000000E+00  0.00000000E+00
  0.00000000E+00  0.00000000E+00  0.00000000E+00
  0.00000000E+00  0.00000000E+00  0.00000000E+00
  0.00000000E+00  0.00000000E+00  0.00000000E+00
  0.00000000E+00  0.00000000E+00  0.00000000E+00
  0.00000000E+00  0.00000000E+00  0.00000000E+00
  0.00000000E+00  0.00000000E+00  0.00000000E+00
  0.00000000E+00  0.00000000E+00  0.00000000E+00
  0.00000000E+00  0.00000000E+00  0.00000000E+00
  0.00000000E+00  0.00000000E+00  0.00000000E+00
  0.00000000E+00  0.00000000E+00  0.00000000E+00
  0.00000000E+00  0.00000000E+00  0.00000000E+00
  0.00000000E+00  0.00000000E+00  0.00000000E+00
  0.00000000E+00  0.00000000E+00  0.00000000E+00
  0.00000000E+00  0.00000000E+00  0.00000000E+00
  0.00000000E+00  0.00000000E+00  0.00000000E+00
  0.00000000E+00  0.00000000E+00  0.00000000E+00
  0.00000000E+00  0.00000000E+00  0.00000000E+00
  0.00000000E+00  0.00000000E+00  0.00000000E+00
  0.00000000E+00  0.00000000E+00  0.00000000E+00
  0.00000000E+00  0.00000000E+00  0.00000000E+00
  0.00000000E+00  0.00000000E+00  0.00000000E+00
  0.00000000E+00  0.00000000E+00  0.00000000E+00
  0.00000000E+00  0.00000000E+00  0.00000000E+00
  0.00000000E+00  0.00000000E+00  0.00000000E+00
  0.00000000E+00  0.00000000E+00  0.00000000E+00
  0.00000000E+00  0.00000000E+00  0.00000000E+00
  0.00000000E+00  0.00000000E+00  0.00000000E+00
  0.00000000E+00  0.00000000E+00  0.00000000E+00
  0.00000000E+00  0.00000000E+00  0.00000000E+00
  0.00000000E+00  0.00000000E+00  0.00000000E+00
  0.00000000E+00  0.00000000E+00  0.00000000E+00
  0.00000000E+00  0.00000000E+00  0.00000000E+00
  0.00000000E+00  0.00000000E+00  0.00000000E+00
  0.00000000E+00  0.00000000E+00  0.00000000E+00
  0.00000000E+00  0.00000000E+00  0.00000000E+00
  0.00000000E+00  0.00000000E+00  0.00000000E+00
  0.00000000E+00  0.00000000E+00  0.00000000E+00
  0.00000000E+00  0.00000000E+00  0.00000000E+00
  0.00000000E+00  0.00000000E+00  0.00000000E+00
  0.00000000E+00  0.00000000E+00  0.00000000E+00
  0.00000000E+00  0.00000000E+00  0.00000000E+00
  0.00000000E+00  0.00000000E+00  0.00000000E+00
  0.00000000E+00  0.00000000E+00  0.00000000E+00
  0.00000000E+00  0.00000000E+00  0.00000000E+00
  0.00000000E+00  0.00000000E+00  0.00000000E+00
  0.00000000E+00  0.00000000E+00  0.00000000E+00
  0.00000000E+00  0.00000000E+00  0.00000000E+00
  0.00000000E+00  0.00000000E+00  0.00000000E+00
  0.00000000E+00  0.00000000E+00  0.00000000E+00
  0.00000000E+00  0.00000000E+00  0.00000000E+00
  0.00000000E+00  0.00000000E+00  0.00000000E+00
  0.00000000E+00  0.00000000E+00  0.00000000E+00
  0.00000000E+00  0.00000000E+00  0.00000000E+00
  0.00000000E+00  0.00000000E+00  0.00000000E+00
  0.00000000E+00  0.00000000E+00  0.00000000E+00
