Mg4 In4 I20                             
   1.0000000000000000     
    18.2827772493718186    0.0000000000000000    0.0000000000000000
     0.0000000000000000   11.5700028973877540   -1.6528879335426172
     0.0000000000000000    4.6391443465380666    6.9510937030796001
   Mg   In   I 
     4     4    20
Direct
  0.9599612083352582  0.6456407986915735  0.3366876976621640
  0.4599612083352582  0.3543592013084265  0.1633123023378360
  0.0400387916647418  0.3543592013084265  0.6633123023378289
  0.5400387916647418  0.6456407986915735  0.8366876976621711
  0.6891322519646010  0.2540771107474384  0.4668708033966382
  0.1891322519646081  0.7459228892525616  0.0331291966033618
  0.3108677480353990  0.7459228892525616  0.5331291966033618
  0.8108677480353990  0.2540771107474384  0.9668708033966382
  0.4558607221822086  0.8187123914519887  0.5343046501842750
  0.9558607221822086  0.1812876085480042  0.9656953498157250
  0.5441392778177914  0.1812876085480042  0.4656953498157250
  0.0441392778177914  0.8187123914519887  0.0343046501842750
  0.7722327437498748  0.1012785655787170  0.3361534602511824
  0.2722327437498748  0.8987214344212830  0.1638465397488176
  0.2277672562501252  0.8987214344212830  0.6638465397488176
  0.7277672562501252  0.1012785655787170  0.8361534602511824
  0.6588940005595347  0.7901636211278031  0.7523480084187071
  0.1588940005595347  0.2098363788721969  0.7476519915812929
  0.3411059994404653  0.2098363788721969  0.2476519915812929
  0.8411059994404653  0.7901636211278031  0.2523480084187071
  0.2722972918680782  0.5029971115868790  0.6515544438474308
  0.7722972918680782  0.4970028884131210  0.8484455561525692
  0.7277027081319218  0.4970028884131210  0.3484455561525692
  0.2277027081319218  0.5029971115868790  0.1515544438474308
  0.5333859192751191  0.4045028537321187  0.8499887659434506
  0.0333859192751120  0.5954971462678813  0.6500112340565494
  0.4666140807248809  0.5954971462678813  0.1500112340565494
  0.9666140807248809  0.4045028537321187  0.3499887659434506

  0.00000000E+00  0.00000000E+00  0.00000000E+00
  0.00000000E+00  0.00000000E+00  0.00000000E+00
  0.00000000E+00  0.00000000E+00  0.00000000E+00
  0.00000000E+00  0.00000000E+00  0.00000000E+00
  0.00000000E+00  0.00000000E+00  0.00000000E+00
  0.00000000E+00  0.00000000E+00  0.00000000E+00
  0.00000000E+00  0.00000000E+00  0.00000000E+00
  0.00000000E+00  0.00000000E+00  0.00000000E+00
  0.00000000E+00  0.00000000E+00  0.00000000E+00
  0.00000000E+00  0.00000000E+00  0.00000000E+00
  0.00000000E+00  0.00000000E+00  0.00000000E+00
  0.00000000E+00  0.00000000E+00  0.00000000E+00
  0.00000000E+00  0.00000000E+00  0.00000000E+00
  0.00000000E+00  0.00000000E+00  0.00000000E+00
  0.00000000E+00  0.00000000E+00  0.00000000E+00
  0.00000000E+00  0.00000000E+00  0.00000000E+00
  0.00000000E+00  0.00000000E+00  0.00000000E+00
  0.00000000E+00  0.00000000E+00  0.00000000E+00
  0.00000000E+00  0.00000000E+00  0.00000000E+00
  0.00000000E+00  0.00000000E+00  0.00000000E+00
  0.00000000E+00  0.00000000E+00  0.00000000E+00
  0.00000000E+00  0.00000000E+00  0.00000000E+00
  0.00000000E+00  0.00000000E+00  0.00000000E+00
  0.00000000E+00  0.00000000E+00  0.00000000E+00
  0.00000000E+00  0.00000000E+00  0.00000000E+00
  0.00000000E+00  0.00000000E+00  0.00000000E+00
  0.00000000E+00  0.00000000E+00  0.00000000E+00
  0.00000000E+00  0.00000000E+00  0.00000000E+00
