Ba28 Tl11                               
   1.0000000000000000     
     6.1302505767337898   -0.0000000346188428   -0.5272633191344561
    -0.0900048372328730    8.6185442298971324   -1.0464352573243692
    -0.0191570159562095   -0.0416049310087532   35.6776335975232897
   Ba   Tl
    28    11
Direct
  0.8178382112216056  0.9151099115132695  0.6356764224396372
  0.5599705108580793  0.2366383099445102  0.1199420217197797
  0.7243734535718858  0.2474907660955452  0.4487459071569191
  0.6369728729328585  0.1684781138683817  0.2739457458597911
  0.3233554570795789  0.2397368492535250  0.6467109141585254
  0.8537549024802118  0.5643571629460595  0.7075098049649071
  0.5438188357005842  0.6775455932067089  0.0876366714140815
  0.9999999999996021  0.5626143511281754  0.0000000000000497
  0.6166490611402651  0.5895993469930829  0.2332971222759852
  0.9175729024560226  0.5377351779083313  0.8351468049000133
  0.2616679512627513  0.2505419579521586  0.5233359025282169
  0.2756265464287324  0.7987448589426620  0.5512540928428322
  0.9034569714986773  0.9926468602356877  0.8069129430113620
  0.3630271270656849  0.8945333680061509  0.7260542541402160
  0.4561811642997213  0.5899089217963294  0.9123633285861104
  0.6766445429142323  0.5930259350925198  0.3532890858429170
  0.4400294891403007  0.1166962882249507  0.8800579782804263
  0.1462450975253873  0.8568483579845463  0.2924911950337616
  0.0965430285004203  0.1857339172275445  0.1930870569887517
  0.7928148628775347  0.4670015480763468  0.5856297257418390
  0.3833509388590457  0.3563022247147529  0.7667028777240361
  0.5000000000028066  0.2450094317138110  0.9999999999992539
  0.7383320487375329  0.7272070554239320  0.4766640974716907
  0.9693602085660231  0.9326689285931735  0.9387204171227523
  0.0824270975459385  0.7025883730065345  0.1648531950997949
  0.2071851371249593  0.8813718223297045  0.4143702742577631
  0.1821617887788136  0.2794334890733623  0.3643235775603912
  0.0306397914298984  0.9939495114663117  0.0612795828781501
  0.6797647143248540  0.9987631586805676  0.3595294286457786
  0.1399474081136418  0.4521302249183492  0.2798948162301400
  0.7733001257388779  0.0615903562093365  0.5466012514856615
  0.9573068444718515  0.3145229871460415  0.9146136889560026
  0.3202352856728652  0.6392347300347865  0.6404705713542143
  0.8600525918886817  0.1722344086900875  0.7201051837700732
  0.0426931555272532  0.3999102981922888  0.0853863110437487
  0.5910006369148348  0.9340757995807820  0.1820002738323296
  0.4089993630850302  0.7520755257490990  0.8179997261678125
  0.2266998742602979  0.5149891047254940  0.4533987485144948
  0.5000000000026290  0.8409539733551270  0.9999999999998082

  0.00000000E+00  0.00000000E+00  0.00000000E+00
  0.00000000E+00  0.00000000E+00  0.00000000E+00
  0.00000000E+00  0.00000000E+00  0.00000000E+00
  0.00000000E+00  0.00000000E+00  0.00000000E+00
  0.00000000E+00  0.00000000E+00  0.00000000E+00
  0.00000000E+00  0.00000000E+00  0.00000000E+00
  0.00000000E+00  0.00000000E+00  0.00000000E+00
  0.00000000E+00  0.00000000E+00  0.00000000E+00
  0.00000000E+00  0.00000000E+00  0.00000000E+00
  0.00000000E+00  0.00000000E+00  0.00000000E+00
  0.00000000E+00  0.00000000E+00  0.00000000E+00
  0.00000000E+00  0.00000000E+00  0.00000000E+00
  0.00000000E+00  0.00000000E+00  0.00000000E+00
  0.00000000E+00  0.00000000E+00  0.00000000E+00
  0.00000000E+00  0.00000000E+00  0.00000000E+00
  0.00000000E+00  0.00000000E+00  0.00000000E+00
  0.00000000E+00  0.00000000E+00  0.00000000E+00
  0.00000000E+00  0.00000000E+00  0.00000000E+00
  0.00000000E+00  0.00000000E+00  0.00000000E+00
  0.00000000E+00  0.00000000E+00  0.00000000E+00
  0.00000000E+00  0.00000000E+00  0.00000000E+00
  0.00000000E+00  0.00000000E+00  0.00000000E+00
  0.00000000E+00  0.00000000E+00  0.00000000E+00
  0.00000000E+00  0.00000000E+00  0.00000000E+00
  0.00000000E+00  0.00000000E+00  0.00000000E+00
  0.00000000E+00  0.00000000E+00  0.00000000E+00
  0.00000000E+00  0.00000000E+00  0.00000000E+00
  0.00000000E+00  0.00000000E+00  0.00000000E+00
  0.00000000E+00  0.00000000E+00  0.00000000E+00
  0.00000000E+00  0.00000000E+00  0.00000000E+00
  0.00000000E+00  0.00000000E+00  0.00000000E+00
  0.00000000E+00  0.00000000E+00  0.00000000E+00
  0.00000000E+00  0.00000000E+00  0.00000000E+00
  0.00000000E+00  0.00000000E+00  0.00000000E+00
  0.00000000E+00  0.00000000E+00  0.00000000E+00
  0.00000000E+00  0.00000000E+00  0.00000000E+00
  0.00000000E+00  0.00000000E+00  0.00000000E+00
  0.00000000E+00  0.00000000E+00  0.00000000E+00
  0.00000000E+00  0.00000000E+00  0.00000000E+00
