Sr10 B4 F32                             
   1.00000000000000     
     3.5722997520484494   -6.1059630691486131    0.0000000000000000
     3.5722997520484494    6.1059630691486131    0.0000000000000000
     0.0000000000000000    0.0000000000000000   13.5625543579444816
   Sr   B    F 
    10     4    32
Direct
  0.0000000000000000  0.0000000000000000  0.7148799215394490
  0.0000000000000000  0.0000000000000000  0.2851200784605510
  0.5000000000000000  0.5000000000000000  0.7851200784605510
  0.5000000000000000  0.5000000000000000  0.2148799215394490
  0.5000000000000000  0.5000000000000000  0.5000000000000000
  0.0000000000000000  0.0000000000000000  0.0000000000000000
  0.0000000000000000  0.5000000000000000  0.6263766937116699
  0.5000000000000000  0.0000000000000000  0.3736233062883372
  0.5000000000000000  0.0000000000000000  0.8736233062883301
  0.0000000000000000  0.5000000000000000  0.1263766937116628
  0.5000000000000000  0.0000000000000000  0.6205256284435308
  0.0000000000000000  0.5000000000000000  0.3794743715564692
  0.0000000000000000  0.5000000000000000  0.8794743715564692
  0.5000000000000000  0.0000000000000000  0.1205256284435308
  0.5243947014465533  0.1723987211377320  0.7066039523010446
  0.4756052985534538  0.8276012788622680  0.7066039523010446
  0.1723987211377320  0.5243947014465533  0.2933960476989554
  0.8276012788622680  0.4756052985534538  0.2933960476989554
  0.9756052985534467  0.3276012788622680  0.7933960476989554
  0.0243947014465462  0.6723987211377320  0.7933960476989554
  0.3276012788622680  0.9756052985534467  0.2066039523010446
  0.6723987211377320  0.0243947014465462  0.2066039523010446
  0.2269408798166879  0.8948376353655831  0.6203999821853898
  0.7730591201833121  0.1051623646344169  0.6203999821853898
  0.8948376353655831  0.2269408798166879  0.3796000178146102
  0.1051623646344169  0.7730591201833121  0.3796000178146102
  0.2730591201833121  0.6051623646344169  0.8796000178146102
  0.7269408798166879  0.3948376353655831  0.8796000178146102
  0.6655572833141505  0.0157022169700980  0.0399932041510027
  0.3344427166858495  0.9842977830299020  0.0399932041510027
  0.0157022169700980  0.6655572833141505  0.9600067958489973
  0.9842977830299020  0.3344427166858495  0.9600067958489973
  0.8344427166858495  0.4842977830299020  0.4600067958489973
  0.1655572833141505  0.5157022169700980  0.4600067958489973
  0.4842977830299020  0.8344427166858495  0.5399932041510027
  0.5157022169700980  0.1655572833141505  0.5399932041510027
  0.8556758095098687  0.7531040998933562  0.1418857727242298
  0.1443241904901313  0.2468959001066438  0.1418857727242298
  0.7531040998933562  0.8556758095098687  0.8581142272757702
  0.2468959001066438  0.1443241904901313  0.8581142272757702
  0.6443241904901313  0.7468959001066438  0.3581142272757702
  0.3556758095098687  0.2531040998933562  0.3581142272757702
  0.7468959001066438  0.6443241904901313  0.6418857727242298
  0.2531040998933562  0.3556758095098687  0.6418857727242298
  0.3948376353655831  0.7269408798166879  0.1203999821853898
  0.6051623646344169  0.2730591201833121  0.1203999821853898
 
  0.00000000E+00  0.00000000E+00  0.00000000E+00
  0.00000000E+00  0.00000000E+00  0.00000000E+00
  0.00000000E+00  0.00000000E+00  0.00000000E+00
  0.00000000E+00  0.00000000E+00  0.00000000E+00
  0.00000000E+00  0.00000000E+00  0.00000000E+00
  0.00000000E+00  0.00000000E+00  0.00000000E+00
  0.00000000E+00  0.00000000E+00  0.00000000E+00
  0.00000000E+00  0.00000000E+00  0.00000000E+00
  0.00000000E+00  0.00000000E+00  0.00000000E+00
  0.00000000E+00  0.00000000E+00  0.00000000E+00
  0.00000000E+00  0.00000000E+00  0.00000000E+00
  0.00000000E+00  0.00000000E+00  0.00000000E+00
  0.00000000E+00  0.00000000E+00  0.00000000E+00
  0.00000000E+00  0.00000000E+00  0.00000000E+00
  0.00000000E+00  0.00000000E+00  0.00000000E+00
  0.00000000E+00  0.00000000E+00  0.00000000E+00
  0.00000000E+00  0.00000000E+00  0.00000000E+00
  0.00000000E+00  0.00000000E+00  0.00000000E+00
  0.00000000E+00  0.00000000E+00  0.00000000E+00
  0.00000000E+00  0.00000000E+00  0.00000000E+00
  0.00000000E+00  0.00000000E+00  0.00000000E+00
  0.00000000E+00  0.00000000E+00  0.00000000E+00
  0.00000000E+00  0.00000000E+00  0.00000000E+00
  0.00000000E+00  0.00000000E+00  0.00000000E+00
  0.00000000E+00  0.00000000E+00  0.00000000E+00
  0.00000000E+00  0.00000000E+00  0.00000000E+00
  0.00000000E+00  0.00000000E+00  0.00000000E+00
  0.00000000E+00  0.00000000E+00  0.00000000E+00
  0.00000000E+00  0.00000000E+00  0.00000000E+00
  0.00000000E+00  0.00000000E+00  0.00000000E+00
  0.00000000E+00  0.00000000E+00  0.00000000E+00
  0.00000000E+00  0.00000000E+00  0.00000000E+00
  0.00000000E+00  0.00000000E+00  0.00000000E+00
  0.00000000E+00  0.00000000E+00  0.00000000E+00
  0.00000000E+00  0.00000000E+00  0.00000000E+00
  0.00000000E+00  0.00000000E+00  0.00000000E+00
  0.00000000E+00  0.00000000E+00  0.00000000E+00
  0.00000000E+00  0.00000000E+00  0.00000000E+00
  0.00000000E+00  0.00000000E+00  0.00000000E+00
  0.00000000E+00  0.00000000E+00  0.00000000E+00
  0.00000000E+00  0.00000000E+00  0.00000000E+00
  0.00000000E+00  0.00000000E+00  0.00000000E+00
  0.00000000E+00  0.00000000E+00  0.00000000E+00
  0.00000000E+00  0.00000000E+00  0.00000000E+00
  0.00000000E+00  0.00000000E+00  0.00000000E+00
  0.00000000E+00  0.00000000E+00  0.00000000E+00
