Ca4 B2 Br10                             
   1.00000000000000     
     7.5465593617802131   -0.3113650743626932   -0.1472115773923079
    -0.2617158548255952    8.7302636288770934   -0.0728525837453238
     2.7797564459492849    3.7347810211045895   11.6075616927898366
   Br   Ca   B 
    10     4     2
Direct
  0.1425019183443297  0.9848023691110157  0.8840708796080250
  0.3482689475127430  0.3863809540777652  0.1525777432834019
  0.6943427917330922  0.1610311658317372  0.2398590142254520
  0.0009942989769911  0.9579619011153113  0.3321342794090256
  0.8795541105382796  0.6350008610916902  0.1523595975534704
  0.3932487213115721  0.8570226626336321  0.1486907587372173
  0.6321187418602818  0.2308028212230866  0.9044818734531290
  0.1054872026484546  0.4522959572859193  0.9082545072403931
  0.6383802334105440  0.7428984401931658  0.8873782027101740
  0.4098527140673269  0.8086681429778295  0.5856718072113694
  0.2469884675203957  0.1538606425259204  0.0374084073643317
  0.7293909687434237  0.4462821890605682  0.0270164286774204
  0.2527531742902909  0.6806568695205684  0.0119311136104940
  0.7745029397001204  0.9400029409878528  0.0255145334452891
  0.3380010232650648  0.0064342125897738  0.5071019003406079
  0.9133137460770939  0.0555978697741395  0.1955489531301922
 
  0.00000000E+00  0.00000000E+00  0.00000000E+00
  0.00000000E+00  0.00000000E+00  0.00000000E+00
  0.00000000E+00  0.00000000E+00  0.00000000E+00
  0.00000000E+00  0.00000000E+00  0.00000000E+00
  0.00000000E+00  0.00000000E+00  0.00000000E+00
  0.00000000E+00  0.00000000E+00  0.00000000E+00
  0.00000000E+00  0.00000000E+00  0.00000000E+00
  0.00000000E+00  0.00000000E+00  0.00000000E+00
  0.00000000E+00  0.00000000E+00  0.00000000E+00
  0.00000000E+00  0.00000000E+00  0.00000000E+00
  0.00000000E+00  0.00000000E+00  0.00000000E+00
  0.00000000E+00  0.00000000E+00  0.00000000E+00
  0.00000000E+00  0.00000000E+00  0.00000000E+00
  0.00000000E+00  0.00000000E+00  0.00000000E+00
  0.00000000E+00  0.00000000E+00  0.00000000E+00
  0.00000000E+00  0.00000000E+00  0.00000000E+00
