BCl3                                    
   1.00000000000000     
     6.5443692749734295    0.0020299204647982    0.0000000000000000
    -3.2704307647712665    5.6648349688194308    0.0000000000000000
     0.0000000000000000    0.0000000000000000    7.6045278262824656
   B    Cl
     2     6
Direct
  0.3331254160865242  0.6666204924068566  0.2500000000000000
  0.6669082646140012  0.3334768673111199  0.7500000000000000
  0.0729426483566300  0.3936061744563588  0.2500000000000000
  0.6059795741099947  0.6791128343405859  0.2500000000000000
  0.3205585838296017  0.9270786229794226  0.2500000000000000
  0.6795229318726825  0.0730242606798370  0.7500000000000000
  0.3940306760176640  0.3209779206569792  0.7500000000000000
  0.9272319051129188  0.6064028271688571  0.7500000000000000
 
  0.00000000E+00  0.00000000E+00  0.00000000E+00
  0.00000000E+00  0.00000000E+00  0.00000000E+00
  0.00000000E+00  0.00000000E+00  0.00000000E+00
  0.00000000E+00  0.00000000E+00  0.00000000E+00
  0.00000000E+00  0.00000000E+00  0.00000000E+00
  0.00000000E+00  0.00000000E+00  0.00000000E+00
  0.00000000E+00  0.00000000E+00  0.00000000E+00
  0.00000000E+00  0.00000000E+00  0.00000000E+00
