Mg4 Ga2 Cl10                            
   1.00000000000000     
     8.1391196684183722    0.7526373493975977   -1.1992416058400892
     0.7526373493975976    8.1391196684183686   -1.1992416058400888
     3.4019419940559765    3.4019419940559725    7.3801346143587363
   Cl   Mg   Ga
    10     4     2
Direct
  0.6008993164653873  0.9763767697056807  0.0614033179201243
  0.9763767697056807  0.6008993164653873  0.0614033179201243
  0.6012048156132224  0.2358134312164353  0.3133292235791814
  0.0813112964878400  0.0813112964878400  0.2424027317155222
  0.5927865448196528  0.5927865448196528  0.9501039865367389
  0.2358134312164353  0.6012048156132224  0.3133292235791814
  0.9223466990959537  0.2745382149562090  0.8458863801235736
  0.3621671631622974  0.3621671631622974  0.9078823931738356
  0.8964142668005408  0.8964142668005408  0.6338659459426097
  0.2745382149562090  0.9223466990959537  0.8458863801235736
  0.1631762476918652  0.1631762476918652  0.9565200706042845
  0.6395187218996838  0.2696070511006141  0.0305320810777090
  0.2696070511006141  0.6395187218996838  0.0305320810777090
  0.7903043849643510  0.7903043849643510  0.9124744881129132
  0.8356916488712400  0.2579434271490015  0.4472241892564313
  0.2579434271490015  0.8356916488712400  0.4472241892564313
 
  0.00000000E+00  0.00000000E+00  0.00000000E+00
  0.00000000E+00  0.00000000E+00  0.00000000E+00
  0.00000000E+00  0.00000000E+00  0.00000000E+00
  0.00000000E+00  0.00000000E+00  0.00000000E+00
  0.00000000E+00  0.00000000E+00  0.00000000E+00
  0.00000000E+00  0.00000000E+00  0.00000000E+00
  0.00000000E+00  0.00000000E+00  0.00000000E+00
  0.00000000E+00  0.00000000E+00  0.00000000E+00
  0.00000000E+00  0.00000000E+00  0.00000000E+00
  0.00000000E+00  0.00000000E+00  0.00000000E+00
  0.00000000E+00  0.00000000E+00  0.00000000E+00
  0.00000000E+00  0.00000000E+00  0.00000000E+00
  0.00000000E+00  0.00000000E+00  0.00000000E+00
  0.00000000E+00  0.00000000E+00  0.00000000E+00
  0.00000000E+00  0.00000000E+00  0.00000000E+00
  0.00000000E+00  0.00000000E+00  0.00000000E+00
