Sr4 Al4 F20                             
   1.0000000000000000     
     4.7507017143548760   -0.0000000000000000    0.0000000000000003
    -0.0000000000000003    5.2989429812874862    0.0000000000000003
    -0.0000000000000000   -0.0000000000000000   13.1284492286739614
   Sr   Al   F 
     4     4    20
Direct
  0.7703084397230953  0.3469734872236714  0.3422002580755503
  0.2703084397230953  0.1530265127763215  0.6577997419244497
  0.2296915602768976  0.8469734872236785  0.1577997419244497
  0.7296915602768976  0.6530265127763215  0.8422002580755503
  0.1896851654124845  0.8573342392216006  0.4126928406555663
  0.6896851654124845  0.6426657607783994  0.5873071593444266
  0.8103148345875155  0.3573342392216077  0.0873071593444266
  0.3103148345875155  0.1426657607783923  0.9126928406555663
  0.9806123166482053  0.6427497522161687  0.4954626738612475
  0.4806123166481981  0.8572502477838313  0.5045373261387525
  0.0193876833517947  0.1427497522161687  0.0045373261387525
  0.5193876833517947  0.3572502477838313  0.9954626738612475
  0.9003448923529120  0.8540862136548171  0.3226557843643221
  0.4003448923529049  0.6459137863451829  0.6773442156356779
  0.0996551076470880  0.3540862136548242  0.1773442156356779
  0.5996551076470880  0.1459137863451758  0.8226557843643221
  0.9543949490174697  0.6196042734413183  0.0212862771878832
  0.4543949490174697  0.8803957265586817  0.9787137228121168
  0.0456050509825303  0.1196042734413254  0.4787137228121168
  0.5456050509825303  0.3803957265586746  0.5212862771878832
  0.6301228331418969  0.5617176860554522  0.1735381994274476
  0.1301228331418969  0.9382823139445478  0.8264618005725524
  0.3698771668581031  0.0617176860554522  0.3264618005725524
  0.8698771668581031  0.4382823139445478  0.6735381994274476
  0.1823485794993474  0.4145733141478374  0.8482081684852716
  0.6823485794993474  0.0854266858521626  0.1517918315147284
  0.8176514205006526  0.9145733141478374  0.6517918315147284
  0.3176514205006526  0.5854266858521626  0.3482081684852716

  0.00000000E+00  0.00000000E+00  0.00000000E+00
  0.00000000E+00  0.00000000E+00  0.00000000E+00
  0.00000000E+00  0.00000000E+00  0.00000000E+00
  0.00000000E+00  0.00000000E+00  0.00000000E+00
  0.00000000E+00  0.00000000E+00  0.00000000E+00
  0.00000000E+00  0.00000000E+00  0.00000000E+00
  0.00000000E+00  0.00000000E+00  0.00000000E+00
  0.00000000E+00  0.00000000E+00  0.00000000E+00
  0.00000000E+00  0.00000000E+00  0.00000000E+00
  0.00000000E+00  0.00000000E+00  0.00000000E+00
  0.00000000E+00  0.00000000E+00  0.00000000E+00
  0.00000000E+00  0.00000000E+00  0.00000000E+00
  0.00000000E+00  0.00000000E+00  0.00000000E+00
  0.00000000E+00  0.00000000E+00  0.00000000E+00
  0.00000000E+00  0.00000000E+00  0.00000000E+00
  0.00000000E+00  0.00000000E+00  0.00000000E+00
  0.00000000E+00  0.00000000E+00  0.00000000E+00
  0.00000000E+00  0.00000000E+00  0.00000000E+00
  0.00000000E+00  0.00000000E+00  0.00000000E+00
  0.00000000E+00  0.00000000E+00  0.00000000E+00
  0.00000000E+00  0.00000000E+00  0.00000000E+00
  0.00000000E+00  0.00000000E+00  0.00000000E+00
  0.00000000E+00  0.00000000E+00  0.00000000E+00
  0.00000000E+00  0.00000000E+00  0.00000000E+00
  0.00000000E+00  0.00000000E+00  0.00000000E+00
  0.00000000E+00  0.00000000E+00  0.00000000E+00
  0.00000000E+00  0.00000000E+00  0.00000000E+00
  0.00000000E+00  0.00000000E+00  0.00000000E+00
