CaInCl3                                 
   1.0000000000000000     
     2.0557048669110443   -6.9237214202795743   -0.0007052047674083
     2.0558037008701477    6.9237508029251531    0.0006139725627322
    -0.0002309612148556    0.0009940929823760   10.4160092341760038
   Ca   Cl   In
     2     6     2
Direct
  0.0000013876832483  0.9999909887407057  0.0000427272059582
  0.9999974926995279  0.9999958472576438  0.5000271415910618
  0.6296287685221742  0.3703620000216929  0.0432979162219169
  0.9339958155914303  0.0659697566926738  0.2500176491840023
  0.6296421330497353  0.3703565102414785  0.4569605524026841
  0.3703495386653159  0.6296367180204214  0.5431324730407638
  0.0658414115663319  0.9338621153366589  0.7500767822281773
  0.3703483159558800  0.6296345513599988  0.9568545968558553
  0.2673342667849496  0.7326650554001546  0.2499962008444641
  0.7326608694814070  0.2673264569285720  0.7499939604251082

  0.00000000E+00  0.00000000E+00  0.00000000E+00
  0.00000000E+00  0.00000000E+00  0.00000000E+00
  0.00000000E+00  0.00000000E+00  0.00000000E+00
  0.00000000E+00  0.00000000E+00  0.00000000E+00
  0.00000000E+00  0.00000000E+00  0.00000000E+00
  0.00000000E+00  0.00000000E+00  0.00000000E+00
  0.00000000E+00  0.00000000E+00  0.00000000E+00
  0.00000000E+00  0.00000000E+00  0.00000000E+00
  0.00000000E+00  0.00000000E+00  0.00000000E+00
  0.00000000E+00  0.00000000E+00  0.00000000E+00
