Ba6 Ga33                                
   1.00000000000000     
     9.6846938966099092    0.0000000000000000    0.0000000000000000
     0.0000000000000000    9.6846938966099057    0.0000000000000000
     0.0000000000000000    0.0000000000000000    9.6846938966099057
   Ba   Ga
     6    33
Direct
  0.2206203838332925  0.5000000000000000  0.0000000000000000
  0.7793796161667075  0.5000000000000000  0.0000000000000000
  0.5000000000000000  0.0000000000000000  0.2206203838332925
  0.0000000000000000  0.2206203838332925  0.5000000000000000
  0.0000000000000000  0.7793796161667075  0.5000000000000000
  0.5000000000000000  0.0000000000000000  0.7793796161667075
  0.0000000000000000  0.0000000000000000  0.0000000000000000
  0.2503566140334001  0.1444163555227576  0.0000000000000000
  0.7496433859665999  0.1444163555227576  0.0000000000000000
  0.5000000000000000  0.2933189639055982  0.0000000000000000
  0.5000000000000000  0.7066810360944089  0.0000000000000000
  0.2503566140334001  0.8555836444772424  0.0000000000000000
  0.7496433859665999  0.8555836444772424  0.0000000000000000
  0.0000000000000000  0.2503566140334001  0.1444163555227576
  0.0000000000000000  0.7496433859665999  0.1444163555227576
  0.5000000000000000  0.5000000000000000  0.2170875896557334
  0.1444163555227576  0.0000000000000000  0.2503566140334001
  0.8555836444772424  0.0000000000000000  0.2503566140334001
  0.3132640731075682  0.3132640731075682  0.3132640731075682
  0.6867359268924318  0.3132640731075682  0.3132640731075682
  0.3132640731075682  0.6867359268924318  0.3132640731075682
  0.6867359268924318  0.6867359268924318  0.3132640731075682
  0.0000000000000000  0.5000000000000000  0.2933189639055982
  0.2933189639055982  0.0000000000000000  0.5000000000000000
  0.7066810360944089  0.0000000000000000  0.5000000000000000
  0.5000000000000000  0.2170875896557334  0.5000000000000000
  0.2170875896557334  0.5000000000000000  0.5000000000000000
  0.7829124103442666  0.5000000000000000  0.5000000000000000
  0.5000000000000000  0.7829124103442666  0.5000000000000000
  0.0000000000000000  0.5000000000000000  0.7066810360944089
  0.3132640731075682  0.3132640731075682  0.6867359268924318
  0.6867359268924318  0.3132640731075682  0.6867359268924318
  0.3132640731075682  0.6867359268924318  0.6867359268924318
  0.6867359268924318  0.6867359268924318  0.6867359268924318
  0.1444163555227576  0.0000000000000000  0.7496433859665999
  0.8555836444772424  0.0000000000000000  0.7496433859665999
  0.5000000000000000  0.5000000000000000  0.7829124103442666
  0.0000000000000000  0.2503566140334001  0.8555836444772424
  0.0000000000000000  0.7496433859665999  0.8555836444772424
 
  0.00000000E+00  0.00000000E+00  0.00000000E+00
  0.00000000E+00  0.00000000E+00  0.00000000E+00
  0.00000000E+00  0.00000000E+00  0.00000000E+00
  0.00000000E+00  0.00000000E+00  0.00000000E+00
  0.00000000E+00  0.00000000E+00  0.00000000E+00
  0.00000000E+00  0.00000000E+00  0.00000000E+00
  0.00000000E+00  0.00000000E+00  0.00000000E+00
  0.00000000E+00  0.00000000E+00  0.00000000E+00
  0.00000000E+00  0.00000000E+00  0.00000000E+00
  0.00000000E+00  0.00000000E+00  0.00000000E+00
  0.00000000E+00  0.00000000E+00  0.00000000E+00
  0.00000000E+00  0.00000000E+00  0.00000000E+00
  0.00000000E+00  0.00000000E+00  0.00000000E+00
  0.00000000E+00  0.00000000E+00  0.00000000E+00
  0.00000000E+00  0.00000000E+00  0.00000000E+00
  0.00000000E+00  0.00000000E+00  0.00000000E+00
  0.00000000E+00  0.00000000E+00  0.00000000E+00
  0.00000000E+00  0.00000000E+00  0.00000000E+00
  0.00000000E+00  0.00000000E+00  0.00000000E+00
  0.00000000E+00  0.00000000E+00  0.00000000E+00
  0.00000000E+00  0.00000000E+00  0.00000000E+00
  0.00000000E+00  0.00000000E+00  0.00000000E+00
  0.00000000E+00  0.00000000E+00  0.00000000E+00
  0.00000000E+00  0.00000000E+00  0.00000000E+00
  0.00000000E+00  0.00000000E+00  0.00000000E+00
  0.00000000E+00  0.00000000E+00  0.00000000E+00
  0.00000000E+00  0.00000000E+00  0.00000000E+00
  0.00000000E+00  0.00000000E+00  0.00000000E+00
  0.00000000E+00  0.00000000E+00  0.00000000E+00
  0.00000000E+00  0.00000000E+00  0.00000000E+00
  0.00000000E+00  0.00000000E+00  0.00000000E+00
  0.00000000E+00  0.00000000E+00  0.00000000E+00
  0.00000000E+00  0.00000000E+00  0.00000000E+00
  0.00000000E+00  0.00000000E+00  0.00000000E+00
  0.00000000E+00  0.00000000E+00  0.00000000E+00
  0.00000000E+00  0.00000000E+00  0.00000000E+00
  0.00000000E+00  0.00000000E+00  0.00000000E+00
  0.00000000E+00  0.00000000E+00  0.00000000E+00
  0.00000000E+00  0.00000000E+00  0.00000000E+00
