Sr2 Tl2 Cl10                            
   1.0000000000000000     
     5.4142727480787016   -0.0000000000000001    0.0000000000000003
    -0.0000000000000010   11.0994225649709826    0.0000000000000007
     0.0000000000000002    0.0000000000000002    9.5648635107279052
   Sr   Tl   Cl
     2     2    10
Direct
  0.0000000000000000  0.0000000000000000  0.5000000000000000
  0.5000000000000000  0.5000000000000000  0.0000000000000000
  0.5000000000000000  0.0000000000000000  0.0000000000000000
  0.0000000000000000  0.5000000000000000  0.5000000000000000
  0.5000000000000000  0.7083169078182721  0.5000000000000000
  0.5000000000000000  0.2916830921817279  0.5000000000000000
  0.5000000000000000  0.0000000000000000  0.3299029023002547
  0.5000000000000000  0.0000000000000000  0.6700970976997453
  0.0000000000000000  0.0000000000000000  0.0000000000000000
  0.0000000000000000  0.2083169078182721  0.0000000000000000
  0.0000000000000000  0.7916830921817279  0.0000000000000000
  0.0000000000000000  0.5000000000000000  0.8299029023002547
  0.0000000000000000  0.5000000000000000  0.1700970976997453
  0.5000000000000000  0.5000000000000000  0.5000000000000000

  0.00000000E+00  0.00000000E+00  0.00000000E+00
  0.00000000E+00  0.00000000E+00  0.00000000E+00
  0.00000000E+00  0.00000000E+00  0.00000000E+00
  0.00000000E+00  0.00000000E+00  0.00000000E+00
  0.00000000E+00  0.00000000E+00  0.00000000E+00
  0.00000000E+00  0.00000000E+00  0.00000000E+00
  0.00000000E+00  0.00000000E+00  0.00000000E+00
  0.00000000E+00  0.00000000E+00  0.00000000E+00
  0.00000000E+00  0.00000000E+00  0.00000000E+00
  0.00000000E+00  0.00000000E+00  0.00000000E+00
  0.00000000E+00  0.00000000E+00  0.00000000E+00
  0.00000000E+00  0.00000000E+00  0.00000000E+00
  0.00000000E+00  0.00000000E+00  0.00000000E+00
  0.00000000E+00  0.00000000E+00  0.00000000E+00
