Be7 Al10                                
   1.00000000000000     
     1.6948777319518629   -5.0877684204824032   -1.2722814570364145
    -4.4007649744857718   -0.4225732979904017    0.6581117358362245
     3.4830982346549488   -4.2907446742492157  -11.4800475356153822
   Al   Be
    10     7
Direct
  0.3528533157002656  0.7879994956716345  0.0806672016650154
  0.0189715126135610  0.6708559326489620  0.3286646691329693
  0.3858570307179434  0.2339442150699185  0.3027574966992717
  0.7707749374156094  0.7004524880589855  0.1447749910401512
  0.3425948816662228  0.8611466893073043  0.4425308291674455
  0.6574408991135812  0.1389199966192649  0.5574878823482621
  0.2292820936407409  0.2996053250238973  0.8552538170450035
  0.6141552482900607  0.7661155756330160  0.6972649747590083
  0.9810503164804629  0.3291984639778605  0.6713611648530460
  0.6472134292529503  0.2120290054885245  0.9193542648452393
  0.7861364754356046  0.1204869029669240  0.0570780557996500
  0.0854106635886112  0.2608413804247149  0.1265158960851451
  0.8506305357022725  0.1313864283141513  0.3228363312436429
  0.5000068618074351  0.5000168320274341  0.5000057548788064
  0.1494138130014875  0.8686673090349757  0.6771897338503692
  0.9146594042520277  0.7391944697920962  0.8735060193136235
  0.2139485813211550  0.8795394899403348  0.9429509172733574
 
  0.00000000E+00  0.00000000E+00  0.00000000E+00
  0.00000000E+00  0.00000000E+00  0.00000000E+00
  0.00000000E+00  0.00000000E+00  0.00000000E+00
  0.00000000E+00  0.00000000E+00  0.00000000E+00
  0.00000000E+00  0.00000000E+00  0.00000000E+00
  0.00000000E+00  0.00000000E+00  0.00000000E+00
  0.00000000E+00  0.00000000E+00  0.00000000E+00
  0.00000000E+00  0.00000000E+00  0.00000000E+00
  0.00000000E+00  0.00000000E+00  0.00000000E+00
  0.00000000E+00  0.00000000E+00  0.00000000E+00
  0.00000000E+00  0.00000000E+00  0.00000000E+00
  0.00000000E+00  0.00000000E+00  0.00000000E+00
  0.00000000E+00  0.00000000E+00  0.00000000E+00
  0.00000000E+00  0.00000000E+00  0.00000000E+00
  0.00000000E+00  0.00000000E+00  0.00000000E+00
  0.00000000E+00  0.00000000E+00  0.00000000E+00
  0.00000000E+00  0.00000000E+00  0.00000000E+00
