Ba1 Ga2 F10                             
   1.00000000000000     
     3.6636415705900052    5.1397163465230378    0.6821043998032976
    -3.6636415705900052    5.1397163465230387    0.6821043998032976
     0.0000000000000000    4.5568445364544257    5.8561191728242781
   Ba   Ga   F 
     1     2    10
Direct
  0.5523027987755214  0.4476972012244786  0.0000000000000000
  0.0037162320811319  0.9980423853424014  0.7485363235787048
  0.0019576146575986  0.9962837679188681  0.2514636764212952
  0.2542339153681468  0.2615619475488487  0.5008725502906941
  0.7384380524511513  0.7457660846318532  0.4991274497093059
  0.7407489565693623  0.7477945488132391  0.0126270739103305
  0.2522054511867609  0.2592510434306377  0.9873729260896695
  0.9188395063988324  0.0811604936011605  0.0000000000000000
  0.0794026144953577  0.9205973855046423  0.5000000000000000
  0.7544800015684388  0.2478447904207002  0.6865423818629495
  0.7521552095792998  0.2455199984315684  0.3134576181370505
  0.2503941258697111  0.7548754790013632  0.8104641441404041
  0.2451245209986368  0.7496058741302818  0.1895358558596030
 
  0.00000000E+00  0.00000000E+00  0.00000000E+00
  0.00000000E+00  0.00000000E+00  0.00000000E+00
  0.00000000E+00  0.00000000E+00  0.00000000E+00
  0.00000000E+00  0.00000000E+00  0.00000000E+00
  0.00000000E+00  0.00000000E+00  0.00000000E+00
  0.00000000E+00  0.00000000E+00  0.00000000E+00
  0.00000000E+00  0.00000000E+00  0.00000000E+00
  0.00000000E+00  0.00000000E+00  0.00000000E+00
  0.00000000E+00  0.00000000E+00  0.00000000E+00
  0.00000000E+00  0.00000000E+00  0.00000000E+00
  0.00000000E+00  0.00000000E+00  0.00000000E+00
  0.00000000E+00  0.00000000E+00  0.00000000E+00
  0.00000000E+00  0.00000000E+00  0.00000000E+00
