Sr10 In6 I38                            
   1.0000000000000000     
   -10.6072560363280211   10.6072549444772797    5.5611873107378864
    10.6072560363280211  -10.6072549444772797    5.5611873107378864
    10.6072549444772797   10.6072560363280228   -5.5611873107378864
   Sr   In   I 
    10     6    38
Direct
  0.7797710918316270  0.9877124591315223  0.7674835509631421
  0.2202289081683730  0.0122875408684777  0.2325164490368579
  0.9877124591315223  0.2202289081683730  0.2079413672998882
  0.0122875408684777  0.7797710918316270  0.7920586327001118
  0.5710006386683872  0.2123854787169961  0.7833861173853691
  0.4289993613316057  0.7876145212830039  0.2166138826146309
  0.2123854787169961  0.4289993613316057  0.6413848400486017
  0.7876145212830039  0.5710006386683872  0.3586151599513983
  0.7500000000000000  0.2500000000000000  0.5000000000000000
  0.2500000000000000  0.7500000000000000  0.5000000000000000
  0.8012822203779990  0.3579815922278797  0.1592628126058813
  0.1987177796220010  0.6420184077721203  0.8407371873941187
  0.3579815922278797  0.1987177796220010  0.5566993718498665
  0.6420184077721203  0.8012822203779990  0.4433006281501335
  0.7513921866786717  0.7513921866786717  0.0000000000000000
  0.2486078133213283  0.2486078133213283  0.0000000000000000
  0.4274201414809582  0.7310026563698173  0.8103892616952137
  0.5725798585190418  0.2689973436301827  0.1896107383047863
  0.9206123946745990  0.6170308797857373  0.1896107383047863
  0.7310026563698173  0.9206123946745990  0.3035825148888591
  0.0793876053254010  0.3829691202142556  0.8103892616952137
  0.2689973436301827  0.0793876053254010  0.6964174851111409
  0.6170308797857373  0.4274201414809582  0.6964174851111409
  0.3829691202142556  0.5725798585190418  0.3035825148888591
  0.7074253293037032  0.8983724830471473  0.0584344197916522
  0.2925746706962968  0.1016275169528527  0.9415655802083478
  0.8399380632554951  0.6489909095120652  0.9415655802083478
  0.8983724830471473  0.8399380632554951  0.1909471537434442
  0.1600619367445049  0.3510090904879348  0.0584344197916522
  0.1016275169528527  0.1600619367445049  0.8090528462565558
  0.6489909095120652  0.7074253293037032  0.8090528462565558
  0.3510090904879348  0.2925746706962968  0.1909471537434442
  0.6522228059283961  0.0763879323493271  0.7286107382777232
  0.3477771940716039  0.9236120676506729  0.2713892617222768
  0.0763879323493271  0.3477771940716039  0.4241651264209381
  0.9236120676506729  0.6522228059283961  0.5758348735790619
  0.0000000000000000  0.0000000000000000  0.0000000000000000
  0.9131941778393937  0.4708151636816567  0.3840093415210433
  0.0868058221606063  0.5291848363183433  0.6159906584789567
  0.4708151636816567  0.0868058221606063  0.5576199858422584
  0.5291848363183433  0.9131941778393937  0.4423800141577416
  0.7124350168958671  0.1241360911517546  0.2009312638810812
  0.2875649831041329  0.8758639088482454  0.7990687361189188
  0.9232048272706805  0.5115037530147859  0.7990687361189188
  0.1241360911517546  0.9232048272706805  0.4117020742559063
  0.0767951727293195  0.4884962469852141  0.2009312638810812
  0.8758639088482454  0.0767951727293195  0.5882979257440937
  0.5115037530147859  0.7124350168958671  0.5882979257440937
  0.4884962469852141  0.2875649831041329  0.4117020742559063
  0.7266108151381090  0.2478132240520381  0.9744240391901400
  0.2733891848618910  0.7521867759479619  0.0255759608098600
  0.2478132240520381  0.2733891848618910  0.5212024089139362
  0.7521867759479619  0.7266108151381090  0.4787975910860709
  0.5000000000000000  0.5000000000000000  0.0000000000000000

  0.00000000E+00  0.00000000E+00  0.00000000E+00
  0.00000000E+00  0.00000000E+00  0.00000000E+00
  0.00000000E+00  0.00000000E+00  0.00000000E+00
  0.00000000E+00  0.00000000E+00  0.00000000E+00
  0.00000000E+00  0.00000000E+00  0.00000000E+00
  0.00000000E+00  0.00000000E+00  0.00000000E+00
  0.00000000E+00  0.00000000E+00  0.00000000E+00
  0.00000000E+00  0.00000000E+00  0.00000000E+00
  0.00000000E+00  0.00000000E+00  0.00000000E+00
  0.00000000E+00  0.00000000E+00  0.00000000E+00
  0.00000000E+00  0.00000000E+00  0.00000000E+00
  0.00000000E+00  0.00000000E+00  0.00000000E+00
  0.00000000E+00  0.00000000E+00  0.00000000E+00
  0.00000000E+00  0.00000000E+00  0.00000000E+00
  0.00000000E+00  0.00000000E+00  0.00000000E+00
  0.00000000E+00  0.00000000E+00  0.00000000E+00
  0.00000000E+00  0.00000000E+00  0.00000000E+00
  0.00000000E+00  0.00000000E+00  0.00000000E+00
  0.00000000E+00  0.00000000E+00  0.00000000E+00
  0.00000000E+00  0.00000000E+00  0.00000000E+00
  0.00000000E+00  0.00000000E+00  0.00000000E+00
  0.00000000E+00  0.00000000E+00  0.00000000E+00
  0.00000000E+00  0.00000000E+00  0.00000000E+00
  0.00000000E+00  0.00000000E+00  0.00000000E+00
  0.00000000E+00  0.00000000E+00  0.00000000E+00
  0.00000000E+00  0.00000000E+00  0.00000000E+00
  0.00000000E+00  0.00000000E+00  0.00000000E+00
  0.00000000E+00  0.00000000E+00  0.00000000E+00
  0.00000000E+00  0.00000000E+00  0.00000000E+00
  0.00000000E+00  0.00000000E+00  0.00000000E+00
  0.00000000E+00  0.00000000E+00  0.00000000E+00
  0.00000000E+00  0.00000000E+00  0.00000000E+00
  0.00000000E+00  0.00000000E+00  0.00000000E+00
  0.00000000E+00  0.00000000E+00  0.00000000E+00
  0.00000000E+00  0.00000000E+00  0.00000000E+00
  0.00000000E+00  0.00000000E+00  0.00000000E+00
  0.00000000E+00  0.00000000E+00  0.00000000E+00
  0.00000000E+00  0.00000000E+00  0.00000000E+00
  0.00000000E+00  0.00000000E+00  0.00000000E+00
  0.00000000E+00  0.00000000E+00  0.00000000E+00
  0.00000000E+00  0.00000000E+00  0.00000000E+00
  0.00000000E+00  0.00000000E+00  0.00000000E+00
  0.00000000E+00  0.00000000E+00  0.00000000E+00
  0.00000000E+00  0.00000000E+00  0.00000000E+00
  0.00000000E+00  0.00000000E+00  0.00000000E+00
  0.00000000E+00  0.00000000E+00  0.00000000E+00
  0.00000000E+00  0.00000000E+00  0.00000000E+00
  0.00000000E+00  0.00000000E+00  0.00000000E+00
  0.00000000E+00  0.00000000E+00  0.00000000E+00
  0.00000000E+00  0.00000000E+00  0.00000000E+00
  0.00000000E+00  0.00000000E+00  0.00000000E+00
  0.00000000E+00  0.00000000E+00  0.00000000E+00
  0.00000000E+00  0.00000000E+00  0.00000000E+00
  0.00000000E+00  0.00000000E+00  0.00000000E+00
