Be1 In2 Cl10                            
   1.00000000000000     
     4.8391960058073726    5.0389215253626185    0.3379308305941061
    -4.8391960058073726    5.0389215253626185    0.3379308305941061
     0.0000000000000000    4.1226566697826552    8.5252641209403919
   Be   In   Cl
     1     2    10
Direct
  0.3636188652803867  0.6363811347196204  0.0000000000000000
  0.9670203423722086  0.9488691603082628  0.7660055485190682
  0.0511308396917372  0.0329796576277914  0.2339944514809318
  0.3634310804546601  0.4100648443426280  0.5449297539996323
  0.5899351556573720  0.6365689195453399  0.4550702460003677
  0.6886013175235064  0.6579591293330651  0.9272744607264443
  0.3420408706669349  0.3113986824764936  0.0727255392735557
  0.9319662220304394  0.0680337779695606  0.0000000000000000
  0.1246954618767262  0.8753045381232738  0.5000000000000000
  0.8782600925118444  0.2747352597000514  0.6374439410785087
  0.7252647402999486  0.1217399074881556  0.3625560589214913
  0.2879171258018047  0.7698831141675697  0.8031500279790791
  0.2301168858324303  0.7120828741982024  0.1968499720209209
 
  0.00000000E+00  0.00000000E+00  0.00000000E+00
  0.00000000E+00  0.00000000E+00  0.00000000E+00
  0.00000000E+00  0.00000000E+00  0.00000000E+00
  0.00000000E+00  0.00000000E+00  0.00000000E+00
  0.00000000E+00  0.00000000E+00  0.00000000E+00
  0.00000000E+00  0.00000000E+00  0.00000000E+00
  0.00000000E+00  0.00000000E+00  0.00000000E+00
  0.00000000E+00  0.00000000E+00  0.00000000E+00
  0.00000000E+00  0.00000000E+00  0.00000000E+00
  0.00000000E+00  0.00000000E+00  0.00000000E+00
  0.00000000E+00  0.00000000E+00  0.00000000E+00
  0.00000000E+00  0.00000000E+00  0.00000000E+00
  0.00000000E+00  0.00000000E+00  0.00000000E+00
