SrGa4                                   
   1.00000000000000     
    -4.4496639169549352   -0.0073200737181189   -0.0025390272554275
    -0.0073200737181189   -4.4496639169549352   -0.0025390272554275
     2.2308484737435528    2.2308484737435528    5.4819828136649154
   Ga   Sr
     4     1
Direct
  0.6173563359988350  0.6173563359988350  0.2345329257624797
  0.7488940571669218  0.2511059428330782  0.5000000000000000
  0.2511059428330782  0.7488940571669218  0.5000000000000000
  0.3826436640011650  0.3826436640011650  0.7654670742375203
  0.0000000000000000  0.0000000000000000  0.0000000000000000
 
  0.00000000E+00  0.00000000E+00  0.00000000E+00
  0.00000000E+00  0.00000000E+00  0.00000000E+00
  0.00000000E+00  0.00000000E+00  0.00000000E+00
  0.00000000E+00  0.00000000E+00  0.00000000E+00
  0.00000000E+00  0.00000000E+00  0.00000000E+00
