Be17 Al11 Br1                           
   1.00000000000000     
     7.1648593209198861   -3.3677191323008375    3.0279894368628772
     0.3775512132175043    7.4594173774148977    3.2461354300696059
    -6.5879008978122036   -3.4497837504156283    1.4248467934047897
   Al   Br   Be
    11     1    17
Direct
  0.6244214095290346  0.6495290264104554  0.9534902812733108
  0.5490295356223314  0.4639396222870360  0.2056634207731491
  0.1991290936727594  0.9099770146717034  0.1035445414460128
  0.8303800848003462  0.0622415711844866  0.2983806890264589
  0.3148106878933916  0.4436143465476121  0.3417253167437764
  0.4713877722628510  0.2814030240502206  0.5799788603077118
  0.9805319515909403  0.8469786916425548  0.5102990634041191
  0.9653616084281040  0.1065827199111311  0.8592764722902260
  0.4810375160204856  0.8599679712667623  0.7486598619488944
  0.8239931143415831  0.5994592015651534  0.6968197334208028
  0.2236113778826478  0.2345389515062095  0.7256096269045145
  0.8132000914442870  0.3854312590546201  0.0912170365465101
  0.1360602487090716  0.4340297377510893  0.9909207427680116
  0.3252778150164275  0.5962847812172853  0.9561186454988473
  0.4751455669060860  0.9108017083487994  0.0946717077511963
  0.3568509625304230  0.0713562617082957  0.9431743099755749
  0.8430330766897001  0.8937700382387206  0.9595783780204599
  0.6361197315459037  0.7977741908561455  0.2974317673909610
  0.1243276063126473  0.6393213597934775  0.3807682457760180
  0.5738017100166530  0.0174974428895069  0.4869805926392985
  0.1163621388098406  0.1491189334022280  0.3013176606622352
  0.3511392848484860  0.7294654979159603  0.3050948429990115
  0.6365619969103449  0.2347196413730828  0.3677094433799795
  0.2688058048709010  0.9616411988088345  0.4822060794646674
  0.0025667776930547  0.4113191731397663  0.6523356369146072
  0.6615281983410952  0.7939748863077156  0.5838176482068391
  0.1659603376292651  0.7159223992396164  0.7362733994255564
  0.8114705935782567  0.3159770710642107  0.7474338219485759
  0.2385079061030808  0.4815182778473215  0.5995021730926879
 
  0.00000000E+00  0.00000000E+00  0.00000000E+00
  0.00000000E+00  0.00000000E+00  0.00000000E+00
  0.00000000E+00  0.00000000E+00  0.00000000E+00
  0.00000000E+00  0.00000000E+00  0.00000000E+00
  0.00000000E+00  0.00000000E+00  0.00000000E+00
  0.00000000E+00  0.00000000E+00  0.00000000E+00
  0.00000000E+00  0.00000000E+00  0.00000000E+00
  0.00000000E+00  0.00000000E+00  0.00000000E+00
  0.00000000E+00  0.00000000E+00  0.00000000E+00
  0.00000000E+00  0.00000000E+00  0.00000000E+00
  0.00000000E+00  0.00000000E+00  0.00000000E+00
  0.00000000E+00  0.00000000E+00  0.00000000E+00
  0.00000000E+00  0.00000000E+00  0.00000000E+00
  0.00000000E+00  0.00000000E+00  0.00000000E+00
  0.00000000E+00  0.00000000E+00  0.00000000E+00
  0.00000000E+00  0.00000000E+00  0.00000000E+00
  0.00000000E+00  0.00000000E+00  0.00000000E+00
  0.00000000E+00  0.00000000E+00  0.00000000E+00
  0.00000000E+00  0.00000000E+00  0.00000000E+00
  0.00000000E+00  0.00000000E+00  0.00000000E+00
  0.00000000E+00  0.00000000E+00  0.00000000E+00
  0.00000000E+00  0.00000000E+00  0.00000000E+00
  0.00000000E+00  0.00000000E+00  0.00000000E+00
  0.00000000E+00  0.00000000E+00  0.00000000E+00
  0.00000000E+00  0.00000000E+00  0.00000000E+00
  0.00000000E+00  0.00000000E+00  0.00000000E+00
  0.00000000E+00  0.00000000E+00  0.00000000E+00
  0.00000000E+00  0.00000000E+00  0.00000000E+00
  0.00000000E+00  0.00000000E+00  0.00000000E+00
