Mg41 Al67                               
   1.00000000000000     
    12.6431727615756753    0.0000000000000000    0.0000000000000000
     0.0000000000000000   12.6431727615756753    0.0000000000000000
     0.0000000000000000    0.0000000000000000   12.6431727615756770
   Mg   Al
    41    67
Direct
  0.6599929980763051  0.3400070019236949  0.1672396529520768
  0.6599929980763051  0.8327603470479232  0.3400070019236949
  0.1672396529520768  0.6599929980763051  0.6599929980763051
  0.3400070019236949  0.8327603470479232  0.6599929980763051
  0.0000000000000000  0.8206696956259378  0.0000000000000000
  0.8327603470479232  0.6599929980763051  0.6599929980763051
  0.1672396529520768  0.3400070019236949  0.3400070019236949
  0.6599929980763051  0.1672396529520768  0.3400070019236949
  0.8297923023322937  0.1702076976677063  0.1702076976677063
  0.8327603470479232  0.6599929980763051  0.3400070019236949
  0.0000000000000000  0.0000000000000000  0.1793303043740622
  0.6599929980763051  0.6599929980763051  0.1672396529520768
  0.3400070019236949  0.6599929980763051  0.8327603470479232
  0.1702076976677063  0.1702076976677063  0.8297923023322937
  0.6599929980763051  0.3400070019236949  0.8327603470479232
  0.0000000000000000  0.5000000000000000  0.0000000000000000
  0.6599929980763051  0.1672396529520768  0.6599929980763051
  0.1672396529520768  0.6599929980763051  0.3400070019236949
  0.8297923023322937  0.1702076976677063  0.8297923023322937
  0.1672396529520768  0.3400070019236949  0.6599929980763051
  0.1702076976677063  0.1702076976677063  0.1702076976677063
  0.6599929980763051  0.6599929980763051  0.8327603470479232
  0.6599929980763051  0.8327603470479232  0.6599929980763051
  0.8297923023322937  0.8297923023322937  0.1702076976677063
  0.1793303043740622  0.0000000000000000  0.0000000000000000
  0.3400070019236949  0.1672396529520768  0.6599929980763051
  0.8327603470479232  0.3400070019236949  0.6599929980763051
  0.0000000000000000  0.0000000000000000  0.5000000000000000
  0.1702076976677063  0.8297923023322937  0.1702076976677063
  0.3400070019236949  0.6599929980763051  0.1672396529520768
  0.0000000000000000  0.1793303043740622  0.0000000000000000
  0.1702076976677063  0.8297923023322937  0.8297923023322937
  0.8206696956259378  0.0000000000000000  0.0000000000000000
  0.3400070019236949  0.3400070019236949  0.8327603470479232
  0.3400070019236949  0.3400070019236949  0.1672396529520768
  0.3400070019236949  0.1672396529520768  0.3400070019236949
  0.5000000000000000  0.0000000000000000  0.0000000000000000
  0.8327603470479232  0.3400070019236949  0.3400070019236949
  0.3400070019236949  0.8327603470479232  0.3400070019236949
  0.0000000000000000  0.0000000000000000  0.8206696956259378
  0.8297923023322937  0.8297923023322937  0.8297923023322937
  0.5000000000000000  0.3402588975685177  0.3402588975685177
  0.8338796615027917  0.1661203384972083  0.5000000000000000
  0.3402588975685177  0.5000000000000000  0.6597411024314823
  0.6649118649060597  0.0000000000000000  0.5000000000000000
  0.6595260593604522  0.0000000000000000  0.8276889991811629
  0.8276889991811629  0.0000000000000000  0.6595260593604522
  0.5000000000000000  0.0000000000000000  0.3350881350939403
  0.3404739406395478  0.8276889991811629  0.0000000000000000
  0.0000000000000000  0.6649118649060597  0.5000000000000000
  0.3350881350939403  0.0000000000000000  0.5000000000000000
  0.6595260593604522  0.0000000000000000  0.1723110008188371
  0.5000000000000000  0.8338796615027917  0.1661203384972083
  0.6649118649060597  0.5000000000000000  0.0000000000000000
  0.1723110008188371  0.6595260593604522  0.0000000000000000
  0.8338796615027917  0.5000000000000000  0.1661203384972083
  0.1665695101722093  0.5000000000000000  0.5000000000000000
  0.1723110008188371  0.3404739406395478  0.0000000000000000
  0.5000000000000000  0.5000000000000000  0.1665695101722093
  0.5000000000000000  0.8338796615027917  0.8338796615027917
  0.5000000000000000  0.0000000000000000  0.6649118649060597
  0.3402588975685177  0.3402588975685177  0.5000000000000000
  0.5000000000000000  0.1661203384972083  0.1661203384972083
  0.5000000000000000  0.6597411024314823  0.3402588975685177
  0.3404739406395478  0.0000000000000000  0.1723110008188371
  0.1723110008188371  0.0000000000000000  0.6595260593604522
  0.8276889991811629  0.0000000000000000  0.3404739406395478
  0.1661203384972083  0.5000000000000000  0.1661203384972083
  0.0000000000000000  0.1723110008188371  0.6595260593604522
  0.3404739406395478  0.0000000000000000  0.8276889991811629
  0.0000000000000000  0.8276889991811629  0.3404739406395478
  0.1661203384972083  0.1661203384972083  0.5000000000000000
  0.5000000000000000  0.5000000000000000  0.5000000000000000
  0.5000000000000000  0.3350881350939403  0.0000000000000000
  0.5000000000000000  0.6597411024314823  0.6597411024314823
  0.6597411024314823  0.3402588975685177  0.5000000000000000
  0.1723110008188371  0.0000000000000000  0.3404739406395478
  0.6597411024314823  0.5000000000000000  0.6597411024314823
  0.5000000000000000  0.6649118649060597  0.0000000000000000
  0.0000000000000000  0.3404739406395478  0.8276889991811629
  0.0000000000000000  0.6595260593604522  0.8276889991811629
  0.5000000000000000  0.1665695101722093  0.5000000000000000
  0.5000000000000000  0.8334304898277907  0.5000000000000000
  0.8338796615027917  0.8338796615027917  0.5000000000000000
  0.0000000000000000  0.1723110008188371  0.3404739406395478
  0.1661203384972083  0.8338796615027917  0.5000000000000000
  0.0000000000000000  0.3404739406395478  0.1723110008188371
  0.0000000000000000  0.6595260593604522  0.1723110008188371
  0.0000000000000000  0.8276889991811629  0.6595260593604522
  0.3402588975685177  0.6597411024314823  0.5000000000000000
  0.6595260593604522  0.1723110008188371  0.0000000000000000
  0.8276889991811629  0.6595260593604522  0.0000000000000000
  0.3350881350939403  0.5000000000000000  0.0000000000000000
  0.3404739406395478  0.1723110008188371  0.0000000000000000
  0.6595260593604522  0.8276889991811629  0.0000000000000000
  0.8338796615027917  0.5000000000000000  0.8338796615027917
  0.8334304898277907  0.5000000000000000  0.5000000000000000
  0.0000000000000000  0.5000000000000000  0.3350881350939403
  0.5000000000000000  0.1661203384972083  0.8338796615027917
  0.5000000000000000  0.3402588975685177  0.6597411024314823
  0.3402588975685177  0.5000000000000000  0.3402588975685177
  0.0000000000000000  0.3350881350939403  0.5000000000000000
  0.8276889991811629  0.3404739406395478  0.0000000000000000
  0.1661203384972083  0.5000000000000000  0.8338796615027917
  0.6597411024314823  0.5000000000000000  0.3402588975685177
  0.6597411024314823  0.6597411024314823  0.5000000000000000
  0.5000000000000000  0.5000000000000000  0.8334304898277907
  0.0000000000000000  0.5000000000000000  0.6649118649060597
 
  0.00000000E+00  0.00000000E+00  0.00000000E+00
  0.00000000E+00  0.00000000E+00  0.00000000E+00
  0.00000000E+00  0.00000000E+00  0.00000000E+00
  0.00000000E+00  0.00000000E+00  0.00000000E+00
  0.00000000E+00  0.00000000E+00  0.00000000E+00
  0.00000000E+00  0.00000000E+00  0.00000000E+00
  0.00000000E+00  0.00000000E+00  0.00000000E+00
  0.00000000E+00  0.00000000E+00  0.00000000E+00
  0.00000000E+00  0.00000000E+00  0.00000000E+00
  0.00000000E+00  0.00000000E+00  0.00000000E+00
  0.00000000E+00  0.00000000E+00  0.00000000E+00
  0.00000000E+00  0.00000000E+00  0.00000000E+00
  0.00000000E+00  0.00000000E+00  0.00000000E+00
  0.00000000E+00  0.00000000E+00  0.00000000E+00
  0.00000000E+00  0.00000000E+00  0.00000000E+00
  0.00000000E+00  0.00000000E+00  0.00000000E+00
  0.00000000E+00  0.00000000E+00  0.00000000E+00
  0.00000000E+00  0.00000000E+00  0.00000000E+00
  0.00000000E+00  0.00000000E+00  0.00000000E+00
  0.00000000E+00  0.00000000E+00  0.00000000E+00
  0.00000000E+00  0.00000000E+00  0.00000000E+00
  0.00000000E+00  0.00000000E+00  0.00000000E+00
  0.00000000E+00  0.00000000E+00  0.00000000E+00
  0.00000000E+00  0.00000000E+00  0.00000000E+00
  0.00000000E+00  0.00000000E+00  0.00000000E+00
  0.00000000E+00  0.00000000E+00  0.00000000E+00
  0.00000000E+00  0.00000000E+00  0.00000000E+00
  0.00000000E+00  0.00000000E+00  0.00000000E+00
  0.00000000E+00  0.00000000E+00  0.00000000E+00
  0.00000000E+00  0.00000000E+00  0.00000000E+00
  0.00000000E+00  0.00000000E+00  0.00000000E+00
  0.00000000E+00  0.00000000E+00  0.00000000E+00
  0.00000000E+00  0.00000000E+00  0.00000000E+00
  0.00000000E+00  0.00000000E+00  0.00000000E+00
  0.00000000E+00  0.00000000E+00  0.00000000E+00
  0.00000000E+00  0.00000000E+00  0.00000000E+00
  0.00000000E+00  0.00000000E+00  0.00000000E+00
  0.00000000E+00  0.00000000E+00  0.00000000E+00
  0.00000000E+00  0.00000000E+00  0.00000000E+00
  0.00000000E+00  0.00000000E+00  0.00000000E+00
  0.00000000E+00  0.00000000E+00  0.00000000E+00
  0.00000000E+00  0.00000000E+00  0.00000000E+00
  0.00000000E+00  0.00000000E+00  0.00000000E+00
  0.00000000E+00  0.00000000E+00  0.00000000E+00
  0.00000000E+00  0.00000000E+00  0.00000000E+00
  0.00000000E+00  0.00000000E+00  0.00000000E+00
  0.00000000E+00  0.00000000E+00  0.00000000E+00
  0.00000000E+00  0.00000000E+00  0.00000000E+00
  0.00000000E+00  0.00000000E+00  0.00000000E+00
  0.00000000E+00  0.00000000E+00  0.00000000E+00
  0.00000000E+00  0.00000000E+00  0.00000000E+00
  0.00000000E+00  0.00000000E+00  0.00000000E+00
  0.00000000E+00  0.00000000E+00  0.00000000E+00
  0.00000000E+00  0.00000000E+00  0.00000000E+00
  0.00000000E+00  0.00000000E+00  0.00000000E+00
  0.00000000E+00  0.00000000E+00  0.00000000E+00
  0.00000000E+00  0.00000000E+00  0.00000000E+00
  0.00000000E+00  0.00000000E+00  0.00000000E+00
  0.00000000E+00  0.00000000E+00  0.00000000E+00
  0.00000000E+00  0.00000000E+00  0.00000000E+00
  0.00000000E+00  0.00000000E+00  0.00000000E+00
  0.00000000E+00  0.00000000E+00  0.00000000E+00
  0.00000000E+00  0.00000000E+00  0.00000000E+00
  0.00000000E+00  0.00000000E+00  0.00000000E+00
  0.00000000E+00  0.00000000E+00  0.00000000E+00
  0.00000000E+00  0.00000000E+00  0.00000000E+00
  0.00000000E+00  0.00000000E+00  0.00000000E+00
  0.00000000E+00  0.00000000E+00  0.00000000E+00
  0.00000000E+00  0.00000000E+00  0.00000000E+00
  0.00000000E+00  0.00000000E+00  0.00000000E+00
  0.00000000E+00  0.00000000E+00  0.00000000E+00
  0.00000000E+00  0.00000000E+00  0.00000000E+00
  0.00000000E+00  0.00000000E+00  0.00000000E+00
  0.00000000E+00  0.00000000E+00  0.00000000E+00
  0.00000000E+00  0.00000000E+00  0.00000000E+00
  0.00000000E+00  0.00000000E+00  0.00000000E+00
  0.00000000E+00  0.00000000E+00  0.00000000E+00
  0.00000000E+00  0.00000000E+00  0.00000000E+00
  0.00000000E+00  0.00000000E+00  0.00000000E+00
  0.00000000E+00  0.00000000E+00  0.00000000E+00
  0.00000000E+00  0.00000000E+00  0.00000000E+00
  0.00000000E+00  0.00000000E+00  0.00000000E+00
  0.00000000E+00  0.00000000E+00  0.00000000E+00
  0.00000000E+00  0.00000000E+00  0.00000000E+00
  0.00000000E+00  0.00000000E+00  0.00000000E+00
  0.00000000E+00  0.00000000E+00  0.00000000E+00
  0.00000000E+00  0.00000000E+00  0.00000000E+00
  0.00000000E+00  0.00000000E+00  0.00000000E+00
  0.00000000E+00  0.00000000E+00  0.00000000E+00
  0.00000000E+00  0.00000000E+00  0.00000000E+00
  0.00000000E+00  0.00000000E+00  0.00000000E+00
  0.00000000E+00  0.00000000E+00  0.00000000E+00
  0.00000000E+00  0.00000000E+00  0.00000000E+00
  0.00000000E+00  0.00000000E+00  0.00000000E+00
  0.00000000E+00  0.00000000E+00  0.00000000E+00
  0.00000000E+00  0.00000000E+00  0.00000000E+00
  0.00000000E+00  0.00000000E+00  0.00000000E+00
  0.00000000E+00  0.00000000E+00  0.00000000E+00
  0.00000000E+00  0.00000000E+00  0.00000000E+00
  0.00000000E+00  0.00000000E+00  0.00000000E+00
  0.00000000E+00  0.00000000E+00  0.00000000E+00
  0.00000000E+00  0.00000000E+00  0.00000000E+00
  0.00000000E+00  0.00000000E+00  0.00000000E+00
  0.00000000E+00  0.00000000E+00  0.00000000E+00
  0.00000000E+00  0.00000000E+00  0.00000000E+00
  0.00000000E+00  0.00000000E+00  0.00000000E+00
  0.00000000E+00  0.00000000E+00  0.00000000E+00
  0.00000000E+00  0.00000000E+00  0.00000000E+00
