Sr8 In4 Br28                            
   1.00000000000000     
     8.1531888346766781    0.0003103953935200    1.2292462496624863
     0.0020124737887614   14.9952627698292336   -0.0003500283847591
     1.7434583035930282   -0.0008195339300054   11.7688214181192983
   Sr   Br   In
     8    28     4
Direct
  0.3234036830421942  0.7414476145461677  0.0976491643978790
  0.3576895119691486  0.0519679104307684  0.1936473887509464
  0.6423021493352294  0.5519087584016802  0.3064466589761281
  0.6765361035816255  0.2412822649361317  0.4023933012054783
  0.3234586033418907  0.7588201489635296  0.5975496593254164
  0.3572196618734367  0.4480032388828263  0.6932334767771948
  0.6429161245734747  0.9478984879052419  0.8067693851180024
  0.6766220349966616  0.2586331476762211  0.9023859819565061
  0.6950425260816786  0.6575764933728863  0.0434292389961755
  0.0959287410105816  0.9202505554059073  0.1106342933482196
  0.5775417166511048  0.8979866156976897  0.0696692201793070
  0.8405109183028543  0.4226441718218581  0.0946780807879080
  0.5805852474511255  0.2182921116404444  0.1674673580926225
  0.0560548153727680  0.2124136552414271  0.2274682826367709
  0.3005571552530952  0.5200924779039227  0.1812098030759728
  0.6987223013204300  0.0199523956040153  0.3193666144846148
  0.9438312970317639  0.7125382783539393  0.2722274125787720
  0.4196920403602249  0.7183476567089215  0.3324494471222081
  0.1595866658541354  0.9225773596221742  0.4054170877997265
  0.4225035596053743  0.3979723763976608  0.4303965879945935
  0.9039176560411875  0.4199633987308005  0.3896120336816224
  0.3045681183255056  0.1577847299492277  0.4563360500892415
  0.6956482509783513  0.8420503806952624  0.5438287189384425
  0.0956503796771031  0.5802983619949345  0.6100346034547428
  0.5770256813574264  0.6019133958340532  0.5693585835509580
  0.8405607727111573  0.0772637589776295  0.5950731092742529
  0.5800606518090987  0.2815608132290990  0.6674996275326990
  0.0559742619291086  0.2875696178274580  0.7274192711103069
  0.3015446709107081  0.9800533826960418  0.6810099209903271
  0.6993111270290200  0.4798558846286411  0.8183972038317933
  0.9441647542420881  0.7876996923434803  0.7728536750137138
  0.4196638592400106  0.7816926126550499  0.8325864727573347
  0.1594062280157758  0.5772420598471939  0.9048882088970132
  0.4229800827140195  0.1018674711432865  0.9306645731593832
  0.9045983031659617  0.0800306636782366  0.8897684710912728
  0.3047507852770721  0.3422312634628000  0.9563684254290976
  0.1028642643372564  0.3852952047062246  0.1693284515271074
  0.8971260058539343  0.8853284425664114  0.3308416191172370
  0.1031288711113874  0.1146368847822714  0.6694464217727827
  0.8969504182648009  0.6146562607384212  0.8303961151763843
 
  0.00000000E+00  0.00000000E+00  0.00000000E+00
  0.00000000E+00  0.00000000E+00  0.00000000E+00
  0.00000000E+00  0.00000000E+00  0.00000000E+00
  0.00000000E+00  0.00000000E+00  0.00000000E+00
  0.00000000E+00  0.00000000E+00  0.00000000E+00
  0.00000000E+00  0.00000000E+00  0.00000000E+00
  0.00000000E+00  0.00000000E+00  0.00000000E+00
  0.00000000E+00  0.00000000E+00  0.00000000E+00
  0.00000000E+00  0.00000000E+00  0.00000000E+00
  0.00000000E+00  0.00000000E+00  0.00000000E+00
  0.00000000E+00  0.00000000E+00  0.00000000E+00
  0.00000000E+00  0.00000000E+00  0.00000000E+00
  0.00000000E+00  0.00000000E+00  0.00000000E+00
  0.00000000E+00  0.00000000E+00  0.00000000E+00
  0.00000000E+00  0.00000000E+00  0.00000000E+00
  0.00000000E+00  0.00000000E+00  0.00000000E+00
  0.00000000E+00  0.00000000E+00  0.00000000E+00
  0.00000000E+00  0.00000000E+00  0.00000000E+00
  0.00000000E+00  0.00000000E+00  0.00000000E+00
  0.00000000E+00  0.00000000E+00  0.00000000E+00
  0.00000000E+00  0.00000000E+00  0.00000000E+00
  0.00000000E+00  0.00000000E+00  0.00000000E+00
  0.00000000E+00  0.00000000E+00  0.00000000E+00
  0.00000000E+00  0.00000000E+00  0.00000000E+00
  0.00000000E+00  0.00000000E+00  0.00000000E+00
  0.00000000E+00  0.00000000E+00  0.00000000E+00
  0.00000000E+00  0.00000000E+00  0.00000000E+00
  0.00000000E+00  0.00000000E+00  0.00000000E+00
  0.00000000E+00  0.00000000E+00  0.00000000E+00
  0.00000000E+00  0.00000000E+00  0.00000000E+00
  0.00000000E+00  0.00000000E+00  0.00000000E+00
  0.00000000E+00  0.00000000E+00  0.00000000E+00
  0.00000000E+00  0.00000000E+00  0.00000000E+00
  0.00000000E+00  0.00000000E+00  0.00000000E+00
  0.00000000E+00  0.00000000E+00  0.00000000E+00
  0.00000000E+00  0.00000000E+00  0.00000000E+00
  0.00000000E+00  0.00000000E+00  0.00000000E+00
  0.00000000E+00  0.00000000E+00  0.00000000E+00
  0.00000000E+00  0.00000000E+00  0.00000000E+00
  0.00000000E+00  0.00000000E+00  0.00000000E+00
