Be10 In12                               
   1.00000000000000     
    -3.1283366373780064   -5.3453832306928097    0.0000000000000000
    -3.1320617687707628    5.3480210614715151    0.0000000000000000
     0.0000000000000000    0.0000000000000000  -12.0535999447699549
   Be   In
    10    12
Direct
  0.8949870341506880  0.7301406666878307  0.2500000000000000
  0.1122261003120784  0.1498698432580099  0.2500000000000000
  0.3147397604964297  0.9470777279865885  0.2500000000000000
  0.7716769772907455  0.6031793565141328  0.7500000000000000
  0.3519453419551226  0.3862502085276205  0.7500000000000000
  0.5544422672915488  0.1834691438227409  0.7500000000000000
  0.0998626875475068  0.9347231735561508  0.1026045105572990
  0.0998626875475068  0.9347231735561508  0.3973954894427010
  0.5668126664402848  0.3986076104368337  0.8973829726743858
  0.5668126664402848  0.3986076104368337  0.6026170273256142
  0.6705347526601031  0.9381104948275691  0.1187585572231171
  0.5318365843403541  0.3675127906220723  0.1052567074661539
  0.1022293103873437  0.5057189900670522  0.1184909773125540
  0.6705347526601031  0.9381104948275691  0.3812414427768829
  0.5318365843403541  0.3675127906220723  0.3947432925338461
  0.1022293103873437  0.5057189900670522  0.3815090226874460
  0.1348389155755356  0.9658151769876966  0.6052623609390650
  0.9961343147882928  0.3952145620685101  0.6187603573638967
  0.5644420275122926  0.8276037280356476  0.6184933406660562
  0.1348389155755356  0.9658151769876966  0.8947376390609350
  0.9961343147882928  0.3952145620685101  0.8812396426361033
  0.5644420275122926  0.8276037280356476  0.8815066593339438
 
  0.00000000E+00  0.00000000E+00  0.00000000E+00
  0.00000000E+00  0.00000000E+00  0.00000000E+00
  0.00000000E+00  0.00000000E+00  0.00000000E+00
  0.00000000E+00  0.00000000E+00  0.00000000E+00
  0.00000000E+00  0.00000000E+00  0.00000000E+00
  0.00000000E+00  0.00000000E+00  0.00000000E+00
  0.00000000E+00  0.00000000E+00  0.00000000E+00
  0.00000000E+00  0.00000000E+00  0.00000000E+00
  0.00000000E+00  0.00000000E+00  0.00000000E+00
  0.00000000E+00  0.00000000E+00  0.00000000E+00
  0.00000000E+00  0.00000000E+00  0.00000000E+00
  0.00000000E+00  0.00000000E+00  0.00000000E+00
  0.00000000E+00  0.00000000E+00  0.00000000E+00
  0.00000000E+00  0.00000000E+00  0.00000000E+00
  0.00000000E+00  0.00000000E+00  0.00000000E+00
  0.00000000E+00  0.00000000E+00  0.00000000E+00
  0.00000000E+00  0.00000000E+00  0.00000000E+00
  0.00000000E+00  0.00000000E+00  0.00000000E+00
  0.00000000E+00  0.00000000E+00  0.00000000E+00
  0.00000000E+00  0.00000000E+00  0.00000000E+00
  0.00000000E+00  0.00000000E+00  0.00000000E+00
  0.00000000E+00  0.00000000E+00  0.00000000E+00
