Sr1 Ga2 I10                             
   1.00000000000000     
     5.7378477613674574    6.8275840232148655    1.1057978641833557
    -5.7378477613674566    6.8275840232148655    1.1057978641833559
     0.0000000000000000    6.2249708632089167   10.4516531898506564
   Sr   Ga   I 
     1     2    10
Direct
  0.5521423144060051  0.4478576855939949  0.0000000000000000
  0.8465204578168439  0.0134268747084079  0.7164909747797452
  0.9865731252915850  0.1534795421831561  0.2835090252202548
  0.0303838921849078  0.2548293421000096  0.6761565807771106
  0.7451706578999904  0.9696161078150922  0.3238434192228823
  0.8400732332286935  0.7290173604616541  0.9308944894755200
  0.2709826395383459  0.1599267667713065  0.0691055105244871
  0.8571012937329243  0.1428987062670757  0.0000000000000000
  0.0572278890505089  0.9427721109494911  0.5000000000000000
  0.5664047820240725  0.1197083284395788  0.7218120955356397
  0.8802916715604212  0.4335952179759275  0.2781879044643603
  0.5650647768815205  0.6539377336158267  0.6993256586157273
  0.3460622663841733  0.4349352231184795  0.3006743413842727
 
  0.00000000E+00  0.00000000E+00  0.00000000E+00
  0.00000000E+00  0.00000000E+00  0.00000000E+00
  0.00000000E+00  0.00000000E+00  0.00000000E+00
  0.00000000E+00  0.00000000E+00  0.00000000E+00
  0.00000000E+00  0.00000000E+00  0.00000000E+00
  0.00000000E+00  0.00000000E+00  0.00000000E+00
  0.00000000E+00  0.00000000E+00  0.00000000E+00
  0.00000000E+00  0.00000000E+00  0.00000000E+00
  0.00000000E+00  0.00000000E+00  0.00000000E+00
  0.00000000E+00  0.00000000E+00  0.00000000E+00
  0.00000000E+00  0.00000000E+00  0.00000000E+00
  0.00000000E+00  0.00000000E+00  0.00000000E+00
  0.00000000E+00  0.00000000E+00  0.00000000E+00
