Ca4 B10 F2                              
   1.00000000000000     
     5.7672633988514432    1.0690617789209116   -0.5873041612456985
    -2.0636141569517785    5.2160555437856333   -1.3636293917368263
    -3.4914844143743440   -3.9697340369585024    8.1285465218723072
   F    Ca   B 
     2     4    10
Direct
  0.8937536648868374  0.0930640451178562  0.1099935568851507
  0.0386498701857079  0.7769309787469467  0.8194418981765708
  0.0267121273597866  0.8830851949844956  0.2748085844692127
  0.4883180775929929  0.1564842359003009  0.0979168822183780
  0.6125174732743233  0.7835475501188967  0.7158890162973819
  0.9336894391489352  0.3110161944592633  0.6513578730184548
  0.1247988651694385  0.4421378614194609  0.3024348664485430
  0.5276604061345296  0.7287914526397046  0.2260166190390578
  0.1717072768135424  0.5512584910947140  0.0815173275582382
  0.4042367632865336  0.6019426260002234  0.3139398332041381
  0.7906967132634577  0.7422748137451478  0.4215988679353089
  0.0303921070962403  0.5964465861793755  0.4353150467875153
  0.1776249775520142  0.9671659502524008  0.6159470684901223
  0.4851189632286719  0.2253455951667078  0.6742957152274300
  0.8043999744937480  0.4017525658572225  0.9080300252575810
  0.4897233005132406  0.2385558583173051  0.8512968189868957
 
  0.00000000E+00  0.00000000E+00  0.00000000E+00
  0.00000000E+00  0.00000000E+00  0.00000000E+00
  0.00000000E+00  0.00000000E+00  0.00000000E+00
  0.00000000E+00  0.00000000E+00  0.00000000E+00
  0.00000000E+00  0.00000000E+00  0.00000000E+00
  0.00000000E+00  0.00000000E+00  0.00000000E+00
  0.00000000E+00  0.00000000E+00  0.00000000E+00
  0.00000000E+00  0.00000000E+00  0.00000000E+00
  0.00000000E+00  0.00000000E+00  0.00000000E+00
  0.00000000E+00  0.00000000E+00  0.00000000E+00
  0.00000000E+00  0.00000000E+00  0.00000000E+00
  0.00000000E+00  0.00000000E+00  0.00000000E+00
  0.00000000E+00  0.00000000E+00  0.00000000E+00
  0.00000000E+00  0.00000000E+00  0.00000000E+00
  0.00000000E+00  0.00000000E+00  0.00000000E+00
  0.00000000E+00  0.00000000E+00  0.00000000E+00
