ADDGRID = True
ALGO = Normal
AMIX = 0.2
BMIX = 0.001
EDIFF = 0.00001
EDIFFG = -0.01
ENCUT = 800
ISPIN = 1
LCHARG = True
LREAL = False
LWAVE = True
NCORE = 4
NSW = 0
NWRITE = 2
POTIM = 0.5
PREC = Normal
SIGMA = 0.01
ISMEAR = -5
NBANDS = 192
NEDOS = 6000
LORBIT = 10
LOPTICS = True
