Mg2 Al2 Cl10                            
   1.0000000000000000     
     5.9213583733502881    0.0510491435353348    2.3671995338721183
     1.3474274108161535    5.7662399355930747    2.3671998474719800
    -0.0011048052834670   -0.0008820639102541    9.4378326612197903
   Mg   Al   Cl
     2     2    10
Direct
  0.4823894392232688  0.5176105605801098  0.2500000001204512
  0.5176105607767312  0.4823894394198902  0.7499999998795488
  0.0000000000000000  0.0000000000000000  0.5000000000000000
  0.0000000000000000  0.0000000000000000  0.0000000000000000
  0.8389781886166858  0.6878858491486639  0.6425453141770205
  0.3121141565268886  0.1610208062151983  0.8574546854989435
  0.1610208113833167  0.3121141508513361  0.3574556858229840
  0.6878858434731114  0.8389781937848042  0.1425453145010565
  0.8813227360553455  0.1186772629644821  0.7500000007434480
  0.1186772639446545  0.8813227370355179  0.2499999992565520
  0.7648474194221464  0.3528044830900754  0.0330997154274471
  0.6471955136801739  0.2351525764534017  0.4669002897838368
  0.2351525805778536  0.6471955169099246  0.9669002845725529
  0.3528044863198261  0.7648474235465983  0.5330997102161632

  0.00000000E+00  0.00000000E+00  0.00000000E+00
  0.00000000E+00  0.00000000E+00  0.00000000E+00
  0.00000000E+00  0.00000000E+00  0.00000000E+00
  0.00000000E+00  0.00000000E+00  0.00000000E+00
  0.00000000E+00  0.00000000E+00  0.00000000E+00
  0.00000000E+00  0.00000000E+00  0.00000000E+00
  0.00000000E+00  0.00000000E+00  0.00000000E+00
  0.00000000E+00  0.00000000E+00  0.00000000E+00
  0.00000000E+00  0.00000000E+00  0.00000000E+00
  0.00000000E+00  0.00000000E+00  0.00000000E+00
  0.00000000E+00  0.00000000E+00  0.00000000E+00
  0.00000000E+00  0.00000000E+00  0.00000000E+00
  0.00000000E+00  0.00000000E+00  0.00000000E+00
  0.00000000E+00  0.00000000E+00  0.00000000E+00
