Be7 Al13                                
   1.00000000000000     
     5.1649933483914614    0.4004940445320542   -0.0231978051334172
    -2.2136491109022183    4.3379156604189202    0.2618230764425754
    -0.0930115739556000    0.8046907712107415   12.2616369556368472
   Al   Be
    13     7
Direct
  0.7256145600777373  0.6875878580065091  0.9411503877798424
  0.1135333888682979  0.1371852758185597  0.2313302700152988
  0.1933799375147416  0.5988081291415952  0.0324847783078042
  0.6803976560701841  0.6626634144339150  0.1636346941409101
  0.2863636045775664  0.6836307204570033  0.3150139515508457
  0.0277410546876737  0.6094124777883465  0.5304367946686384
  0.5774487487599842  0.7460211888964494  0.5129003939694528
  0.3870145966528895  0.1909765162262502  0.4341410355215771
  0.4549631227182473  0.0714484504851853  0.6622208590972107
  0.3286508059179027  0.1618681253990673  0.8688381315313194
  0.8756484999358776  0.2669044658471975  0.8544339966255308
  0.7730106037150009  0.6960303496134301  0.7207626687707887
  0.5841539033877652  0.1487843981590302  0.0733979726361653
  0.0517193613108304  0.0510365757000670  0.0416990378021609
  0.6396158451990033  0.1990404512148700  0.2680569668981505
  0.7927158304077366  0.6231609070728226  0.3549659700261287
  0.9139883081027804  0.2162256823450051  0.4035879651088621
  0.0049030605099176  0.1067265882193951  0.5776923321300345
  0.2452191527395726  0.4460617814264722  0.6867674420653245
  0.3439199588462785  0.6964286437488454  0.8268843513539608
 
  0.00000000E+00  0.00000000E+00  0.00000000E+00
  0.00000000E+00  0.00000000E+00  0.00000000E+00
  0.00000000E+00  0.00000000E+00  0.00000000E+00
  0.00000000E+00  0.00000000E+00  0.00000000E+00
  0.00000000E+00  0.00000000E+00  0.00000000E+00
  0.00000000E+00  0.00000000E+00  0.00000000E+00
  0.00000000E+00  0.00000000E+00  0.00000000E+00
  0.00000000E+00  0.00000000E+00  0.00000000E+00
  0.00000000E+00  0.00000000E+00  0.00000000E+00
  0.00000000E+00  0.00000000E+00  0.00000000E+00
  0.00000000E+00  0.00000000E+00  0.00000000E+00
  0.00000000E+00  0.00000000E+00  0.00000000E+00
  0.00000000E+00  0.00000000E+00  0.00000000E+00
  0.00000000E+00  0.00000000E+00  0.00000000E+00
  0.00000000E+00  0.00000000E+00  0.00000000E+00
  0.00000000E+00  0.00000000E+00  0.00000000E+00
  0.00000000E+00  0.00000000E+00  0.00000000E+00
  0.00000000E+00  0.00000000E+00  0.00000000E+00
  0.00000000E+00  0.00000000E+00  0.00000000E+00
  0.00000000E+00  0.00000000E+00  0.00000000E+00
