Be4Ga                                   
   1.00000000000000     
     3.7447701463964425    0.0000000000000000    0.0000000000000000
     0.0000000000000000    3.7447701463964425    0.0000000000000000
     0.0000000000000000    0.0000000000000000    7.7000214021861888
   Be   Ga
     8     2
Direct
  0.0000000000000000  0.0000000000000000  0.0000000000000000
  0.5000000000000000  0.5000000000000000  0.0000000000000000
  0.0000000000000000  0.0000000000000000  0.3422667506902783
  0.5000000000000000  0.5000000000000000  0.3422667506902783
  0.0000000000000000  0.5000000000000000  0.4881275367946571
  0.5000000000000000  0.0000000000000000  0.5118724632053429
  0.0000000000000000  0.0000000000000000  0.6577332493097217
  0.5000000000000000  0.5000000000000000  0.6577332493097217
  0.0000000000000000  0.5000000000000000  0.1694690790957907
  0.5000000000000000  0.0000000000000000  0.8305309209042093
 
  0.00000000E+00  0.00000000E+00  0.00000000E+00
  0.00000000E+00  0.00000000E+00  0.00000000E+00
  0.00000000E+00  0.00000000E+00  0.00000000E+00
  0.00000000E+00  0.00000000E+00  0.00000000E+00
  0.00000000E+00  0.00000000E+00  0.00000000E+00
  0.00000000E+00  0.00000000E+00  0.00000000E+00
  0.00000000E+00  0.00000000E+00  0.00000000E+00
  0.00000000E+00  0.00000000E+00  0.00000000E+00
  0.00000000E+00  0.00000000E+00  0.00000000E+00
  0.00000000E+00  0.00000000E+00  0.00000000E+00
