Mg17 Tl11 Br1                           
   1.0000000000000000     
     7.8841358034088929   -5.1443164177981275    2.9442844092776705
    -0.1712155910417325   10.4151862798363659    3.6704698324761096
    -7.6342162434367253   -4.7440628411721466    2.8220775990072036
   Tl   Br   Mg
    11     1    17
Direct
  0.6524621594126856  0.8098807115582005  0.9819840968918498
  0.4579184969345604  0.4704677818476881  0.2364551951999871
  0.2246658593057447  0.7680873787024822  0.2155710626274043
  0.7319038203580845  0.1876844776020903  0.2072530007474498
  0.1348849319031089  0.3688084051469005  0.3179763156209248
  0.3593023379062288  0.1478010213257690  0.3384443551745306
  0.0534686173945502  0.8154855552645799  0.6617574267812358
  0.8189337081087942  0.0373360885167173  0.6840635137436522
  0.5032003476114113  0.9752630714100832  0.7757237463686764
  0.9814625486192554  0.5810898265070961  0.8185027679882424
  0.2165405784152412  0.2438872859957542  0.7543935589954671
  0.7164455846825462  0.4773639518905668  0.0034105611787183
  0.0505309315957518  0.3766930505783677  0.9948761968989785
  0.3593505468653575  0.6038754849321535  0.9976969326807890
  0.3283330432316021  0.9171476541111758  0.0118548312342597
  0.4790577328252255  0.2289270100708336  0.9910622519866550
  0.1193202116319227  0.1061879903685394  0.0018787219963201
  0.7850914198866619  0.7807370158464408  0.3500713191783760
  0.9871041140905774  0.5691240916727907  0.3102152522592974
  0.6120176597136293  0.9592138590225403  0.3209738360198173
  0.0008015931838727  0.0639262211338334  0.3087126486034464
  0.4281790056009172  0.7157162082854498  0.4478252059893535
  0.7097312014663473  0.4325722820587785  0.4534675147249416
  0.2323556609220105  0.9848481499134110  0.5210629416737760
  0.9657205586800401  0.3045896656165041  0.5893911922453583
  0.7512639522278590  0.7462801382658739  0.7085745930174028
  0.2553269706740551  0.6394486434675741  0.6749436249950165
  0.6529749301630687  0.2370663504588038  0.6791972369972967
  0.4320654765888676  0.4486466284289747  0.6426600981806700

  0.00000000E+00  0.00000000E+00  0.00000000E+00
  0.00000000E+00  0.00000000E+00  0.00000000E+00
  0.00000000E+00  0.00000000E+00  0.00000000E+00
  0.00000000E+00  0.00000000E+00  0.00000000E+00
  0.00000000E+00  0.00000000E+00  0.00000000E+00
  0.00000000E+00  0.00000000E+00  0.00000000E+00
  0.00000000E+00  0.00000000E+00  0.00000000E+00
  0.00000000E+00  0.00000000E+00  0.00000000E+00
  0.00000000E+00  0.00000000E+00  0.00000000E+00
  0.00000000E+00  0.00000000E+00  0.00000000E+00
  0.00000000E+00  0.00000000E+00  0.00000000E+00
  0.00000000E+00  0.00000000E+00  0.00000000E+00
  0.00000000E+00  0.00000000E+00  0.00000000E+00
  0.00000000E+00  0.00000000E+00  0.00000000E+00
  0.00000000E+00  0.00000000E+00  0.00000000E+00
  0.00000000E+00  0.00000000E+00  0.00000000E+00
  0.00000000E+00  0.00000000E+00  0.00000000E+00
  0.00000000E+00  0.00000000E+00  0.00000000E+00
  0.00000000E+00  0.00000000E+00  0.00000000E+00
  0.00000000E+00  0.00000000E+00  0.00000000E+00
  0.00000000E+00  0.00000000E+00  0.00000000E+00
  0.00000000E+00  0.00000000E+00  0.00000000E+00
  0.00000000E+00  0.00000000E+00  0.00000000E+00
  0.00000000E+00  0.00000000E+00  0.00000000E+00
  0.00000000E+00  0.00000000E+00  0.00000000E+00
  0.00000000E+00  0.00000000E+00  0.00000000E+00
  0.00000000E+00  0.00000000E+00  0.00000000E+00
  0.00000000E+00  0.00000000E+00  0.00000000E+00
  0.00000000E+00  0.00000000E+00  0.00000000E+00
