Ba10 In4 I32                            
   1.0000000000000000     
     5.5298982179781175   -9.2402528749466253    0.0000000000000000
     5.5298982179781175    9.2402528749466253    0.0000000000000000
     0.0000000000000000    0.0000000000000000   20.7283764623027587
   Ba   In   I 
    10     4    32
Direct
  0.0000000000000000  0.0000000000000000  0.7171882595665906
  0.0000000000000000  0.0000000000000000  0.2828117404334165
  0.5000000000000000  0.5000000000000000  0.7828117404334094
  0.5000000000000000  0.5000000000000000  0.2171882595665906
  0.5000000000000000  0.5000000000000000  0.5000000000000000
  0.0000000000000000  0.0000000000000000  0.0000000000000000
  0.0000000000000000  0.5000000000000000  0.6425175420042706
  0.5000000000000000  0.0000000000000000  0.3574824579957294
  0.5000000000000000  0.0000000000000000  0.8574824579957294
  0.0000000000000000  0.5000000000000000  0.1425175420042706
  0.5000000000000000  0.0000000000000000  0.6124979475459611
  0.0000000000000000  0.5000000000000000  0.3875020524540389
  0.0000000000000000  0.5000000000000000  0.8875020524540389
  0.5000000000000000  0.0000000000000000  0.1124979475459611
  0.5470580380964520  0.2055042091106429  0.7136180596146104
  0.4529419619035480  0.7944957908893571  0.7136180596146104
  0.2055042091106429  0.5470580380964520  0.2863819403853896
  0.7944957908893571  0.4529419619035480  0.2863819403853896
  0.9529419619035480  0.2944957908893571  0.7863819403853896
  0.0470580380964520  0.7055042091106429  0.7863819403853896
  0.2944957908893571  0.9529419619035480  0.2136180596146104
  0.7055042091106429  0.0470580380964520  0.2136180596146104
  0.1764319485162531  0.8717832472761486  0.6109177979338227
  0.8235680514837469  0.1282167527238514  0.6109177979338227
  0.8717832472761486  0.1764319485162531  0.3890822020661773
  0.1282167527238514  0.8235680514837469  0.3890822020661773
  0.3235680514837469  0.6282167527238514  0.8890822020661773
  0.6764319485162531  0.3717832472761486  0.8890822020661773
  0.6647375860151854  0.9744751437462966  0.0062754368191094
  0.3352624139848146  0.0255248562537034  0.0062754368191094
  0.9744751437462966  0.6647375860151854  0.9937245631808906
  0.0255248562537034  0.3352624139848146  0.9937245631808906
  0.8352624139848146  0.5255248562537034  0.4937245631808906
  0.1647375860151854  0.4744751437462966  0.4937245631808906
  0.5255248562537034  0.8352624139848146  0.5062754368191094
  0.4744751437462966  0.1647375860151854  0.5062754368191094
  0.8560861806277273  0.7649110716359928  0.1508448229869117
  0.1439138193722727  0.2350889283640072  0.1508448229869117
  0.7649110716359928  0.8560861806277273  0.8491551770130883
  0.2350889283640072  0.1439138193722727  0.8491551770130883
  0.6439138193722727  0.7350889283640072  0.3491551770130812
  0.3560861806277273  0.2649110716359928  0.3491551770130812
  0.7350889283640072  0.6439138193722727  0.6508448229869117
  0.2649110716359928  0.3560861806277273  0.6508448229869117
  0.3717832472761486  0.6764319485162531  0.1109177979338227
  0.6282167527238514  0.3235680514837469  0.1109177979338227

  0.00000000E+00  0.00000000E+00  0.00000000E+00
  0.00000000E+00  0.00000000E+00  0.00000000E+00
  0.00000000E+00  0.00000000E+00  0.00000000E+00
  0.00000000E+00  0.00000000E+00  0.00000000E+00
  0.00000000E+00  0.00000000E+00  0.00000000E+00
  0.00000000E+00  0.00000000E+00  0.00000000E+00
  0.00000000E+00  0.00000000E+00  0.00000000E+00
  0.00000000E+00  0.00000000E+00  0.00000000E+00
  0.00000000E+00  0.00000000E+00  0.00000000E+00
  0.00000000E+00  0.00000000E+00  0.00000000E+00
  0.00000000E+00  0.00000000E+00  0.00000000E+00
  0.00000000E+00  0.00000000E+00  0.00000000E+00
  0.00000000E+00  0.00000000E+00  0.00000000E+00
  0.00000000E+00  0.00000000E+00  0.00000000E+00
  0.00000000E+00  0.00000000E+00  0.00000000E+00
  0.00000000E+00  0.00000000E+00  0.00000000E+00
  0.00000000E+00  0.00000000E+00  0.00000000E+00
  0.00000000E+00  0.00000000E+00  0.00000000E+00
  0.00000000E+00  0.00000000E+00  0.00000000E+00
  0.00000000E+00  0.00000000E+00  0.00000000E+00
  0.00000000E+00  0.00000000E+00  0.00000000E+00
  0.00000000E+00  0.00000000E+00  0.00000000E+00
  0.00000000E+00  0.00000000E+00  0.00000000E+00
  0.00000000E+00  0.00000000E+00  0.00000000E+00
  0.00000000E+00  0.00000000E+00  0.00000000E+00
  0.00000000E+00  0.00000000E+00  0.00000000E+00
  0.00000000E+00  0.00000000E+00  0.00000000E+00
  0.00000000E+00  0.00000000E+00  0.00000000E+00
  0.00000000E+00  0.00000000E+00  0.00000000E+00
  0.00000000E+00  0.00000000E+00  0.00000000E+00
  0.00000000E+00  0.00000000E+00  0.00000000E+00
  0.00000000E+00  0.00000000E+00  0.00000000E+00
  0.00000000E+00  0.00000000E+00  0.00000000E+00
  0.00000000E+00  0.00000000E+00  0.00000000E+00
  0.00000000E+00  0.00000000E+00  0.00000000E+00
  0.00000000E+00  0.00000000E+00  0.00000000E+00
  0.00000000E+00  0.00000000E+00  0.00000000E+00
  0.00000000E+00  0.00000000E+00  0.00000000E+00
  0.00000000E+00  0.00000000E+00  0.00000000E+00
  0.00000000E+00  0.00000000E+00  0.00000000E+00
  0.00000000E+00  0.00000000E+00  0.00000000E+00
  0.00000000E+00  0.00000000E+00  0.00000000E+00
  0.00000000E+00  0.00000000E+00  0.00000000E+00
  0.00000000E+00  0.00000000E+00  0.00000000E+00
  0.00000000E+00  0.00000000E+00  0.00000000E+00
  0.00000000E+00  0.00000000E+00  0.00000000E+00
