Tl4                                     
   1.00000000000000     
     3.4279158123959546   -0.0000000044296858    0.0000000000000000
    -1.7139574104585842    2.9686632730761593    0.0000000000000000
     0.0000000000000000    0.0000000000000000   12.4059913824960280
   Tl
     4
Direct
  0.0000000000000000  0.0000000000000000  0.0000000000000000
  0.3333340000000007  0.6666680000000014  0.2500000000000000
  0.0000000000000000  0.0000000000000000  0.5000000000000000
  0.6666659999999993  0.3333340000000007  0.7500000000000000
 
  0.00000000E+00  0.00000000E+00  0.00000000E+00
  0.00000000E+00  0.00000000E+00  0.00000000E+00
  0.00000000E+00  0.00000000E+00  0.00000000E+00
  0.00000000E+00  0.00000000E+00  0.00000000E+00
