Ba28 In11                               
   1.0000000000000000     
     6.1080891876097576    0.0000000010437256   -0.5253578963340609
    -0.0903122259583751    8.6480424221363492   -1.0500171846485309
    -0.0243331456617740   -0.0796916397922808   35.4876754812851090
   Ba   In
    28    11
Direct
  0.8178458458032125  0.9118429136721389  0.6356916916053805
  0.5595323548133706  0.2306051571030920  0.1190657096274279
  0.7247948600726133  0.2520662752619316  0.4495887201507784
  0.6368595459369573  0.1732208368433703  0.2737190918711647
  0.3232965639389818  0.2373945596557760  0.6465931278752493
  0.8538631474076936  0.5673122509362969  0.7077262948194942
  0.5440739137333992  0.6713345223965774  0.0881468274715118
  0.0000000000000355  0.5641886484504184  0.0000000000000711
  0.6166431849551230  0.5903289357815993  0.2332853699076836
  0.9173330627792922  0.5364218198891493  0.8346671255533380
  0.2619942998811098  0.2558113001347451  0.5239885997643796
  0.2752051399273725  0.8024775551145424  0.5504112798490723
  0.9040660900075608  0.9946180030706770  0.8081311800212347
  0.3631404540630569  0.8995027449705546  0.7262809081289276
  0.4559260862666008  0.5831876949281209  0.9118531725285095
  0.6767034360609117  0.5908014317788357  0.3534068721255963
  0.4404676451865726  0.1115394474755789  0.8809342903726645
  0.1461368525923845  0.8595869561190810  0.2922747051796719
  0.0959339099924676  0.1864868230525829  0.1918688199789074
  0.7927550772732772  0.4701582951341976  0.5855101545420212
  0.3833568150448485  0.3570435658725444  0.7667146300923520
  0.5000000000000782  0.2466753067767087  0.9999999999995737
  0.7380057001188902  0.7318237003709243  0.4760114002355635
  0.9693579001287418  0.9282140165678143  0.9387158002523748
  0.0826669372207505  0.7017546943339497  0.1653328744465483
  0.2072449227267796  0.8846481405889435  0.4144898454577515
  0.1821541541967306  0.2761512220663249  0.3643083083945200
  0.0306420998711943  0.9894992163124030  0.0612841997482363
  0.6798287384857886  0.9977865619152411  0.3596574769703267
  0.1399042160560029  0.4535737242002682  0.2798084321138674
  0.7733531879421776  0.0644183944256582  0.5467073758868395
  0.9572262841804644  0.3109785665462539  0.9144525683641263
  0.3201712615141759  0.6381300849435831  0.6403425230296236
  0.8600957839440184  0.1737642920881726  0.7201915678861184
  0.0427737158195143  0.3965269981844628  0.0855474316357601
  0.5909877191292665  0.9334811023852083  0.1819744382590684
  0.4090122808707548  0.7515066641267438  0.8180255617409813
  0.2266468120578153  0.5177110185402185  0.4532926241133168
  0.5000000000000142  0.8414255579853176  0.9999999999999289

  0.00000000E+00  0.00000000E+00  0.00000000E+00
  0.00000000E+00  0.00000000E+00  0.00000000E+00
  0.00000000E+00  0.00000000E+00  0.00000000E+00
  0.00000000E+00  0.00000000E+00  0.00000000E+00
  0.00000000E+00  0.00000000E+00  0.00000000E+00
  0.00000000E+00  0.00000000E+00  0.00000000E+00
  0.00000000E+00  0.00000000E+00  0.00000000E+00
  0.00000000E+00  0.00000000E+00  0.00000000E+00
  0.00000000E+00  0.00000000E+00  0.00000000E+00
  0.00000000E+00  0.00000000E+00  0.00000000E+00
  0.00000000E+00  0.00000000E+00  0.00000000E+00
  0.00000000E+00  0.00000000E+00  0.00000000E+00
  0.00000000E+00  0.00000000E+00  0.00000000E+00
  0.00000000E+00  0.00000000E+00  0.00000000E+00
  0.00000000E+00  0.00000000E+00  0.00000000E+00
  0.00000000E+00  0.00000000E+00  0.00000000E+00
  0.00000000E+00  0.00000000E+00  0.00000000E+00
  0.00000000E+00  0.00000000E+00  0.00000000E+00
  0.00000000E+00  0.00000000E+00  0.00000000E+00
  0.00000000E+00  0.00000000E+00  0.00000000E+00
  0.00000000E+00  0.00000000E+00  0.00000000E+00
  0.00000000E+00  0.00000000E+00  0.00000000E+00
  0.00000000E+00  0.00000000E+00  0.00000000E+00
  0.00000000E+00  0.00000000E+00  0.00000000E+00
  0.00000000E+00  0.00000000E+00  0.00000000E+00
  0.00000000E+00  0.00000000E+00  0.00000000E+00
  0.00000000E+00  0.00000000E+00  0.00000000E+00
  0.00000000E+00  0.00000000E+00  0.00000000E+00
  0.00000000E+00  0.00000000E+00  0.00000000E+00
  0.00000000E+00  0.00000000E+00  0.00000000E+00
  0.00000000E+00  0.00000000E+00  0.00000000E+00
  0.00000000E+00  0.00000000E+00  0.00000000E+00
  0.00000000E+00  0.00000000E+00  0.00000000E+00
  0.00000000E+00  0.00000000E+00  0.00000000E+00
  0.00000000E+00  0.00000000E+00  0.00000000E+00
  0.00000000E+00  0.00000000E+00  0.00000000E+00
  0.00000000E+00  0.00000000E+00  0.00000000E+00
  0.00000000E+00  0.00000000E+00  0.00000000E+00
  0.00000000E+00  0.00000000E+00  0.00000000E+00
