Ca2 B2 F10                              
   1.00000000000000     
     4.7037499551449446    0.0113916323711781    1.8513365300603197
     1.0419046376533254    4.5869189613575054    1.8513365145136034
     0.0362506269603637    0.0290131171518390    7.2837943651038319
   Ca   B    F 
     2     2    10
Direct
  0.4492294220449722  0.5507705779746459  0.2499999999878568
  0.5507705779550207  0.4492294220253541  0.7500000000121432
  0.0000000000000000  0.0000000000000000  0.5000000000000000
  0.0000000000000000  0.0000000000000000  0.0000000000000000
  0.8270542664556686  0.7793131259251354  0.6046303108798909
  0.2206868743513439  0.1729447333082916  0.8953696890951548
  0.1729447335443339  0.2206868740748646  0.3953706891201136
  0.7793131256486561  0.8270542666917109  0.1046303109048452
  0.9391414438947905  0.0608585560848880  0.7500000000121361
  0.0608585561052095  0.9391414439151120  0.2499999999878568
  0.7438061542063963  0.2993707875421805  0.0231798751450754
  0.7006292123131317  0.2561938456241393  0.4768201250307484
  0.2561938457936037  0.7006292124578195  0.9768201248549246
  0.2993707876868683  0.7438061543758607  0.5231798749692516
 
  0.00000000E+00  0.00000000E+00  0.00000000E+00
  0.00000000E+00  0.00000000E+00  0.00000000E+00
  0.00000000E+00  0.00000000E+00  0.00000000E+00
  0.00000000E+00  0.00000000E+00  0.00000000E+00
  0.00000000E+00  0.00000000E+00  0.00000000E+00
  0.00000000E+00  0.00000000E+00  0.00000000E+00
  0.00000000E+00  0.00000000E+00  0.00000000E+00
  0.00000000E+00  0.00000000E+00  0.00000000E+00
  0.00000000E+00  0.00000000E+00  0.00000000E+00
  0.00000000E+00  0.00000000E+00  0.00000000E+00
  0.00000000E+00  0.00000000E+00  0.00000000E+00
  0.00000000E+00  0.00000000E+00  0.00000000E+00
  0.00000000E+00  0.00000000E+00  0.00000000E+00
  0.00000000E+00  0.00000000E+00  0.00000000E+00
