Ba2I3                                   
   1.00000000000000     
    -8.4944721422539704    0.0132707925543192    0.0192524398248265
     4.2582330247525997   -7.3506004399075238   -0.0181229259097582
    -4.2697524455845413    2.4639822173259316    8.5928469947693973
   Ba   I 
     4     6
Direct
  0.6612882831013991  0.3429827799451743  0.0214944094262677
  0.8426157823310092  0.1609232899238222  0.4784821625335951
  0.1573333953776128  0.8390217691320103  0.5215264295933792
  0.3386376317247510  0.6569514487383969  0.9785091658178828
  0.2523371023274237  0.0597902345108281  0.2504222452663996
  0.9394238611301020  0.4396908903926757  0.2502298144677511
  0.5597806686516265  0.7522789603727915  0.2493559946497257
  0.4401592457709711  0.2476357579855417  0.7506124620625272
  0.0604442936346103  0.5602038498835995  0.7497790143947185
  0.7475797359504881  0.9401210191151605  0.7495883017877532
 
  0.00000000E+00  0.00000000E+00  0.00000000E+00
  0.00000000E+00  0.00000000E+00  0.00000000E+00
  0.00000000E+00  0.00000000E+00  0.00000000E+00
  0.00000000E+00  0.00000000E+00  0.00000000E+00
  0.00000000E+00  0.00000000E+00  0.00000000E+00
  0.00000000E+00  0.00000000E+00  0.00000000E+00
  0.00000000E+00  0.00000000E+00  0.00000000E+00
  0.00000000E+00  0.00000000E+00  0.00000000E+00
  0.00000000E+00  0.00000000E+00  0.00000000E+00
  0.00000000E+00  0.00000000E+00  0.00000000E+00
