Mg2 Al7                                 
   1.00000000000000     
     5.6012817828086874    0.0175242181800363   -0.1364588982449264
    -2.7857080681694830    4.8596226882893241    0.1364946036897061
    -0.1474608503341730    0.0851590389225361    6.3142994498701963
   Al   Mg
     7     2
Direct
  0.1704204606607433  0.3499823892811520  0.1627163137344354
  0.1709689209923511  0.8289776343430191  0.1843622866477190
  0.6500238329280492  0.8296218061636083  0.1627152351854519
  0.0000000000000000  0.0000000000000000  0.5000000000000000
  0.3499761670719508  0.1703781938363917  0.8372847648145481
  0.8290310790076489  0.1710223656569809  0.8156377133522810
  0.8295795393392495  0.6500176107188480  0.8372836862655646
  0.6669832801378348  0.3329967280469859  0.3897616160061403
  0.3330167198621652  0.6670032719530141  0.6102383839938597
 
  0.00000000E+00  0.00000000E+00  0.00000000E+00
  0.00000000E+00  0.00000000E+00  0.00000000E+00
  0.00000000E+00  0.00000000E+00  0.00000000E+00
  0.00000000E+00  0.00000000E+00  0.00000000E+00
  0.00000000E+00  0.00000000E+00  0.00000000E+00
  0.00000000E+00  0.00000000E+00  0.00000000E+00
  0.00000000E+00  0.00000000E+00  0.00000000E+00
  0.00000000E+00  0.00000000E+00  0.00000000E+00
  0.00000000E+00  0.00000000E+00  0.00000000E+00
