Ba8 Ga6                                 
   1.00000000000000     
     6.9402609954025678    8.4080605011753136    0.0000000000000000
    -4.8234208383858475   11.7273942881366029    0.0000000000000000
     0.0000000000000000    0.0000000000000000    4.6873379977654555
   Ga   Ba
     6     8
Direct
  0.2257511715974587  0.1672719833791376  0.0000000000000000
  0.3063940529286100  0.6164477446326728  0.0000000000000000
  0.7285803641490745  0.7416683281351339  0.0000000000000000
  0.2980925799634377  0.2137966880068802  0.5000000000000000
  0.7953063627877484  0.6393491676198053  0.5000000000000000
  0.2174677027762471  0.7646415196539991  0.5000000000000000
  0.4881979036169497  0.2756999526560620  0.0000000000000000
  0.9141562948475368  0.4171275830313519  0.0000000000000000
  0.3761555271121608  0.8587531013396159  0.0000000000000000
  0.9683027510478581  0.8422034964985770  0.0000000000000000
  0.0356886264828233  0.1052963204331974  0.5000000000000000
  0.5555518146979495  0.5388311596050954  0.5000000000000000
  0.1477337102828287  0.5223092417861608  0.5000000000000000
  0.6096811377093232  0.9639037132223365  0.5000000000000000
 
  0.00000000E+00  0.00000000E+00  0.00000000E+00
  0.00000000E+00  0.00000000E+00  0.00000000E+00
  0.00000000E+00  0.00000000E+00  0.00000000E+00
  0.00000000E+00  0.00000000E+00  0.00000000E+00
  0.00000000E+00  0.00000000E+00  0.00000000E+00
  0.00000000E+00  0.00000000E+00  0.00000000E+00
  0.00000000E+00  0.00000000E+00  0.00000000E+00
  0.00000000E+00  0.00000000E+00  0.00000000E+00
  0.00000000E+00  0.00000000E+00  0.00000000E+00
  0.00000000E+00  0.00000000E+00  0.00000000E+00
  0.00000000E+00  0.00000000E+00  0.00000000E+00
  0.00000000E+00  0.00000000E+00  0.00000000E+00
  0.00000000E+00  0.00000000E+00  0.00000000E+00
  0.00000000E+00  0.00000000E+00  0.00000000E+00
