Ba3In                                   
   1.0000000000000000     
     8.2715926039314898    0.0047624550344467    0.0000000000000000
    -4.1316718906389918    7.1657624503297477    0.0000000000000000
    -0.0000000000000000   -0.0000000000000000    6.2025133190963198
   Ba   In
     6     2
Direct
  0.1785124483954661  0.3581655983905705  0.2500000000000000
  0.6418336299354976  0.8214869348576386  0.2500000000000000
  0.1783978030534925  0.8216018762518118  0.2500000000000000
  0.8214875516045339  0.6418344016094295  0.7500000000000000
  0.3581663700645024  0.1785130651423614  0.7500000000000000
  0.8216021969465075  0.1783981237481882  0.7500000000000000
  0.3325164294672263  0.6674835509119106  0.7500000000000000
  0.6674835705327737  0.3325164490880894  0.2500000000000000

  0.00000000E+00  0.00000000E+00  0.00000000E+00
  0.00000000E+00  0.00000000E+00  0.00000000E+00
  0.00000000E+00  0.00000000E+00  0.00000000E+00
  0.00000000E+00  0.00000000E+00  0.00000000E+00
  0.00000000E+00  0.00000000E+00  0.00000000E+00
  0.00000000E+00  0.00000000E+00  0.00000000E+00
  0.00000000E+00  0.00000000E+00  0.00000000E+00
  0.00000000E+00  0.00000000E+00  0.00000000E+00
