Be2 Tl2 F10                             
   1.00000000000000     
     4.7768271294629443   -0.5536262357174457    2.0800341165994549
     0.5066349892023360    4.7820392141979964    2.0800342213651501
     0.0790446695163878    0.0632620580477444    8.1161902456298165
   Be   Tl   F 
     2     2    10
Direct
  0.5766255957218931  0.4233744046658430  0.2499999996782307
  0.4233744042781069  0.5766255953341499  0.7500000003217622
  0.0000000000000000  0.0000000000000000  0.5000000000000000
  0.0000000000000000  0.0000000000000000  0.0000000000000000
  0.7404798801041252  0.6268884107113237  0.6868622722570024
  0.3731115940729808  0.2595191156245917  0.8131377273906963
  0.2595191198958773  0.3731115892886763  0.3131387277429951
  0.6268884059270121  0.7404798843754037  0.1868622726092966
  0.9001894827334240  0.0998105160550935  0.7500000007723315
  0.0998105172665760  0.9001894839449065  0.2499999992276685
  0.7464654235596200  0.3419873332872925  0.0709916576172489
  0.6580126637099823  0.2535345729158678  0.4290083460897094
  0.2535345764403871  0.6580126667127075  0.9290083423827511
  0.3419873362900177  0.7464654270841322  0.5709916539102835
 
  0.00000000E+00  0.00000000E+00  0.00000000E+00
  0.00000000E+00  0.00000000E+00  0.00000000E+00
  0.00000000E+00  0.00000000E+00  0.00000000E+00
  0.00000000E+00  0.00000000E+00  0.00000000E+00
  0.00000000E+00  0.00000000E+00  0.00000000E+00
  0.00000000E+00  0.00000000E+00  0.00000000E+00
  0.00000000E+00  0.00000000E+00  0.00000000E+00
  0.00000000E+00  0.00000000E+00  0.00000000E+00
  0.00000000E+00  0.00000000E+00  0.00000000E+00
  0.00000000E+00  0.00000000E+00  0.00000000E+00
  0.00000000E+00  0.00000000E+00  0.00000000E+00
  0.00000000E+00  0.00000000E+00  0.00000000E+00
  0.00000000E+00  0.00000000E+00  0.00000000E+00
  0.00000000E+00  0.00000000E+00  0.00000000E+00
