Al1                                     
   1.00000000000000     
     1.6183514187268200    1.6183514187268200    1.6183514187268200
     1.6183514187268200   -1.6183514187268200   -1.6183514187268200
    -1.6183514187268200    1.6183514187268200   -1.6183514187268200
   Al
     1
Direct
  0.0000000000000000  0.0000000000000000  0.0000000000000000
 
  0.00000000E+00  0.00000000E+00  0.00000000E+00
