Sr22 In14                               
   1.0000000000000000     
     0.0000000000000000    8.9341925429127933    8.9341925429127933
     8.9341925429127933   -0.0000000000000000    8.9341925429127933
     8.9341925429127933    8.9341925429127933   -0.0000000000000000
   Sr   In
    22    14
Direct
  0.0000000000000000  0.0000000000000000  0.0000000000000000
  0.5000000000000000  0.5000000000000000  0.5000000000000000
  0.1291262328390985  0.1291262328390985  0.1291262328390985
  0.3873776985172910  0.8708737671609015  0.8708737671609015
  0.8708737671609015  0.3873776985172910  0.8708737671609015
  0.8708737671609015  0.8708737671609015  0.3873776985172910
  0.1291262328390985  0.6126223014827090  0.1291262328390985
  0.1291262328390985  0.1291262328390985  0.6126223014827090
  0.6126223014827090  0.1291262328390985  0.1291262328390985
  0.8708737671609015  0.8708737671609015  0.8708737671609015
  0.5000000000000000  0.8343597226664770  0.5000000000000000
  0.8343597226664770  0.5000000000000000  0.5000000000000000
  0.5000000000000000  0.8343597226664770  0.1656402773335230
  0.1656402773335230  0.5000000000000000  0.8343597226664770
  0.8343597226664770  0.5000000000000000  0.1656402773335230
  0.5000000000000000  0.5000000000000000  0.8343597226664770
  0.1656402773335230  0.8343597226664770  0.5000000000000000
  0.5000000000000000  0.1656402773335230  0.8343597226664770
  0.5000000000000000  0.5000000000000000  0.1656402773335230
  0.8343597226664770  0.1656402773335230  0.5000000000000000
  0.1656402773335230  0.5000000000000000  0.5000000000000000
  0.5000000000000000  0.1656402773335230  0.5000000000000000
  0.2189083933529403  0.7810916066470597  0.2189083933529403
  0.2189083933529403  0.7810916066470597  0.7810916066470597
  0.7810916066470597  0.2189083933529403  0.2189083933529403
  0.7810916066470597  0.7810916066470597  0.2189083933529403
  0.2189083933529403  0.2189083933529403  0.7810916066470597
  0.7810916066470597  0.2189083933529403  0.7810916066470597
  0.3108071932603238  0.3108061932603263  0.3108061932603263
  0.9324195797809693  0.6891938067396737  0.6891938067396737
  0.6891938067396737  0.9324195797809693  0.6891938067396737
  0.6891938067396737  0.6891938067396737  0.9324195797809693
  0.3108061932603263  0.0675804202190307  0.3108061932603263
  0.3108061932603263  0.3108061932603263  0.0675804202190307
  0.0675804202190307  0.3108061932603263  0.3108061932603263
  0.6891938067396737  0.6891938067396737  0.6891928067396762

  0.00000000E+00  0.00000000E+00  0.00000000E+00
  0.00000000E+00  0.00000000E+00  0.00000000E+00
  0.00000000E+00  0.00000000E+00  0.00000000E+00
  0.00000000E+00  0.00000000E+00  0.00000000E+00
  0.00000000E+00  0.00000000E+00  0.00000000E+00
  0.00000000E+00  0.00000000E+00  0.00000000E+00
  0.00000000E+00  0.00000000E+00  0.00000000E+00
  0.00000000E+00  0.00000000E+00  0.00000000E+00
  0.00000000E+00  0.00000000E+00  0.00000000E+00
  0.00000000E+00  0.00000000E+00  0.00000000E+00
  0.00000000E+00  0.00000000E+00  0.00000000E+00
  0.00000000E+00  0.00000000E+00  0.00000000E+00
  0.00000000E+00  0.00000000E+00  0.00000000E+00
  0.00000000E+00  0.00000000E+00  0.00000000E+00
  0.00000000E+00  0.00000000E+00  0.00000000E+00
  0.00000000E+00  0.00000000E+00  0.00000000E+00
  0.00000000E+00  0.00000000E+00  0.00000000E+00
  0.00000000E+00  0.00000000E+00  0.00000000E+00
  0.00000000E+00  0.00000000E+00  0.00000000E+00
  0.00000000E+00  0.00000000E+00  0.00000000E+00
  0.00000000E+00  0.00000000E+00  0.00000000E+00
  0.00000000E+00  0.00000000E+00  0.00000000E+00
  0.00000000E+00  0.00000000E+00  0.00000000E+00
  0.00000000E+00  0.00000000E+00  0.00000000E+00
  0.00000000E+00  0.00000000E+00  0.00000000E+00
  0.00000000E+00  0.00000000E+00  0.00000000E+00
  0.00000000E+00  0.00000000E+00  0.00000000E+00
  0.00000000E+00  0.00000000E+00  0.00000000E+00
  0.00000000E+00  0.00000000E+00  0.00000000E+00
  0.00000000E+00  0.00000000E+00  0.00000000E+00
  0.00000000E+00  0.00000000E+00  0.00000000E+00
  0.00000000E+00  0.00000000E+00  0.00000000E+00
  0.00000000E+00  0.00000000E+00  0.00000000E+00
  0.00000000E+00  0.00000000E+00  0.00000000E+00
  0.00000000E+00  0.00000000E+00  0.00000000E+00
  0.00000000E+00  0.00000000E+00  0.00000000E+00
