Ca8 Tl48                                
   1.0000000000000000     
    12.0548058440250543    0.0018563904914566   -0.0023985198317915
     0.0018563904914566   12.0548058440250543    0.0023985198317915
    -0.0014170774620267    0.0014170774620267   12.0974799630667018
   Tl   Ca
    48     8
Direct
  0.1015608812851596  0.3988520085373821  0.0504246705485230
  0.8990536877532875  0.6013347262007329  0.0509120483252872
  0.0491608797671432  0.1338058821004040  0.0991512815637563
  0.3661640362368459  0.4503254727502224  0.0999011218009542
  0.6339249865124614  0.5492931282613895  0.0993339192054989
  0.9502105049925049  0.8661814046253369  0.0997378907230342
  0.7663698332404252  0.0603012440109083  0.1733822226226849
  0.5606422654151615  0.2667493187133090  0.1734165636609859
  0.4390156298998207  0.7323622598666191  0.1730747821742327
  0.2319335148444495  0.9387471064615482  0.1731314063848330
  0.4990901720426848  0.0000452400052069  0.2160467439656273
  0.2492063042506842  0.2492063042506842  0.2500000000000000
  0.7493619732969634  0.7493619732969634  0.2500000000000000
  0.0000452400052069  0.4990901720426848  0.2839532560343727
  0.9387471064615482  0.2319335148444495  0.3268685936151670
  0.7323622598666191  0.4390156298998207  0.3269252178257673
  0.2667493187133090  0.5606422654151615  0.3265834363390141
  0.0603012440109083  0.7663698332404252  0.3266177773773151
  0.1338058821004040  0.0491608797671432  0.4008487184362508
  0.4503254727502224  0.3661640362368459  0.4000988781990458
  0.5492931282613895  0.6339249865124614  0.4006660807945011
  0.8661814046253369  0.9502105049925049  0.4002621092769658
  0.3988520085373821  0.1015608812851596  0.4495753294514770
  0.6013347262007329  0.8990536877532875  0.4490879516747128
  0.8992264256730920  0.3990145141040813  0.5503089949992486
  0.1015912523115645  0.6016496493256582  0.5509900335725675
  0.9502249293814486  0.1338839658201820  0.5996506426561652
  0.6340568655308587  0.4503142947805543  0.5995353023398664
  0.3661976765119945  0.5492823523844308  0.5993045387900011
  0.0492673681698648  0.8662161276900022  0.5996104753983786
  0.2328899128921691  0.0611732762905248  0.6734368848847936
  0.4396583086240327  0.2674584547106988  0.6732933208946577
  0.5610195201059867  0.7326878530700967  0.6732027195142223
  0.7672926676598877  0.9392996277124581  0.6731318396371790
  0.5003028625834887  0.0001348709871110  0.7161336635964446
  0.7525919049170824  0.2526665148494729  0.7520733164599349
  0.2526665148494729  0.7525919049170824  0.7479266835400651
  0.0001348709871110  0.5003028625834887  0.7838663364035554
  0.0611732762905248  0.2328899128921691  0.8265631151152064
  0.2674584547106988  0.4396583086240327  0.8267066791053423
  0.7326878530700967  0.5610195201059867  0.8267972804857777
  0.9392996277124581  0.7672926676598877  0.8268681603628210
  0.8662161276900022  0.0492673681698648  0.9003895246016214
  0.5492823523844308  0.3661976765119945  0.9006954612099989
  0.4503142947805543  0.6340568655308587  0.9004646976601336
  0.1338839658201820  0.9502249293814486  0.9003493573438348
  0.6016496493256582  0.1015912523115645  0.9490099664274325
  0.3990145141040813  0.8992264256730920  0.9496910050007514
  0.8195515044187403  0.3194619208358702  0.0415994031837315
  0.1809971487536259  0.6809305159308110  0.0373461545216287
  0.6809305159308110  0.1809971487536259  0.4626538454783713
  0.3194619208358702  0.8195515044187403  0.4584005968162685
  0.1805319504163378  0.3190713201639284  0.5394582548583955
  0.8190738354246179  0.6803881468986788  0.5394525294878818
  0.3190713201639284  0.1805319504163378  0.9605417451416045
  0.6803881468986788  0.8190738354246179  0.9605474705121182

  0.00000000E+00  0.00000000E+00  0.00000000E+00
  0.00000000E+00  0.00000000E+00  0.00000000E+00
  0.00000000E+00  0.00000000E+00  0.00000000E+00
  0.00000000E+00  0.00000000E+00  0.00000000E+00
  0.00000000E+00  0.00000000E+00  0.00000000E+00
  0.00000000E+00  0.00000000E+00  0.00000000E+00
  0.00000000E+00  0.00000000E+00  0.00000000E+00
  0.00000000E+00  0.00000000E+00  0.00000000E+00
  0.00000000E+00  0.00000000E+00  0.00000000E+00
  0.00000000E+00  0.00000000E+00  0.00000000E+00
  0.00000000E+00  0.00000000E+00  0.00000000E+00
  0.00000000E+00  0.00000000E+00  0.00000000E+00
  0.00000000E+00  0.00000000E+00  0.00000000E+00
  0.00000000E+00  0.00000000E+00  0.00000000E+00
  0.00000000E+00  0.00000000E+00  0.00000000E+00
  0.00000000E+00  0.00000000E+00  0.00000000E+00
  0.00000000E+00  0.00000000E+00  0.00000000E+00
  0.00000000E+00  0.00000000E+00  0.00000000E+00
  0.00000000E+00  0.00000000E+00  0.00000000E+00
  0.00000000E+00  0.00000000E+00  0.00000000E+00
  0.00000000E+00  0.00000000E+00  0.00000000E+00
  0.00000000E+00  0.00000000E+00  0.00000000E+00
  0.00000000E+00  0.00000000E+00  0.00000000E+00
  0.00000000E+00  0.00000000E+00  0.00000000E+00
  0.00000000E+00  0.00000000E+00  0.00000000E+00
  0.00000000E+00  0.00000000E+00  0.00000000E+00
  0.00000000E+00  0.00000000E+00  0.00000000E+00
  0.00000000E+00  0.00000000E+00  0.00000000E+00
  0.00000000E+00  0.00000000E+00  0.00000000E+00
  0.00000000E+00  0.00000000E+00  0.00000000E+00
  0.00000000E+00  0.00000000E+00  0.00000000E+00
  0.00000000E+00  0.00000000E+00  0.00000000E+00
  0.00000000E+00  0.00000000E+00  0.00000000E+00
  0.00000000E+00  0.00000000E+00  0.00000000E+00
  0.00000000E+00  0.00000000E+00  0.00000000E+00
  0.00000000E+00  0.00000000E+00  0.00000000E+00
  0.00000000E+00  0.00000000E+00  0.00000000E+00
  0.00000000E+00  0.00000000E+00  0.00000000E+00
  0.00000000E+00  0.00000000E+00  0.00000000E+00
  0.00000000E+00  0.00000000E+00  0.00000000E+00
  0.00000000E+00  0.00000000E+00  0.00000000E+00
  0.00000000E+00  0.00000000E+00  0.00000000E+00
  0.00000000E+00  0.00000000E+00  0.00000000E+00
  0.00000000E+00  0.00000000E+00  0.00000000E+00
  0.00000000E+00  0.00000000E+00  0.00000000E+00
  0.00000000E+00  0.00000000E+00  0.00000000E+00
  0.00000000E+00  0.00000000E+00  0.00000000E+00
  0.00000000E+00  0.00000000E+00  0.00000000E+00
  0.00000000E+00  0.00000000E+00  0.00000000E+00
  0.00000000E+00  0.00000000E+00  0.00000000E+00
  0.00000000E+00  0.00000000E+00  0.00000000E+00
  0.00000000E+00  0.00000000E+00  0.00000000E+00
  0.00000000E+00  0.00000000E+00  0.00000000E+00
  0.00000000E+00  0.00000000E+00  0.00000000E+00
  0.00000000E+00  0.00000000E+00  0.00000000E+00
  0.00000000E+00  0.00000000E+00  0.00000000E+00
