Ca2 Tl7                                 
   1.0000000000000000     
     7.0857633271960179    0.0217879625338463    0.0068038668365042
    -3.5234263724263002    6.1476817883720960   -0.0068043976173196
     0.0063490342292490   -0.0036674629513638    6.4943786398344976
   Tl   Ca
     7     2
Direct
  0.0000000000000000  0.0000000000000000  0.0000000000000000
  0.3645254216090024  0.1833055254712406  0.3211265631157971
  0.8176013691129214  0.1823984632139855  0.3239602249304454
  0.8166943946162917  0.6354746005760106  0.3211266883387722
  0.1833056053837083  0.3645253994239894  0.6788733116612278
  0.1823986308870786  0.8176015367860145  0.6760397750695546
  0.6354745783909976  0.8166944745287594  0.6788734368842029
  0.3334412327731187  0.6665576570874663  0.1619524839574424
  0.6665587672268813  0.3334423429125337  0.8380475160425576

  0.00000000E+00  0.00000000E+00  0.00000000E+00
  0.00000000E+00  0.00000000E+00  0.00000000E+00
  0.00000000E+00  0.00000000E+00  0.00000000E+00
  0.00000000E+00  0.00000000E+00  0.00000000E+00
  0.00000000E+00  0.00000000E+00  0.00000000E+00
  0.00000000E+00  0.00000000E+00  0.00000000E+00
  0.00000000E+00  0.00000000E+00  0.00000000E+00
  0.00000000E+00  0.00000000E+00  0.00000000E+00
  0.00000000E+00  0.00000000E+00  0.00000000E+00
