Ba4 Al4 F20                             
   1.0000000000000000     
     4.7730620595127444    0.0000000000000000    0.0000000000000003
    -0.0000000000000003    5.5901806439842119    0.0000000000000003
    -0.0000000000000000    0.0000000000000000   13.6225620442601194
   Ba   Al   F 
     4     4    20
Direct
  0.7778718551622035  0.3428424921303517  0.3407761411565602
  0.2778718551622106  0.1571575078696483  0.6592238588434398
  0.2221281448377823  0.8428424921303517  0.1592238588434398
  0.7221281448377823  0.6571575078696483  0.8407761411565602
  0.1731756846027821  0.8551238636507392  0.4165066361645913
  0.6731756846027821  0.6448761363492608  0.5834933638354016
  0.8268243153972179  0.3551238636507392  0.0834933638354016
  0.3268243153972179  0.1448761363492608  0.9165066361645913
  0.9793533376147678  0.6460914324953251  0.4997907545455789
  0.4793533376147607  0.8539085675046749  0.5002092454544140
  0.0206466623852322  0.1460914324953251  0.0002092454544211
  0.5206466623852322  0.3539085675046749  0.9997907545455789
  0.8746613329750730  0.8493531496081062  0.3334031354314035
  0.3746613329750730  0.6506468503918938  0.6665968645685965
  0.1253386670249270  0.3493531496081062  0.1665968645685965
  0.6253386670249270  0.1506468503918938  0.8334031354314035
  0.9659146702225385  0.5995557168376919  0.0155663059501876
  0.4659146702225385  0.9004442831623081  0.9844336940498124
  0.0340853297774615  0.0995557168376919  0.4844336940498124
  0.5340853297774615  0.4004442831623081  0.5155663059501876
  0.6674112538392691  0.5656122497995781  0.1669674069082987
  0.1674112538392691  0.9343877502004219  0.8330325930917013
  0.3325887461607309  0.0656122497995781  0.3330325930917013
  0.8325887461607309  0.4343877502004219  0.6669674069082987
  0.1981893139620681  0.3955417024167645  0.8474844850698702
  0.6981893139620681  0.1044582975832355  0.1525155149301369
  0.8018106860379319  0.8955417024167645  0.6525155149301298
  0.3018106860379248  0.6044582975832355  0.3474844850698631

  0.00000000E+00  0.00000000E+00  0.00000000E+00
  0.00000000E+00  0.00000000E+00  0.00000000E+00
  0.00000000E+00  0.00000000E+00  0.00000000E+00
  0.00000000E+00  0.00000000E+00  0.00000000E+00
  0.00000000E+00  0.00000000E+00  0.00000000E+00
  0.00000000E+00  0.00000000E+00  0.00000000E+00
  0.00000000E+00  0.00000000E+00  0.00000000E+00
  0.00000000E+00  0.00000000E+00  0.00000000E+00
  0.00000000E+00  0.00000000E+00  0.00000000E+00
  0.00000000E+00  0.00000000E+00  0.00000000E+00
  0.00000000E+00  0.00000000E+00  0.00000000E+00
  0.00000000E+00  0.00000000E+00  0.00000000E+00
  0.00000000E+00  0.00000000E+00  0.00000000E+00
  0.00000000E+00  0.00000000E+00  0.00000000E+00
  0.00000000E+00  0.00000000E+00  0.00000000E+00
  0.00000000E+00  0.00000000E+00  0.00000000E+00
  0.00000000E+00  0.00000000E+00  0.00000000E+00
  0.00000000E+00  0.00000000E+00  0.00000000E+00
  0.00000000E+00  0.00000000E+00  0.00000000E+00
  0.00000000E+00  0.00000000E+00  0.00000000E+00
  0.00000000E+00  0.00000000E+00  0.00000000E+00
  0.00000000E+00  0.00000000E+00  0.00000000E+00
  0.00000000E+00  0.00000000E+00  0.00000000E+00
  0.00000000E+00  0.00000000E+00  0.00000000E+00
  0.00000000E+00  0.00000000E+00  0.00000000E+00
  0.00000000E+00  0.00000000E+00  0.00000000E+00
  0.00000000E+00  0.00000000E+00  0.00000000E+00
  0.00000000E+00  0.00000000E+00  0.00000000E+00
