Be6 Tl4 I24                             
   1.0000000000000000     
    16.4151564338926406    0.3158081241145798    0.0000000000000000
     0.3122577730284677   16.4554914322724315    0.0000000000000000
     0.0000000000000000    0.0000000000000000    6.0725990032476762
   I    Tl   Be
    24     4     6
Direct
  0.6762148196629028  0.2167472876541723  0.0000000000000000
  0.1980158881548419  0.3001470698179034  0.0000000000000000
  0.8031597593066522  0.6962640328035974  0.0000000000000000
  0.2857917247725368  0.8227566533106554  0.0000000000000000
  0.4948165605450683  0.0095624482880226  0.2506874356189925
  0.9974046464120931  0.5012199984684500  0.2505009127694180
  0.1889306473879557  0.0320356938057671  0.2495491728713120
  0.9486349283890689  0.2043569911742509  0.2505515726999761
  0.4663763864875179  0.3122710460932510  0.2494873513971569
  0.6545674538501274  0.4424370400875546  0.2492124244377152
  0.2951646653223108  0.5508476309868797  0.2505943482012967
  0.5299775255829218  0.7038642569099309  0.2503993892812062
  0.0593159771748475  0.8436300886724766  0.2492422428518779
  0.7980381909651797  0.9686884266515179  0.2503818897062260
  0.1889306473879557  0.0320356938057671  0.7504508271286667
  0.9486349283890689  0.2043569911742509  0.7494484273000239
  0.4663763864875179  0.3122710460932510  0.7505126486028360
  0.6545674538501274  0.4424370400875546  0.7507875755622990
  0.2951646653223108  0.5508476309868797  0.7494056517987033
  0.5299775255829218  0.7038642569099309  0.7496006107187796
  0.0593159771748475  0.8436300886724766  0.7507577571481221
  0.7980381909651797  0.9686884266515179  0.7496181102937811
  0.4948165605450683  0.0095624482880226  0.7493125643810004
  0.9974046464120931  0.5012199984684500  0.7494990872305962
  0.3503575574688611  0.1496259870174157  0.0000000000000000
  0.8504798972119261  0.3640545880447590  0.0000000000000000
  0.1344570564867595  0.6475817702241642  0.0000000000000000
  0.6501890840083746  0.8503982009605409  0.0000000000000000
  0.1651058436058435  0.9084719588528216  0.0000000000000000
  0.5899167413629343  0.3369289847578472  0.0000000000000000
  0.6618081941490246  0.2316598222122721  0.5000000000000000
  0.1944981544794473  0.3031699595545092  0.5000000000000000
  0.8017337402239377  0.6977407134848974  0.5000000000000000
  0.2714175748718191  0.8362257290281221  0.5000000000000000

  0.00000000E+00  0.00000000E+00  0.00000000E+00
  0.00000000E+00  0.00000000E+00  0.00000000E+00
  0.00000000E+00  0.00000000E+00  0.00000000E+00
  0.00000000E+00  0.00000000E+00  0.00000000E+00
  0.00000000E+00  0.00000000E+00  0.00000000E+00
  0.00000000E+00  0.00000000E+00  0.00000000E+00
  0.00000000E+00  0.00000000E+00  0.00000000E+00
  0.00000000E+00  0.00000000E+00  0.00000000E+00
  0.00000000E+00  0.00000000E+00  0.00000000E+00
  0.00000000E+00  0.00000000E+00  0.00000000E+00
  0.00000000E+00  0.00000000E+00  0.00000000E+00
  0.00000000E+00  0.00000000E+00  0.00000000E+00
  0.00000000E+00  0.00000000E+00  0.00000000E+00
  0.00000000E+00  0.00000000E+00  0.00000000E+00
  0.00000000E+00  0.00000000E+00  0.00000000E+00
  0.00000000E+00  0.00000000E+00  0.00000000E+00
  0.00000000E+00  0.00000000E+00  0.00000000E+00
  0.00000000E+00  0.00000000E+00  0.00000000E+00
  0.00000000E+00  0.00000000E+00  0.00000000E+00
  0.00000000E+00  0.00000000E+00  0.00000000E+00
  0.00000000E+00  0.00000000E+00  0.00000000E+00
  0.00000000E+00  0.00000000E+00  0.00000000E+00
  0.00000000E+00  0.00000000E+00  0.00000000E+00
  0.00000000E+00  0.00000000E+00  0.00000000E+00
  0.00000000E+00  0.00000000E+00  0.00000000E+00
  0.00000000E+00  0.00000000E+00  0.00000000E+00
  0.00000000E+00  0.00000000E+00  0.00000000E+00
  0.00000000E+00  0.00000000E+00  0.00000000E+00
  0.00000000E+00  0.00000000E+00  0.00000000E+00
  0.00000000E+00  0.00000000E+00  0.00000000E+00
  0.00000000E+00  0.00000000E+00  0.00000000E+00
  0.00000000E+00  0.00000000E+00  0.00000000E+00
  0.00000000E+00  0.00000000E+00  0.00000000E+00
  0.00000000E+00  0.00000000E+00  0.00000000E+00
