Ca13 B14                                
   1.00000000000000     
     5.6969016190751978    5.6969016190751960    5.7751554540499717
     5.6969016190751969   -5.7751554540499717   -5.6969016190751960
    -5.7751554540499734    5.6969016190751987   -5.6969016190751978
   B    Ca
    14    13
Direct
  0.2181133499505989  0.9953883488999722  0.9953883488999722
  0.7818866500494011  0.0046116511000278  0.0046116511000278
  0.1976818526232975  0.1976818526232975  0.0008730286983436
  0.9953883488999722  0.2181133499505989  0.9953883488999722
  0.0046116511000278  0.7818866500494011  0.0046116511000278
  0.8023181473767025  0.8023181473767025  0.9991269713016564
  0.1976818526232975  0.0008730286983436  0.1976818526232975
  0.0008730286983436  0.1976818526232975  0.1976818526232975
  0.9953883488999722  0.9953883488999722  0.2181133499505989
  0.2251752726059735  0.2251752726059735  0.2251752726059735
  0.0046116511000278  0.0046116511000278  0.7818866500494011
  0.7748247273940194  0.7748247273940194  0.7748247273940194
  0.8023181473767025  0.9991269713016564  0.8023181473767025
  0.9991269713016564  0.8023181473767025  0.8023181473767025
  0.0000000000000000  0.0000000000000000  0.0000000000000000
  0.7553916518933832  0.2446083481066168  0.0000000000000000
  0.2446083481066168  0.7553916518933832  0.0000000000000000
  0.7566105541299564  0.7566105541299564  0.5116762706965119
  0.7553916518933832  0.0000000000000000  0.2446083481066168
  0.0000000000000000  0.7553916518933832  0.2446083481066168
  0.4883237293034881  0.2433894458700436  0.2433894458700436
  0.2433894458700436  0.4883237293034881  0.2433894458700436
  0.2446083481066168  0.0000000000000000  0.7553916518933832
  0.7566105541299564  0.5116762706965119  0.7566105541299564
  0.0000000000000000  0.2446083481066168  0.7553916518933832
  0.5116762706965119  0.7566105541299564  0.7566105541299564
  0.2433894458700436  0.2433894458700436  0.4883237293034881
 
  0.00000000E+00  0.00000000E+00  0.00000000E+00
  0.00000000E+00  0.00000000E+00  0.00000000E+00
  0.00000000E+00  0.00000000E+00  0.00000000E+00
  0.00000000E+00  0.00000000E+00  0.00000000E+00
  0.00000000E+00  0.00000000E+00  0.00000000E+00
  0.00000000E+00  0.00000000E+00  0.00000000E+00
  0.00000000E+00  0.00000000E+00  0.00000000E+00
  0.00000000E+00  0.00000000E+00  0.00000000E+00
  0.00000000E+00  0.00000000E+00  0.00000000E+00
  0.00000000E+00  0.00000000E+00  0.00000000E+00
  0.00000000E+00  0.00000000E+00  0.00000000E+00
  0.00000000E+00  0.00000000E+00  0.00000000E+00
  0.00000000E+00  0.00000000E+00  0.00000000E+00
  0.00000000E+00  0.00000000E+00  0.00000000E+00
  0.00000000E+00  0.00000000E+00  0.00000000E+00
  0.00000000E+00  0.00000000E+00  0.00000000E+00
  0.00000000E+00  0.00000000E+00  0.00000000E+00
  0.00000000E+00  0.00000000E+00  0.00000000E+00
  0.00000000E+00  0.00000000E+00  0.00000000E+00
  0.00000000E+00  0.00000000E+00  0.00000000E+00
  0.00000000E+00  0.00000000E+00  0.00000000E+00
  0.00000000E+00  0.00000000E+00  0.00000000E+00
  0.00000000E+00  0.00000000E+00  0.00000000E+00
  0.00000000E+00  0.00000000E+00  0.00000000E+00
  0.00000000E+00  0.00000000E+00  0.00000000E+00
  0.00000000E+00  0.00000000E+00  0.00000000E+00
  0.00000000E+00  0.00000000E+00  0.00000000E+00
