Be3 Tl4                                 
   1.0000000000000000     
     1.8667674278886695    1.6327676171104828    6.0714570570855360
    -1.8667674278886695    1.6327676171104828    6.0714570570855360
     0.0000000000000000   -4.7035276412798694    6.6274925665098552
   Tl   Be
     4     3
Direct
  0.0772928845561651  0.0772928845561651  0.2186769084646585
  0.3115250984085165  0.3115250984085165  0.2807244456392581
  0.6844749015914857  0.6844749015914857  0.7152755543607441
  0.9187071154438371  0.9187071154438371  0.7773230915353437
  0.3927931697610703  0.3927931697610703  0.5527637892954118
  0.6032068302389320  0.6032068302389320  0.4432362107045904
  0.9979999999999976  0.9979999999999976  0.9979999999999976

  0.00000000E+00  0.00000000E+00  0.00000000E+00
  0.00000000E+00  0.00000000E+00  0.00000000E+00
  0.00000000E+00  0.00000000E+00  0.00000000E+00
  0.00000000E+00  0.00000000E+00  0.00000000E+00
  0.00000000E+00  0.00000000E+00  0.00000000E+00
  0.00000000E+00  0.00000000E+00  0.00000000E+00
  0.00000000E+00  0.00000000E+00  0.00000000E+00
