Mg7 Al13                                
   1.00000000000000     
     5.3385913880762219    0.0001742297531660    0.0912602336209879
    -2.6672883951196629    4.6250359766325992   -0.0788165815399885
     0.1963967572813941   -0.1414681259681362   15.6056954521442997
   Al   Mg
    13     7
Direct
  0.3656826950844945  0.6352715216315801  0.0607542486308077
  0.1834424742149636  0.3110164454479545  0.2066256987842507
  0.1828167771419729  0.8178633856371746  0.2064810172516260
  0.6897906939849605  0.8172225495156624  0.2063587313358042
  0.3423293046540081  0.6583498023505214  0.3508753481712716
  0.0000379350844639  0.5000313904219595  0.5000095098841442
  0.5000416366608107  0.5000345572678881  0.5000062553099482
  0.5000371727965813  0.0000341191318469  0.5000079634736707
  0.6577193257987588  0.3417078165151679  0.6491608133791118
  0.3101908079232345  0.1827247858269061  0.7936911544550256
  0.8171281160237740  0.1820735468418277  0.7935726700473111
  0.8165093051716639  0.6889157818898539  0.7934373239771659
  0.6343231439113737  0.3646706225885836  0.9393163916573073
  0.9999232825205695  0.0000578956824739  0.9999806879883693
  0.6923594146538719  0.3078474278502910  0.1135967686241415
  0.6781458943003926  0.3218459155905293  0.3215209793976186
  0.0060133756484646  0.9939203020471652  0.3925120938550322
  0.9940609484667888  0.0061540970594294  0.6074987900496183
  0.3219045684960449  0.6782250755734864  0.6785159871692343
  0.3075451274627952  0.6920349611297070  0.8864775665585611
 
  0.00000000E+00  0.00000000E+00  0.00000000E+00
  0.00000000E+00  0.00000000E+00  0.00000000E+00
  0.00000000E+00  0.00000000E+00  0.00000000E+00
  0.00000000E+00  0.00000000E+00  0.00000000E+00
  0.00000000E+00  0.00000000E+00  0.00000000E+00
  0.00000000E+00  0.00000000E+00  0.00000000E+00
  0.00000000E+00  0.00000000E+00  0.00000000E+00
  0.00000000E+00  0.00000000E+00  0.00000000E+00
  0.00000000E+00  0.00000000E+00  0.00000000E+00
  0.00000000E+00  0.00000000E+00  0.00000000E+00
  0.00000000E+00  0.00000000E+00  0.00000000E+00
  0.00000000E+00  0.00000000E+00  0.00000000E+00
  0.00000000E+00  0.00000000E+00  0.00000000E+00
  0.00000000E+00  0.00000000E+00  0.00000000E+00
  0.00000000E+00  0.00000000E+00  0.00000000E+00
  0.00000000E+00  0.00000000E+00  0.00000000E+00
  0.00000000E+00  0.00000000E+00  0.00000000E+00
  0.00000000E+00  0.00000000E+00  0.00000000E+00
  0.00000000E+00  0.00000000E+00  0.00000000E+00
  0.00000000E+00  0.00000000E+00  0.00000000E+00
