Sr4 In4 I20                             
   1.0000000000000000     
     4.8100140028390266   -0.0000000000000001    0.0000000000000006
    -0.0000000000000004    9.7624388377702651    0.0000000000000010
    -0.0000000000000011    0.0000000000000001   35.1620693713426036
   Sr   In   I 
     4     4    20
Direct
  0.7412616115087758  0.1930254996430421  0.3808739317411209
  0.2412616115087758  0.3069745003569579  0.6191260682588862
  0.2587383884912171  0.6930254996430421  0.1191260682588862
  0.7587383884912171  0.8069745003569579  0.8808739317411138
  0.2477589367114774  0.6163200716475075  0.4028563091636812
  0.7477589367114916  0.8836799283524925  0.5971436908363117
  0.7522410632885084  0.1163200716475075  0.0971436908363117
  0.2522410632885226  0.3836799283524925  0.9028563091636812
  0.7454916139337300  0.4403318380763110  0.4428821896924973
  0.2454916139337300  0.0596681619236819  0.5571178103075098
  0.2545083860662629  0.9403318380763110  0.0571178103075027
  0.7545083860662700  0.5596681619236890  0.9428821896924902
  0.7630860838718263  0.8685909016125990  0.1633207799388217
  0.2630860838718334  0.6314090983874010  0.8366792200611783
  0.2369139161281666  0.3685909016125990  0.3366792200611783
  0.7369139161281737  0.1314090983874010  0.6633207799388217
  0.2598248004839476  0.9839704223532948  0.9219108591350746
  0.7598248004839334  0.5160295776467052  0.0780891408649182
  0.7401751995160666  0.4839704223532948  0.5780891408649254
  0.2401751995160595  0.0160295776467052  0.4219108591350746
  0.4418007470040237  0.9268115171931655  0.3318579222421221
  0.9418007470040095  0.5731884828068345  0.6681420777578779
  0.5581992529959905  0.4268115171931726  0.1681420777578779
  0.0581992529959763  0.0731884828068274  0.8318579222421221
  0.1144218416529768  0.6057608862730746  0.7435075433293221
  0.6144218416529768  0.8942391137269254  0.2564924566706779
  0.8855781583470232  0.1057608862730746  0.7564924566706779
  0.3855781583470232  0.3942391137269254  0.2435075433293221

  0.00000000E+00  0.00000000E+00  0.00000000E+00
  0.00000000E+00  0.00000000E+00  0.00000000E+00
  0.00000000E+00  0.00000000E+00  0.00000000E+00
  0.00000000E+00  0.00000000E+00  0.00000000E+00
  0.00000000E+00  0.00000000E+00  0.00000000E+00
  0.00000000E+00  0.00000000E+00  0.00000000E+00
  0.00000000E+00  0.00000000E+00  0.00000000E+00
  0.00000000E+00  0.00000000E+00  0.00000000E+00
  0.00000000E+00  0.00000000E+00  0.00000000E+00
  0.00000000E+00  0.00000000E+00  0.00000000E+00
  0.00000000E+00  0.00000000E+00  0.00000000E+00
  0.00000000E+00  0.00000000E+00  0.00000000E+00
  0.00000000E+00  0.00000000E+00  0.00000000E+00
  0.00000000E+00  0.00000000E+00  0.00000000E+00
  0.00000000E+00  0.00000000E+00  0.00000000E+00
  0.00000000E+00  0.00000000E+00  0.00000000E+00
  0.00000000E+00  0.00000000E+00  0.00000000E+00
  0.00000000E+00  0.00000000E+00  0.00000000E+00
  0.00000000E+00  0.00000000E+00  0.00000000E+00
  0.00000000E+00  0.00000000E+00  0.00000000E+00
  0.00000000E+00  0.00000000E+00  0.00000000E+00
  0.00000000E+00  0.00000000E+00  0.00000000E+00
  0.00000000E+00  0.00000000E+00  0.00000000E+00
  0.00000000E+00  0.00000000E+00  0.00000000E+00
  0.00000000E+00  0.00000000E+00  0.00000000E+00
  0.00000000E+00  0.00000000E+00  0.00000000E+00
  0.00000000E+00  0.00000000E+00  0.00000000E+00
  0.00000000E+00  0.00000000E+00  0.00000000E+00
