Ba2 In4 Cl16                            
   1.0000000000000000     
    13.8876664341548786   -0.0031155350196374   -0.2338137340139436
    -0.0017174942597357    7.6299827150887785    0.0004793260071475
    -0.7093346247069271    0.0006180427769124    7.8162384077140743
   In   Cl   Ba
     4    16     2
Direct
  0.0800477068161243  0.7402370247313002  0.3199356426521334
  0.5799551089610233  0.2594870760954038  0.3194136073535745
  0.4200329690992390  0.7404910879567339  0.6805903343281159
  0.9199321367948414  0.2597290377778805  0.6800779937639092
  0.6296782460589441  0.0096666489250836  0.1653440495841281
  0.1300172512913988  0.9902093089343538  0.1661087146654623
  0.1589160113100903  0.4755037032039553  0.2476391735167667
  0.6585408718643180  0.5245004795444359  0.2469753421142400
  0.4100840044387439  0.3230396109341811  0.2728273636815430
  0.9100863001593993  0.6768998200572582  0.2730526786971410
  0.8744745110887209  0.1635784997582164  0.3903122566620709
  0.3747110574939185  0.8368435368890346  0.3908739778844392
  0.6252690462442914  0.1631636616073706  0.6091364955610601
  0.1255069901229575  0.8364243053009659  0.6096795965265969
  0.0898965499071593  0.3230863357181875  0.7269148535802543
  0.5899088461409505  0.6769624416529894  0.7272171616542877
  0.3414313486144209  0.4754787387321855  0.7530069772497185
  0.8410592145976068  0.5244797420677543  0.7523352060337274
  0.8699649140327992  0.0097311183332565  0.8338903434914613
  0.3702997271217754  0.9902991214772641  0.8346769295468448
  0.7498175735447390  0.8295653842909161  0.4997066293583146
  0.2501696142965528  0.1704233160112665  0.5002846720942173

  0.00000000E+00  0.00000000E+00  0.00000000E+00
  0.00000000E+00  0.00000000E+00  0.00000000E+00
  0.00000000E+00  0.00000000E+00  0.00000000E+00
  0.00000000E+00  0.00000000E+00  0.00000000E+00
  0.00000000E+00  0.00000000E+00  0.00000000E+00
  0.00000000E+00  0.00000000E+00  0.00000000E+00
  0.00000000E+00  0.00000000E+00  0.00000000E+00
  0.00000000E+00  0.00000000E+00  0.00000000E+00
  0.00000000E+00  0.00000000E+00  0.00000000E+00
  0.00000000E+00  0.00000000E+00  0.00000000E+00
  0.00000000E+00  0.00000000E+00  0.00000000E+00
  0.00000000E+00  0.00000000E+00  0.00000000E+00
  0.00000000E+00  0.00000000E+00  0.00000000E+00
  0.00000000E+00  0.00000000E+00  0.00000000E+00
  0.00000000E+00  0.00000000E+00  0.00000000E+00
  0.00000000E+00  0.00000000E+00  0.00000000E+00
  0.00000000E+00  0.00000000E+00  0.00000000E+00
  0.00000000E+00  0.00000000E+00  0.00000000E+00
  0.00000000E+00  0.00000000E+00  0.00000000E+00
  0.00000000E+00  0.00000000E+00  0.00000000E+00
  0.00000000E+00  0.00000000E+00  0.00000000E+00
  0.00000000E+00  0.00000000E+00  0.00000000E+00
