Mg6 Al33                                
   1.00000000000000     
     8.9083506492120836    0.0000000000000000    0.0000000000000000
     0.0000000000000000    8.9083506492120854    0.0000000000000000
     0.0000000000000000    0.0000000000000000    8.9083506492120872
   Mg   Al
     6    33
Direct
  0.1932033803856186  0.5000000000000000  0.0000000000000000
  0.8067966196143814  0.5000000000000000  0.0000000000000000
  0.5000000000000000  0.0000000000000000  0.1932033803856186
  0.0000000000000000  0.1932033803856186  0.5000000000000000
  0.0000000000000000  0.8067966196143814  0.5000000000000000
  0.5000000000000000  0.0000000000000000  0.8067966196143814
  0.0000000000000000  0.0000000000000000  0.0000000000000000
  0.2639210066971316  0.1540457253795253  0.0000000000000000
  0.7360789933028684  0.1540457253795253  0.0000000000000000
  0.5000000000000000  0.3392651626314205  0.0000000000000000
  0.5000000000000000  0.6607348373685795  0.0000000000000000
  0.2639210066971316  0.8459542746204747  0.0000000000000000
  0.7360789933028684  0.8459542746204747  0.0000000000000000
  0.0000000000000000  0.2639210066971316  0.1540457253795253
  0.0000000000000000  0.7360789933028684  0.1540457253795253
  0.5000000000000000  0.5000000000000000  0.2700068750601687
  0.1540457253795253  0.0000000000000000  0.2639210066971316
  0.8459542746204747  0.0000000000000000  0.2639210066971316
  0.2807972892670350  0.2807972892670350  0.2807972892670350
  0.7192027107329650  0.2807972892670350  0.2807972892670350
  0.2807972892670350  0.7192027107329650  0.2807972892670350
  0.7192027107329650  0.7192027107329650  0.2807972892670350
  0.0000000000000000  0.5000000000000000  0.3392651626314205
  0.3392651626314205  0.0000000000000000  0.5000000000000000
  0.6607348373685795  0.0000000000000000  0.5000000000000000
  0.5000000000000000  0.2700068750601687  0.5000000000000000
  0.2700068750601687  0.5000000000000000  0.5000000000000000
  0.7299931249398313  0.5000000000000000  0.5000000000000000
  0.5000000000000000  0.7299931249398313  0.5000000000000000
  0.0000000000000000  0.5000000000000000  0.6607348373685795
  0.2807972892670350  0.2807972892670350  0.7192027107329650
  0.7192027107329650  0.2807972892670350  0.7192027107329650
  0.2807972892670350  0.7192027107329650  0.7192027107329650
  0.7192027107329650  0.7192027107329650  0.7192027107329650
  0.1540457253795253  0.0000000000000000  0.7360789933028684
  0.8459542746204747  0.0000000000000000  0.7360789933028684
  0.5000000000000000  0.5000000000000000  0.7299931249398313
  0.0000000000000000  0.2639210066971316  0.8459542746204747
  0.0000000000000000  0.7360789933028684  0.8459542746204747
 
  0.00000000E+00  0.00000000E+00  0.00000000E+00
  0.00000000E+00  0.00000000E+00  0.00000000E+00
  0.00000000E+00  0.00000000E+00  0.00000000E+00
  0.00000000E+00  0.00000000E+00  0.00000000E+00
  0.00000000E+00  0.00000000E+00  0.00000000E+00
  0.00000000E+00  0.00000000E+00  0.00000000E+00
  0.00000000E+00  0.00000000E+00  0.00000000E+00
  0.00000000E+00  0.00000000E+00  0.00000000E+00
  0.00000000E+00  0.00000000E+00  0.00000000E+00
  0.00000000E+00  0.00000000E+00  0.00000000E+00
  0.00000000E+00  0.00000000E+00  0.00000000E+00
  0.00000000E+00  0.00000000E+00  0.00000000E+00
  0.00000000E+00  0.00000000E+00  0.00000000E+00
  0.00000000E+00  0.00000000E+00  0.00000000E+00
  0.00000000E+00  0.00000000E+00  0.00000000E+00
  0.00000000E+00  0.00000000E+00  0.00000000E+00
  0.00000000E+00  0.00000000E+00  0.00000000E+00
  0.00000000E+00  0.00000000E+00  0.00000000E+00
  0.00000000E+00  0.00000000E+00  0.00000000E+00
  0.00000000E+00  0.00000000E+00  0.00000000E+00
  0.00000000E+00  0.00000000E+00  0.00000000E+00
  0.00000000E+00  0.00000000E+00  0.00000000E+00
  0.00000000E+00  0.00000000E+00  0.00000000E+00
  0.00000000E+00  0.00000000E+00  0.00000000E+00
  0.00000000E+00  0.00000000E+00  0.00000000E+00
  0.00000000E+00  0.00000000E+00  0.00000000E+00
  0.00000000E+00  0.00000000E+00  0.00000000E+00
  0.00000000E+00  0.00000000E+00  0.00000000E+00
  0.00000000E+00  0.00000000E+00  0.00000000E+00
  0.00000000E+00  0.00000000E+00  0.00000000E+00
  0.00000000E+00  0.00000000E+00  0.00000000E+00
  0.00000000E+00  0.00000000E+00  0.00000000E+00
  0.00000000E+00  0.00000000E+00  0.00000000E+00
  0.00000000E+00  0.00000000E+00  0.00000000E+00
  0.00000000E+00  0.00000000E+00  0.00000000E+00
  0.00000000E+00  0.00000000E+00  0.00000000E+00
  0.00000000E+00  0.00000000E+00  0.00000000E+00
  0.00000000E+00  0.00000000E+00  0.00000000E+00
  0.00000000E+00  0.00000000E+00  0.00000000E+00
