Be3F                                    
   1.00000000000000     
    -1.3764283257423264    1.3764283257423264    4.9322011725373374
     1.3764283257423264   -1.3764283257423264    4.9322011725373374
     1.3764283257423264    1.3764283257423264   -4.9322011725373374
   Be   F 
     3     1
Direct
  0.7500000000000000  0.2500000000000000  0.5000000000000000
  0.2500000000000000  0.7500000000000000  0.5000000000000000
  0.5000000000000000  0.5000000000000000  0.0000000000000000
  0.0000000000000000  0.0000000000000000  0.0000000000000000
 
  0.00000000E+00  0.00000000E+00  0.00000000E+00
  0.00000000E+00  0.00000000E+00  0.00000000E+00
  0.00000000E+00  0.00000000E+00  0.00000000E+00
  0.00000000E+00  0.00000000E+00  0.00000000E+00
