Mg4 B10 Br2                             
   1.00000000000000     
     5.6074523490970112    0.8326634135485391    0.6708699405757624
     0.7914258961530514    8.1475375606328075    2.2888183611845951
     3.6215138915875102    6.0413954208148040    7.1740250845127251
   Br   Mg   B 
     2     4    10
Direct
  0.0046478236283960  0.7460561424646244  0.3960911844698742
  0.2304797213260841  0.5319716092653337  0.1885218109583633
  0.1951123485383661  0.2547454467527288  0.1671311831313744
  0.8337366640338146  0.3345437451506186  0.9573777712993348
  0.1533094655934804  0.0814794228006051  0.6446539200332921
  0.7504899944934706  0.6905870493841917  0.2781638821140362
  0.0810972176163602  0.1409093391399736  0.8559489474428688
  0.6177631145870777  0.7304707975969436  0.6278882858512986
  0.4264459037726951  0.9519916519485179  0.4653480911845946
  0.7825511311412185  0.8666864655418252  0.6441775244235899
  0.4400659985842168  0.2307180681837053  0.6643994001829938
  0.3149688902499719  0.5920377598839082  0.7060642501244985
  0.6225582507218235  0.1141029298368608  0.5819846281763859
  0.3085779860043942  0.3738082514130525  0.7230395912120926
  0.0844640038861968  0.7946155007916715  0.6509723478281444
  0.6536314858224230  0.0651758198454289  0.4482371815672579
 
  0.00000000E+00  0.00000000E+00  0.00000000E+00
  0.00000000E+00  0.00000000E+00  0.00000000E+00
  0.00000000E+00  0.00000000E+00  0.00000000E+00
  0.00000000E+00  0.00000000E+00  0.00000000E+00
  0.00000000E+00  0.00000000E+00  0.00000000E+00
  0.00000000E+00  0.00000000E+00  0.00000000E+00
  0.00000000E+00  0.00000000E+00  0.00000000E+00
  0.00000000E+00  0.00000000E+00  0.00000000E+00
  0.00000000E+00  0.00000000E+00  0.00000000E+00
  0.00000000E+00  0.00000000E+00  0.00000000E+00
  0.00000000E+00  0.00000000E+00  0.00000000E+00
  0.00000000E+00  0.00000000E+00  0.00000000E+00
  0.00000000E+00  0.00000000E+00  0.00000000E+00
  0.00000000E+00  0.00000000E+00  0.00000000E+00
  0.00000000E+00  0.00000000E+00  0.00000000E+00
  0.00000000E+00  0.00000000E+00  0.00000000E+00
