Mg4 Al10 I2                             
   1.00000000000000     
     7.9749044015263868    0.2191742779570133    0.7747085730135280
    -3.7991706916646506    6.8032157109886828    0.7178150836017185
    -3.4000554146401036   -1.3125976586369459    6.0510650905854142
   I    Mg   Al
     2     4    10
Direct
  0.0327535358108193  0.2103584350125800  0.3260703809576029
  0.9671813409511785  0.7891884586830074  0.6741108903422273
  0.7421232442702035  0.6254155984797052  0.1251668377713173
  0.4666995459589316  0.2345354289865540  0.2960448983718678
  0.5335012261146872  0.7656488847715153  0.7040067739826128
  0.2579472006341987  0.3747276630667287  0.8749287584162388
  0.0000626151728795  0.0000221737260730  0.9999443913322921
  0.3787453678066228  0.8021553787945379  0.9912942528833497
  0.2038329239513246  0.7929028819997299  0.2873932500609513
  0.4372851095931338  0.5910358136742033  0.3144949410388449
  0.6478505754517272  0.9778692195875536  0.3645672606718406
  0.0000731665232721  0.4999306242051702  0.4999301633300348
  0.3520330143621422  0.0221366953874167  0.6352671832594154
  0.5626728449503489  0.4090167783619876  0.6854922444693869
  0.7961642985531370  0.2071214365224776  0.7125593492876803
  0.6210739898953861  0.1977345287407744  0.0085284238243304
 
  0.00000000E+00  0.00000000E+00  0.00000000E+00
  0.00000000E+00  0.00000000E+00  0.00000000E+00
  0.00000000E+00  0.00000000E+00  0.00000000E+00
  0.00000000E+00  0.00000000E+00  0.00000000E+00
  0.00000000E+00  0.00000000E+00  0.00000000E+00
  0.00000000E+00  0.00000000E+00  0.00000000E+00
  0.00000000E+00  0.00000000E+00  0.00000000E+00
  0.00000000E+00  0.00000000E+00  0.00000000E+00
  0.00000000E+00  0.00000000E+00  0.00000000E+00
  0.00000000E+00  0.00000000E+00  0.00000000E+00
  0.00000000E+00  0.00000000E+00  0.00000000E+00
  0.00000000E+00  0.00000000E+00  0.00000000E+00
  0.00000000E+00  0.00000000E+00  0.00000000E+00
  0.00000000E+00  0.00000000E+00  0.00000000E+00
  0.00000000E+00  0.00000000E+00  0.00000000E+00
  0.00000000E+00  0.00000000E+00  0.00000000E+00
