Ba1 Ga3 F6                              
   1.00000000000000     
    -3.4601878663846879    4.4880319809071931    2.8536821338844591
     3.4693884138006186   -4.9161141645364976    3.4693884138006177
     2.8536821338844587    4.4880319809071931   -3.4601878663846883
   F    Ba   Ga
     6     1     3
Direct
  0.2556328876490213  0.5638192438775249  0.2556328876490213
  0.7146308996441206  0.0000000000000000  0.2853691003558794
  0.2560355697198204  0.9477149345703637  0.2560355697198204
  0.7439644302801796  0.0522850654296363  0.7439644302801796
  0.7443671123509787  0.4361807561224751  0.7443671123509787
  0.2853691003558794  0.0000000000000000  0.7146308996441206
  0.0000000000000000  0.0000000000000000  0.0000000000000000
  0.7887001428193088  0.5000000000000000  0.2112998571806912
  0.5000000000000000  0.0000000000000000  0.5000000000000000
  0.2112998571806912  0.5000000000000000  0.7887001428193088
 
  0.00000000E+00  0.00000000E+00  0.00000000E+00
  0.00000000E+00  0.00000000E+00  0.00000000E+00
  0.00000000E+00  0.00000000E+00  0.00000000E+00
  0.00000000E+00  0.00000000E+00  0.00000000E+00
  0.00000000E+00  0.00000000E+00  0.00000000E+00
  0.00000000E+00  0.00000000E+00  0.00000000E+00
  0.00000000E+00  0.00000000E+00  0.00000000E+00
  0.00000000E+00  0.00000000E+00  0.00000000E+00
  0.00000000E+00  0.00000000E+00  0.00000000E+00
  0.00000000E+00  0.00000000E+00  0.00000000E+00
