Ca4 Al8 F16                             
   1.00000000000000     
     9.7438108334271565    0.0031144832698683   -0.0012784358086708
     0.0007175472412687    5.0581972929400463    0.7382943956107605
     0.0008110085702143    1.2953425856649934    8.6238121584679028
   Ca   F    Al
     4    16     8
Direct
  0.8048967438653847  0.4559380051982558  0.9545506849581926
  0.3048781145372033  0.0443743938081269  0.5454153187736424
  0.6951211941978315  0.9555771374865358  0.4545331058823123
  0.1951053133916432  0.5440539864345553  0.0454430413177533
  0.1569857049206433  0.8794668986350445  0.1753452233726094
  0.6397133251325471  0.1932966418983995  0.1760837223962923
  0.8935831956918747  0.0957072889049826  0.1463203562841215
  0.9484492923450816  0.6259317721893041  0.1081636700416482
  0.4484547942517523  0.8742401759960501  0.3918167557354906
  0.3933832263166650  0.4046295525553774  0.3536121529358809
  0.1396291457890868  0.3063830112577222  0.3238859601261481
  0.6568712597790238  0.6201527796314750  0.3246616521904997
  0.3431319685832719  0.3797970059899214  0.6752807110002053
  0.8603604421114071  0.6936081047609690  0.6761121144793947
  0.6066195704278528  0.5953126011853769  0.6463229914687858
  0.5515447293116864  0.1256979833708982  0.6081335050930363
  0.0515517928659506  0.3740803543987923  0.8918270767714489
  0.1064282393225042  0.9043029132226366  0.8536853814795222
  0.3602805665267823  0.8066478619870665  0.8238605108839607
  0.8430224206246208  0.1205165491344076  0.8246610966683576
  0.4842129364949841  0.2287624009525970  0.0540622443047951
  0.4874158327175309  0.6874220582241009  0.2514298626117935
  0.9875260504412893  0.8126331399657118  0.2485512011047746
  0.9841022094767453  0.2712415924790932  0.4458674174665020
  0.0158861139705238  0.7287496222865286  0.5541326384016045
  0.0124795115948331  0.1873600406409182  0.7514461581147529
  0.5125872839114578  0.3125290986107601  0.7485153495652312
  0.5157790213998226  0.7711870287943370  0.9458800965712655
 
  0.00000000E+00  0.00000000E+00  0.00000000E+00
  0.00000000E+00  0.00000000E+00  0.00000000E+00
  0.00000000E+00  0.00000000E+00  0.00000000E+00
  0.00000000E+00  0.00000000E+00  0.00000000E+00
  0.00000000E+00  0.00000000E+00  0.00000000E+00
  0.00000000E+00  0.00000000E+00  0.00000000E+00
  0.00000000E+00  0.00000000E+00  0.00000000E+00
  0.00000000E+00  0.00000000E+00  0.00000000E+00
  0.00000000E+00  0.00000000E+00  0.00000000E+00
  0.00000000E+00  0.00000000E+00  0.00000000E+00
  0.00000000E+00  0.00000000E+00  0.00000000E+00
  0.00000000E+00  0.00000000E+00  0.00000000E+00
  0.00000000E+00  0.00000000E+00  0.00000000E+00
  0.00000000E+00  0.00000000E+00  0.00000000E+00
  0.00000000E+00  0.00000000E+00  0.00000000E+00
  0.00000000E+00  0.00000000E+00  0.00000000E+00
  0.00000000E+00  0.00000000E+00  0.00000000E+00
  0.00000000E+00  0.00000000E+00  0.00000000E+00
  0.00000000E+00  0.00000000E+00  0.00000000E+00
  0.00000000E+00  0.00000000E+00  0.00000000E+00
  0.00000000E+00  0.00000000E+00  0.00000000E+00
  0.00000000E+00  0.00000000E+00  0.00000000E+00
  0.00000000E+00  0.00000000E+00  0.00000000E+00
  0.00000000E+00  0.00000000E+00  0.00000000E+00
  0.00000000E+00  0.00000000E+00  0.00000000E+00
  0.00000000E+00  0.00000000E+00  0.00000000E+00
  0.00000000E+00  0.00000000E+00  0.00000000E+00
  0.00000000E+00  0.00000000E+00  0.00000000E+00
