Ca1 In4                                 
   1.00000000000000     
    -3.4417258805876183   -3.4666945951077235    0.0014379382591103
     3.4417258805876183   -3.4666945951077235   -0.0014379382591104
    -3.2981317971901865    0.0000000000000000    6.1904816597254211
   Ca   In
     1     4
Direct
  0.0000000000000000  0.0000000000000000  0.0000000000000000
  0.4226117075164240  0.5773882924835760  0.2256633763774829
  0.2217355081984067  0.2217355081984067  0.5000000000000000
  0.7782644918015933  0.7782644918015933  0.5000000000000000
  0.5773882924835760  0.4226117075164240  0.7743366236225171
 
  0.00000000E+00  0.00000000E+00  0.00000000E+00
  0.00000000E+00  0.00000000E+00  0.00000000E+00
  0.00000000E+00  0.00000000E+00  0.00000000E+00
  0.00000000E+00  0.00000000E+00  0.00000000E+00
  0.00000000E+00  0.00000000E+00  0.00000000E+00
