Be1 Al3 Br6                             
   1.00000000000000     
     7.2221489424981309    0.0000502461357120    0.0002426010293605
     0.0000502461357120    7.2221489424981309    0.0002426010293605
     3.6112695585781669    3.6112695585781669    5.1265350691571570
   Br   Be   Al
     6     1     3
Direct
  0.7577808301380102  0.2422191698619898  0.0000000000000000
  0.2425994928431621  0.2425994928431621  0.9994276906534978
  0.2422191698619898  0.7577808301380102  0.0000000000000000
  0.7574005071568379  0.7574005071568379  0.0005723093465022
  0.7575564612966303  0.7575564612966303  0.4848894313448540
  0.2424435387033697  0.2424435387033697  0.5151105686551460
  0.0000000000000000  0.0000000000000000  0.0000000000000000
  0.5000000000000000  0.5000000000000000  0.0000000000000000
  0.2498523345125179  0.7501476654874821  0.5000000000000000
  0.7501476654874821  0.2498523345125179  0.5000000000000000
 
  0.00000000E+00  0.00000000E+00  0.00000000E+00
  0.00000000E+00  0.00000000E+00  0.00000000E+00
  0.00000000E+00  0.00000000E+00  0.00000000E+00
  0.00000000E+00  0.00000000E+00  0.00000000E+00
  0.00000000E+00  0.00000000E+00  0.00000000E+00
  0.00000000E+00  0.00000000E+00  0.00000000E+00
  0.00000000E+00  0.00000000E+00  0.00000000E+00
  0.00000000E+00  0.00000000E+00  0.00000000E+00
  0.00000000E+00  0.00000000E+00  0.00000000E+00
  0.00000000E+00  0.00000000E+00  0.00000000E+00
