Sr1 Tl2 Cl6                             
   1.0000000000000000     
     3.7121314751487882    2.1428900601433938    6.0605339842276535
    -3.7121314751487882    2.1428900601433938    6.0605339842276535
     0.0000000000000000   -4.2851397814031795    6.0603075756232716
   Sr   Cl   Tl
     1     6     2
Direct
  0.0000000000000000  0.0000000000000000  0.0000000000000000
  0.7319127818742146  0.7319127818742146  0.2680884558118990
  0.7319061413555588  0.2680926367148402  0.2681015008781955
  0.2680926367148402  0.7319061413555588  0.2681015008781955
  0.2680872181257854  0.2680872181257854  0.7319115441881010
  0.7319073632851598  0.2680938586444412  0.7318984991218045
  0.2680938586444412  0.7319073632851598  0.7318984991218045
  0.2500023912977767  0.2500023912977767  0.2499973693907407
  0.7499976087022233  0.7499976087022233  0.7500026306092593

  0.00000000E+00  0.00000000E+00  0.00000000E+00
  0.00000000E+00  0.00000000E+00  0.00000000E+00
  0.00000000E+00  0.00000000E+00  0.00000000E+00
  0.00000000E+00  0.00000000E+00  0.00000000E+00
  0.00000000E+00  0.00000000E+00  0.00000000E+00
  0.00000000E+00  0.00000000E+00  0.00000000E+00
  0.00000000E+00  0.00000000E+00  0.00000000E+00
  0.00000000E+00  0.00000000E+00  0.00000000E+00
  0.00000000E+00  0.00000000E+00  0.00000000E+00
