Ca1 B2 I10                              
   1.00000000000000     
     5.7299202717111095    7.1999620122636099    1.1284138596327196
    -5.7299202717111095    7.1999620122636099    1.1284138596327196
    -0.0000000000000001    7.0888989515279439   11.3709268739612970
   Ca   B    I 
     1     2    10
Direct
  0.6894912002013953  0.3105087997986047  0.0000000000000000
  0.2043067766315758  0.9974864635334839  0.6699038446542289
  0.0025135364665161  0.7956932233684242  0.3300961553457711
  0.3711115761270420  0.1959895098953837  0.4954466169053404
  0.8040104901046163  0.6288884238729580  0.5045533830946596
  0.9310784752871513  0.0321834879993972  0.7355534331445028
  0.9678165120005957  0.0689215247128487  0.2644465668554972
  0.9468643507948471  0.0531356492051529  0.0000000000000000
  0.9457835142608104  0.0542164857391896  0.5000000000000000
  0.4943965397232901  0.3285218519840782  0.8794075909869363
  0.6714781480159218  0.5056034602767099  0.1205924090130637
  0.2806626217096593  0.7655147413234360  0.7811918059096641
  0.2344852586765640  0.7193373782903407  0.2188081940903359
 
  0.00000000E+00  0.00000000E+00  0.00000000E+00
  0.00000000E+00  0.00000000E+00  0.00000000E+00
  0.00000000E+00  0.00000000E+00  0.00000000E+00
  0.00000000E+00  0.00000000E+00  0.00000000E+00
  0.00000000E+00  0.00000000E+00  0.00000000E+00
  0.00000000E+00  0.00000000E+00  0.00000000E+00
  0.00000000E+00  0.00000000E+00  0.00000000E+00
  0.00000000E+00  0.00000000E+00  0.00000000E+00
  0.00000000E+00  0.00000000E+00  0.00000000E+00
  0.00000000E+00  0.00000000E+00  0.00000000E+00
  0.00000000E+00  0.00000000E+00  0.00000000E+00
  0.00000000E+00  0.00000000E+00  0.00000000E+00
  0.00000000E+00  0.00000000E+00  0.00000000E+00
