Be10 In4                                
   1.00000000000000     
     0.2615435991050599   -0.0258126788242657    4.1250393987335583
    -0.0754931743546192   -6.8003378334216258    0.0406135961493699
     6.6791518160418342    3.4552282241381769   -1.7342865039522584
   In   Be
     4    10
Direct
  0.5488709829734830  0.4082445649470117  0.2135041083333746
  0.0499414255432740  0.7777429769974020  0.1880543026158108
  0.9500855144925069  0.2222467012698317  0.8119316883189427
  0.4511663078656341  0.5917589763681903  0.7865095281983869
  0.2494363026879967  0.0087373508080333  0.0001606915002057
  0.7505864415023069  0.9912740778830056  0.9998393352143111
  0.0980180379180382  0.2118762002497050  0.2901429094916423
  0.6012762063658315  0.0684931483366356  0.2892436807292427
  0.3839724760303795  0.1682450845785723  0.5489863928350474
  0.8950334331741416  0.3727346071762909  0.5522906682643125
  0.1050108927783100  0.6272708991070530  0.4477144350664801
  0.6160455321175178  0.8317511387321801  0.4510090943281213
  0.3987514001388917  0.9315043496903641  0.7107574629846241
  0.9020050464116807  0.7881199238557244  0.7098557021194978
 
  0.00000000E+00  0.00000000E+00  0.00000000E+00
  0.00000000E+00  0.00000000E+00  0.00000000E+00
  0.00000000E+00  0.00000000E+00  0.00000000E+00
  0.00000000E+00  0.00000000E+00  0.00000000E+00
  0.00000000E+00  0.00000000E+00  0.00000000E+00
  0.00000000E+00  0.00000000E+00  0.00000000E+00
  0.00000000E+00  0.00000000E+00  0.00000000E+00
  0.00000000E+00  0.00000000E+00  0.00000000E+00
  0.00000000E+00  0.00000000E+00  0.00000000E+00
  0.00000000E+00  0.00000000E+00  0.00000000E+00
  0.00000000E+00  0.00000000E+00  0.00000000E+00
  0.00000000E+00  0.00000000E+00  0.00000000E+00
  0.00000000E+00  0.00000000E+00  0.00000000E+00
  0.00000000E+00  0.00000000E+00  0.00000000E+00
