Ba5 Ga9                                 
   1.00000000000000     
     6.0509525054295130   -0.0082329772260835    0.0032929970234651
    -3.0326063819544080    5.2360931922315048   -0.0031498110225492
    -3.0212137276177300    1.7442666721636861   12.1479530361981514
   Ga   Ba
     9     5
Direct
  0.0000156768663899  0.9999756277363900  0.9999986469048920
  0.2406431674065033  0.2808029453799747  0.2002961379620203
  0.2410953042688746  0.7588967575734102  0.2001399195804368
  0.7192001000387478  0.7593595086155673  0.2002948081400504
  0.1226464293222520  0.8773537293998004  0.3652623407815341
  0.8773445902893968  0.1226537951000211  0.6346492357675615
  0.2807759216470913  0.2406264881309355  0.7996312064858699
  0.7589046605112344  0.2411020673275246  0.7997768516417594
  0.7593789483470346  0.7192287690839549  0.7996362311314442
  0.6830218595763711  0.3169668579426528  0.0477111836648305
  0.7835015764643316  0.2164986259577759  0.3504068752403597
  0.4999948631460143  0.5000136946295513  0.4999677894975605
  0.2164904528174603  0.7835134408789344  0.6495083148111860
  0.3169864492983052  0.6830076922434927  0.9522204583904852
 
  0.00000000E+00  0.00000000E+00  0.00000000E+00
  0.00000000E+00  0.00000000E+00  0.00000000E+00
  0.00000000E+00  0.00000000E+00  0.00000000E+00
  0.00000000E+00  0.00000000E+00  0.00000000E+00
  0.00000000E+00  0.00000000E+00  0.00000000E+00
  0.00000000E+00  0.00000000E+00  0.00000000E+00
  0.00000000E+00  0.00000000E+00  0.00000000E+00
  0.00000000E+00  0.00000000E+00  0.00000000E+00
  0.00000000E+00  0.00000000E+00  0.00000000E+00
  0.00000000E+00  0.00000000E+00  0.00000000E+00
  0.00000000E+00  0.00000000E+00  0.00000000E+00
  0.00000000E+00  0.00000000E+00  0.00000000E+00
  0.00000000E+00  0.00000000E+00  0.00000000E+00
  0.00000000E+00  0.00000000E+00  0.00000000E+00
