Be1 In12                                
   1.00000000000000     
     0.0000000000000000    6.3076717367722361    6.3076717367722379
     6.3076717367722370    0.0000000000000000    6.3076717367722379
     6.3076717367722370    6.3076717367722361    0.0000000000000000
   In   Be
    12     1
Direct
  0.5000000000000000  0.5000000000000000  0.1599910982729966
  0.8400089017270034  0.5000000000000000  0.1599910982729966
  0.5000000000000000  0.8400089017270034  0.1599910982729966
  0.5000000000000000  0.1599910982729966  0.5000000000000000
  0.8400089017270034  0.1599910982729966  0.5000000000000000
  0.1599910982729966  0.5000000000000000  0.5000000000000000
  0.8400089017270034  0.5000000000000000  0.5000000000000000
  0.1599910982729966  0.8400089017270034  0.5000000000000000
  0.5000000000000000  0.8400089017270034  0.5000000000000000
  0.5000000000000000  0.1599910982729966  0.8400089017270034
  0.1599910982729966  0.5000000000000000  0.8400089017270034
  0.5000000000000000  0.5000000000000000  0.8400089017270034
  0.0000000000000000  0.0000000000000000  0.0000000000000000
 
  0.00000000E+00  0.00000000E+00  0.00000000E+00
  0.00000000E+00  0.00000000E+00  0.00000000E+00
  0.00000000E+00  0.00000000E+00  0.00000000E+00
  0.00000000E+00  0.00000000E+00  0.00000000E+00
  0.00000000E+00  0.00000000E+00  0.00000000E+00
  0.00000000E+00  0.00000000E+00  0.00000000E+00
  0.00000000E+00  0.00000000E+00  0.00000000E+00
  0.00000000E+00  0.00000000E+00  0.00000000E+00
  0.00000000E+00  0.00000000E+00  0.00000000E+00
  0.00000000E+00  0.00000000E+00  0.00000000E+00
  0.00000000E+00  0.00000000E+00  0.00000000E+00
  0.00000000E+00  0.00000000E+00  0.00000000E+00
  0.00000000E+00  0.00000000E+00  0.00000000E+00
