Be4 Al4 F20                             
   1.0000000000000000     
     0.0000000000000000    5.2129568849562471    0.1939737590555346
     9.0734889395431395    0.0000000000000000    0.0000000000000000
     0.0000000000000000   -0.3780915522227921   -6.0918161996207640
   Be   Al   F 
     4     4    20
Direct
  0.3858447381936827  0.4297751001437220  0.2556674949781055
  0.6141552618063173  0.9297751001437220  0.7443325050218945
  0.1054076301976110  0.1775267243261212  0.1012520492135423
  0.8945923698023961  0.6775267243261212  0.8987479507864577
  0.3636895924880577  0.7609194901096146  0.1956634896292471
  0.6363104075119423  0.2609194901096146  0.8043365103707458
  0.8970319713832140  0.5767847541764439  0.3981970833821151
  0.1029680286167860  0.0767847541764439  0.6018029166178920
  0.3432790442334550  0.9328341258244777  0.6149338510761382
  0.1557929238050022  0.4446455022621763  0.4004160780680479
  0.8442070761949978  0.9446455022621763  0.5995839219319450
  0.6453231455108508  0.7788099219333517  0.8716272076743294
  0.8666869676070732  0.5775343466138239  0.0992140214710417
  0.4639842295785641  0.9356047379216008  0.2022599151034541
  0.8719284774678400  0.2282596432758695  0.6185868070428384
  0.6349235682020833  0.7089387324302479  0.3927991178264065
  0.1333130323929268  0.0775343466138239  0.9007859785289583
  0.9448592379589371  0.5889582016792616  0.6916811161461425
  0.5360157704214359  0.4356047379216008  0.7977400848965459
  0.6567209557665450  0.4328341258244848  0.3850661489238618
  0.6329298504423946  0.0716581967741234  0.8919093852212256
  0.8755056503323004  0.2853495025291366  0.0370716289443322
  0.0551407620410629  0.0889582016792616  0.3083188838538575
  0.1280715225321600  0.7282596432758695  0.3814131929571616
  0.3546768544891421  0.2788099219333517  0.1283727923256635
  0.1244943496676996  0.7853495025291366  0.9629283710556678
  0.3650764317979167  0.2089387324302407  0.6072008821735935
  0.3670701495576054  0.5716581967741163  0.1080906147787815

  0.00000000E+00  0.00000000E+00  0.00000000E+00
  0.00000000E+00  0.00000000E+00  0.00000000E+00
  0.00000000E+00  0.00000000E+00  0.00000000E+00
  0.00000000E+00  0.00000000E+00  0.00000000E+00
  0.00000000E+00  0.00000000E+00  0.00000000E+00
  0.00000000E+00  0.00000000E+00  0.00000000E+00
  0.00000000E+00  0.00000000E+00  0.00000000E+00
  0.00000000E+00  0.00000000E+00  0.00000000E+00
  0.00000000E+00  0.00000000E+00  0.00000000E+00
  0.00000000E+00  0.00000000E+00  0.00000000E+00
  0.00000000E+00  0.00000000E+00  0.00000000E+00
  0.00000000E+00  0.00000000E+00  0.00000000E+00
  0.00000000E+00  0.00000000E+00  0.00000000E+00
  0.00000000E+00  0.00000000E+00  0.00000000E+00
  0.00000000E+00  0.00000000E+00  0.00000000E+00
  0.00000000E+00  0.00000000E+00  0.00000000E+00
  0.00000000E+00  0.00000000E+00  0.00000000E+00
  0.00000000E+00  0.00000000E+00  0.00000000E+00
  0.00000000E+00  0.00000000E+00  0.00000000E+00
  0.00000000E+00  0.00000000E+00  0.00000000E+00
  0.00000000E+00  0.00000000E+00  0.00000000E+00
  0.00000000E+00  0.00000000E+00  0.00000000E+00
  0.00000000E+00  0.00000000E+00  0.00000000E+00
  0.00000000E+00  0.00000000E+00  0.00000000E+00
  0.00000000E+00  0.00000000E+00  0.00000000E+00
  0.00000000E+00  0.00000000E+00  0.00000000E+00
  0.00000000E+00  0.00000000E+00  0.00000000E+00
  0.00000000E+00  0.00000000E+00  0.00000000E+00
