Mg2 Al2 Cl10                            
   1.0000000000000000     
     4.2828332938134430   -0.0000000000000001    0.0000000000000003
    -0.0000000000000008   10.7208792990598951    0.0000000000000009
     0.0000000000000001    0.0000000000000003   11.0546955551831907
   Mg   Al   Cl
     2     2    10
Direct
  0.0000000000000000  0.0000000000000000  0.5000000000000000
  0.5000000000000000  0.5000000000000000  0.0000000000000000
  0.5000000000000000  0.0000000000000000  0.0000000000000000
  0.0000000000000000  0.5000000000000000  0.5000000000000000
  0.5000000000000000  0.8543848144160364  0.5000000000000000
  0.5000000000000000  0.1456151855839636  0.5000000000000000
  0.5000000000000000  0.0000000000000000  0.1949780699498547
  0.5000000000000000  0.0000000000000000  0.8050219300501453
  0.0000000000000000  0.0000000000000000  0.0000000000000000
  0.0000000000000000  0.3543848144160364  0.0000000000000000
  0.0000000000000000  0.6456151855839636  0.0000000000000000
  0.0000000000000000  0.5000000000000000  0.6949780699498547
  0.0000000000000000  0.5000000000000000  0.3050219300501453
  0.5000000000000000  0.5000000000000000  0.5000000000000000

  0.00000000E+00  0.00000000E+00  0.00000000E+00
  0.00000000E+00  0.00000000E+00  0.00000000E+00
  0.00000000E+00  0.00000000E+00  0.00000000E+00
  0.00000000E+00  0.00000000E+00  0.00000000E+00
  0.00000000E+00  0.00000000E+00  0.00000000E+00
  0.00000000E+00  0.00000000E+00  0.00000000E+00
  0.00000000E+00  0.00000000E+00  0.00000000E+00
  0.00000000E+00  0.00000000E+00  0.00000000E+00
  0.00000000E+00  0.00000000E+00  0.00000000E+00
  0.00000000E+00  0.00000000E+00  0.00000000E+00
  0.00000000E+00  0.00000000E+00  0.00000000E+00
  0.00000000E+00  0.00000000E+00  0.00000000E+00
  0.00000000E+00  0.00000000E+00  0.00000000E+00
  0.00000000E+00  0.00000000E+00  0.00000000E+00
