Sr1 Ga2 I6                              
   1.00000000000000     
     4.5170875431449717    1.6539907511234695    8.4603790476467040
    -4.5170875431449726    1.6539907511234690    8.4603790476467058
    -0.0000000000000012   -4.0323387112627369    8.4274020829617271
   Sr   I    Ga
     1     6     2
Direct
  0.0000000000000000  0.0000000000000000  0.0000000000000000
  0.6966368921391251  0.6966368921391251  0.3331598656545509
  0.7985732932849672  0.2888248036601908  0.1909011186205021
  0.2888248036601908  0.7985732932849672  0.1909011186205021
  0.3033631078608749  0.3033631078608749  0.6668401343454491
  0.7111751963398092  0.2014267067150328  0.8090988813794979
  0.2014267067150328  0.7111751963398092  0.8090988813794979
  0.2027570426655458  0.2027570426655458  0.1302309874166738
  0.7972429573344542  0.7972429573344542  0.8697690125833262
 
  0.00000000E+00  0.00000000E+00  0.00000000E+00
  0.00000000E+00  0.00000000E+00  0.00000000E+00
  0.00000000E+00  0.00000000E+00  0.00000000E+00
  0.00000000E+00  0.00000000E+00  0.00000000E+00
  0.00000000E+00  0.00000000E+00  0.00000000E+00
  0.00000000E+00  0.00000000E+00  0.00000000E+00
  0.00000000E+00  0.00000000E+00  0.00000000E+00
  0.00000000E+00  0.00000000E+00  0.00000000E+00
  0.00000000E+00  0.00000000E+00  0.00000000E+00
