Ca4                                     
   1.00000000000000     
    -3.1955600379571223   -3.1971083964454552   -0.0000000000000001
    -3.1955600379571223    3.1971083964454552    0.0000000000000001
     0.0000000000000000   -0.0000000000000001   -8.2469973171048494
   Ca
     4
Direct
  0.7497266585573144  0.2502733414426856  0.3749668356250666
  0.2502733414426856  0.7497266585573144  0.6250331643749334
  0.7502733414426856  0.2497266585573144  0.8749668356250666
  0.2497266585573144  0.7502733414426856  0.1250331643749334
 
  0.00000000E+00  0.00000000E+00  0.00000000E+00
  0.00000000E+00  0.00000000E+00  0.00000000E+00
  0.00000000E+00  0.00000000E+00  0.00000000E+00
  0.00000000E+00  0.00000000E+00  0.00000000E+00
