Ba1 B3 Br6                              
   1.00000000000000     
     7.1904295840075161   -0.4941236489349601    0.2575996808843658
    -0.4941236489349599    7.1904295840075143    0.2575996808843649
     3.3107038090251684    3.3107038090251666    8.1988965790907624
   Br   Ba   B 
     6     1     3
Direct
  0.7094800794592686  0.2905199205407314  0.0000000000000000
  0.3955003156607901  0.3955003156607901  0.8215522986062922
  0.2905199205407314  0.7094800794592686  0.0000000000000000
  0.6044996843392099  0.6044996843392099  0.1784477013937078
  0.8679140706721142  0.8679140706721142  0.4323309734484653
  0.1320859293278858  0.1320859293278858  0.5676690265515418
  0.0000000000000000  0.0000000000000000  0.0000000000000000
  0.5000000000000000  0.5000000000000000  0.0000000000000000
  0.1410596508313233  0.8589403491686696  0.5000000000000000
  0.8589403491686696  0.1410596508313233  0.5000000000000000
 
  0.00000000E+00  0.00000000E+00  0.00000000E+00
  0.00000000E+00  0.00000000E+00  0.00000000E+00
  0.00000000E+00  0.00000000E+00  0.00000000E+00
  0.00000000E+00  0.00000000E+00  0.00000000E+00
  0.00000000E+00  0.00000000E+00  0.00000000E+00
  0.00000000E+00  0.00000000E+00  0.00000000E+00
  0.00000000E+00  0.00000000E+00  0.00000000E+00
  0.00000000E+00  0.00000000E+00  0.00000000E+00
  0.00000000E+00  0.00000000E+00  0.00000000E+00
  0.00000000E+00  0.00000000E+00  0.00000000E+00
