Mg4 Tl4 F20                             
   1.0000000000000000     
     4.7534559046443325   -0.0000000000000000    0.0000000000000003
    -0.0000000000000003    5.3237648266614217    0.0000000000000003
     0.0000000000000000   -0.0000000000000000   13.5477596542584902
   Mg   Tl   F 
     4     4    20
Direct
  0.6723650955769216  0.6567943213817102  0.5896673793454639
  0.1723650955769216  0.8432056786182898  0.4103326206545361
  0.3276349044230713  0.1567943213817102  0.9103326206545361
  0.8276349044230784  0.3432056786182969  0.0896673793454639
  0.2345814162169901  0.1235636624292908  0.6674794086247005
  0.7345814162169901  0.3764363375707092  0.3325205913752995
  0.7654185837830099  0.6235636624292908  0.8325205913752995
  0.2654185837830028  0.8764363375707092  0.1674794086247005
  0.8604080968623435  0.6320414507541798  0.4635429589741449
  0.3604080968623435  0.8679585492458202  0.5364570410258551
  0.1395919031376565  0.1320414507541798  0.0364570410258551
  0.6395919031376565  0.3679585492458202  0.9635429589741449
  0.3429034521371719  0.5168791456804627  0.3777998390453661
  0.8429034521371719  0.9831208543195373  0.6222001609546268
  0.6570965478628281  0.0168791456804627  0.1222001609546268
  0.1570965478628281  0.4831208543195373  0.8777998390453590
  0.9493407313492881  0.4915295155232613  0.6825000891673909
  0.4493407313492881  0.0084704844767387  0.3174999108326020
  0.0506592686507119  0.9915295155232613  0.8174999108326091
  0.5506592686507190  0.5084704844767387  0.1825000891673980
  0.4635329440743305  0.7382745920823481  0.7179253360384479
  0.9635329440743305  0.7617254079176519  0.2820746639615592
  0.5364670559256695  0.2382745920823481  0.7820746639615521
  0.0364670559256695  0.2617254079176590  0.2179253360384408
  0.4469196562512181  0.3618323487957937  0.5677465033204570
  0.9469196562512181  0.1381676512042063  0.4322534966795430
  0.5530803437487819  0.8618323487957937  0.9322534966795430
  0.0530803437487819  0.6381676512042063  0.0677465033204570

  0.00000000E+00  0.00000000E+00  0.00000000E+00
  0.00000000E+00  0.00000000E+00  0.00000000E+00
  0.00000000E+00  0.00000000E+00  0.00000000E+00
  0.00000000E+00  0.00000000E+00  0.00000000E+00
  0.00000000E+00  0.00000000E+00  0.00000000E+00
  0.00000000E+00  0.00000000E+00  0.00000000E+00
  0.00000000E+00  0.00000000E+00  0.00000000E+00
  0.00000000E+00  0.00000000E+00  0.00000000E+00
  0.00000000E+00  0.00000000E+00  0.00000000E+00
  0.00000000E+00  0.00000000E+00  0.00000000E+00
  0.00000000E+00  0.00000000E+00  0.00000000E+00
  0.00000000E+00  0.00000000E+00  0.00000000E+00
  0.00000000E+00  0.00000000E+00  0.00000000E+00
  0.00000000E+00  0.00000000E+00  0.00000000E+00
  0.00000000E+00  0.00000000E+00  0.00000000E+00
  0.00000000E+00  0.00000000E+00  0.00000000E+00
  0.00000000E+00  0.00000000E+00  0.00000000E+00
  0.00000000E+00  0.00000000E+00  0.00000000E+00
  0.00000000E+00  0.00000000E+00  0.00000000E+00
  0.00000000E+00  0.00000000E+00  0.00000000E+00
  0.00000000E+00  0.00000000E+00  0.00000000E+00
  0.00000000E+00  0.00000000E+00  0.00000000E+00
  0.00000000E+00  0.00000000E+00  0.00000000E+00
  0.00000000E+00  0.00000000E+00  0.00000000E+00
  0.00000000E+00  0.00000000E+00  0.00000000E+00
  0.00000000E+00  0.00000000E+00  0.00000000E+00
  0.00000000E+00  0.00000000E+00  0.00000000E+00
  0.00000000E+00  0.00000000E+00  0.00000000E+00
