Sr2 Tl2 Cl10                            
   1.00000000000000     
    11.1650542999463216    5.1325505613735185    1.5158251832491756
     7.4545258907506176    9.7689070720039997    1.5158250830762212
    -1.3151024301066359   -1.0524892956039125   14.2243128654863131
   Sr   Tl   Cl
     2     2    10
Direct
  0.4973168803121339  0.5026830926071426  0.2500000278768724
  0.5026831196878661  0.4973169073928574  0.7499999721231276
  0.0000000000000000  0.0000000000000000  0.5000000000000000
  0.0000000000000000  0.0000000000000000  0.0000000000000000
  0.6172688519405582  0.6061503081575879  0.6878536457930551
  0.3938496561319056  0.3827301661148397  0.8121463718738653
  0.3827301480594443  0.3938496918424121  0.3121473542069495
  0.6061503438680944  0.6172688338851628  0.1878536281261347
  0.0035705360397600  0.9964294681127157  0.7499999963121766
  0.9964294639602400  0.0035705318872772  0.2500000036878234
  0.5380157291620122  0.5391814449474595  0.0547008225344499
  0.4608185463852266  0.4619843035176672  0.4452991550648591
  0.4619842708379878  0.4608185550525334  0.9452991774655501
  0.5391814536147734  0.5380156964823328  0.5547008449351409
 
  0.00000000E+00  0.00000000E+00  0.00000000E+00
  0.00000000E+00  0.00000000E+00  0.00000000E+00
  0.00000000E+00  0.00000000E+00  0.00000000E+00
  0.00000000E+00  0.00000000E+00  0.00000000E+00
  0.00000000E+00  0.00000000E+00  0.00000000E+00
  0.00000000E+00  0.00000000E+00  0.00000000E+00
  0.00000000E+00  0.00000000E+00  0.00000000E+00
  0.00000000E+00  0.00000000E+00  0.00000000E+00
  0.00000000E+00  0.00000000E+00  0.00000000E+00
  0.00000000E+00  0.00000000E+00  0.00000000E+00
  0.00000000E+00  0.00000000E+00  0.00000000E+00
  0.00000000E+00  0.00000000E+00  0.00000000E+00
  0.00000000E+00  0.00000000E+00  0.00000000E+00
  0.00000000E+00  0.00000000E+00  0.00000000E+00
