BaI2                                    
   1.00000000000000     
     2.9604901116476281    1.7096276482045563    4.8341326279592804
    -2.9604901116476281    1.7096276482045563    4.8341326279592804
     0.0000000000000000   -3.4173982013110478    4.8338305550699356
   Ba   I 
     1     2
Direct
  0.0000000000000000  0.0000000000000000  0.0000000000000000
  0.2499961569418687  0.2499961569418687  0.2500082420980547
  0.7500038430581313  0.7500038430581313  0.7499917579019453
 
  0.00000000E+00  0.00000000E+00  0.00000000E+00
  0.00000000E+00  0.00000000E+00  0.00000000E+00
  0.00000000E+00  0.00000000E+00  0.00000000E+00
