Al2Cl3                                  
   1.00000000000000     
    -6.0175433755766488   -0.3185193894278442   -0.1521820313871098
     2.7459844364326162   -7.9197820852555907    0.3367549862101026
    -2.8845099570222428    2.4019900276002399    5.9949992180226088
   Al   Cl
     4     6
Direct
  0.3142095095056945  0.7465382490466794  0.0444342062364029
  0.6499338769117031  0.3527887926067024  0.0723698845899818
  0.8221355925602865  0.0912737016532574  0.7323704497479611
  0.2194914892130200  0.0009892248137930  0.4183226588146667
  0.4414167692634621  0.4786670848870855  0.9677124676126638
  0.8284220837592571  0.5547313497462483  0.3007271372470441
  0.3076796560170649  0.2458570106974136  0.3029981603073466
  0.7024011635462131  0.8624540745063030  0.8649850533385433
  0.1398099283860077  0.6459316695654564  0.7942082805090820
  0.5744999308372982  0.0207688424770751  0.5021817015962995
 
  0.00000000E+00  0.00000000E+00  0.00000000E+00
  0.00000000E+00  0.00000000E+00  0.00000000E+00
  0.00000000E+00  0.00000000E+00  0.00000000E+00
  0.00000000E+00  0.00000000E+00  0.00000000E+00
  0.00000000E+00  0.00000000E+00  0.00000000E+00
  0.00000000E+00  0.00000000E+00  0.00000000E+00
  0.00000000E+00  0.00000000E+00  0.00000000E+00
  0.00000000E+00  0.00000000E+00  0.00000000E+00
  0.00000000E+00  0.00000000E+00  0.00000000E+00
  0.00000000E+00  0.00000000E+00  0.00000000E+00
