Ca4 Tl10 I2                             
   1.0000000000000000     
    11.8818354686272709   -0.1270694668472692    0.3522834755678448
    -6.1164671088218867    6.9718424886425261   -0.7007428648087166
    -5.7190592341066218   -2.7579074261360099    6.6298415488795612
   I    Ca   Tl
     2     4    10
Direct
  0.0280765553303510  0.2037692034042493  0.3477977173569329
  0.9719723254397437  0.7962187114784598  0.6522072983006595
  0.7978276218561930  0.7241858191099482  0.2106776354928144
  0.5398541417434046  0.2825587074602822  0.4104130514429940
  0.4601380013959968  0.7174145239849139  0.5895251712326441
  0.2021629955442492  0.2757829965441587  0.7893011041987421
  0.0000248329604844  0.0000085024434497  0.0000322096942114
  0.4606579033618345  0.7821277707223828  0.9515008496441340
  0.0541399631687796  0.6778154520626316  0.1717932754746130
  0.4309990025494699  0.5406237207013831  0.2505205449942665
  0.4817928919101817  0.9143554750641698  0.2754533899524603
  0.9999762841497386  0.4999599730503945  0.4999938170726352
  0.5181376316308786  0.0855618670927498  0.7244445214704811
  0.5690122730845601  0.4593517391232638  0.7494524611671167
  0.9458694298262884  0.3222061181437468  0.8282288946348260
  0.5393581460477890  0.2178594196138164  0.0484580578704694

  0.00000000E+00  0.00000000E+00  0.00000000E+00
  0.00000000E+00  0.00000000E+00  0.00000000E+00
  0.00000000E+00  0.00000000E+00  0.00000000E+00
  0.00000000E+00  0.00000000E+00  0.00000000E+00
  0.00000000E+00  0.00000000E+00  0.00000000E+00
  0.00000000E+00  0.00000000E+00  0.00000000E+00
  0.00000000E+00  0.00000000E+00  0.00000000E+00
  0.00000000E+00  0.00000000E+00  0.00000000E+00
  0.00000000E+00  0.00000000E+00  0.00000000E+00
  0.00000000E+00  0.00000000E+00  0.00000000E+00
  0.00000000E+00  0.00000000E+00  0.00000000E+00
  0.00000000E+00  0.00000000E+00  0.00000000E+00
  0.00000000E+00  0.00000000E+00  0.00000000E+00
  0.00000000E+00  0.00000000E+00  0.00000000E+00
  0.00000000E+00  0.00000000E+00  0.00000000E+00
  0.00000000E+00  0.00000000E+00  0.00000000E+00
