Sr4 Cl2                                 
   1.00000000000000     
     7.4986232869791145    0.0000000000000000    0.0000000000000000
     0.0000000000000000    7.4986232869791145    0.0000000000000000
     0.0000000000000000    0.0000000000000000    4.3716629812801315
   Sr   Cl
     4     2
Direct
  0.2804555424204764  0.2804555424204764  0.0000000000000000
  0.7195444575795236  0.7195444575795236  0.0000000000000000
  0.7804555424204764  0.2195444575795236  0.5000000000000000
  0.2195444575795236  0.7804555424204764  0.5000000000000000
  0.0000000000000000  0.0000000000000000  0.0000000000000000
  0.5000000000000000  0.5000000000000000  0.5000000000000000
 
  0.00000000E+00  0.00000000E+00  0.00000000E+00
  0.00000000E+00  0.00000000E+00  0.00000000E+00
  0.00000000E+00  0.00000000E+00  0.00000000E+00
  0.00000000E+00  0.00000000E+00  0.00000000E+00
  0.00000000E+00  0.00000000E+00  0.00000000E+00
  0.00000000E+00  0.00000000E+00  0.00000000E+00
