Ba3 Al11                                
   1.00000000000000     
     4.6117347158841007   -0.0000000703336835    0.0000000000000000
    -2.3058676962076730   -5.2825676667130326    6.8403455222770324
    -2.3058676962076730   -5.2825676667130326   -6.8403455222770324
   Al   Ba
    11     3
Direct
  0.3645566390319104  0.7012325822758427  0.0278806957393911
  0.2742340966958068  0.4140417158619627  0.1344264775068211
  0.6354433609680896  0.9721193042606089  0.2987674177241573
  0.7828815113455505  0.2828815113201415  0.2828815113201415
  0.2742340966958068  0.1344264775068211  0.4140417158619627
  0.5000000000000000  0.5000000000000000  0.5000000000000000
  0.7257659033041932  0.8655735224931789  0.5859582841380373
  0.2171184886544495  0.7171184886798585  0.7171184886798585
  0.3645566390319104  0.0278806957393911  0.7012325822758427
  0.7257659033041932  0.5859582841380373  0.8655735224931789
  0.6354433609680896  0.2987674177241573  0.9721193042606089
  0.0000000000000000  0.0000000000000000  0.0000000000000000
  0.0000000000000000  0.6874065819950914  0.3125934180049086
  0.0000000000000000  0.3125934180049086  0.6874065819950914
 
  0.00000000E+00  0.00000000E+00  0.00000000E+00
  0.00000000E+00  0.00000000E+00  0.00000000E+00
  0.00000000E+00  0.00000000E+00  0.00000000E+00
  0.00000000E+00  0.00000000E+00  0.00000000E+00
  0.00000000E+00  0.00000000E+00  0.00000000E+00
  0.00000000E+00  0.00000000E+00  0.00000000E+00
  0.00000000E+00  0.00000000E+00  0.00000000E+00
  0.00000000E+00  0.00000000E+00  0.00000000E+00
  0.00000000E+00  0.00000000E+00  0.00000000E+00
  0.00000000E+00  0.00000000E+00  0.00000000E+00
  0.00000000E+00  0.00000000E+00  0.00000000E+00
  0.00000000E+00  0.00000000E+00  0.00000000E+00
  0.00000000E+00  0.00000000E+00  0.00000000E+00
  0.00000000E+00  0.00000000E+00  0.00000000E+00
