Be13 In16                               
   1.00000000000000     
    -5.1948761688459468   -5.1948761688459442    5.1948761688459459
    -5.1948761688459468    5.1948761688459442   -5.1948761688459468
     5.1948761688459459   -5.1948761688459459   -5.1948761688459477
   In   Be
    16    13
Direct
  0.7401725732403932  0.0000000000000000  0.0000000000000000
  0.5301883487311159  0.2106716238980368  0.0000000000000000
  0.2106716238980368  0.5301883487311159  0.0000000000000000
  0.0000000000000000  0.7401725732403932  0.0000000000000000
  0.7893283761019632  0.7893283761019632  0.3195167248330790
  0.5301883487311159  0.0000000000000000  0.2106716238980368
  0.0000000000000000  0.5301883487311159  0.2106716238980368
  0.2598274267596068  0.2598274267596068  0.2598274267596068
  0.2106716238980368  0.0000000000000000  0.5301883487311159
  0.0000000000000000  0.2106716238980368  0.5301883487311159
  0.6804832751669210  0.4698116512688841  0.4698116512688841
  0.4698116512688841  0.6804832751669210  0.4698116512688841
  0.0000000000000000  0.0000000000000000  0.7401725732403932
  0.7893283761019632  0.3195167248330790  0.7893283761019632
  0.3195167248330790  0.7893283761019632  0.7893283761019632
  0.4698116512688841  0.4698116512688841  0.6804832751669210
  0.0000000000000000  0.0000000000000000  0.0000000000000000
  0.6658199718923967  0.5171621457056546  0.0000000000000000
  0.5171621457056546  0.6658199718923967  0.0000000000000000
  0.4828378542943383  0.4828378542943383  0.1486578261867493
  0.8513421738132507  0.3341800281076033  0.3341800281076033
  0.3341800281076033  0.8513421738132507  0.3341800281076033
  0.6658199718923967  0.0000000000000000  0.5171621457056546
  0.0000000000000000  0.6658199718923967  0.5171621457056546
  0.4828378542943383  0.1486578261867493  0.4828378542943383
  0.1486578261867493  0.4828378542943383  0.4828378542943383
  0.5171621457056546  0.0000000000000000  0.6658199718923967
  0.0000000000000000  0.5171621457056546  0.6658199718923967
  0.3341800281076033  0.3341800281076033  0.8513421738132507
 
  0.00000000E+00  0.00000000E+00  0.00000000E+00
  0.00000000E+00  0.00000000E+00  0.00000000E+00
  0.00000000E+00  0.00000000E+00  0.00000000E+00
  0.00000000E+00  0.00000000E+00  0.00000000E+00
  0.00000000E+00  0.00000000E+00  0.00000000E+00
  0.00000000E+00  0.00000000E+00  0.00000000E+00
  0.00000000E+00  0.00000000E+00  0.00000000E+00
  0.00000000E+00  0.00000000E+00  0.00000000E+00
  0.00000000E+00  0.00000000E+00  0.00000000E+00
  0.00000000E+00  0.00000000E+00  0.00000000E+00
  0.00000000E+00  0.00000000E+00  0.00000000E+00
  0.00000000E+00  0.00000000E+00  0.00000000E+00
  0.00000000E+00  0.00000000E+00  0.00000000E+00
  0.00000000E+00  0.00000000E+00  0.00000000E+00
  0.00000000E+00  0.00000000E+00  0.00000000E+00
  0.00000000E+00  0.00000000E+00  0.00000000E+00
  0.00000000E+00  0.00000000E+00  0.00000000E+00
  0.00000000E+00  0.00000000E+00  0.00000000E+00
  0.00000000E+00  0.00000000E+00  0.00000000E+00
  0.00000000E+00  0.00000000E+00  0.00000000E+00
  0.00000000E+00  0.00000000E+00  0.00000000E+00
  0.00000000E+00  0.00000000E+00  0.00000000E+00
  0.00000000E+00  0.00000000E+00  0.00000000E+00
  0.00000000E+00  0.00000000E+00  0.00000000E+00
  0.00000000E+00  0.00000000E+00  0.00000000E+00
  0.00000000E+00  0.00000000E+00  0.00000000E+00
  0.00000000E+00  0.00000000E+00  0.00000000E+00
  0.00000000E+00  0.00000000E+00  0.00000000E+00
  0.00000000E+00  0.00000000E+00  0.00000000E+00
