BeIn                                    
   1.00000000000000     
     1.5968636595651082    0.9220606295832655    3.9588703510138887
    -1.5968636595651082    0.9220606295832655    3.9588703510138887
     0.0000000000000000   -1.8438346202693749    3.9588039028000246
   Be   In
     1     1
Direct
  0.0000000000000000  0.0000000000000000  0.0000000000000000
  0.5000000000000000  0.5000000000000000  0.5000000000000000
 
  0.00000000E+00  0.00000000E+00  0.00000000E+00
  0.00000000E+00  0.00000000E+00  0.00000000E+00
