Be4 Al4 Cl2                             
   1.00000000000000     
     4.5038614800474157    0.7497969003544681   -0.0001503350628651
    -1.4793372205569166    2.6278555960779424    0.0015700519386949
     0.0016894541581471   -0.0065330215770704   13.3046043090807142
   Al   Cl   Be
     4     2     4
Direct
  0.2802136361985390  0.6434625302007504  0.0431299065391926
  0.2858382764136564  0.6449506098491966  0.4567815773468809
  0.7197888629011828  0.3565551770540907  0.5431072576846248
  0.7141931328783357  0.3550627103273740  0.9567969075194966
  0.7079078692422698  0.8489234299620421  0.2502410265085402
  0.2920123365006972  0.1510167591019851  0.7502426084144815
  0.8458896699892975  0.9241166060977548  0.1042867945444570
  0.8517288871162876  0.9259710151711715  0.3956893698044297
  0.1541059179855253  0.0758987480121363  0.6042793045263437
  0.1483214107742157  0.0740424142234986  0.8957252471115567
 
  0.00000000E+00  0.00000000E+00  0.00000000E+00
  0.00000000E+00  0.00000000E+00  0.00000000E+00
  0.00000000E+00  0.00000000E+00  0.00000000E+00
  0.00000000E+00  0.00000000E+00  0.00000000E+00
  0.00000000E+00  0.00000000E+00  0.00000000E+00
  0.00000000E+00  0.00000000E+00  0.00000000E+00
  0.00000000E+00  0.00000000E+00  0.00000000E+00
  0.00000000E+00  0.00000000E+00  0.00000000E+00
  0.00000000E+00  0.00000000E+00  0.00000000E+00
  0.00000000E+00  0.00000000E+00  0.00000000E+00
