Ba2Br3                                  
   1.00000000000000     
    -9.0226958551747973   -0.0708024557387148    0.0393636347629961
     4.4572539893705088   -7.8508675113727788   -0.0790352105502296
    -4.6112381165996741    2.6793179904146798    5.9186243050218676
   Ba   Br
     4     6
Direct
  0.6344843530029678  0.3731178620394076  0.1078006094756745
  0.8724054572406246  0.1330001818423483  0.3934113669655801
  0.1276982698300131  0.8670562592003606  0.6065327518776513
  0.3655728338361612  0.6269324265699368  0.8921734711755462
  0.9547968622991192  0.4495903053404717  0.2464280557720713
  0.5561994621869317  0.7564587875335178  0.2319627459579152
  0.2572951265310763  0.0601168301743371  0.2707797302115367
  0.7427868603718650  0.9399793033782871  0.7292073884062376
  0.4438940216628424  0.2436494562481073  0.7680207001933468
  0.0452667530384190  0.5504985876732249  0.7535831799644583
 
  0.00000000E+00  0.00000000E+00  0.00000000E+00
  0.00000000E+00  0.00000000E+00  0.00000000E+00
  0.00000000E+00  0.00000000E+00  0.00000000E+00
  0.00000000E+00  0.00000000E+00  0.00000000E+00
  0.00000000E+00  0.00000000E+00  0.00000000E+00
  0.00000000E+00  0.00000000E+00  0.00000000E+00
  0.00000000E+00  0.00000000E+00  0.00000000E+00
  0.00000000E+00  0.00000000E+00  0.00000000E+00
  0.00000000E+00  0.00000000E+00  0.00000000E+00
  0.00000000E+00  0.00000000E+00  0.00000000E+00
