Ba1 Tl2 F4                              
   1.0000000000000000     
    -2.5194125257604458    2.5194125257604458    6.9085257512621441
     2.5194125257604458   -2.5194125257604458    6.9085257512621441
     2.5194125257604458    2.5194125257604458   -6.9085257512621441
   Ba   F    Tl
     1     4     2
Direct
  0.0000000000000000  0.0000000000000000  0.0000000000000000
  0.1862763329088466  0.1862763329088466  0.0000000000000000
  0.8137236670911534  0.8137236670911534  0.0000000000000000
  0.5000000000000000  0.0000000000000000  0.5000000000000000
  0.0000000000000000  0.5000000000000000  0.5000000000000000
  0.3574320223561145  0.3574320223561145  0.0000000000000000
  0.6425679776438855  0.6425679776438855  0.0000000000000000

  0.00000000E+00  0.00000000E+00  0.00000000E+00
  0.00000000E+00  0.00000000E+00  0.00000000E+00
  0.00000000E+00  0.00000000E+00  0.00000000E+00
  0.00000000E+00  0.00000000E+00  0.00000000E+00
  0.00000000E+00  0.00000000E+00  0.00000000E+00
  0.00000000E+00  0.00000000E+00  0.00000000E+00
  0.00000000E+00  0.00000000E+00  0.00000000E+00
