Mg10 In6                                
   1.00000000000000     
     8.5188169693565392   -0.0028863426506730    0.0000000000000000
    -4.2614621669076502    7.3762018198518930    0.0000000000000000
     0.0000000000000000    0.0000000000000000    6.1191118308315975
   Mg   In
    10     6
Direct
  0.6665902636216643  0.3334467053377921  0.0000028094155553
  0.3334097363783357  0.6665532946622079  0.9999971905844447
  0.2331221028600723  0.0000263684112909  0.2500000000000000
  0.0000000556550717  0.2331169601678980  0.2500000000000000
  0.7669607081514940  0.7669731151177359  0.2500000000000000
  0.6665902636216643  0.3334467053377921  0.4999971905844447
  0.3334097363783357  0.6665532946622079  0.5000028094155553
  0.7668778971399277  0.9999736315887091  0.7500000000000000
  0.2330392918485060  0.2330268848822641  0.7500000000000000
  0.9999999443449283  0.7668830398321020  0.7500000000000000
  0.6023993465755950  0.0000935729600258  0.2500000000000000
  0.3975398107840675  0.3975398302788591  0.2500000000000000
  0.0001067592558570  0.6024425102628612  0.2500000000000000
  0.3976006534244050  0.9999064270399742  0.7500000000000000
  0.9998932407441430  0.3975574897371388  0.7500000000000000
  0.6024601892159325  0.6024601697211409  0.7500000000000000
 
  0.00000000E+00  0.00000000E+00  0.00000000E+00
  0.00000000E+00  0.00000000E+00  0.00000000E+00
  0.00000000E+00  0.00000000E+00  0.00000000E+00
  0.00000000E+00  0.00000000E+00  0.00000000E+00
  0.00000000E+00  0.00000000E+00  0.00000000E+00
  0.00000000E+00  0.00000000E+00  0.00000000E+00
  0.00000000E+00  0.00000000E+00  0.00000000E+00
  0.00000000E+00  0.00000000E+00  0.00000000E+00
  0.00000000E+00  0.00000000E+00  0.00000000E+00
  0.00000000E+00  0.00000000E+00  0.00000000E+00
  0.00000000E+00  0.00000000E+00  0.00000000E+00
  0.00000000E+00  0.00000000E+00  0.00000000E+00
  0.00000000E+00  0.00000000E+00  0.00000000E+00
  0.00000000E+00  0.00000000E+00  0.00000000E+00
  0.00000000E+00  0.00000000E+00  0.00000000E+00
  0.00000000E+00  0.00000000E+00  0.00000000E+00
