Ca22 In14                               
   1.00000000000000     
    -8.4354364006080225    8.4353183365637481   -0.0001244375501563
     8.4353112968624018    0.0000000000000000   -8.4354800938401571
    -8.4354364006080225   -8.4353183365637481   -0.0001244375501563
   Ca   In
    22    14
Direct
  0.9999860090178601  0.0000061589255083  0.9999860090178601
  0.3852840749930948  0.2568916309620946  0.1284388815169635
  0.8716031268845867  0.2568928109885391  0.1284433381352699
  0.8715478907232068  0.7431334822114053  0.1283859936018885
  0.5000079454723974  0.0000404973392065  0.1674197207786321
  0.1673914245301589  0.6674280974419275  0.1673914245301589
  0.4999814029115441  0.6674308949252179  0.1673849706834289
  0.1284388815169635  0.2568916309620946  0.3852840749930948
  0.1674197207786321  0.0000404973392065  0.5000079454723974
  0.4999848173425434  0.9999838474319773  0.4999848173425434
  0.8326045901244683  0.9999583286665512  0.4999657198691096
  0.4999922423887568  0.3326128617228505  0.4999922423887568
  0.8326018247372104  0.3325892376189898  0.5000027974472658
  0.1673849706834289  0.6674308949252179  0.4999814029115441
  0.4999894212884968  0.6674072730268250  0.4999894212884968
  0.8715142936644042  0.7430794531516369  0.6146872330748607
  0.4999657198691096  0.9999583286665512  0.8326045901244683
  0.5000027974472658  0.3325892376189898  0.8326018247372104
  0.8325259708339132  0.3325221124879505  0.8325259708339132
  0.1284433381352699  0.2568928109885391  0.8716031268845867
  0.1283859936018885  0.7431334822114053  0.8715478907232068
  0.6146872330748607  0.7430794531516369  0.8715142936644042
  0.6866828445497219  0.3732919734319395  0.0599428250652494
  0.2188545987423183  0.0000267246709100  0.2188545987423183
  0.7811465203679120  0.0000011830495197  0.2188372473230658
  0.2188614966877864  0.4377371473455014  0.2188614966877864
  0.6866941999326244  0.3733214898859671  0.3133281032564099
  0.6865897176537743  0.6266174402104596  0.3132747139720777
  0.9400305017995478  0.6267683289733483  0.3133528327424955
  0.0599428250652494  0.3732919734319395  0.6866828445497219
  0.3133281032564099  0.3733214898859671  0.6866941999326244
  0.3132747139720777  0.6266174402104596  0.6865897176537743
  0.2188372473230658  0.0000011830495197  0.7811465203679120
  0.7811383207671270  0.9999816283635639  0.7811383207671270
  0.7811223871198152  0.5622606457532342  0.7811223871198152
  0.3133528327424955  0.6267683289733483  0.9400305017995478
 
  0.00000000E+00  0.00000000E+00  0.00000000E+00
  0.00000000E+00  0.00000000E+00  0.00000000E+00
  0.00000000E+00  0.00000000E+00  0.00000000E+00
  0.00000000E+00  0.00000000E+00  0.00000000E+00
  0.00000000E+00  0.00000000E+00  0.00000000E+00
  0.00000000E+00  0.00000000E+00  0.00000000E+00
  0.00000000E+00  0.00000000E+00  0.00000000E+00
  0.00000000E+00  0.00000000E+00  0.00000000E+00
  0.00000000E+00  0.00000000E+00  0.00000000E+00
  0.00000000E+00  0.00000000E+00  0.00000000E+00
  0.00000000E+00  0.00000000E+00  0.00000000E+00
  0.00000000E+00  0.00000000E+00  0.00000000E+00
  0.00000000E+00  0.00000000E+00  0.00000000E+00
  0.00000000E+00  0.00000000E+00  0.00000000E+00
  0.00000000E+00  0.00000000E+00  0.00000000E+00
  0.00000000E+00  0.00000000E+00  0.00000000E+00
  0.00000000E+00  0.00000000E+00  0.00000000E+00
  0.00000000E+00  0.00000000E+00  0.00000000E+00
  0.00000000E+00  0.00000000E+00  0.00000000E+00
  0.00000000E+00  0.00000000E+00  0.00000000E+00
  0.00000000E+00  0.00000000E+00  0.00000000E+00
  0.00000000E+00  0.00000000E+00  0.00000000E+00
  0.00000000E+00  0.00000000E+00  0.00000000E+00
  0.00000000E+00  0.00000000E+00  0.00000000E+00
  0.00000000E+00  0.00000000E+00  0.00000000E+00
  0.00000000E+00  0.00000000E+00  0.00000000E+00
  0.00000000E+00  0.00000000E+00  0.00000000E+00
  0.00000000E+00  0.00000000E+00  0.00000000E+00
  0.00000000E+00  0.00000000E+00  0.00000000E+00
  0.00000000E+00  0.00000000E+00  0.00000000E+00
  0.00000000E+00  0.00000000E+00  0.00000000E+00
  0.00000000E+00  0.00000000E+00  0.00000000E+00
  0.00000000E+00  0.00000000E+00  0.00000000E+00
  0.00000000E+00  0.00000000E+00  0.00000000E+00
  0.00000000E+00  0.00000000E+00  0.00000000E+00
  0.00000000E+00  0.00000000E+00  0.00000000E+00
