Sr2 In2 I6                              
   1.0000000000000000     
    -4.7704128469646934    0.0020878615084224   -0.0000383275746493
    -2.3886474341064572    7.7979898288067320   -0.0011373609795184
    -0.0002410231528383    0.0020188858976276  -12.0377466168358289
   I    Sr   In
     6     2     2
Direct
  0.1387940013209601  0.7216805023070876  0.0597276333290182
  0.4141840493405269  0.1736660214568602  0.2499709953146052
  0.1387930402650781  0.7216989677369341  0.4405955726468775
  0.8611304072919808  0.2783326724372444  0.5594828967573306
  0.5861682708969127  0.8262866533563837  0.7499907983847720
  0.8611595273996571  0.2781820344718184  0.9404653203525086
  0.4998983384701887  0.0000216035094098  0.0000010462546953
  0.4999127719287486  0.0000749323952292  0.5000201084103821
  0.7571276761443855  0.4897719291860838  0.2501936512888818
  0.2428319169415758  0.5102846831429488  0.7498519772609242

 -0.00000000E+00  0.00000000E+00 -0.00000000E+00
 -0.00000000E+00  0.00000000E+00 -0.00000000E+00
 -0.00000000E+00  0.00000000E+00 -0.00000000E+00
 -0.00000000E+00  0.00000000E+00 -0.00000000E+00
 -0.00000000E+00  0.00000000E+00 -0.00000000E+00
 -0.00000000E+00  0.00000000E+00 -0.00000000E+00
 -0.00000000E+00  0.00000000E+00 -0.00000000E+00
 -0.00000000E+00  0.00000000E+00 -0.00000000E+00
 -0.00000000E+00  0.00000000E+00 -0.00000000E+00
 -0.00000000E+00  0.00000000E+00 -0.00000000E+00
