Br                                      
   1.00000000000000     
    -4.2780648375751031   -2.1340185135091838    0.0000000000000000
    -4.2780648375751031    2.1340185135091838    0.0000000000000000
     0.0000000000000000    0.0000000000000000   -8.7435709527750909
   Br
     4
Direct
  0.1398117129643666  0.8601882870356334  0.1183930324217499
  0.6398117129643666  0.3601882870356334  0.3816069675782501
  0.3601882870356334  0.6398117129643666  0.6183930324217499
  0.8601882870356334  0.1398117129643666  0.8816069675782501
 
  0.00000000E+00  0.00000000E+00  0.00000000E+00
  0.00000000E+00  0.00000000E+00  0.00000000E+00
  0.00000000E+00  0.00000000E+00  0.00000000E+00
  0.00000000E+00  0.00000000E+00  0.00000000E+00
