Be10 B4 Cl32                            
   1.00000000000000     
     4.7357991985675216   -4.7360216525191126    0.0000000000000000
     4.7357991985675216    4.7360216525191126    0.0000000000000000
     0.0000000000000000    0.0000000000000000   28.0760110411223387
   Be   B    Cl
    10     4    32
Direct
  0.0000000000000000  0.0000000000000000  0.7081369879476966
  0.0000000000000000  0.0000000000000000  0.2918630120523034
  0.5000000000000000  0.5000000000000000  0.7918630120523034
  0.5000000000000000  0.5000000000000000  0.2081369879476966
  0.5000000000000000  0.5000000000000000  0.5000000000000000
  0.0000000000000000  0.0000000000000000  0.0000000000000000
  0.0000000000000000  0.5000000000000000  0.7085425963783436
  0.5000000000000000  0.0000000000000000  0.2914574036216564
  0.5000000000000000  0.0000000000000000  0.7914574036216564
  0.0000000000000000  0.5000000000000000  0.2085425963783436
  0.5000000000000000  0.0000000000000000  0.5104607282832703
  0.0000000000000000  0.5000000000000000  0.4895392717167297
  0.0000000000000000  0.5000000000000000  0.9895392717167297
  0.5000000000000000  0.0000000000000000  0.0104607282832703
  0.7241507299184633  0.0000154198552735  0.5437635910701744
  0.2758492700815367  0.9999845801447265  0.5437635910701744
  0.0000154198552735  0.7241507299184633  0.4562364089298185
  0.9999845801447265  0.2758492700815367  0.4562364089298185
  0.7758492700815367  0.4999845801447265  0.9562364089298256
  0.2241507299184633  0.5000154198552735  0.9562364089298256
  0.4999845801447265  0.7758492700815367  0.0437635910701815
  0.5000154198552735  0.2241507299184633  0.0437635910701815
  0.9999844934400812  0.7495931440917403  0.6661192572011316
  0.0000155065599188  0.2504068559082597  0.6661192572011316
  0.7495931440917403  0.9999844934400812  0.3338807427988684
  0.2504068559082597  0.0000155065599188  0.3338807427988684
  0.5000155065599188  0.7504068559082597  0.8338807427988684
  0.4999844934400812  0.2495931440917403  0.8338807427988684
  0.7293717160003084  0.9999935571150758  0.9626684174020497
  0.2706282839996845  0.0000064428849242  0.9626684174020497
  0.9999935571150758  0.7293717160003084  0.0373315825979503
  0.0000064428849242  0.2706282839996845  0.0373315825979503
  0.7706282839996916  0.5000064428849242  0.5373315825979503
  0.2293717160003155  0.4999935571150758  0.5373315825979503
  0.5000064428849242  0.7706282839996916  0.4626684174020497
  0.4999935571150758  0.2293717160003155  0.4626684174020497
  0.9999997187589358  0.7499207272139330  0.2501687054844552
  0.0000002812410642  0.2500792727860670  0.2501687054844552
  0.7499207272139330  0.9999997187589358  0.7498312945155448
  0.2500792727860670  0.0000002812410642  0.7498312945155448
  0.5000002812410642  0.7500792727860670  0.2498312945155448
  0.4999997187589358  0.2499207272139330  0.2498312945155448
  0.7500792727860670  0.5000002812410642  0.7501687054844552
  0.2499207272139330  0.4999997187589358  0.7501687054844552
  0.2495931440917403  0.4999844934400812  0.1661192572011316
  0.7504068559082597  0.5000155065599188  0.1661192572011316
 
  0.00000000E+00  0.00000000E+00  0.00000000E+00
  0.00000000E+00  0.00000000E+00  0.00000000E+00
  0.00000000E+00  0.00000000E+00  0.00000000E+00
  0.00000000E+00  0.00000000E+00  0.00000000E+00
  0.00000000E+00  0.00000000E+00  0.00000000E+00
  0.00000000E+00  0.00000000E+00  0.00000000E+00
  0.00000000E+00  0.00000000E+00  0.00000000E+00
  0.00000000E+00  0.00000000E+00  0.00000000E+00
  0.00000000E+00  0.00000000E+00  0.00000000E+00
  0.00000000E+00  0.00000000E+00  0.00000000E+00
  0.00000000E+00  0.00000000E+00  0.00000000E+00
  0.00000000E+00  0.00000000E+00  0.00000000E+00
  0.00000000E+00  0.00000000E+00  0.00000000E+00
  0.00000000E+00  0.00000000E+00  0.00000000E+00
  0.00000000E+00  0.00000000E+00  0.00000000E+00
  0.00000000E+00  0.00000000E+00  0.00000000E+00
  0.00000000E+00  0.00000000E+00  0.00000000E+00
  0.00000000E+00  0.00000000E+00  0.00000000E+00
  0.00000000E+00  0.00000000E+00  0.00000000E+00
  0.00000000E+00  0.00000000E+00  0.00000000E+00
  0.00000000E+00  0.00000000E+00  0.00000000E+00
  0.00000000E+00  0.00000000E+00  0.00000000E+00
  0.00000000E+00  0.00000000E+00  0.00000000E+00
  0.00000000E+00  0.00000000E+00  0.00000000E+00
  0.00000000E+00  0.00000000E+00  0.00000000E+00
  0.00000000E+00  0.00000000E+00  0.00000000E+00
  0.00000000E+00  0.00000000E+00  0.00000000E+00
  0.00000000E+00  0.00000000E+00  0.00000000E+00
  0.00000000E+00  0.00000000E+00  0.00000000E+00
  0.00000000E+00  0.00000000E+00  0.00000000E+00
  0.00000000E+00  0.00000000E+00  0.00000000E+00
  0.00000000E+00  0.00000000E+00  0.00000000E+00
  0.00000000E+00  0.00000000E+00  0.00000000E+00
  0.00000000E+00  0.00000000E+00  0.00000000E+00
  0.00000000E+00  0.00000000E+00  0.00000000E+00
  0.00000000E+00  0.00000000E+00  0.00000000E+00
  0.00000000E+00  0.00000000E+00  0.00000000E+00
  0.00000000E+00  0.00000000E+00  0.00000000E+00
  0.00000000E+00  0.00000000E+00  0.00000000E+00
  0.00000000E+00  0.00000000E+00  0.00000000E+00
  0.00000000E+00  0.00000000E+00  0.00000000E+00
  0.00000000E+00  0.00000000E+00  0.00000000E+00
  0.00000000E+00  0.00000000E+00  0.00000000E+00
  0.00000000E+00  0.00000000E+00  0.00000000E+00
  0.00000000E+00  0.00000000E+00  0.00000000E+00
  0.00000000E+00  0.00000000E+00  0.00000000E+00
