Be16 Al12 F1                            
   1.00000000000000     
     7.5044069397012114   -4.3493587558020890    2.5283652925642763
    -0.2395146450541340    7.7665261508811980    1.9125953878763888
    -6.8227633768440423   -3.6761223261733784    1.9133177469775811
   Al   F    Be
    12     1    16
Direct
  0.7244303718768137  0.4357718495518270  0.9615162315627330
  0.7035215415780058  0.7831439039903714  0.9717614644665247
  0.4686149765483734  0.5197506186082919  0.3163598044318618
  0.0938177175070933  0.8681303344746851  0.1892515296935073
  0.8163798290439530  0.2485358569613823  0.1864630547842481
  0.4639617826630769  0.3362092310652756  0.5296739396796326
  0.3015954668295038  0.5741322202176562  0.5378482611348261
  0.7505953760442736  0.0142097949422535  0.3794453619578633
  0.8513486129618357  0.6877064323830027  0.4070428485262667
  0.7343998759094106  0.9933597767332856  0.7442224123169652
  0.0034494834547516  0.4829302796513133  0.8408831596839619
  0.1094539338144642  0.1681870157728369  0.8184980254586449
  0.3028513752326845  0.9406688549641729  0.9426421910696519
  0.4781602881948075  0.2109932498616871  0.0164724581946984
  0.3560411432378885  0.6323325798963140  0.0884165974281146
  0.0739571912282244  0.1267995877959223  0.1032941372945047
  0.0967283494876483  0.4114201482748356  0.1217007454541630
  0.4986372756335058  0.4985929458565010  0.0227685857389162
  0.3997331124106296  0.9646741313203080  0.1872560032179678
  0.1059026315166562  0.6840262466978828  0.3856978716839521
  0.0677841401066246  0.1430953254066623  0.3881739332429461
  0.3514570386661617  0.7871208478886729  0.3548135291747414
  0.7345795300270908  0.3785598505917065  0.4655498078928133
  0.4637745767113373  0.0046546531473268  0.7080031279095920
  0.2265132436187116  0.4439726523547662  0.7341968475022469
  0.8278701319787558  0.7402975744556741  0.7253126437256938
  0.6194984703479349  0.1628228483601717  0.5763606470900697
  0.1096811893711660  0.6511305296116845  0.6589360590456366
  0.2644613439986045  0.1067716591635275  0.6374407206372226
 
  0.00000000E+00  0.00000000E+00  0.00000000E+00
  0.00000000E+00  0.00000000E+00  0.00000000E+00
  0.00000000E+00  0.00000000E+00  0.00000000E+00
  0.00000000E+00  0.00000000E+00  0.00000000E+00
  0.00000000E+00  0.00000000E+00  0.00000000E+00
  0.00000000E+00  0.00000000E+00  0.00000000E+00
  0.00000000E+00  0.00000000E+00  0.00000000E+00
  0.00000000E+00  0.00000000E+00  0.00000000E+00
  0.00000000E+00  0.00000000E+00  0.00000000E+00
  0.00000000E+00  0.00000000E+00  0.00000000E+00
  0.00000000E+00  0.00000000E+00  0.00000000E+00
  0.00000000E+00  0.00000000E+00  0.00000000E+00
  0.00000000E+00  0.00000000E+00  0.00000000E+00
  0.00000000E+00  0.00000000E+00  0.00000000E+00
  0.00000000E+00  0.00000000E+00  0.00000000E+00
  0.00000000E+00  0.00000000E+00  0.00000000E+00
  0.00000000E+00  0.00000000E+00  0.00000000E+00
  0.00000000E+00  0.00000000E+00  0.00000000E+00
  0.00000000E+00  0.00000000E+00  0.00000000E+00
  0.00000000E+00  0.00000000E+00  0.00000000E+00
  0.00000000E+00  0.00000000E+00  0.00000000E+00
  0.00000000E+00  0.00000000E+00  0.00000000E+00
  0.00000000E+00  0.00000000E+00  0.00000000E+00
  0.00000000E+00  0.00000000E+00  0.00000000E+00
  0.00000000E+00  0.00000000E+00  0.00000000E+00
  0.00000000E+00  0.00000000E+00  0.00000000E+00
  0.00000000E+00  0.00000000E+00  0.00000000E+00
  0.00000000E+00  0.00000000E+00  0.00000000E+00
  0.00000000E+00  0.00000000E+00  0.00000000E+00
