Be4 Tl4 Br20                            
   1.0000000000000000     
     8.2218440185620612   -0.0000000000000001    0.0000000000000003
    -0.0000000000000003    7.7868483745098160    0.0000000000000003
    -0.0000000000000004   -0.0000000000000002   19.9434373829144498
   Be   Tl   Br
     4     4    20
Direct
  0.8126670781888592  0.4125404803482056  0.2468198309912992
  0.3126670781888592  0.0874595196517944  0.7531801690086937
  0.1873329218111337  0.9125404803482056  0.2531801690087008
  0.6873329218111337  0.5874595196517944  0.7468198309913063
  0.8826481533066399  0.5977057237059569  0.4084549941302456
  0.3826481533066399  0.9022942762940431  0.5915450058697473
  0.1173518466933601  0.0977057237059569  0.0915450058697473
  0.6173518466933601  0.4022942762940431  0.9084549941302456
  0.2336706376932298  0.4900758083320440  0.5214103816246833
  0.7336706376932298  0.0099241916679560  0.4785896183753238
  0.7663293623067702  0.9900758083320440  0.9785896183753167
  0.2663293623067702  0.5099241916679560  0.0214103816246762
  0.3869233315655478  0.0097836836391494  0.2038693662714905
  0.8869233315655478  0.4902163163608506  0.7961306337285095
  0.6130766684344522  0.5097836836391423  0.2961306337285095
  0.1130766684344522  0.9902163163608577  0.7038693662714905
  0.0166977820782535  0.0537045667392064  0.9178202404913733
  0.5166977820782392  0.4462954332607936  0.0821797595086267
  0.9833022179217608  0.5537045667392064  0.5821797595086267
  0.4833022179217465  0.9462954332607936  0.4178202404913733
  0.1889767961055497  0.8659557612504969  0.3584778063598151
  0.6889767961055497  0.6340442387495031  0.6415221936401849
  0.8110232038944503  0.3659557612505040  0.1415221936401849
  0.3110232038944503  0.1340442387494960  0.8584778063598151
  0.4694286723599106  0.6468214018594765  0.7942271282595712
  0.9694286723599177  0.8531785981405235  0.2057728717404288
  0.5305713276400823  0.1468214018594765  0.7057728717404288
  0.0305713276400894  0.3531785981405235  0.2942271282595712

  0.00000000E+00  0.00000000E+00  0.00000000E+00
  0.00000000E+00  0.00000000E+00  0.00000000E+00
  0.00000000E+00  0.00000000E+00  0.00000000E+00
  0.00000000E+00  0.00000000E+00  0.00000000E+00
  0.00000000E+00  0.00000000E+00  0.00000000E+00
  0.00000000E+00  0.00000000E+00  0.00000000E+00
  0.00000000E+00  0.00000000E+00  0.00000000E+00
  0.00000000E+00  0.00000000E+00  0.00000000E+00
  0.00000000E+00  0.00000000E+00  0.00000000E+00
  0.00000000E+00  0.00000000E+00  0.00000000E+00
  0.00000000E+00  0.00000000E+00  0.00000000E+00
  0.00000000E+00  0.00000000E+00  0.00000000E+00
  0.00000000E+00  0.00000000E+00  0.00000000E+00
  0.00000000E+00  0.00000000E+00  0.00000000E+00
  0.00000000E+00  0.00000000E+00  0.00000000E+00
  0.00000000E+00  0.00000000E+00  0.00000000E+00
  0.00000000E+00  0.00000000E+00  0.00000000E+00
  0.00000000E+00  0.00000000E+00  0.00000000E+00
  0.00000000E+00  0.00000000E+00  0.00000000E+00
  0.00000000E+00  0.00000000E+00  0.00000000E+00
  0.00000000E+00  0.00000000E+00  0.00000000E+00
  0.00000000E+00  0.00000000E+00  0.00000000E+00
  0.00000000E+00  0.00000000E+00  0.00000000E+00
  0.00000000E+00  0.00000000E+00  0.00000000E+00
  0.00000000E+00  0.00000000E+00  0.00000000E+00
  0.00000000E+00  0.00000000E+00  0.00000000E+00
  0.00000000E+00  0.00000000E+00  0.00000000E+00
  0.00000000E+00  0.00000000E+00  0.00000000E+00
