Ba5 Al1                                 
   1.00000000000000     
     3.6872420472157552    6.3835460657836496    0.0000000000000000
    -3.6872420472157552    6.3835460657836496    0.0000000000000000
     0.0000000000000000    0.0000000000000000    6.2994581912684291
   Al   Ba
     1     5
Direct
  0.9999242859141688  0.0000757140858312  0.0000000000000000
  0.3333133116669842  0.3331533105944047  0.0000000000000000
  0.6668466894055953  0.6666866883330158  0.0000000000000000
  0.7063776070533976  0.0000114365233657  0.5000000000000000
  0.9999885634766343  0.2936223929466024  0.5000000000000000
  0.2935495424832268  0.7064504575167732  0.5000000000000000
 
  0.00000000E+00  0.00000000E+00  0.00000000E+00
  0.00000000E+00  0.00000000E+00  0.00000000E+00
  0.00000000E+00  0.00000000E+00  0.00000000E+00
  0.00000000E+00  0.00000000E+00  0.00000000E+00
  0.00000000E+00  0.00000000E+00  0.00000000E+00
  0.00000000E+00  0.00000000E+00  0.00000000E+00
