Be1 Al13                                
   1.00000000000000     
     5.7079214496430950   -4.0009915750654956   -0.0202886284555140
     5.7079214496430950    4.0009915750654956   -0.0202886284555140
    -1.1319413671719547    0.0000000000000000    4.9983553028684824
   Be   Al
     1    13
Direct
  0.9999946660932579  0.9999946660932579  0.9999982910051770
  0.7804718862614521  0.7804718862614521  0.1207783328778618
  0.6238553760958467  0.2141411429799689  0.1854005676620076
  0.2141411429799689  0.6238553760958467  0.1854005676620076
  0.9996459012849073  0.3435896078674929  0.3137325002445479
  0.3435896078674929  0.9996459012849073  0.3137325002445479
  0.6082114989716914  0.6082114989716914  0.3965553625353664
  0.9999925898628064  0.9999925898628064  0.4999997529940785
  0.3917694279057713  0.3917694279057713  0.6034339660011341
  0.6563966651666107  0.0003373055328524  0.6862704493167797
  0.0003373055328524  0.6563966651666107  0.6862704493167797
  0.7858379922912775  0.3761315719591423  0.8146008865193650
  0.3761315719591423  0.7858379922912775  0.8146008865193650
  0.2195133677269112  0.2195133677269112  0.8792254871009888
 
  0.00000000E+00  0.00000000E+00  0.00000000E+00
  0.00000000E+00  0.00000000E+00  0.00000000E+00
  0.00000000E+00  0.00000000E+00  0.00000000E+00
  0.00000000E+00  0.00000000E+00  0.00000000E+00
  0.00000000E+00  0.00000000E+00  0.00000000E+00
  0.00000000E+00  0.00000000E+00  0.00000000E+00
  0.00000000E+00  0.00000000E+00  0.00000000E+00
  0.00000000E+00  0.00000000E+00  0.00000000E+00
  0.00000000E+00  0.00000000E+00  0.00000000E+00
  0.00000000E+00  0.00000000E+00  0.00000000E+00
  0.00000000E+00  0.00000000E+00  0.00000000E+00
  0.00000000E+00  0.00000000E+00  0.00000000E+00
  0.00000000E+00  0.00000000E+00  0.00000000E+00
  0.00000000E+00  0.00000000E+00  0.00000000E+00
