Sr2InBr5                                
   1.00000000000000     
     8.3742678422632348   -4.3201410695373923    0.0344073193999466
     8.3738742579957375    4.3193638073081750    0.0336357154598309
    -4.4410418732013888   -0.0004513229726046    7.3913583504944729
   Br   In   Sr
    10     2     4
Direct
  0.5000029024956518  0.9999296001188114  0.9999527196654583
  0.0145557441776631  0.2179139293012682  0.0144368336544147
  0.5146443986339193  0.7179026219285305  0.2196344304491191
  0.2821867006224394  0.4853978242094854  0.2804208326207416
  0.7817450307837106  0.9859181672320503  0.4854661059003220
  0.0001155091683671  0.5001314435926645  0.5000882638349964
  0.2180125503368870  0.0143981875456589  0.5145403908578743
  0.7181069163813731  0.5144876703717287  0.7195663677561939
  0.4853938454336060  0.2821561506968209  0.7805545855809726
  0.9856411645122947  0.7821120785063727  0.9855782047008645
  0.7490284563946759  0.2507226539261396  0.2499646836774829
  0.2508411401192348  0.7491563085543760  0.7500131047567962
  0.8415684049978296  0.6585494270905272  0.1588588960146851
  0.3414133337678606  0.1584632011498783  0.3411567008525154
  0.6585813440262669  0.8416005366672579  0.6589097001533233
  0.1584625581482300  0.3414601991084396  0.8411581795242498
 
  0.00000000E+00  0.00000000E+00  0.00000000E+00
  0.00000000E+00  0.00000000E+00  0.00000000E+00
  0.00000000E+00  0.00000000E+00  0.00000000E+00
  0.00000000E+00  0.00000000E+00  0.00000000E+00
  0.00000000E+00  0.00000000E+00  0.00000000E+00
  0.00000000E+00  0.00000000E+00  0.00000000E+00
  0.00000000E+00  0.00000000E+00  0.00000000E+00
  0.00000000E+00  0.00000000E+00  0.00000000E+00
  0.00000000E+00  0.00000000E+00  0.00000000E+00
  0.00000000E+00  0.00000000E+00  0.00000000E+00
  0.00000000E+00  0.00000000E+00  0.00000000E+00
  0.00000000E+00  0.00000000E+00  0.00000000E+00
  0.00000000E+00  0.00000000E+00  0.00000000E+00
  0.00000000E+00  0.00000000E+00  0.00000000E+00
  0.00000000E+00  0.00000000E+00  0.00000000E+00
  0.00000000E+00  0.00000000E+00  0.00000000E+00
