Ba2 Tl2 I10                             
   1.0000000000000000     
     6.1739102406300388   -0.0000000000000003    0.0000000000000003
    -0.0000000000000014   13.0127889357686630    0.0000000000000008
     0.0000000000000002    0.0000000000000005   10.8827068833347127
   Ba   Tl   I 
     2     2    10
Direct
  0.0000000000000000  0.0000000000000000  0.5000000000000000
  0.5000000000000000  0.5000000000000000  0.0000000000000000
  0.5000000000000000  0.0000000000000000  0.0000000000000000
  0.0000000000000000  0.5000000000000000  0.5000000000000000
  0.5000000000000000  0.7270858753568987  0.5000000000000000
  0.5000000000000000  0.2729141246431013  0.5000000000000000
  0.5000000000000000  0.0000000000000000  0.6811411958235851
  0.5000000000000000  0.0000000000000000  0.3188588041764149
  0.0000000000000000  0.0000000000000000  0.0000000000000000
  0.0000000000000000  0.2270858753568987  0.0000000000000000
  0.0000000000000000  0.7729141246431013  0.0000000000000000
  0.0000000000000000  0.5000000000000000  0.1811411958235851
  0.0000000000000000  0.5000000000000000  0.8188588041764149
  0.5000000000000000  0.5000000000000000  0.5000000000000000

  0.00000000E+00  0.00000000E+00  0.00000000E+00
  0.00000000E+00  0.00000000E+00  0.00000000E+00
  0.00000000E+00  0.00000000E+00  0.00000000E+00
  0.00000000E+00  0.00000000E+00  0.00000000E+00
  0.00000000E+00  0.00000000E+00  0.00000000E+00
  0.00000000E+00  0.00000000E+00  0.00000000E+00
  0.00000000E+00  0.00000000E+00  0.00000000E+00
  0.00000000E+00  0.00000000E+00  0.00000000E+00
  0.00000000E+00  0.00000000E+00  0.00000000E+00
  0.00000000E+00  0.00000000E+00  0.00000000E+00
  0.00000000E+00  0.00000000E+00  0.00000000E+00
  0.00000000E+00  0.00000000E+00  0.00000000E+00
  0.00000000E+00  0.00000000E+00  0.00000000E+00
  0.00000000E+00  0.00000000E+00  0.00000000E+00
