Al2Br                                   
   1.00000000000000     
     7.7625448403263659    0.0000000000000001    0.0000000000000000
     0.0000000000000000    7.7625448403263659    0.0000000000000000
     0.0000000000000000    0.0000000000000000    3.1461415473619208
   Al   Br
     4     2
Direct
  0.2470555094368052  0.2470555094368052  0.0000000000000000
  0.7529444905631948  0.7529444905631948  0.0000000000000000
  0.7470555094368052  0.2529444905631948  0.5000000000000000
  0.2529444905631948  0.7470555094368052  0.5000000000000000
  0.0000000000000000  0.0000000000000000  0.0000000000000000
  0.5000000000000000  0.5000000000000000  0.5000000000000000
 
  0.00000000E+00  0.00000000E+00  0.00000000E+00
  0.00000000E+00  0.00000000E+00  0.00000000E+00
  0.00000000E+00  0.00000000E+00  0.00000000E+00
  0.00000000E+00  0.00000000E+00  0.00000000E+00
  0.00000000E+00  0.00000000E+00  0.00000000E+00
  0.00000000E+00  0.00000000E+00  0.00000000E+00
