Mg4 Ga8 Cl32                            
   1.00000000000000     
    -5.8321511555254215    5.8321511555254215    9.7098572159149423
     5.8321511555254215   -5.8321511555254215    9.7098572159149423
     5.8321511555254215    5.8321511555254215   -9.7098572159149423
   Mg   Ga   Cl
     4     8    32
Direct
  0.0000000000000000  0.0000000000000000  0.0000000000000000
  0.7500000000000000  0.2500000000000000  0.5000000000000000
  0.2500000000000000  0.7500000000000000  0.5000000000000000
  0.5000000000000000  0.5000000000000000  0.0000000000000000
  0.5848221208425457  0.8750000000000000  0.2098221208425457
  0.1250000000000000  0.8348221208425457  0.2098221208425457
  0.1250000000000000  0.3348221208425457  0.7098221208425457
  0.6651778791574543  0.3750000000000000  0.7901778791574543
  0.6250000000000000  0.9151778791574543  0.7901778791574543
  0.0848221208425457  0.8750000000000000  0.7098221208425457
  0.1651778791574543  0.3750000000000000  0.2901778791574543
  0.6250000000000000  0.4151778791574543  0.2901778791574543
  0.6004081604761708  0.2129601661305074  0.2367989390344576
  0.1136092214417133  0.8504081604761708  0.8874479943456706
  0.7738387729039573  0.8863907785582867  0.7367989390344576
  0.2835312917445023  0.2457655195002815  0.2289664665066198
  0.7835312917445023  0.5545648252378754  0.0377667722442183
  0.8045648252378754  0.5335312917445023  0.5377667722442183
  0.1495918395238292  0.0370398338694926  0.2632010609655424
  0.9629601661305074  0.2261612270960427  0.1125520056543294
  0.4761612270960427  0.7129601661305074  0.6125520056543294
  0.2542344804997185  0.2164687082554977  0.7710335334933802
  0.0167980529936642  0.0545648252378754  0.7710335334933802
  0.9664687082554977  0.6954351747621246  0.4622332277557817
  0.9454351747621246  0.7164687082554977  0.9622332277557817
  0.1363907785582867  0.5238387729039573  0.2367989390344576
  0.2738387729039573  0.5370398338694926  0.8874479943456706
  0.6136092214417133  0.7261612270960427  0.2632010609655424
  0.7332019470063429  0.1954351747621246  0.7289664665066198
  0.2870398338694926  0.8995918395238292  0.7632010609655424
  0.4629601661305074  0.3504081604761708  0.7367989390344576
  0.9761612270960427  0.3636092214417133  0.7632010609655424
  0.3045648252378754  0.7667980529936571  0.2710335334933802
  0.4454351747621246  0.4832019470063358  0.2289664665066198
  0.6363907785582867  0.3995918395238292  0.6125520056543294
  0.6495918395238292  0.3863907785582867  0.1125520056543294
  0.2332019470063358  0.5042344804997185  0.5377667722442183
  0.4664687082554977  0.0042344804997185  0.2710335334933802
  0.1004081604761708  0.8636092214417133  0.3874479943456706
  0.4957655195002815  0.0335312917445023  0.7289664665066198
  0.5167980529936571  0.7457655195002815  0.9622332277557817
  0.9957655195002815  0.2667980529936642  0.4622332277557817
  0.7870398338694926  0.0238387729039573  0.3874479943456706
  0.7542344804997185  0.9832019470063358  0.0377667722442183
 
  0.00000000E+00  0.00000000E+00  0.00000000E+00
  0.00000000E+00  0.00000000E+00  0.00000000E+00
  0.00000000E+00  0.00000000E+00  0.00000000E+00
  0.00000000E+00  0.00000000E+00  0.00000000E+00
  0.00000000E+00  0.00000000E+00  0.00000000E+00
  0.00000000E+00  0.00000000E+00  0.00000000E+00
  0.00000000E+00  0.00000000E+00  0.00000000E+00
  0.00000000E+00  0.00000000E+00  0.00000000E+00
  0.00000000E+00  0.00000000E+00  0.00000000E+00
  0.00000000E+00  0.00000000E+00  0.00000000E+00
  0.00000000E+00  0.00000000E+00  0.00000000E+00
  0.00000000E+00  0.00000000E+00  0.00000000E+00
  0.00000000E+00  0.00000000E+00  0.00000000E+00
  0.00000000E+00  0.00000000E+00  0.00000000E+00
  0.00000000E+00  0.00000000E+00  0.00000000E+00
  0.00000000E+00  0.00000000E+00  0.00000000E+00
  0.00000000E+00  0.00000000E+00  0.00000000E+00
  0.00000000E+00  0.00000000E+00  0.00000000E+00
  0.00000000E+00  0.00000000E+00  0.00000000E+00
  0.00000000E+00  0.00000000E+00  0.00000000E+00
  0.00000000E+00  0.00000000E+00  0.00000000E+00
  0.00000000E+00  0.00000000E+00  0.00000000E+00
  0.00000000E+00  0.00000000E+00  0.00000000E+00
  0.00000000E+00  0.00000000E+00  0.00000000E+00
  0.00000000E+00  0.00000000E+00  0.00000000E+00
  0.00000000E+00  0.00000000E+00  0.00000000E+00
  0.00000000E+00  0.00000000E+00  0.00000000E+00
  0.00000000E+00  0.00000000E+00  0.00000000E+00
  0.00000000E+00  0.00000000E+00  0.00000000E+00
  0.00000000E+00  0.00000000E+00  0.00000000E+00
  0.00000000E+00  0.00000000E+00  0.00000000E+00
  0.00000000E+00  0.00000000E+00  0.00000000E+00
  0.00000000E+00  0.00000000E+00  0.00000000E+00
  0.00000000E+00  0.00000000E+00  0.00000000E+00
  0.00000000E+00  0.00000000E+00  0.00000000E+00
  0.00000000E+00  0.00000000E+00  0.00000000E+00
  0.00000000E+00  0.00000000E+00  0.00000000E+00
  0.00000000E+00  0.00000000E+00  0.00000000E+00
  0.00000000E+00  0.00000000E+00  0.00000000E+00
  0.00000000E+00  0.00000000E+00  0.00000000E+00
  0.00000000E+00  0.00000000E+00  0.00000000E+00
  0.00000000E+00  0.00000000E+00  0.00000000E+00
  0.00000000E+00  0.00000000E+00  0.00000000E+00
  0.00000000E+00  0.00000000E+00  0.00000000E+00
