Sr4 B6                                  
   1.00000000000000     
     1.8114038319922894   -8.2482608689157448    0.0000000000000000
     1.8114038319922894    8.2482608689157448    0.0000000000000000
     0.0000000000000000    0.0000000000000000    6.2770284438989492
   Sr   B 
     4     6
Direct
  0.1350330814944058  0.8649669185055942  0.9999858045521108
  0.6350330814944058  0.3649669185055942  0.5000141954478821
  0.3649669185055942  0.6350330814944058  0.4999858045521179
  0.8649669185055942  0.1350330814944058  0.0000141954478821
  0.5000000000000000  0.5000000000000000  0.0000000000000000
  0.2499983560889021  0.2500016439110979  0.2500000000000000
  0.7499983560889021  0.7500016439110979  0.2500000000000000
  0.0000000000000000  0.0000000000000000  0.5000000000000000
  0.2500016439110979  0.2499983560889021  0.7500000000000000
  0.7500016439110979  0.7499983560889021  0.7500000000000000
 
  0.00000000E+00  0.00000000E+00  0.00000000E+00
  0.00000000E+00  0.00000000E+00  0.00000000E+00
  0.00000000E+00  0.00000000E+00  0.00000000E+00
  0.00000000E+00  0.00000000E+00  0.00000000E+00
  0.00000000E+00  0.00000000E+00  0.00000000E+00
  0.00000000E+00  0.00000000E+00  0.00000000E+00
  0.00000000E+00  0.00000000E+00  0.00000000E+00
  0.00000000E+00  0.00000000E+00  0.00000000E+00
  0.00000000E+00  0.00000000E+00  0.00000000E+00
  0.00000000E+00  0.00000000E+00  0.00000000E+00
