Be10 Al4                                
   1.00000000000000     
    -0.0072585696109894   -0.0082409769481559    4.7770040514095049
     0.2632846984060555   -5.7358107277002679    0.0031947017567134
     5.2666575308641486    2.6386829653563306   -2.3771767846185918
   Al   Be
     4    10
Direct
  0.6079981215902635  0.4247997872404667  0.2154735270259351
  0.0846040272307960  0.7445603178592890  0.1692323297299723
  0.9154230751220069  0.2554373478334355  0.8307653838649927
  0.3920328388113106  0.5752038814534970  0.7845295764274951
  0.2575617477507706  0.0015161839412059  0.0014962661776821
  0.7424707046508274  0.9984889737772917  0.9985067614543581
  0.1399790971751145  0.3848001433011774  0.2800063513447881
  0.6207756831089384  0.8607752800075446  0.2414513294050522
  0.4741263938629814  0.1918094047529806  0.4542211813062522
  0.9804197020428589  0.1913679464501499  0.4536696409394949
  0.0196115396076806  0.8086332365512661  0.5463317494484059
  0.5259009452318679  0.8081916381221959  0.5457788157148897
  0.3792514878394471  0.1392218613720075  0.7585498196726164
  0.8600446359751359  0.6151939973374922  0.7199872674880723
 
  0.00000000E+00  0.00000000E+00  0.00000000E+00
  0.00000000E+00  0.00000000E+00  0.00000000E+00
  0.00000000E+00  0.00000000E+00  0.00000000E+00
  0.00000000E+00  0.00000000E+00  0.00000000E+00
  0.00000000E+00  0.00000000E+00  0.00000000E+00
  0.00000000E+00  0.00000000E+00  0.00000000E+00
  0.00000000E+00  0.00000000E+00  0.00000000E+00
  0.00000000E+00  0.00000000E+00  0.00000000E+00
  0.00000000E+00  0.00000000E+00  0.00000000E+00
  0.00000000E+00  0.00000000E+00  0.00000000E+00
  0.00000000E+00  0.00000000E+00  0.00000000E+00
  0.00000000E+00  0.00000000E+00  0.00000000E+00
  0.00000000E+00  0.00000000E+00  0.00000000E+00
  0.00000000E+00  0.00000000E+00  0.00000000E+00
