Be4 Al10 I2                             
   1.00000000000000     
     9.5379490290223643   -2.3450097362824875   -2.9065179542866564
    -7.0502930755388640    6.8266440210372616    2.5343375409759132
    -6.1979515727153283    0.0994676577934650    9.0029445622021598
   I    Be   Al
     2     4    10
Direct
  0.0051489333780097  0.4109853640885817  0.0811151563016850
  0.9449949341618407  0.8590993684310959  0.6119767582773790
  0.6302358909493861  0.6004023028305241  0.1344031538816921
  0.5068518748126465  0.0201177038443419  0.3889460269646534
  0.6093860540070324  0.9333557447974670  0.6635391161056603
  0.1407582688303322  0.2731287087702725  0.8826662353970107
  0.0636565315145887  0.0850455751214767  0.1189037758992342
  0.3650998987726837  0.7054587374436991  0.8154819942630667
  0.9973457334971840  0.6565178623876022  0.1078743120051726
  0.7079803408489056  0.4002718538099685  0.4455267860916976
  0.9349006682125420  0.0886442738510809  0.6341417456990399
  0.0714017154771369  0.4997521446577480  0.4442468875765258
  0.2100550430878911  0.8952830576479087  0.4438865756785688
  0.5690218077814464  0.6137538075907756  0.8402256923574285
  0.8113709923148349  0.2490970628493940  0.7934392404681461
  0.4317913123535320  0.2088864318780566  0.0934265430330328
 
  0.00000000E+00  0.00000000E+00  0.00000000E+00
  0.00000000E+00  0.00000000E+00  0.00000000E+00
  0.00000000E+00  0.00000000E+00  0.00000000E+00
  0.00000000E+00  0.00000000E+00  0.00000000E+00
  0.00000000E+00  0.00000000E+00  0.00000000E+00
  0.00000000E+00  0.00000000E+00  0.00000000E+00
  0.00000000E+00  0.00000000E+00  0.00000000E+00
  0.00000000E+00  0.00000000E+00  0.00000000E+00
  0.00000000E+00  0.00000000E+00  0.00000000E+00
  0.00000000E+00  0.00000000E+00  0.00000000E+00
  0.00000000E+00  0.00000000E+00  0.00000000E+00
  0.00000000E+00  0.00000000E+00  0.00000000E+00
  0.00000000E+00  0.00000000E+00  0.00000000E+00
  0.00000000E+00  0.00000000E+00  0.00000000E+00
  0.00000000E+00  0.00000000E+00  0.00000000E+00
  0.00000000E+00  0.00000000E+00  0.00000000E+00
