Ca3 B11                                 
   1.00000000000000     
     3.0131671652175802    0.0000000000000000    0.0000000000000000
    -1.5065835826087901   -4.6095240860591637    5.6002279342450230
    -1.5065835826087901   -4.6095240860591637   -5.6002279342450230
   B    Ca
    11     3
Direct
  0.2664611500197509  0.6329921993251446  0.8999301007143572
  0.2443969096868841  0.4541732194291157  0.0346205999446525
  0.7335388499802491  0.1000698992856428  0.3670078006748554
  0.8296156132004811  0.3296156132004811  0.3296156132004811
  0.2443969096868841  0.0346205999446525  0.4541732194291157
  0.5000000000000000  0.5000000000000000  0.5000000000000000
  0.7556030903131159  0.9653794000553475  0.5458267805708843
  0.1703843867995189  0.6703843867995189  0.6703843867995189
  0.2664611500197509  0.8999301007143572  0.6329921993251446
  0.7556030903131159  0.5458267805708843  0.9653794000553475
  0.7335388499802491  0.3670078006748554  0.1000698992856428
  0.0000000000000000  0.0000000000000000  0.0000000000000000
  0.0000000000000000  0.6895884774508403  0.3104115225491597
  0.0000000000000000  0.3104115225491597  0.6895884774508403
 
  0.00000000E+00  0.00000000E+00  0.00000000E+00
  0.00000000E+00  0.00000000E+00  0.00000000E+00
  0.00000000E+00  0.00000000E+00  0.00000000E+00
  0.00000000E+00  0.00000000E+00  0.00000000E+00
  0.00000000E+00  0.00000000E+00  0.00000000E+00
  0.00000000E+00  0.00000000E+00  0.00000000E+00
  0.00000000E+00  0.00000000E+00  0.00000000E+00
  0.00000000E+00  0.00000000E+00  0.00000000E+00
  0.00000000E+00  0.00000000E+00  0.00000000E+00
  0.00000000E+00  0.00000000E+00  0.00000000E+00
  0.00000000E+00  0.00000000E+00  0.00000000E+00
  0.00000000E+00  0.00000000E+00  0.00000000E+00
  0.00000000E+00  0.00000000E+00  0.00000000E+00
  0.00000000E+00  0.00000000E+00  0.00000000E+00
