Be4 Ga4 Cl20                            
   1.0000000000000000     
    20.2580507608631102    0.0000000000000000    0.0000000000000000
     0.0000000000000000    7.8356820714187494   -0.5372711942447677
     0.0000000000000000    2.8159722438312516    6.3988718440104480
   Be   Ga   Cl
     4     4    20
Direct
  0.0429599971424821  0.4369207362869787  0.1374080405114881
  0.5429599971424821  0.5630792637130284  0.3625919594885119
  0.9570400028575179  0.5630792637130284  0.8625919594885119
  0.4570400028575179  0.4369207362869716  0.6374080405114881
  0.7209020899438769  0.1254211626255355  0.5338079190813687
  0.2209020899438769  0.8745788373744574  0.9661920809186313
  0.2790979100561231  0.8745788373744574  0.4661920809186313
  0.7790979100561231  0.1254211626255355  0.0338079190813687
  0.6157040325371526  0.1471577883350221  0.5372619053767806
  0.1157040325371526  0.8528422116649708  0.9627380946232194
  0.3842959674628474  0.8528422116649708  0.4627380946232194
  0.8842959674628474  0.1471577883350221  0.0372619053767806
  0.7460423243461634  0.9309717822223860  0.3542749261598317
  0.2460423243461634  0.0690282177776140  0.1457250738401683
  0.2539576756538366  0.0690282177776140  0.6457250738401683
  0.7539576756538366  0.9309717822223860  0.8542749261598317
  0.3988046870303918  0.3272710260437819  0.8443497724408076
  0.8988046870303918  0.6727289739562252  0.6556502275591924
  0.6011953129696082  0.6727289739562252  0.1556502275591924
  0.1011953129696082  0.3272710260437819  0.3443497724408076
  0.5394193725228575  0.5754512369735139  0.6432484464681210
  0.0394193725228575  0.4245487630264861  0.8567515535318790
  0.4605806274771425  0.4245487630264861  0.3567515535318790
  0.9605806274771425  0.5754512369735139  0.1432484464681210
  0.2882345992743751  0.6527356561323501  0.0580255772492393
  0.7882345992743680  0.3472643438676357  0.4419744227507607
  0.7117654007256320  0.3472643438676357  0.9419744227507607
  0.2117654007256320  0.6527356561323501  0.5580255772492393

  0.00000000E+00  0.00000000E+00  0.00000000E+00
  0.00000000E+00  0.00000000E+00  0.00000000E+00
  0.00000000E+00  0.00000000E+00  0.00000000E+00
  0.00000000E+00  0.00000000E+00  0.00000000E+00
  0.00000000E+00  0.00000000E+00  0.00000000E+00
  0.00000000E+00  0.00000000E+00  0.00000000E+00
  0.00000000E+00  0.00000000E+00  0.00000000E+00
  0.00000000E+00  0.00000000E+00  0.00000000E+00
  0.00000000E+00  0.00000000E+00  0.00000000E+00
  0.00000000E+00  0.00000000E+00  0.00000000E+00
  0.00000000E+00  0.00000000E+00  0.00000000E+00
  0.00000000E+00  0.00000000E+00  0.00000000E+00
  0.00000000E+00  0.00000000E+00  0.00000000E+00
  0.00000000E+00  0.00000000E+00  0.00000000E+00
  0.00000000E+00  0.00000000E+00  0.00000000E+00
  0.00000000E+00  0.00000000E+00  0.00000000E+00
  0.00000000E+00  0.00000000E+00  0.00000000E+00
  0.00000000E+00  0.00000000E+00  0.00000000E+00
  0.00000000E+00  0.00000000E+00  0.00000000E+00
  0.00000000E+00  0.00000000E+00  0.00000000E+00
  0.00000000E+00  0.00000000E+00  0.00000000E+00
  0.00000000E+00  0.00000000E+00  0.00000000E+00
  0.00000000E+00  0.00000000E+00  0.00000000E+00
  0.00000000E+00  0.00000000E+00  0.00000000E+00
  0.00000000E+00  0.00000000E+00  0.00000000E+00
  0.00000000E+00  0.00000000E+00  0.00000000E+00
  0.00000000E+00  0.00000000E+00  0.00000000E+00
  0.00000000E+00  0.00000000E+00  0.00000000E+00
