Be2 B2 Cl10                             
   1.0000000000000000     
     3.8359648149794854   -0.0000000000000001    0.0000000000000003
    -0.0000000000000007   10.9114150050931240    0.0000000000000009
     0.0000000000000001    0.0000000000000003   10.6910317081285680
   Be   B    Cl
     2     2    10
Direct
  0.0000000000000000  0.0000000000000000  0.5000000000000000
  0.5000000000000000  0.5000000000000000  0.0000000000000000
  0.5000000000000000  0.0000000000000000  0.0000000000000000
  0.0000000000000000  0.5000000000000000  0.5000000000000000
  0.5000000000000000  0.8672726490328984  0.5000000000000000
  0.5000000000000000  0.1327273509671016  0.5000000000000000
  0.5000000000000000  0.0000000000000000  0.1758732278443134
  0.5000000000000000  0.0000000000000000  0.8241267721556866
  0.0000000000000000  0.0000000000000000  0.0000000000000000
  0.0000000000000000  0.3672726490328984  0.0000000000000000
  0.0000000000000000  0.6327273509671016  0.0000000000000000
  0.0000000000000000  0.5000000000000000  0.6758732278443134
  0.0000000000000000  0.5000000000000000  0.3241267721556866
  0.5000000000000000  0.5000000000000000  0.5000000000000000

  0.00000000E+00  0.00000000E+00  0.00000000E+00
  0.00000000E+00  0.00000000E+00  0.00000000E+00
  0.00000000E+00  0.00000000E+00  0.00000000E+00
  0.00000000E+00  0.00000000E+00  0.00000000E+00
  0.00000000E+00  0.00000000E+00  0.00000000E+00
  0.00000000E+00  0.00000000E+00  0.00000000E+00
  0.00000000E+00  0.00000000E+00  0.00000000E+00
  0.00000000E+00  0.00000000E+00  0.00000000E+00
  0.00000000E+00  0.00000000E+00  0.00000000E+00
  0.00000000E+00  0.00000000E+00  0.00000000E+00
  0.00000000E+00  0.00000000E+00  0.00000000E+00
  0.00000000E+00  0.00000000E+00  0.00000000E+00
  0.00000000E+00  0.00000000E+00  0.00000000E+00
  0.00000000E+00  0.00000000E+00  0.00000000E+00
