Mg1 Ga2 Br6                             
   1.00000000000000     
     3.7348436356325601    1.6104864069052522    6.4947073921519465
    -3.7348436356325609    1.6104864069052520    6.4947073921519474
    -0.0000000000000002   -5.4033089547176720    6.8505369889066285
   Mg   Br   Ga
     1     6     2
Direct
  0.0000000000000000  0.0000000000000000  0.0000000000000000
  0.7623214637672788  0.7623214637672788  0.3068485793177516
  0.8260998269618796  0.2949490685473108  0.1766667599205931
  0.2949490685473108  0.8260998269618796  0.1766667599205931
  0.2376785362327212  0.2376785362327212  0.6931514206822484
  0.7050509314526963  0.1739001730381275  0.8233332400794069
  0.1739001730381275  0.7050509314526963  0.8233332400794069
  0.2673796449278427  0.2673796449278427  0.9551407938642598
  0.7326203550721502  0.7326203550721502  0.0448592061357402
 
  0.00000000E+00  0.00000000E+00  0.00000000E+00
  0.00000000E+00  0.00000000E+00  0.00000000E+00
  0.00000000E+00  0.00000000E+00  0.00000000E+00
  0.00000000E+00  0.00000000E+00  0.00000000E+00
  0.00000000E+00  0.00000000E+00  0.00000000E+00
  0.00000000E+00  0.00000000E+00  0.00000000E+00
  0.00000000E+00  0.00000000E+00  0.00000000E+00
  0.00000000E+00  0.00000000E+00  0.00000000E+00
  0.00000000E+00  0.00000000E+00  0.00000000E+00
