Sr4 B2 Cl10                             
   1.00000000000000     
     8.4591392246174699   -0.0895581711152303    0.5236567707325885
    -0.0895581711152303    8.4591392246174699    0.5236567707325883
     4.5962782969901577    4.5962782969901559    8.0835486449585296
   Cl   Sr   B 
    10     4     2
Direct
  0.4750445501904252  0.9561626231517266  0.0275370684115757
  0.9561626231517266  0.4750445501904252  0.0275370684115757
  0.6724533073999197  0.9728083372445724  0.2720674426524710
  0.2461067922460174  0.2461067922460174  0.2168981191747363
  0.5600978176846212  0.5600978176846212  0.3471005497327226
  0.9728083372445724  0.6724533073999197  0.2720674426524710
  0.9864708010988039  0.2536169875509628  0.7914546821452504
  0.4798882411607295  0.4798882411607295  0.7544217403093754
  0.7257313365900444  0.7257313365900444  0.8034205143580166
  0.2536169875509628  0.9864708010988039  0.7914546821452504
  0.1547982732657047  0.1547982732657047  0.0072401462663976
  0.6486969091767705  0.3158088724753156  0.9722105586886656
  0.3158088724753156  0.6486969091767705  0.9722105586886656
  0.8472207458617120  0.8472207458617120  0.9544384579624747
  0.7659790513608087  0.4392153535418757  0.3949704842001864
  0.4392153535418757  0.7659790513608087  0.3949704842001864
 
  0.00000000E+00  0.00000000E+00  0.00000000E+00
  0.00000000E+00  0.00000000E+00  0.00000000E+00
  0.00000000E+00  0.00000000E+00  0.00000000E+00
  0.00000000E+00  0.00000000E+00  0.00000000E+00
  0.00000000E+00  0.00000000E+00  0.00000000E+00
  0.00000000E+00  0.00000000E+00  0.00000000E+00
  0.00000000E+00  0.00000000E+00  0.00000000E+00
  0.00000000E+00  0.00000000E+00  0.00000000E+00
  0.00000000E+00  0.00000000E+00  0.00000000E+00
  0.00000000E+00  0.00000000E+00  0.00000000E+00
  0.00000000E+00  0.00000000E+00  0.00000000E+00
  0.00000000E+00  0.00000000E+00  0.00000000E+00
  0.00000000E+00  0.00000000E+00  0.00000000E+00
  0.00000000E+00  0.00000000E+00  0.00000000E+00
  0.00000000E+00  0.00000000E+00  0.00000000E+00
  0.00000000E+00  0.00000000E+00  0.00000000E+00
