Sr1 Ga12                                
   1.00000000000000     
     0.0000000000000000    5.4197662702970995    5.4197662702970995
     5.4197662702970995    0.0000000000000000    5.4197662702970995
     5.4197662702970995    5.4197662702970995    0.0000000000000000
   Ga   Sr
    12     1
Direct
  0.8403343761371929  0.5000000000000000  0.1596656238628071
  0.5000000000000000  0.8403343761371929  0.1596656238628071
  0.5000000000000000  0.5000000000000000  0.1596656238628071
  0.5000000000000000  0.1596656238628071  0.5000000000000000
  0.8403343761371929  0.1596656238628071  0.5000000000000000
  0.1596656238628071  0.5000000000000000  0.5000000000000000
  0.8403343761371929  0.5000000000000000  0.5000000000000000
  0.5000000000000000  0.8403343761371929  0.5000000000000000
  0.1596656238628071  0.8403343761371929  0.5000000000000000
  0.5000000000000000  0.1596656238628071  0.8403343761371929
  0.5000000000000000  0.5000000000000000  0.8403343761371929
  0.1596656238628071  0.5000000000000000  0.8403343761371929
  0.0000000000000000  0.0000000000000000  0.0000000000000000
 
  0.00000000E+00  0.00000000E+00  0.00000000E+00
  0.00000000E+00  0.00000000E+00  0.00000000E+00
  0.00000000E+00  0.00000000E+00  0.00000000E+00
  0.00000000E+00  0.00000000E+00  0.00000000E+00
  0.00000000E+00  0.00000000E+00  0.00000000E+00
  0.00000000E+00  0.00000000E+00  0.00000000E+00
  0.00000000E+00  0.00000000E+00  0.00000000E+00
  0.00000000E+00  0.00000000E+00  0.00000000E+00
  0.00000000E+00  0.00000000E+00  0.00000000E+00
  0.00000000E+00  0.00000000E+00  0.00000000E+00
  0.00000000E+00  0.00000000E+00  0.00000000E+00
  0.00000000E+00  0.00000000E+00  0.00000000E+00
  0.00000000E+00  0.00000000E+00  0.00000000E+00
