Ba16 Al16 Cl80                          
   1.0000000000000000     
    18.0506261927283411   -0.0000000203891627    0.0000000000000014
     0.0000000203891610   18.0506261927283411    0.0000000000000014
     0.0000000000000001    0.0000000000000001    9.3586842054562958
   Ba   Al   Cl
    16    16    80
Direct
  0.5406612243159188  0.7200212923579059  0.4954315806907204
  0.2200212923579059  0.9593387756840812  0.9954315806907204
  0.7799787076420870  0.0406612243159188  0.9954315806907204
  0.4593387756840812  0.2799787076420870  0.4954315806907204
  0.2495875356964703  0.0642357484569729  0.4954200316066348
  0.5642357484569729  0.2504124643035297  0.9954200316066348
  0.4357642515430271  0.7495875356964703  0.9954200316066348
  0.7504124643035297  0.9357642515430271  0.4954200316066348
  0.0406612243159188  0.2200212923579059  0.9954315806907204
  0.7200212923579059  0.4593387756840812  0.4954315806907204
  0.2799787076420870  0.5406612243159188  0.4954315806907204
  0.9593387756840812  0.7799787076420870  0.9954315806907204
  0.7495875356964703  0.5642357484569729  0.9954200316066348
  0.0642357484569729  0.7504124643035297  0.4954200316066348
  0.9357642515430271  0.2495875356964703  0.4954200316066348
  0.2504124643035297  0.4357642515430271  0.9954200316066348
  0.0000000000000000  0.0000000000000000  0.7386525184171191
  0.0000000000000000  0.0000000000000000  0.2441505554904921
  0.5000000000000000  0.0000000000000000  0.9962773199542170
  0.5000000000000000  0.0000000000000000  0.4962773199542170
  0.3330956086111456  0.1857081548652815  0.9964070478915019
  0.6857081548652815  0.1669043913888544  0.4964070478915019
  0.3142918451347185  0.8330956086111456  0.4964070478915019
  0.6669043913888544  0.8142918451347185  0.9964070478915019
  0.5000000000000000  0.5000000000000000  0.2386525184171191
  0.5000000000000000  0.5000000000000000  0.7441505554904921
  0.0000000000000000  0.5000000000000000  0.4962773199542170
  0.0000000000000000  0.5000000000000000  0.9962773199542170
  0.8330956086111456  0.6857081548652815  0.4964070478915019
  0.1857081548652815  0.6669043913888544  0.9964070478915019
  0.8142918451347185  0.3330956086111456  0.9964070478915019
  0.1669043913888544  0.3142918451347185  0.4964070478915019
  0.0000000000000000  0.0000000000000000  0.9915847552445456
  0.0000000000000000  0.0000000000000000  0.4915796877440499
  0.1196731492911169  0.0459972629382790  0.7498172138102532
  0.5459972629382790  0.3803268507088831  0.2498172138102532
  0.4540027370617210  0.6196731492911169  0.2498172138102532
  0.8803268507088831  0.9540027370617210  0.7498172138102532
  0.1191300138647904  0.0474403656889848  0.2338517944306915
  0.5474403656889848  0.3808699861352096  0.7338517944306915
  0.4525596343110152  0.6191300138647904  0.7338517944306915
  0.8808699861352096  0.9525596343110152  0.2338517944306915
  0.5000000000000000  0.0000000000000000  0.7458421267533737
  0.5000000000000000  0.0000000000000000  0.2458421267533666
  0.4506327777124000  0.1174169348712368  0.9951435279922975
  0.6174169348712368  0.0493672222876000  0.4951435279922975
  0.3825830651287632  0.9506327777123929  0.4951435279922975
  0.5493672222876071  0.8825830651287632  0.9951435279922975
  0.4356092793006496  0.1123487009243789  0.4960781816327540
  0.6123487009243789  0.0643907206993433  0.9960781816327540
  0.3876512990756211  0.9356092793006496  0.9960781816327540
  0.5643907206993433  0.8876512990756211  0.4960781816327540
  0.3942874950355844  0.2586064570952189  0.8254202607885048
  0.7586064570952189  0.1057125049644156  0.3254202607885048
  0.2413935429047811  0.8942874950355844  0.3254202607885048
  0.6057125049644156  0.7413935429047811  0.8254202607885048
  0.3942343080420372  0.2577783422425028  0.1682396075412242
  0.7577783422425028  0.1057656919579628  0.6682396075412242
  0.2422216577575043  0.8942343080420301  0.6682396075412242
  0.6057656919579699  0.7422216577574972  0.1682396075412242
  0.2902731828200587  0.1019264217929035  0.8238103215925250
  0.6019264217929035  0.2097268171799413  0.3238103215925250
  0.3980735782070965  0.7902731828200587  0.3238103215925250
  0.7097268171799413  0.8980735782070965  0.8238103215925250
  0.2910305048415012  0.1012075611422887  0.1685534575351468
  0.6012075611422958  0.2089694951584988  0.6685534575351468
  0.3987924388577042  0.7910305048415012  0.6685534575351468
  0.7089694951584988  0.8987924388577042  0.1685534575351468
  0.7279350757869523  0.7565679822610605  0.4971191219099182
  0.2565679822610605  0.7720649242130406  0.9971191219099182
  0.7434320177389395  0.2279350757869523  0.9971191219099182
  0.2720649242130406  0.2434320177389395  0.4971191219099182
  0.5000000000000000  0.5000000000000000  0.4915847552445456
  0.5000000000000000  0.5000000000000000  0.9915796877440499
  0.6196731492911169  0.5459972629382790  0.2498172138102532
  0.0459972629382790  0.8803268507088831  0.7498172138102532
  0.9540027370617210  0.1196731492911169  0.7498172138102532
  0.3803268507088831  0.4540027370617210  0.2498172138102532
  0.6191300138647904  0.5474403656889848  0.7338517944306915
  0.0474403656889848  0.8808699861352096  0.2338517944306915
  0.9525596343110152  0.1191300138647904  0.2338517944306915
  0.3808699861352096  0.4525596343110152  0.7338517944306915
  0.0000000000000000  0.5000000000000000  0.2458421267533666
  0.0000000000000000  0.5000000000000000  0.7458421267533737
  0.9506327777123929  0.6174169348712368  0.4951435279922975
  0.1174169348712368  0.5493672222876071  0.9951435279922975
  0.8825830651287632  0.4506327777124000  0.9951435279922975
  0.0493672222876000  0.3825830651287632  0.4951435279922975
  0.9356092793006496  0.6123487009243789  0.9960781816327540
  0.1123487009243789  0.5643907206993433  0.4960781816327540
  0.8876512990756211  0.4356092793006496  0.4960781816327540
  0.0643907206993433  0.3876512990756211  0.9960781816327540
  0.8942874950355844  0.7586064570952189  0.3254202607885048
  0.2586064570952189  0.6057125049644156  0.8254202607885048
  0.7413935429047811  0.3942874950355844  0.8254202607885048
  0.1057125049644156  0.2413935429047811  0.3254202607885048
  0.8942343080420301  0.7577783422425028  0.6682396075412242
  0.2577783422425028  0.6057656919579699  0.1682396075412242
  0.7422216577574972  0.3942343080420372  0.1682396075412242
  0.1057656919579628  0.2422216577575043  0.6682396075412242
  0.7902731828200587  0.6019264217929035  0.3238103215925250
  0.1019264217929035  0.7097268171799413  0.8238103215925250
  0.8980735782070965  0.2902731828200587  0.8238103215925250
  0.2097268171799413  0.3980735782070965  0.3238103215925250
  0.7910305048415012  0.6012075611422958  0.6685534575351468
  0.1012075611422887  0.7089694951584988  0.1685534575351468
  0.8987924388577042  0.2910305048415012  0.1685534575351468
  0.2089694951584988  0.3987924388577042  0.6685534575351468
  0.2279350757869523  0.2565679822610605  0.9971191219099182
  0.7565679822610605  0.2720649242130406  0.4971191219099182
  0.2434320177389395  0.7279350757869523  0.4971191219099182
  0.7720649242130406  0.7434320177389395  0.9971191219099182

  0.00000000E+00  0.00000000E+00  0.00000000E+00
  0.00000000E+00  0.00000000E+00  0.00000000E+00
  0.00000000E+00  0.00000000E+00  0.00000000E+00
  0.00000000E+00  0.00000000E+00  0.00000000E+00
  0.00000000E+00  0.00000000E+00  0.00000000E+00
  0.00000000E+00  0.00000000E+00  0.00000000E+00
  0.00000000E+00  0.00000000E+00  0.00000000E+00
  0.00000000E+00  0.00000000E+00  0.00000000E+00
  0.00000000E+00  0.00000000E+00  0.00000000E+00
  0.00000000E+00  0.00000000E+00  0.00000000E+00
  0.00000000E+00  0.00000000E+00  0.00000000E+00
  0.00000000E+00  0.00000000E+00  0.00000000E+00
  0.00000000E+00  0.00000000E+00  0.00000000E+00
  0.00000000E+00  0.00000000E+00  0.00000000E+00
  0.00000000E+00  0.00000000E+00  0.00000000E+00
  0.00000000E+00  0.00000000E+00  0.00000000E+00
  0.00000000E+00  0.00000000E+00  0.00000000E+00
  0.00000000E+00  0.00000000E+00  0.00000000E+00
  0.00000000E+00  0.00000000E+00  0.00000000E+00
  0.00000000E+00  0.00000000E+00  0.00000000E+00
  0.00000000E+00  0.00000000E+00  0.00000000E+00
  0.00000000E+00  0.00000000E+00  0.00000000E+00
  0.00000000E+00  0.00000000E+00  0.00000000E+00
  0.00000000E+00  0.00000000E+00  0.00000000E+00
  0.00000000E+00  0.00000000E+00  0.00000000E+00
  0.00000000E+00  0.00000000E+00  0.00000000E+00
  0.00000000E+00  0.00000000E+00  0.00000000E+00
  0.00000000E+00  0.00000000E+00  0.00000000E+00
  0.00000000E+00  0.00000000E+00  0.00000000E+00
  0.00000000E+00  0.00000000E+00  0.00000000E+00
  0.00000000E+00  0.00000000E+00  0.00000000E+00
  0.00000000E+00  0.00000000E+00  0.00000000E+00
  0.00000000E+00  0.00000000E+00  0.00000000E+00
  0.00000000E+00  0.00000000E+00  0.00000000E+00
  0.00000000E+00  0.00000000E+00  0.00000000E+00
  0.00000000E+00  0.00000000E+00  0.00000000E+00
  0.00000000E+00  0.00000000E+00  0.00000000E+00
  0.00000000E+00  0.00000000E+00  0.00000000E+00
  0.00000000E+00  0.00000000E+00  0.00000000E+00
  0.00000000E+00  0.00000000E+00  0.00000000E+00
  0.00000000E+00  0.00000000E+00  0.00000000E+00
  0.00000000E+00  0.00000000E+00  0.00000000E+00
  0.00000000E+00  0.00000000E+00  0.00000000E+00
  0.00000000E+00  0.00000000E+00  0.00000000E+00
  0.00000000E+00  0.00000000E+00  0.00000000E+00
  0.00000000E+00  0.00000000E+00  0.00000000E+00
  0.00000000E+00  0.00000000E+00  0.00000000E+00
  0.00000000E+00  0.00000000E+00  0.00000000E+00
  0.00000000E+00  0.00000000E+00  0.00000000E+00
  0.00000000E+00  0.00000000E+00  0.00000000E+00
  0.00000000E+00  0.00000000E+00  0.00000000E+00
  0.00000000E+00  0.00000000E+00  0.00000000E+00
  0.00000000E+00  0.00000000E+00  0.00000000E+00
  0.00000000E+00  0.00000000E+00  0.00000000E+00
  0.00000000E+00  0.00000000E+00  0.00000000E+00
  0.00000000E+00  0.00000000E+00  0.00000000E+00
  0.00000000E+00  0.00000000E+00  0.00000000E+00
  0.00000000E+00  0.00000000E+00  0.00000000E+00
  0.00000000E+00  0.00000000E+00  0.00000000E+00
  0.00000000E+00  0.00000000E+00  0.00000000E+00
  0.00000000E+00  0.00000000E+00  0.00000000E+00
  0.00000000E+00  0.00000000E+00  0.00000000E+00
  0.00000000E+00  0.00000000E+00  0.00000000E+00
  0.00000000E+00  0.00000000E+00  0.00000000E+00
  0.00000000E+00  0.00000000E+00  0.00000000E+00
  0.00000000E+00  0.00000000E+00  0.00000000E+00
  0.00000000E+00  0.00000000E+00  0.00000000E+00
  0.00000000E+00  0.00000000E+00  0.00000000E+00
  0.00000000E+00  0.00000000E+00  0.00000000E+00
  0.00000000E+00  0.00000000E+00  0.00000000E+00
  0.00000000E+00  0.00000000E+00  0.00000000E+00
  0.00000000E+00  0.00000000E+00  0.00000000E+00
  0.00000000E+00  0.00000000E+00  0.00000000E+00
  0.00000000E+00  0.00000000E+00  0.00000000E+00
  0.00000000E+00  0.00000000E+00  0.00000000E+00
  0.00000000E+00  0.00000000E+00  0.00000000E+00
  0.00000000E+00  0.00000000E+00  0.00000000E+00
  0.00000000E+00  0.00000000E+00  0.00000000E+00
  0.00000000E+00  0.00000000E+00  0.00000000E+00
  0.00000000E+00  0.00000000E+00  0.00000000E+00
  0.00000000E+00  0.00000000E+00  0.00000000E+00
  0.00000000E+00  0.00000000E+00  0.00000000E+00
  0.00000000E+00  0.00000000E+00  0.00000000E+00
  0.00000000E+00  0.00000000E+00  0.00000000E+00
  0.00000000E+00  0.00000000E+00  0.00000000E+00
  0.00000000E+00  0.00000000E+00  0.00000000E+00
  0.00000000E+00  0.00000000E+00  0.00000000E+00
  0.00000000E+00  0.00000000E+00  0.00000000E+00
  0.00000000E+00  0.00000000E+00  0.00000000E+00
  0.00000000E+00  0.00000000E+00  0.00000000E+00
  0.00000000E+00  0.00000000E+00  0.00000000E+00
  0.00000000E+00  0.00000000E+00  0.00000000E+00
  0.00000000E+00  0.00000000E+00  0.00000000E+00
  0.00000000E+00  0.00000000E+00  0.00000000E+00
  0.00000000E+00  0.00000000E+00  0.00000000E+00
  0.00000000E+00  0.00000000E+00  0.00000000E+00
  0.00000000E+00  0.00000000E+00  0.00000000E+00
  0.00000000E+00  0.00000000E+00  0.00000000E+00
  0.00000000E+00  0.00000000E+00  0.00000000E+00
  0.00000000E+00  0.00000000E+00  0.00000000E+00
  0.00000000E+00  0.00000000E+00  0.00000000E+00
  0.00000000E+00  0.00000000E+00  0.00000000E+00
  0.00000000E+00  0.00000000E+00  0.00000000E+00
  0.00000000E+00  0.00000000E+00  0.00000000E+00
  0.00000000E+00  0.00000000E+00  0.00000000E+00
  0.00000000E+00  0.00000000E+00  0.00000000E+00
  0.00000000E+00  0.00000000E+00  0.00000000E+00
  0.00000000E+00  0.00000000E+00  0.00000000E+00
  0.00000000E+00  0.00000000E+00  0.00000000E+00
  0.00000000E+00  0.00000000E+00  0.00000000E+00
  0.00000000E+00  0.00000000E+00  0.00000000E+00
  0.00000000E+00  0.00000000E+00  0.00000000E+00
