Be1 Ga6                                 
   1.00000000000000     
    13.6429146850901652    0.0000000000000000    0.0000000000000000
     0.0000000000000000   13.6429146850901652    0.0000000000000000
     0.0000000000000000    0.0000000000000000   13.6429146850901652
   Ga   Be
     6     1
Direct
  0.8581723729280881  0.0000000000000000  0.0000000000000000
  0.1418276270719119  0.0000000000000000  0.0000000000000000
  0.0000000000000000  0.8581723729280881  0.0000000000000000
  0.0000000000000000  0.1418276270719119  0.0000000000000000
  0.0000000000000000  0.0000000000000000  0.8581723729280881
  0.0000000000000000  0.0000000000000000  0.1418276270719119
  0.5000000000000000  0.5000000000000000  0.5000000000000000
 
  0.00000000E+00  0.00000000E+00  0.00000000E+00
  0.00000000E+00  0.00000000E+00  0.00000000E+00
  0.00000000E+00  0.00000000E+00  0.00000000E+00
  0.00000000E+00  0.00000000E+00  0.00000000E+00
  0.00000000E+00  0.00000000E+00  0.00000000E+00
  0.00000000E+00  0.00000000E+00  0.00000000E+00
  0.00000000E+00  0.00000000E+00  0.00000000E+00
