Sr2 In2 Cl10                            
   1.00000000000000     
     5.8432221784738418   -4.1165794427677547   -0.0211288027709982
     5.8452102382834550    4.1193910456044316   -0.0208155010938111
    -4.2149192986550892   -0.0006357638591150    9.1705218678004314
   In   Sr   Cl
     2     2    10
Direct
  0.0000257266244219  0.0000064746926256  0.9999961618168527
  0.9999772493351600  0.0000412552330289  0.5000017655779843
  0.5454464548584710  0.4546459776397498  0.2500572298156314
  0.4545798340285856  0.5454051138232003  0.7499935425777835
  0.2578765654711077  0.6528762353815907  0.0138646576814665
  0.2917187832611887  0.1640842762920371  0.1266985679044623
  0.9121564827635993  0.0893701099585016  0.2504393225077450
  0.8357936144433609  0.7086109164868617  0.3721626006670675
  0.3474468560798911  0.7424041547976898  0.4864081329886289
  0.6524925776566093  0.2576093400643416  0.5136120835363656
  0.1642146629229444  0.2914220470463675  0.6279454462951861
  0.0878954602810609  0.9106703638243090  0.7495922950322722
  0.7083781430065059  0.8358714115851527  0.8732971907952916
  0.7421975892671000  0.3471823231745645  0.9862310028032368
 
  0.00000000E+00  0.00000000E+00  0.00000000E+00
  0.00000000E+00  0.00000000E+00  0.00000000E+00
  0.00000000E+00  0.00000000E+00  0.00000000E+00
  0.00000000E+00  0.00000000E+00  0.00000000E+00
  0.00000000E+00  0.00000000E+00  0.00000000E+00
  0.00000000E+00  0.00000000E+00  0.00000000E+00
  0.00000000E+00  0.00000000E+00  0.00000000E+00
  0.00000000E+00  0.00000000E+00  0.00000000E+00
  0.00000000E+00  0.00000000E+00  0.00000000E+00
  0.00000000E+00  0.00000000E+00  0.00000000E+00
  0.00000000E+00  0.00000000E+00  0.00000000E+00
  0.00000000E+00  0.00000000E+00  0.00000000E+00
  0.00000000E+00  0.00000000E+00  0.00000000E+00
  0.00000000E+00  0.00000000E+00  0.00000000E+00
