Mg1 B2 Br10                             
   1.00000000000000     
     5.2059961936824530    6.1067232345010618    0.8936588990215114
    -5.2059961936824530    6.1067232345010618    0.8936588990215115
     0.0000000000000001    5.7435037325905114   10.1586750767560279
   Mg   B    Br
     1     2    10
Direct
  0.6943268173676387  0.3056731826323684  0.0000000000000000
  0.2044292537303605  0.0066908067178133  0.6904429327913419
  0.9933091932821796  0.7955707462696395  0.3095570672086581
  0.3644376092010617  0.2246085825177957  0.5465184357068154
  0.7753914174821972  0.6355623907989383  0.4534815642931846
  0.9317471133608421  0.0252819866115672  0.7397789731257944
  0.9747180133884257  0.0682528866391579  0.2602210268742056
  0.9350985672967767  0.0649014327032233  0.0000000000000000
  0.9621167712974596  0.0378832287025404  0.5000000000000000
  0.5138518363144584  0.3201686916995214  0.8801294521973091
  0.6798313083004786  0.4861481636855416  0.1198705478026909
  0.2862978917852388  0.7715567928071394  0.7834503940997095
  0.2284432071928606  0.7137021082147612  0.2165496059002905
 
  0.00000000E+00  0.00000000E+00  0.00000000E+00
  0.00000000E+00  0.00000000E+00  0.00000000E+00
  0.00000000E+00  0.00000000E+00  0.00000000E+00
  0.00000000E+00  0.00000000E+00  0.00000000E+00
  0.00000000E+00  0.00000000E+00  0.00000000E+00
  0.00000000E+00  0.00000000E+00  0.00000000E+00
  0.00000000E+00  0.00000000E+00  0.00000000E+00
  0.00000000E+00  0.00000000E+00  0.00000000E+00
  0.00000000E+00  0.00000000E+00  0.00000000E+00
  0.00000000E+00  0.00000000E+00  0.00000000E+00
  0.00000000E+00  0.00000000E+00  0.00000000E+00
  0.00000000E+00  0.00000000E+00  0.00000000E+00
  0.00000000E+00  0.00000000E+00  0.00000000E+00
