In2F                                    
   1.00000000000000     
     3.6603961139577668   -0.3398659744873735    4.5748550617801262
    -3.6594079072795651   -0.3386447856955642    4.5755492207819115
     0.0001510773368800   -4.5364967763450137    6.4201646299887010
   F    In
     2     4
Direct
  0.7430737500023810  0.7430953827471996  0.7569298446572006
  0.0069262675112327  0.0069046345125727  0.9930701493705456
  0.3749999049313288  0.3749999051982158  0.3750000917944902
  0.8750000247232137  0.3750000077722859  0.3749999832133852
  0.3750000076332611  0.8750000248018921  0.3749999908998660
  0.3750000451985827  0.3750000449678410  0.8749999400645123
 
  0.00000000E+00  0.00000000E+00  0.00000000E+00
  0.00000000E+00  0.00000000E+00  0.00000000E+00
  0.00000000E+00  0.00000000E+00  0.00000000E+00
  0.00000000E+00  0.00000000E+00  0.00000000E+00
  0.00000000E+00  0.00000000E+00  0.00000000E+00
  0.00000000E+00  0.00000000E+00  0.00000000E+00
