Mg8 Ga2                                 
   1.00000000000000     
     4.7307952222005296    0.0000000000000000    0.0000000000000000
     0.0000000000000000    4.7307952222005296    0.0000000000000000
     0.0000000000000000    0.0000000000000000   10.0735394596354357
   Ga   Mg
     2     8
Direct
  0.0000000000000000  0.5000000000000000  0.1584047811269329
  0.5000000000000000  0.0000000000000000  0.8415952188730671
  0.0000000000000000  0.0000000000000000  0.0000000000000000
  0.5000000000000000  0.5000000000000000  0.0000000000000000
  0.0000000000000000  0.0000000000000000  0.3018642331035082
  0.5000000000000000  0.5000000000000000  0.3018642331035082
  0.0000000000000000  0.5000000000000000  0.4938031956670272
  0.5000000000000000  0.0000000000000000  0.5061968043329728
  0.0000000000000000  0.0000000000000000  0.6981357668964918
  0.5000000000000000  0.5000000000000000  0.6981357668964918
 
  0.00000000E+00  0.00000000E+00  0.00000000E+00
  0.00000000E+00  0.00000000E+00  0.00000000E+00
  0.00000000E+00  0.00000000E+00  0.00000000E+00
  0.00000000E+00  0.00000000E+00  0.00000000E+00
  0.00000000E+00  0.00000000E+00  0.00000000E+00
  0.00000000E+00  0.00000000E+00  0.00000000E+00
  0.00000000E+00  0.00000000E+00  0.00000000E+00
  0.00000000E+00  0.00000000E+00  0.00000000E+00
  0.00000000E+00  0.00000000E+00  0.00000000E+00
  0.00000000E+00  0.00000000E+00  0.00000000E+00
