Ca1 Ga3 Cl6                             
   1.00000000000000     
     7.3410311865508557   -0.1493374984465309    0.0407387613956719
    -0.1493374984465310    7.3410311865508540    0.0407387613956719
     3.6217338105297854    3.6217338105297858    5.1812177159020418
   Cl   Ca   Ga
     6     1     3
Direct
  0.7443847785947995  0.2556152214051934  0.0000000000000000
  0.3332716101995459  0.3332716101995459  0.8507200762666258
  0.2556152214051934  0.7443847785947995  0.0000000000000000
  0.6667283898004541  0.6667283898004541  0.1492799237333813
  0.8249095157851656  0.8249095157851656  0.5083727551808508
  0.1750904842148344  0.1750904842148344  0.4916272448191492
  0.0000000000000000  0.0000000000000000  0.0000000000000000
  0.5000000000000000  0.5000000000000000  0.0000000000000000
  0.2310243622119401  0.7689756377880599  0.5000000000000000
  0.7689756377880599  0.2310243622119401  0.5000000000000000
 
  0.00000000E+00  0.00000000E+00  0.00000000E+00
  0.00000000E+00  0.00000000E+00  0.00000000E+00
  0.00000000E+00  0.00000000E+00  0.00000000E+00
  0.00000000E+00  0.00000000E+00  0.00000000E+00
  0.00000000E+00  0.00000000E+00  0.00000000E+00
  0.00000000E+00  0.00000000E+00  0.00000000E+00
  0.00000000E+00  0.00000000E+00  0.00000000E+00
  0.00000000E+00  0.00000000E+00  0.00000000E+00
  0.00000000E+00  0.00000000E+00  0.00000000E+00
  0.00000000E+00  0.00000000E+00  0.00000000E+00
