Ca8 Ga2                                 
   1.00000000000000     
     5.3419369638235388    0.0000000000000000    0.0000000000000000
     0.0000000000000000    5.3419369638235388    0.0000000000000000
     0.0000000000000000    0.0000000000000000   12.8007101108375352
   Ca   Ga
     8     2
Direct
  0.0000000000000000  0.0000000000000000  0.0000000000000000
  0.5000000000000000  0.5000000000000000  0.0000000000000000
  0.0000000000000000  0.0000000000000000  0.2736201041716484
  0.5000000000000000  0.5000000000000000  0.2736201041716484
  0.0000000000000000  0.5000000000000000  0.4899048722193982
  0.5000000000000000  0.0000000000000000  0.5100951277805947
  0.0000000000000000  0.0000000000000000  0.7263798958283516
  0.5000000000000000  0.5000000000000000  0.7263798958283516
  0.0000000000000000  0.5000000000000000  0.1494368812447533
  0.5000000000000000  0.0000000000000000  0.8505631187552467
 
  0.00000000E+00  0.00000000E+00  0.00000000E+00
  0.00000000E+00  0.00000000E+00  0.00000000E+00
  0.00000000E+00  0.00000000E+00  0.00000000E+00
  0.00000000E+00  0.00000000E+00  0.00000000E+00
  0.00000000E+00  0.00000000E+00  0.00000000E+00
  0.00000000E+00  0.00000000E+00  0.00000000E+00
  0.00000000E+00  0.00000000E+00  0.00000000E+00
  0.00000000E+00  0.00000000E+00  0.00000000E+00
  0.00000000E+00  0.00000000E+00  0.00000000E+00
  0.00000000E+00  0.00000000E+00  0.00000000E+00
