Ba2 Tl2 Cl10                            
   1.00000000000000     
     7.0660727101658161    0.1028924665498714    2.6564871161578281
     1.6488658205715074    6.8717686022407785    2.6564871727845358
    -0.0035309479929175   -0.0028237668249496   10.5985216121456869
   Ba   Tl   Cl
     2     2    10
Direct
  0.4455561428629196  0.5544438571275663  0.2499999999963620
  0.5544438571370804  0.4455561428724337  0.7500000000036380
  0.0000000000000000  0.0000000000000000  0.5000000000000000
  0.0000000000000000  0.0000000000000000  0.0000000000000000
  0.7901217830900436  0.7576699083069087  0.6164046068704394
  0.2423300916951376  0.2098772169081968  0.8835953931295961
  0.2098772169099590  0.2423300916930913  0.3835963931295652
  0.7576699083048624  0.7901217830918057  0.1164046068704039
  0.9192782206163841  0.0807217793552724  0.7499999999934701
  0.0807217793836159  0.9192782206447276  0.2500000000065299
  0.7089564646224744  0.3164024561227308  0.0242302128931939
  0.6835975438361643  0.2910435353619434  0.4757697870886659
  0.2910435353775256  0.6835975438772692  0.9757697871068061
  0.3164024561638357  0.7089564646380566  0.5242302129113341
 
  0.00000000E+00  0.00000000E+00  0.00000000E+00
  0.00000000E+00  0.00000000E+00  0.00000000E+00
  0.00000000E+00  0.00000000E+00  0.00000000E+00
  0.00000000E+00  0.00000000E+00  0.00000000E+00
  0.00000000E+00  0.00000000E+00  0.00000000E+00
  0.00000000E+00  0.00000000E+00  0.00000000E+00
  0.00000000E+00  0.00000000E+00  0.00000000E+00
  0.00000000E+00  0.00000000E+00  0.00000000E+00
  0.00000000E+00  0.00000000E+00  0.00000000E+00
  0.00000000E+00  0.00000000E+00  0.00000000E+00
  0.00000000E+00  0.00000000E+00  0.00000000E+00
  0.00000000E+00  0.00000000E+00  0.00000000E+00
  0.00000000E+00  0.00000000E+00  0.00000000E+00
  0.00000000E+00  0.00000000E+00  0.00000000E+00
