Mg8 Ga48                                
   1.00000000000000     
    10.3098878321078278    0.0002362056014864    0.0047843548049839
     0.0002362056014864   10.3098878321078278   -0.0047843548049839
     0.0046921716519508   -0.0046921716519508   10.2089728926078944
   Ga   Mg
    48     8
Direct
  0.1025412788526481  0.3975303784512718  0.0676085030194926
  0.8974105791580556  0.6026287393660823  0.0675380243640333
  0.0514174651868018  0.1292160971238090  0.1040496834279594
  0.3708450779441250  0.4486470907081994  0.1040817064281541
  0.6291133986216408  0.5513999016661373  0.1040734956147631
  0.9486867665903631  0.8709404556071192  0.1040526494778362
  0.7642426474503949  0.0652968996303542  0.1755163779733309
  0.5653206282535592  0.2641820605239360  0.1754512812044950
  0.4347070294186466  0.7358230293932593  0.1755455070363112
  0.2358451241387201  0.9347346008852142  0.1754778202389815
  0.5001277801472597  0.9999112129872501  0.2016317048745719
  0.2500141414133310  0.2500141414133310  0.2500000000000000
  0.7500387746248194  0.7500387746248194  0.2500000000000000
  0.9999112129872501  0.5001277801472597  0.2983682951254281
  0.9347346008852142  0.2358451241387201  0.3245221797610185
  0.7358230293932593  0.4347070294186466  0.3244544929636888
  0.2641820605239360  0.5653206282535592  0.3245487187955050
  0.0652968996303542  0.7642426474503949  0.3244836220266691
  0.1292160971238090  0.0514174651868018  0.3959503165720406
  0.4486470907081994  0.3708450779441250  0.3959182935718459
  0.5513999016661373  0.6291133986216408  0.3959265043852369
  0.8709404556071192  0.9486867665903631  0.3959473505221638
  0.3975303784512718  0.1025412788526481  0.4323914969805074
  0.6026287393660823  0.8974105791580556  0.4324619756359667
  0.8975185666273404  0.3974951984796249  0.5675414144214415
  0.1026077305255910  0.6026125393640527  0.5675650650802595
  0.9487009714962085  0.1291826538060334  0.6041469434526974
  0.6291973269424673  0.4486168683137421  0.6040189778557306
  0.3709205949070196  0.5513565842556361  0.6041380756879775
  0.0514238554742903  0.8708949537041732  0.6040855486973413
  0.2358634365767784  0.0653304479360202  0.6754492304390283
  0.4347510093686111  0.2642047571385007  0.6754624502601771
  0.5653505859412888  0.7358279621207373  0.6755116554769458
  0.7642354762550454  0.9346980524229949  0.6755071149360319
  0.5000270289175646  0.0000414601658818  0.7016485226737572
  0.7500228140867193  0.2500304825154203  0.7499903576948768
  0.2500304825154203  0.7500228140867193  0.7500096423051232
  0.0000414601658818  0.5000270289175646  0.7983514773262428
  0.0653304479360202  0.2358634365767784  0.8245507695609717
  0.2642047571385007  0.4347510093686111  0.8245375497398229
  0.7358279621207373  0.5653505859412888  0.8244883445230542
  0.9346980524229949  0.7642354762550454  0.8244928850639681
  0.8708949537041732  0.0514238554742903  0.8959144513026587
  0.5513565842556361  0.3709205949070196  0.8958619243120225
  0.4486168683137421  0.6291973269424673  0.8959810221442694
  0.1291826538060334  0.9487009714962085  0.8958530565473026
  0.6026125393640527  0.1026077305255910  0.9324349349197405
  0.3974951984796249  0.8975185666273404  0.9324585855785585
  0.8203199158494030  0.3203183875258091  0.0270464239694519
  0.1797111356363530  0.6797589935344419  0.0270655583191655
  0.6797589935344419  0.1797111356363530  0.4729344416808345
  0.3203183875258091  0.8203199158494030  0.4729535760305481
  0.1797663036997648  0.3203236991488367  0.5271034931814924
  0.8203662919280603  0.6797027571926151  0.5269867845357794
  0.3203236991488367  0.1797663036997648  0.9728965068185076
  0.6797027571926151  0.8203662919280603  0.9730132154642206
 
  0.00000000E+00  0.00000000E+00  0.00000000E+00
  0.00000000E+00  0.00000000E+00  0.00000000E+00
  0.00000000E+00  0.00000000E+00  0.00000000E+00
  0.00000000E+00  0.00000000E+00  0.00000000E+00
  0.00000000E+00  0.00000000E+00  0.00000000E+00
  0.00000000E+00  0.00000000E+00  0.00000000E+00
  0.00000000E+00  0.00000000E+00  0.00000000E+00
  0.00000000E+00  0.00000000E+00  0.00000000E+00
  0.00000000E+00  0.00000000E+00  0.00000000E+00
  0.00000000E+00  0.00000000E+00  0.00000000E+00
  0.00000000E+00  0.00000000E+00  0.00000000E+00
  0.00000000E+00  0.00000000E+00  0.00000000E+00
  0.00000000E+00  0.00000000E+00  0.00000000E+00
  0.00000000E+00  0.00000000E+00  0.00000000E+00
  0.00000000E+00  0.00000000E+00  0.00000000E+00
  0.00000000E+00  0.00000000E+00  0.00000000E+00
  0.00000000E+00  0.00000000E+00  0.00000000E+00
  0.00000000E+00  0.00000000E+00  0.00000000E+00
  0.00000000E+00  0.00000000E+00  0.00000000E+00
  0.00000000E+00  0.00000000E+00  0.00000000E+00
  0.00000000E+00  0.00000000E+00  0.00000000E+00
  0.00000000E+00  0.00000000E+00  0.00000000E+00
  0.00000000E+00  0.00000000E+00  0.00000000E+00
  0.00000000E+00  0.00000000E+00  0.00000000E+00
  0.00000000E+00  0.00000000E+00  0.00000000E+00
  0.00000000E+00  0.00000000E+00  0.00000000E+00
  0.00000000E+00  0.00000000E+00  0.00000000E+00
  0.00000000E+00  0.00000000E+00  0.00000000E+00
  0.00000000E+00  0.00000000E+00  0.00000000E+00
  0.00000000E+00  0.00000000E+00  0.00000000E+00
  0.00000000E+00  0.00000000E+00  0.00000000E+00
  0.00000000E+00  0.00000000E+00  0.00000000E+00
  0.00000000E+00  0.00000000E+00  0.00000000E+00
  0.00000000E+00  0.00000000E+00  0.00000000E+00
  0.00000000E+00  0.00000000E+00  0.00000000E+00
  0.00000000E+00  0.00000000E+00  0.00000000E+00
  0.00000000E+00  0.00000000E+00  0.00000000E+00
  0.00000000E+00  0.00000000E+00  0.00000000E+00
  0.00000000E+00  0.00000000E+00  0.00000000E+00
  0.00000000E+00  0.00000000E+00  0.00000000E+00
  0.00000000E+00  0.00000000E+00  0.00000000E+00
  0.00000000E+00  0.00000000E+00  0.00000000E+00
  0.00000000E+00  0.00000000E+00  0.00000000E+00
  0.00000000E+00  0.00000000E+00  0.00000000E+00
  0.00000000E+00  0.00000000E+00  0.00000000E+00
  0.00000000E+00  0.00000000E+00  0.00000000E+00
  0.00000000E+00  0.00000000E+00  0.00000000E+00
  0.00000000E+00  0.00000000E+00  0.00000000E+00
  0.00000000E+00  0.00000000E+00  0.00000000E+00
  0.00000000E+00  0.00000000E+00  0.00000000E+00
  0.00000000E+00  0.00000000E+00  0.00000000E+00
  0.00000000E+00  0.00000000E+00  0.00000000E+00
  0.00000000E+00  0.00000000E+00  0.00000000E+00
  0.00000000E+00  0.00000000E+00  0.00000000E+00
  0.00000000E+00  0.00000000E+00  0.00000000E+00
  0.00000000E+00  0.00000000E+00  0.00000000E+00
