Ba2 B2 F10                              
   1.0000000000000000     
     3.6080442887643129   -0.0000000000000000    0.0000000000000002
    -0.0000000000000005    8.5254336918923315    0.0000000000000005
     0.0000000000000000    0.0000000000000000    7.1433979387158510
   Ba   B    F 
     2     2    10
Direct
  0.0000000000000000  0.0000000000000000  0.5000000000000000
  0.5000000000000000  0.5000000000000000  0.0000000000000000
  0.5000000000000000  0.0000000000000000  0.0000000000000000
  0.0000000000000000  0.5000000000000000  0.5000000000000000
  0.5000000000000000  0.7977821908620655  0.5000000000000000
  0.5000000000000000  0.2022178091379345  0.5000000000000000
  0.5000000000000000  0.0000000000000000  0.1837276687704943
  0.5000000000000000  0.0000000000000000  0.8162723312295057
  0.0000000000000000  0.0000000000000000  0.0000000000000000
  0.0000000000000000  0.2977821908620655  0.0000000000000000
  0.0000000000000000  0.7022178091379345  0.0000000000000000
  0.0000000000000000  0.5000000000000000  0.6837276687704943
  0.0000000000000000  0.5000000000000000  0.3162723312295057
  0.5000000000000000  0.5000000000000000  0.5000000000000000

  0.00000000E+00  0.00000000E+00  0.00000000E+00
  0.00000000E+00  0.00000000E+00  0.00000000E+00
  0.00000000E+00  0.00000000E+00  0.00000000E+00
  0.00000000E+00  0.00000000E+00  0.00000000E+00
  0.00000000E+00  0.00000000E+00  0.00000000E+00
  0.00000000E+00  0.00000000E+00  0.00000000E+00
  0.00000000E+00  0.00000000E+00  0.00000000E+00
  0.00000000E+00  0.00000000E+00  0.00000000E+00
  0.00000000E+00  0.00000000E+00  0.00000000E+00
  0.00000000E+00  0.00000000E+00  0.00000000E+00
  0.00000000E+00  0.00000000E+00  0.00000000E+00
  0.00000000E+00  0.00000000E+00  0.00000000E+00
  0.00000000E+00  0.00000000E+00  0.00000000E+00
  0.00000000E+00  0.00000000E+00  0.00000000E+00
