Ba1 Al3 Br6                             
   1.00000000000000     
     8.3230648470454938    0.0813013841734424    0.5126511163709978
     0.0813013841734424    8.3230648470454938    0.5126511163709979
     4.5840351084004025    4.5840351084004025    6.4574762630975160
   Br   Ba   Al
     6     1     3
Direct
  0.7279071174465130  0.2720928825534870  0.0000000000000000
  0.2303331734508944  0.2303331734508944  0.0732485358193742
  0.2720928825534870  0.7279071174465130  0.0000000000000000
  0.7696668265491056  0.7696668265491056  0.9267514641806258
  0.7693847333919805  0.7693847333919805  0.5339912391370376
  0.2306152666080195  0.2306152666080195  0.4660087608629624
  0.0000000000000000  0.0000000000000000  0.0000000000000000
  0.5000000000000000  0.5000000000000000  0.0000000000000000
  0.1497827602620418  0.8502172397379582  0.5000000000000000
  0.8502172397379582  0.1497827602620418  0.5000000000000000
 
  0.00000000E+00  0.00000000E+00  0.00000000E+00
  0.00000000E+00  0.00000000E+00  0.00000000E+00
  0.00000000E+00  0.00000000E+00  0.00000000E+00
  0.00000000E+00  0.00000000E+00  0.00000000E+00
  0.00000000E+00  0.00000000E+00  0.00000000E+00
  0.00000000E+00  0.00000000E+00  0.00000000E+00
  0.00000000E+00  0.00000000E+00  0.00000000E+00
  0.00000000E+00  0.00000000E+00  0.00000000E+00
  0.00000000E+00  0.00000000E+00  0.00000000E+00
  0.00000000E+00  0.00000000E+00  0.00000000E+00
