Be7 Tl13                                
   1.0000000000000000     
     4.6674175283049957    0.1663389563155929   -0.8889996407211120
    -2.4370328495508344    6.2759488384454718    0.1047586408263069
    -1.3017241669430395   -0.9173501070940447   16.3442042439872779
   Tl   Be
    13     7
Direct
  0.5231736484600873  0.8443437005678547  0.9622800058087293
  0.0633256879420685  0.3765273296044427  0.2620450913702328
  0.2918345966952529  0.0989683778286761  0.1088936772593811
  0.6402492986817094  0.7025767903404301  0.1755009698367047
  0.3486861230718006  0.9081033639782987  0.3111505279187980
  0.8397060057305694  0.6841880559791207  0.4189591953387080
  0.3080585367891260  0.2397931882831017  0.4729195053433983
  0.4742852027474669  0.7194198684407880  0.5835351456490017
  0.9484289777545882  0.2710984475986251  0.6363017846696835
  0.4211002249016644  0.0393351518396159  0.7559840868742356
  0.1365122512179155  0.2661422762892016  0.8798294950886500
  0.7674388612460561  0.6510926719042018  0.8068154626731143
  0.9038175876317922  0.4928071053274508  0.0311078078215701
  0.0652807351066187  0.9429554290931108  0.9558401194583652
  0.5147463443968192  0.2904457510584280  0.2552313078774375
  0.7524193685474287  0.2823104235262974  0.3898864739927888
  0.7394469990932251  0.0436414668488396  0.4805012303063378
  0.0379175676099806  0.9323907081682137  0.5806698244878064
  0.0369733757516642  0.6769956848318017  0.6595798355884099
  0.1866006066241752  0.5368662084915243  0.7733684526366460

  0.00000000E+00  0.00000000E+00  0.00000000E+00
  0.00000000E+00  0.00000000E+00  0.00000000E+00
  0.00000000E+00  0.00000000E+00  0.00000000E+00
  0.00000000E+00  0.00000000E+00  0.00000000E+00
  0.00000000E+00  0.00000000E+00  0.00000000E+00
  0.00000000E+00  0.00000000E+00  0.00000000E+00
  0.00000000E+00  0.00000000E+00  0.00000000E+00
  0.00000000E+00  0.00000000E+00  0.00000000E+00
  0.00000000E+00  0.00000000E+00  0.00000000E+00
  0.00000000E+00  0.00000000E+00  0.00000000E+00
  0.00000000E+00  0.00000000E+00  0.00000000E+00
  0.00000000E+00  0.00000000E+00  0.00000000E+00
  0.00000000E+00  0.00000000E+00  0.00000000E+00
  0.00000000E+00  0.00000000E+00  0.00000000E+00
  0.00000000E+00  0.00000000E+00  0.00000000E+00
  0.00000000E+00  0.00000000E+00  0.00000000E+00
  0.00000000E+00  0.00000000E+00  0.00000000E+00
  0.00000000E+00  0.00000000E+00  0.00000000E+00
  0.00000000E+00  0.00000000E+00  0.00000000E+00
  0.00000000E+00  0.00000000E+00  0.00000000E+00
