Ba3 B8                                  
   1.00000000000000     
    -5.3671270880949633   -0.8106142537671954    0.5404533292059721
    -0.4747146415545717   -3.2316307663432329    0.0517583366431824
     2.0354195387376133    1.6162950632666702   10.5778988969200363
   Ba   B 
     3     8
Direct
  0.9985240528050383  0.3479759315017432  0.0000285727170066
  0.2463675083491736  0.4941557047314404  0.3811444984084744
  0.7543498840283434  0.3801971804970989  0.6190745576620031
  0.5163089785000565  0.5278964790032461  0.1620229371453092
  0.5327385480292790  0.0190161926937620  0.1587078446149022
  0.7706899411392385  0.2036544100922129  0.2607219614717806
  0.7256329976973745  0.7350704229011242  0.2784960137888390
  0.2747718075171122  0.2062444738425313  0.7212680092327801
  0.2304230171116970  0.7362976086774324  0.7383940352332274
  0.4858173955330614  0.9182760864347372  0.8380992880123088
  0.4643758692896185  0.4308155096246864  0.8416422817133764
 
  0.00000000E+00  0.00000000E+00  0.00000000E+00
  0.00000000E+00  0.00000000E+00  0.00000000E+00
  0.00000000E+00  0.00000000E+00  0.00000000E+00
  0.00000000E+00  0.00000000E+00  0.00000000E+00
  0.00000000E+00  0.00000000E+00  0.00000000E+00
  0.00000000E+00  0.00000000E+00  0.00000000E+00
  0.00000000E+00  0.00000000E+00  0.00000000E+00
  0.00000000E+00  0.00000000E+00  0.00000000E+00
  0.00000000E+00  0.00000000E+00  0.00000000E+00
  0.00000000E+00  0.00000000E+00  0.00000000E+00
  0.00000000E+00  0.00000000E+00  0.00000000E+00
