Ca1 Tl2 I8                              
   1.0000000000000000     
     7.1222080417158695   -4.3931773102855125    0.5916549434113509
     7.1222080417158695    4.3931773102855125    0.5916549434113509
     0.7920597599245850    0.0000000000000000   10.7265562915241759
   Tl   Ca   I 
     2     1     8
Direct
  0.2871574208400176  0.2871574208400176  0.2639579715771063
  0.7128425791599824  0.7128425791599824  0.7360420284228937
  0.0000000000000000  0.0000000000000000  0.0000000000000000
  0.6207313569992650  0.0613171697027255  0.1299752035863193
  0.0613171697027255  0.6207313569992650  0.1299752035863193
  0.0857745633403937  0.0857745633403937  0.2592057803801779
  0.6612746048103801  0.6612746048103801  0.5002137627034244
  0.3387253951896199  0.3387253951896199  0.4997862372965756
  0.9142254366596063  0.9142254366596063  0.7407942196198221
  0.9386828302972745  0.3792686430007350  0.8700247964136807
  0.3792686430007350  0.9386828302972745  0.8700247964136807

  0.00000000E+00  0.00000000E+00  0.00000000E+00
  0.00000000E+00  0.00000000E+00  0.00000000E+00
  0.00000000E+00  0.00000000E+00  0.00000000E+00
  0.00000000E+00  0.00000000E+00  0.00000000E+00
  0.00000000E+00  0.00000000E+00  0.00000000E+00
  0.00000000E+00  0.00000000E+00  0.00000000E+00
  0.00000000E+00  0.00000000E+00  0.00000000E+00
  0.00000000E+00  0.00000000E+00  0.00000000E+00
  0.00000000E+00  0.00000000E+00  0.00000000E+00
  0.00000000E+00  0.00000000E+00  0.00000000E+00
  0.00000000E+00  0.00000000E+00  0.00000000E+00
