Be8 Al50                                
   1.00000000000000     
    12.5212138930173094    0.0000000000000000    0.0000000000000000
     0.0000000000000000    6.0988095418710691    0.3822348269238616
     0.0000000000000000    6.8254694580423569   13.0679645251945917
   Be   Al
     8    50
Direct
  0.6720632756550771  0.9206628464667901  0.3878729107310406
  0.3279367243449229  0.9206628464667901  0.8878729107310406
  0.0996555395082197  0.4349779770262927  0.6939463169872795
  0.9003444604917803  0.4349779770262927  0.1939463169872795
  0.3279367243449229  0.0793371535332099  0.6121270892689594
  0.6720632756550771  0.0793371535332099  0.1121270892689594
  0.9003444604917803  0.5650220229737073  0.3060536830127205
  0.0996555395082197  0.5650220229737073  0.8060536830127205
  0.7001054587541731  0.4683674359064440  0.5097678148278462
  0.2998945412458269  0.4683674359064440  0.0097678148278462
  0.1392570135023590  0.5503701847352858  0.3511040442253943
  0.8607429864976410  0.5503701847352858  0.8511040442253943
  0.2998945412458269  0.5316325640935560  0.4902321851721538
  0.7001054587541731  0.5316325640935560  0.9902321851721538
  0.8607429864976410  0.4496298152647142  0.6488959557746057
  0.1392570135023590  0.4496298152647142  0.1488959557746057
  0.2038623055886504  0.9964239762437330  0.1548453496729607
  0.6490156166297751  0.1758838448931428  0.9267801577724981
  0.7961376944113425  0.9964239762437330  0.6548453496729536
  0.3509843833702249  0.1758838448931428  0.4267801577724981
  0.7961376944113425  0.0035760237562670  0.8451546503270464
  0.3509843833702249  0.8241161551068572  0.0732198422275019
  0.2038623055886504  0.0035760237562670  0.3451546503270393
  0.6490156166297751  0.8241161551068572  0.5732198422275019
  0.7136677609876401  0.6936468324905860  0.2875245231314807
  0.2863322390123670  0.6936468324905860  0.7875245231314807
  0.1342166244320353  0.1643814732619404  0.6228148804383267
  0.8657833755679647  0.1643814732619404  0.1228148804383267
  0.2863322390123670  0.3063531675094140  0.7124754768685193
  0.7136677609876401  0.3063531675094140  0.2124754768685193
  0.8657833755679647  0.8356185267380596  0.3771851195616733
  0.1342166244320353  0.8356185267380596  0.8771851195616733
  0.6306629828247949  0.3024645733159517  0.7139767023479067
  0.3693370171752051  0.3024645733159517  0.2139767023479067
  0.0094915138987659  0.1929454936275050  0.3500867831944205
  0.9905084861012341  0.1929454936275050  0.8500867831944205
  0.3693370171752051  0.6975354266840483  0.2860232976520933
  0.6306629828247949  0.6975354266840483  0.7860232976520933
  0.9905084861012341  0.8070545063724950  0.6499132168055795
  0.0094915138987659  0.8070545063724950  0.1499132168055795
  0.2178530432118961  0.1952494108207503  0.9200867705865434
  0.5569667775343063  0.7018064924687835  0.1477357660376484
  0.7821469567881039  0.1952494108207503  0.4200867705865434
  0.4430332224656937  0.7018064924687835  0.6477357660376484
  0.7821469567881039  0.8047505891792497  0.0799132294134566
  0.4430332224656937  0.2981935075312165  0.8522642339623516
  0.2178530432118961  0.8047505891792497  0.5799132294134566
  0.5569667775343063  0.2981935075312165  0.3522642339623516
  0.4919211832136696  0.7595958165981287  0.4552865814801237
  0.5080788167863304  0.7595958165981287  0.9552865814801237
  0.9464292101039362  0.3155905055264299  0.5014350600753374
  0.0535707898960638  0.3155905055264299  0.0014350600753374
  0.5080788167863304  0.2404041834018713  0.5447134185198763
  0.4919211832136696  0.2404041834018713  0.0447134185198763
  0.0535707898960638  0.6844094944735701  0.4985649399246626
  0.9464292101039362  0.6844094944735701  0.9985649399246626
  0.5397482591725833  0.0000000000000000  0.2500000000000000
  0.4602517408274167  0.0000000000000000  0.7500000000000000
 
  0.00000000E+00  0.00000000E+00  0.00000000E+00
  0.00000000E+00  0.00000000E+00  0.00000000E+00
  0.00000000E+00  0.00000000E+00  0.00000000E+00
  0.00000000E+00  0.00000000E+00  0.00000000E+00
  0.00000000E+00  0.00000000E+00  0.00000000E+00
  0.00000000E+00  0.00000000E+00  0.00000000E+00
  0.00000000E+00  0.00000000E+00  0.00000000E+00
  0.00000000E+00  0.00000000E+00  0.00000000E+00
  0.00000000E+00  0.00000000E+00  0.00000000E+00
  0.00000000E+00  0.00000000E+00  0.00000000E+00
  0.00000000E+00  0.00000000E+00  0.00000000E+00
  0.00000000E+00  0.00000000E+00  0.00000000E+00
  0.00000000E+00  0.00000000E+00  0.00000000E+00
  0.00000000E+00  0.00000000E+00  0.00000000E+00
  0.00000000E+00  0.00000000E+00  0.00000000E+00
  0.00000000E+00  0.00000000E+00  0.00000000E+00
  0.00000000E+00  0.00000000E+00  0.00000000E+00
  0.00000000E+00  0.00000000E+00  0.00000000E+00
  0.00000000E+00  0.00000000E+00  0.00000000E+00
  0.00000000E+00  0.00000000E+00  0.00000000E+00
  0.00000000E+00  0.00000000E+00  0.00000000E+00
  0.00000000E+00  0.00000000E+00  0.00000000E+00
  0.00000000E+00  0.00000000E+00  0.00000000E+00
  0.00000000E+00  0.00000000E+00  0.00000000E+00
  0.00000000E+00  0.00000000E+00  0.00000000E+00
  0.00000000E+00  0.00000000E+00  0.00000000E+00
  0.00000000E+00  0.00000000E+00  0.00000000E+00
  0.00000000E+00  0.00000000E+00  0.00000000E+00
  0.00000000E+00  0.00000000E+00  0.00000000E+00
  0.00000000E+00  0.00000000E+00  0.00000000E+00
  0.00000000E+00  0.00000000E+00  0.00000000E+00
  0.00000000E+00  0.00000000E+00  0.00000000E+00
  0.00000000E+00  0.00000000E+00  0.00000000E+00
  0.00000000E+00  0.00000000E+00  0.00000000E+00
  0.00000000E+00  0.00000000E+00  0.00000000E+00
  0.00000000E+00  0.00000000E+00  0.00000000E+00
  0.00000000E+00  0.00000000E+00  0.00000000E+00
  0.00000000E+00  0.00000000E+00  0.00000000E+00
  0.00000000E+00  0.00000000E+00  0.00000000E+00
  0.00000000E+00  0.00000000E+00  0.00000000E+00
  0.00000000E+00  0.00000000E+00  0.00000000E+00
  0.00000000E+00  0.00000000E+00  0.00000000E+00
  0.00000000E+00  0.00000000E+00  0.00000000E+00
  0.00000000E+00  0.00000000E+00  0.00000000E+00
  0.00000000E+00  0.00000000E+00  0.00000000E+00
  0.00000000E+00  0.00000000E+00  0.00000000E+00
  0.00000000E+00  0.00000000E+00  0.00000000E+00
  0.00000000E+00  0.00000000E+00  0.00000000E+00
  0.00000000E+00  0.00000000E+00  0.00000000E+00
  0.00000000E+00  0.00000000E+00  0.00000000E+00
  0.00000000E+00  0.00000000E+00  0.00000000E+00
  0.00000000E+00  0.00000000E+00  0.00000000E+00
  0.00000000E+00  0.00000000E+00  0.00000000E+00
  0.00000000E+00  0.00000000E+00  0.00000000E+00
  0.00000000E+00  0.00000000E+00  0.00000000E+00
  0.00000000E+00  0.00000000E+00  0.00000000E+00
  0.00000000E+00  0.00000000E+00  0.00000000E+00
  0.00000000E+00  0.00000000E+00  0.00000000E+00
