Ba15 In1                                
   1.0000000000000000     
     4.3909944167912638   -7.6054265937297307    0.0000000000000000
     4.3909944167912638    7.6054265937297307    0.0000000000000000
     0.0000000000000000    0.0000000000000000   14.2944401534905392
   Ba   In
    15     1
Direct
  0.0000000000000000  0.0000000000000000  0.0000000000000000
  0.9966164855002262  0.4983082427408760  0.5000000000000000
  0.0038685127572577  0.5019342563909461  0.0000000000000000
  0.5016917572406498  0.4983082427593502  0.5000000000000000
  0.4980657436337026  0.5019342563662974  0.0000000000000000
  0.5016917572591240  0.0033835144997809  0.5000000000000000
  0.4980657436090539  0.9961314872427423  0.0000000000000000
  0.1626768270833026  0.3253546541917061  0.2653157801202539
  0.1626768270833026  0.3253546541917061  0.7346842198797461
  0.1626768271083989  0.8373231728916011  0.2653157801202539
  0.1626768271083989  0.8373231728916011  0.7346842198797461
  0.6746453458082939  0.8373231729166974  0.2653157801202539
  0.6746453458082939  0.8373231729166974  0.7346842198797461
  0.6666669999999968  0.3333330000000032  0.2461289986608222
  0.6666669999999968  0.3333330000000032  0.7538710013391778
  0.0000000000000000  0.0000000000000000  0.5000000000000000

  0.00000000E+00  0.00000000E+00  0.00000000E+00
  0.00000000E+00  0.00000000E+00  0.00000000E+00
  0.00000000E+00  0.00000000E+00  0.00000000E+00
  0.00000000E+00  0.00000000E+00  0.00000000E+00
  0.00000000E+00  0.00000000E+00  0.00000000E+00
  0.00000000E+00  0.00000000E+00  0.00000000E+00
  0.00000000E+00  0.00000000E+00  0.00000000E+00
  0.00000000E+00  0.00000000E+00  0.00000000E+00
  0.00000000E+00  0.00000000E+00  0.00000000E+00
  0.00000000E+00  0.00000000E+00  0.00000000E+00
  0.00000000E+00  0.00000000E+00  0.00000000E+00
  0.00000000E+00  0.00000000E+00  0.00000000E+00
  0.00000000E+00  0.00000000E+00  0.00000000E+00
  0.00000000E+00  0.00000000E+00  0.00000000E+00
  0.00000000E+00  0.00000000E+00  0.00000000E+00
  0.00000000E+00  0.00000000E+00  0.00000000E+00
