Ba8 B50                                 
   1.00000000000000     
     9.7393068508116407    0.0000000000000000    0.0000000000000000
     0.0000000000000000    7.6128425749830742   -0.6502865994027106
     0.0000000000000000    6.8594947920058429    9.2500726283311785
   Ba   B 
     8    50
Direct
  0.6346147628807799  0.8143912878437547  0.5649688774408972
  0.3653852371192201  0.8143912878437547  0.0649688774408972
  0.1361679402739497  0.3722651664231407  0.6519172956733996
  0.8638320597260503  0.3722651664231407  0.1519172956733996
  0.3653852371192201  0.1856087121562453  0.4350311225591028
  0.6346147628807799  0.1856087121562453  0.9350311225591028
  0.8638320597260503  0.6277348335768593  0.3480827043266004
  0.1361679402739497  0.6277348335768593  0.8480827043266004
  0.5823959457985595  0.3698565081112690  0.6276485244970473
  0.4176040542014405  0.3698565081112690  0.1276485244970473
  0.0901140813601202  0.1318997616169142  0.3685276220776998
  0.9098859186398798  0.1318997616169142  0.8685276220776998
  0.4176040542014405  0.6301434918887310  0.3723514755029598
  0.5823959457985595  0.6301434918887310  0.8723514755029527
  0.9098859186398798  0.8681002383830858  0.6314723779223002
  0.0901140813601202  0.8681002383830858  0.1314723779223002
  0.9990597841447197  0.0271910693568671  0.1642413156962519
  0.5710984702849089  0.8841395716176237  0.8235372027542169
  0.0009402158552874  0.0271910693568671  0.6642413156962519
  0.4289015297150911  0.8841395716176237  0.3235372027542240
  0.0009402158552874  0.9728089306431329  0.8357586843037481
  0.4289015297150911  0.1158604283823763  0.1764627972457831
  0.9990597841447197  0.9728089306431329  0.3357586843037481
  0.5710984702849089  0.1158604283823763  0.6764627972457831
  0.5814714705775756  0.7541457866230346  0.3186592290965109
  0.4185285294224244  0.7541457866230346  0.8186592290965109
  0.0775259885014847  0.9600981008533793  0.5516446264901518
  0.9224740114985153  0.9600981008533793  0.0516446264901518
  0.4185285294224244  0.2458542133769654  0.6813407709034891
  0.5814714705775756  0.2458542133769654  0.1813407709034891
  0.9224740114985153  0.0399018991466207  0.4483553735098482
  0.0775259885014847  0.0399018991466207  0.9483553735098482
  0.4652595742836425  0.4501205373569022  0.7034572326003570
  0.5347404257163575  0.4501205373569022  0.2034572326003570
  0.0966301160554224  0.3855073108631615  0.3187566299872984
  0.9033698839445776  0.3855073108631615  0.8187566299872984
  0.5347404257163575  0.5498794626430978  0.2965427673996430
  0.4652595742836425  0.5498794626430978  0.7965427673996430
  0.9033698839445776  0.6144926891368385  0.6812433700127016
  0.0966301160554224  0.6144926891368385  0.1812433700127016
  0.1531633179210630  0.1394952619854166  0.0428018762929341
  0.6837100454093985  0.7470348337301687  0.9469888865460447
  0.8468366820789370  0.1394952619854166  0.5428018762929341
  0.3162899545906015  0.7470348337301687  0.4469888865460447
  0.8468366820789370  0.8605047380145834  0.9571981237070659
  0.3162899545906015  0.2529651662698313  0.0530111134539553
  0.1531633179210630  0.8605047380145834  0.4571981237070659
  0.6837100454093985  0.2529651662698313  0.5530111134539553
  0.4150921213243564  0.4960004012715942  0.5470477049767055
  0.5849078786756436  0.4960004012715942  0.0470477049767055
  0.0202768832902080  0.2246859690705847  0.4775145566344463
  0.9797231167097920  0.2246859690705847  0.9775145566344463
  0.5849078786756436  0.5039995987284058  0.4529522950232945
  0.4150921213243564  0.5039995987284058  0.9529522950232945
  0.9797231167097920  0.7753140309294153  0.5224854433655466
  0.0202768832902080  0.7753140309294153  0.0224854433655537
  0.5872870713396949  0.0000000000000000  0.2500000000000000
  0.4127129286603051  0.0000000000000000  0.7500000000000000
 
  0.00000000E+00  0.00000000E+00  0.00000000E+00
  0.00000000E+00  0.00000000E+00  0.00000000E+00
  0.00000000E+00  0.00000000E+00  0.00000000E+00
  0.00000000E+00  0.00000000E+00  0.00000000E+00
  0.00000000E+00  0.00000000E+00  0.00000000E+00
  0.00000000E+00  0.00000000E+00  0.00000000E+00
  0.00000000E+00  0.00000000E+00  0.00000000E+00
  0.00000000E+00  0.00000000E+00  0.00000000E+00
  0.00000000E+00  0.00000000E+00  0.00000000E+00
  0.00000000E+00  0.00000000E+00  0.00000000E+00
  0.00000000E+00  0.00000000E+00  0.00000000E+00
  0.00000000E+00  0.00000000E+00  0.00000000E+00
  0.00000000E+00  0.00000000E+00  0.00000000E+00
  0.00000000E+00  0.00000000E+00  0.00000000E+00
  0.00000000E+00  0.00000000E+00  0.00000000E+00
  0.00000000E+00  0.00000000E+00  0.00000000E+00
  0.00000000E+00  0.00000000E+00  0.00000000E+00
  0.00000000E+00  0.00000000E+00  0.00000000E+00
  0.00000000E+00  0.00000000E+00  0.00000000E+00
  0.00000000E+00  0.00000000E+00  0.00000000E+00
  0.00000000E+00  0.00000000E+00  0.00000000E+00
  0.00000000E+00  0.00000000E+00  0.00000000E+00
  0.00000000E+00  0.00000000E+00  0.00000000E+00
  0.00000000E+00  0.00000000E+00  0.00000000E+00
  0.00000000E+00  0.00000000E+00  0.00000000E+00
  0.00000000E+00  0.00000000E+00  0.00000000E+00
  0.00000000E+00  0.00000000E+00  0.00000000E+00
  0.00000000E+00  0.00000000E+00  0.00000000E+00
  0.00000000E+00  0.00000000E+00  0.00000000E+00
  0.00000000E+00  0.00000000E+00  0.00000000E+00
  0.00000000E+00  0.00000000E+00  0.00000000E+00
  0.00000000E+00  0.00000000E+00  0.00000000E+00
  0.00000000E+00  0.00000000E+00  0.00000000E+00
  0.00000000E+00  0.00000000E+00  0.00000000E+00
  0.00000000E+00  0.00000000E+00  0.00000000E+00
  0.00000000E+00  0.00000000E+00  0.00000000E+00
  0.00000000E+00  0.00000000E+00  0.00000000E+00
  0.00000000E+00  0.00000000E+00  0.00000000E+00
  0.00000000E+00  0.00000000E+00  0.00000000E+00
  0.00000000E+00  0.00000000E+00  0.00000000E+00
  0.00000000E+00  0.00000000E+00  0.00000000E+00
  0.00000000E+00  0.00000000E+00  0.00000000E+00
  0.00000000E+00  0.00000000E+00  0.00000000E+00
  0.00000000E+00  0.00000000E+00  0.00000000E+00
  0.00000000E+00  0.00000000E+00  0.00000000E+00
  0.00000000E+00  0.00000000E+00  0.00000000E+00
  0.00000000E+00  0.00000000E+00  0.00000000E+00
  0.00000000E+00  0.00000000E+00  0.00000000E+00
  0.00000000E+00  0.00000000E+00  0.00000000E+00
  0.00000000E+00  0.00000000E+00  0.00000000E+00
  0.00000000E+00  0.00000000E+00  0.00000000E+00
  0.00000000E+00  0.00000000E+00  0.00000000E+00
  0.00000000E+00  0.00000000E+00  0.00000000E+00
  0.00000000E+00  0.00000000E+00  0.00000000E+00
  0.00000000E+00  0.00000000E+00  0.00000000E+00
  0.00000000E+00  0.00000000E+00  0.00000000E+00
  0.00000000E+00  0.00000000E+00  0.00000000E+00
  0.00000000E+00  0.00000000E+00  0.00000000E+00
