Ca18 In11                               
   1.00000000000000     
     8.6354875772479645    6.1338785080667497   -0.0885553230382109
    -8.6354875772479645    6.1338785080667506   -0.0885553230382109
     0.0000000000000000    5.9829780408338538    8.7319158855221755
   Ca   In
    18    11
Direct
  0.9873979711557013  0.9873979711557013  0.0356063171089787
  0.3240744790493224  0.5944178809658567  0.9961620844639327
  0.9919387204175436  0.3376763498214643  0.9996981748176523
  0.3376763498214643  0.9919387204175436  0.9996981748176523
  0.5944178809658567  0.3240744790493224  0.9961620844639327
  0.3639652043623585  0.3639652043623585  0.7660244598013222
  0.7104519376512926  0.7104519376512926  0.6951701670433152
  0.6122036958252650  0.0011948310178127  0.6939548575064123
  0.0011948310178127  0.6122036958252650  0.6939548575064123
  0.0094339185185746  0.0094339185185746  0.6974784594935031
  0.4075635012642493  0.7496357158897951  0.5803258116450323
  0.7496357158897951  0.4075635012642493  0.5803258116450323
  0.0122026827049595  0.2958480201999691  0.3863260092506025
  0.2958480201999691  0.0122026827049595  0.3863260092506025
  0.6766769387646576  0.6766769387646576  0.3388734552507557
  0.2742203291105767  0.6852027463854142  0.3147170354579245
  0.6852027463854142  0.2742203291105767  0.3147170354579245
  0.3953938856437986  0.3953938856437986  0.3215828517068644
  0.6271835725712620  0.8083548254790784  0.0127832854278154
  0.8083548254790784  0.6271835725712620  0.0127832854278154
  0.7946071005936872  0.1788859708599659  0.8362641983648373
  0.1788859708599659  0.7946071005936872  0.8362641983648373
  0.1371585580775232  0.3791971931143792  0.6262391563252550
  0.3791971931143792  0.1371585580775232  0.6262391563252550
  0.8115932025846107  0.0014934527482069  0.3670365500326156
  0.0014934527482069  0.8115932025846107  0.3670365500326156
  0.6170034188124518  0.0023671160782186  0.1906402054218859
  0.0023671160782186  0.6170034188124518  0.1906402054218859
  0.2126567803319404  0.2126567803319404  0.1369705521673410
 
  0.00000000E+00  0.00000000E+00  0.00000000E+00
  0.00000000E+00  0.00000000E+00  0.00000000E+00
  0.00000000E+00  0.00000000E+00  0.00000000E+00
  0.00000000E+00  0.00000000E+00  0.00000000E+00
  0.00000000E+00  0.00000000E+00  0.00000000E+00
  0.00000000E+00  0.00000000E+00  0.00000000E+00
  0.00000000E+00  0.00000000E+00  0.00000000E+00
  0.00000000E+00  0.00000000E+00  0.00000000E+00
  0.00000000E+00  0.00000000E+00  0.00000000E+00
  0.00000000E+00  0.00000000E+00  0.00000000E+00
  0.00000000E+00  0.00000000E+00  0.00000000E+00
  0.00000000E+00  0.00000000E+00  0.00000000E+00
  0.00000000E+00  0.00000000E+00  0.00000000E+00
  0.00000000E+00  0.00000000E+00  0.00000000E+00
  0.00000000E+00  0.00000000E+00  0.00000000E+00
  0.00000000E+00  0.00000000E+00  0.00000000E+00
  0.00000000E+00  0.00000000E+00  0.00000000E+00
  0.00000000E+00  0.00000000E+00  0.00000000E+00
  0.00000000E+00  0.00000000E+00  0.00000000E+00
  0.00000000E+00  0.00000000E+00  0.00000000E+00
  0.00000000E+00  0.00000000E+00  0.00000000E+00
  0.00000000E+00  0.00000000E+00  0.00000000E+00
  0.00000000E+00  0.00000000E+00  0.00000000E+00
  0.00000000E+00  0.00000000E+00  0.00000000E+00
  0.00000000E+00  0.00000000E+00  0.00000000E+00
  0.00000000E+00  0.00000000E+00  0.00000000E+00
  0.00000000E+00  0.00000000E+00  0.00000000E+00
  0.00000000E+00  0.00000000E+00  0.00000000E+00
  0.00000000E+00  0.00000000E+00  0.00000000E+00
