Mg16 B16 Cl80                           
   1.0000000000000000     
    17.0692636171791534    0.0000018498636990    0.0000000000000013
    -0.0000018498637006   17.0692636171791534    0.0000000000000013
     0.0000000000000001    0.0000000000000001   10.9392336818295561
   Mg   B    Cl
    16    16    80
Direct
  0.4836963259776681  0.6993918494921374  0.3419867245896739
  0.1993918494921374  0.0163036740223390  0.8419867245896668
  0.8006081505078484  0.9836963259776539  0.8419867245896668
  0.5163036740223461  0.3006081505078626  0.3419867245896739
  0.3333923482395491  0.1388014629296066  0.5423113536138970
  0.6388014629296066  0.1666076517604438  0.0423113536139255
  0.3611985370703934  0.8333923482395349  0.0423113536139255
  0.6666076517604651  0.8611985370703934  0.5423113536138970
  0.9836963259776539  0.1993918494921374  0.8419867245896668
  0.6993918494921374  0.5163036740223461  0.3419867245896739
  0.3006081505078626  0.4836963259776681  0.3419867245896739
  0.0163036740223390  0.8006081505078484  0.8419867245896668
  0.8333923482395349  0.6388014629296066  0.0423113536139255
  0.1388014629296066  0.6666076517604651  0.5423113536138970
  0.8611985370703934  0.3333923482395491  0.5423113536138970
  0.1666076517604438  0.3611985370703934  0.0423113536139255
  0.0000000000000000  0.0000000000000000  0.6781518457945594
  0.0000000000000000  0.0000000000000000  0.0762691837906573
  0.5000000000000000  0.0000000000000000  0.1129224437226739
  0.5000000000000000  0.0000000000000000  0.6129224437226952
  0.3361701726960931  0.2460951567307035  0.0766487482915963
  0.7460951567306964  0.1638298273039140  0.5766487482916034
  0.2539048432692894  0.8361701726960931  0.5766487482916034
  0.6638298273039069  0.7539048432693036  0.0766487482915963
  0.5000000000000000  0.5000000000000000  0.1781518457945523
  0.5000000000000000  0.5000000000000000  0.5762691837906573
  0.0000000000000000  0.5000000000000000  0.6129224437226952
  0.0000000000000000  0.5000000000000000  0.1129224437226739
  0.8361701726960931  0.7460951567306964  0.5766487482916034
  0.2460951567307035  0.6638298273039069  0.0766487482915963
  0.7539048432693036  0.3361701726960931  0.0766487482915963
  0.1638298273039140  0.2539048432692894  0.5766487482916034
  0.0000000000000000  0.0000000000000000  0.8368283638605334
  0.0000000000000000  0.0000000000000000  0.2346669991379642
  0.1208622710928182  0.0260946707072662  0.6444792596414786
  0.5260946707072591  0.3791377289072031  0.1444792596414644
  0.4739053292927338  0.6208622710928182  0.1444792596414644
  0.8791377289071818  0.9739053292927409  0.6444792596414786
  0.1180140218842354  0.0503570002061835  0.0270015676380027
  0.5503570002061835  0.3819859781157646  0.5270015676380027
  0.4496429997938165  0.6180140218842354  0.5270015676380027
  0.8819859781157646  0.9496429997938165  0.0270015676380027
  0.5000000000000000  0.0000000000000000  0.7694356321783502
  0.5000000000000000  0.0000000000000000  0.2694356321783431
  0.4885344942263146  0.0881121031316212  0.0320638842447636
  0.5881121031316141  0.0114655057736925  0.5320638842447636
  0.4118878968683788  0.9885344942263075  0.5320638842447636
  0.5114655057736925  0.9118878968683859  0.0320638842447636
  0.4531414664347579  0.2070672999688270  0.4933315533126645
  0.7070672999688412  0.0468585335652349  0.9933315533126645
  0.2929327000311730  0.9531414664347295  0.9933315533126645
  0.5468585335652563  0.7929327000311588  0.4933315533126645
  0.3926417114649254  0.2696611466209049  0.9532957591502011
  0.7696611466209049  0.1073582885350604  0.4532957591502011
  0.2303388533790951  0.8926417114649396  0.4532957591502011
  0.6073582885350604  0.7303388533790951  0.9532957591502011
  0.3715433268805910  0.2429972210962745  0.2275007519546719
  0.7429972210962674  0.1284566731194090  0.7275007519546719
  0.2570027789037326  0.8715433268805981  0.7275007519546719
  0.6284566731194019  0.7570027789037326  0.2275007519546719
  0.2957398451481126  0.1052657479726165  0.7518216411300784
  0.6052657479726165  0.2042601548518874  0.2518216411300571
  0.3947342520273978  0.7957398451481268  0.2518216411300571
  0.7042601548518732  0.8947342520273835  0.7518216411300784
  0.2648822960894464  0.0903737459226832  0.3846638028410183
  0.5903737459226974  0.2351177039105465  0.8846638028410183
  0.4096262540773026  0.7648822960894464  0.8846638028410183
  0.7351177039105536  0.9096262540773026  0.3846638028410183
  0.7364025679327995  0.7181705181638307  0.5600805674956817
  0.2181705181638023  0.7635974320671863  0.0600805674956888
  0.7818294818361693  0.2364025679327995  0.0600805674956888
  0.2635974320671863  0.2818294818361906  0.5600805674956817
  0.5000000000000000  0.5000000000000000  0.3368283638605050
  0.5000000000000000  0.5000000000000000  0.7346669991379784
  0.6208622710928182  0.5260946707072591  0.1444792596414644
  0.0260946707072662  0.8791377289071818  0.6444792596414786
  0.9739053292927409  0.1208622710928182  0.6444792596414786
  0.3791377289072031  0.4739053292927338  0.1444792596414644
  0.6180140218842354  0.5503570002061835  0.5270015676380027
  0.0503570002061835  0.8819859781157646  0.0270015676380027
  0.9496429997938165  0.1180140218842354  0.0270015676380027
  0.3819859781157646  0.4496429997938165  0.5270015676380027
  0.0000000000000000  0.5000000000000000  0.2694356321783431
  0.0000000000000000  0.5000000000000000  0.7694356321783502
  0.9885344942263075  0.5881121031316141  0.5320638842447636
  0.0881121031316212  0.5114655057736925  0.0320638842447636
  0.9118878968683859  0.4885344942263146  0.0320638842447636
  0.0114655057736925  0.4118878968683788  0.5320638842447636
  0.9531414664347295  0.7070672999688412  0.9933315533126645
  0.2070672999688270  0.5468585335652563  0.4933315533126645
  0.7929327000311588  0.4531414664347579  0.4933315533126645
  0.0468585335652349  0.2929327000311730  0.9933315533126645
  0.8926417114649396  0.7696611466209049  0.4532957591502011
  0.2696611466209049  0.6073582885350604  0.9532957591502011
  0.7303388533790951  0.3926417114649254  0.9532957591502011
  0.1073582885350604  0.2303388533790951  0.4532957591502011
  0.8715433268805981  0.7429972210962674  0.7275007519546719
  0.2429972210962745  0.6284566731194019  0.2275007519546719
  0.7570027789037326  0.3715433268805910  0.2275007519546719
  0.1284566731194090  0.2570027789037326  0.7275007519546719
  0.7957398451481268  0.6052657479726165  0.2518216411300571
  0.1052657479726165  0.7042601548518732  0.7518216411300784
  0.8947342520273835  0.2957398451481126  0.7518216411300784
  0.2042601548518874  0.3947342520273978  0.2518216411300571
  0.7648822960894464  0.5903737459226974  0.8846638028410183
  0.0903737459226832  0.7351177039105536  0.3846638028410183
  0.9096262540773026  0.2648822960894464  0.3846638028410183
  0.2351177039105465  0.4096262540773026  0.8846638028410183
  0.2364025679327995  0.2181705181638023  0.0600805674956888
  0.7181705181638307  0.2635974320671863  0.5600805674956817
  0.2818294818361906  0.7364025679327995  0.5600805674956817
  0.7635974320671863  0.7818294818361693  0.0600805674956888

  0.00000000E+00  0.00000000E+00  0.00000000E+00
  0.00000000E+00  0.00000000E+00  0.00000000E+00
  0.00000000E+00  0.00000000E+00  0.00000000E+00
  0.00000000E+00  0.00000000E+00  0.00000000E+00
  0.00000000E+00  0.00000000E+00  0.00000000E+00
  0.00000000E+00  0.00000000E+00  0.00000000E+00
  0.00000000E+00  0.00000000E+00  0.00000000E+00
  0.00000000E+00  0.00000000E+00  0.00000000E+00
  0.00000000E+00  0.00000000E+00  0.00000000E+00
  0.00000000E+00  0.00000000E+00  0.00000000E+00
  0.00000000E+00  0.00000000E+00  0.00000000E+00
  0.00000000E+00  0.00000000E+00  0.00000000E+00
  0.00000000E+00  0.00000000E+00  0.00000000E+00
  0.00000000E+00  0.00000000E+00  0.00000000E+00
  0.00000000E+00  0.00000000E+00  0.00000000E+00
  0.00000000E+00  0.00000000E+00  0.00000000E+00
  0.00000000E+00  0.00000000E+00  0.00000000E+00
  0.00000000E+00  0.00000000E+00  0.00000000E+00
  0.00000000E+00  0.00000000E+00  0.00000000E+00
  0.00000000E+00  0.00000000E+00  0.00000000E+00
  0.00000000E+00  0.00000000E+00  0.00000000E+00
  0.00000000E+00  0.00000000E+00  0.00000000E+00
  0.00000000E+00  0.00000000E+00  0.00000000E+00
  0.00000000E+00  0.00000000E+00  0.00000000E+00
  0.00000000E+00  0.00000000E+00  0.00000000E+00
  0.00000000E+00  0.00000000E+00  0.00000000E+00
  0.00000000E+00  0.00000000E+00  0.00000000E+00
  0.00000000E+00  0.00000000E+00  0.00000000E+00
  0.00000000E+00  0.00000000E+00  0.00000000E+00
  0.00000000E+00  0.00000000E+00  0.00000000E+00
  0.00000000E+00  0.00000000E+00  0.00000000E+00
  0.00000000E+00  0.00000000E+00  0.00000000E+00
  0.00000000E+00  0.00000000E+00  0.00000000E+00
  0.00000000E+00  0.00000000E+00  0.00000000E+00
  0.00000000E+00  0.00000000E+00  0.00000000E+00
  0.00000000E+00  0.00000000E+00  0.00000000E+00
  0.00000000E+00  0.00000000E+00  0.00000000E+00
  0.00000000E+00  0.00000000E+00  0.00000000E+00
  0.00000000E+00  0.00000000E+00  0.00000000E+00
  0.00000000E+00  0.00000000E+00  0.00000000E+00
  0.00000000E+00  0.00000000E+00  0.00000000E+00
  0.00000000E+00  0.00000000E+00  0.00000000E+00
  0.00000000E+00  0.00000000E+00  0.00000000E+00
  0.00000000E+00  0.00000000E+00  0.00000000E+00
  0.00000000E+00  0.00000000E+00  0.00000000E+00
  0.00000000E+00  0.00000000E+00  0.00000000E+00
  0.00000000E+00  0.00000000E+00  0.00000000E+00
  0.00000000E+00  0.00000000E+00  0.00000000E+00
  0.00000000E+00  0.00000000E+00  0.00000000E+00
  0.00000000E+00  0.00000000E+00  0.00000000E+00
  0.00000000E+00  0.00000000E+00  0.00000000E+00
  0.00000000E+00  0.00000000E+00  0.00000000E+00
  0.00000000E+00  0.00000000E+00  0.00000000E+00
  0.00000000E+00  0.00000000E+00  0.00000000E+00
  0.00000000E+00  0.00000000E+00  0.00000000E+00
  0.00000000E+00  0.00000000E+00  0.00000000E+00
  0.00000000E+00  0.00000000E+00  0.00000000E+00
  0.00000000E+00  0.00000000E+00  0.00000000E+00
  0.00000000E+00  0.00000000E+00  0.00000000E+00
  0.00000000E+00  0.00000000E+00  0.00000000E+00
  0.00000000E+00  0.00000000E+00  0.00000000E+00
  0.00000000E+00  0.00000000E+00  0.00000000E+00
  0.00000000E+00  0.00000000E+00  0.00000000E+00
  0.00000000E+00  0.00000000E+00  0.00000000E+00
  0.00000000E+00  0.00000000E+00  0.00000000E+00
  0.00000000E+00  0.00000000E+00  0.00000000E+00
  0.00000000E+00  0.00000000E+00  0.00000000E+00
  0.00000000E+00  0.00000000E+00  0.00000000E+00
  0.00000000E+00  0.00000000E+00  0.00000000E+00
  0.00000000E+00  0.00000000E+00  0.00000000E+00
  0.00000000E+00  0.00000000E+00  0.00000000E+00
  0.00000000E+00  0.00000000E+00  0.00000000E+00
  0.00000000E+00  0.00000000E+00  0.00000000E+00
  0.00000000E+00  0.00000000E+00  0.00000000E+00
  0.00000000E+00  0.00000000E+00  0.00000000E+00
  0.00000000E+00  0.00000000E+00  0.00000000E+00
  0.00000000E+00  0.00000000E+00  0.00000000E+00
  0.00000000E+00  0.00000000E+00  0.00000000E+00
  0.00000000E+00  0.00000000E+00  0.00000000E+00
  0.00000000E+00  0.00000000E+00  0.00000000E+00
  0.00000000E+00  0.00000000E+00  0.00000000E+00
  0.00000000E+00  0.00000000E+00  0.00000000E+00
  0.00000000E+00  0.00000000E+00  0.00000000E+00
  0.00000000E+00  0.00000000E+00  0.00000000E+00
  0.00000000E+00  0.00000000E+00  0.00000000E+00
  0.00000000E+00  0.00000000E+00  0.00000000E+00
  0.00000000E+00  0.00000000E+00  0.00000000E+00
  0.00000000E+00  0.00000000E+00  0.00000000E+00
  0.00000000E+00  0.00000000E+00  0.00000000E+00
  0.00000000E+00  0.00000000E+00  0.00000000E+00
  0.00000000E+00  0.00000000E+00  0.00000000E+00
  0.00000000E+00  0.00000000E+00  0.00000000E+00
  0.00000000E+00  0.00000000E+00  0.00000000E+00
  0.00000000E+00  0.00000000E+00  0.00000000E+00
  0.00000000E+00  0.00000000E+00  0.00000000E+00
  0.00000000E+00  0.00000000E+00  0.00000000E+00
  0.00000000E+00  0.00000000E+00  0.00000000E+00
  0.00000000E+00  0.00000000E+00  0.00000000E+00
  0.00000000E+00  0.00000000E+00  0.00000000E+00
  0.00000000E+00  0.00000000E+00  0.00000000E+00
  0.00000000E+00  0.00000000E+00  0.00000000E+00
  0.00000000E+00  0.00000000E+00  0.00000000E+00
  0.00000000E+00  0.00000000E+00  0.00000000E+00
  0.00000000E+00  0.00000000E+00  0.00000000E+00
  0.00000000E+00  0.00000000E+00  0.00000000E+00
  0.00000000E+00  0.00000000E+00  0.00000000E+00
  0.00000000E+00  0.00000000E+00  0.00000000E+00
  0.00000000E+00  0.00000000E+00  0.00000000E+00
  0.00000000E+00  0.00000000E+00  0.00000000E+00
  0.00000000E+00  0.00000000E+00  0.00000000E+00
  0.00000000E+00  0.00000000E+00  0.00000000E+00
  0.00000000E+00  0.00000000E+00  0.00000000E+00
