Ca1 In3 Cl1                             
   1.0000000000000000     
     5.6226105178317320    0.0000000000000000    0.0000000000000000
     0.0000000000000000    5.6226105178317320    0.0000000000000000
     0.0000000000000000    0.0000000000000000    5.6226105178317320
   Ca   Cl   In
     1     1     3
Direct
  0.0000000000000000  0.0000000000000000  0.0000000000000000
  0.5000000000000000  0.5000000000000000  0.5000000000000000
  0.5000000000000000  0.5000000000000000  0.0000000000000000
  0.5000000000000000  0.0000000000000000  0.5000000000000000
  0.0000000000000000  0.5000000000000000  0.5000000000000000

  0.00000000E+00  0.00000000E+00  0.00000000E+00
  0.00000000E+00  0.00000000E+00  0.00000000E+00
  0.00000000E+00  0.00000000E+00  0.00000000E+00
  0.00000000E+00  0.00000000E+00  0.00000000E+00
  0.00000000E+00  0.00000000E+00  0.00000000E+00
