Be13 Tl14                               
   1.0000000000000000     
    10.4730194623740722   -4.5859047546417360   -2.1322020249593741
    10.4730194623740722    4.5859047546417360   -2.1322020249593741
    -5.2264218182080260    0.0000000000000000    7.0421924829368203
   Tl   Be
    14    13
Direct
  0.6794240685692117  0.3203647888918724  0.0000732718814476
  0.3203647888918724  0.6794240685692117  0.0000732718814476
  0.8860148684358791  0.4893481012951142  0.0494767467424637
  0.4893481012951142  0.8860148684358791  0.0494767467424637
  0.9757376251163450  0.9757376251163450  0.1439086558487972
  0.7980630981026664  0.7980630981026664  0.5112958409290513
  0.2975435258955059  0.2975435258955059  0.3325654428864269
  0.6841949917138237  0.3159016417771241  0.4999784286015654
  0.3159016417771241  0.6841949917138237  0.4999784286015654
  0.7027945263352890  0.7027945263352890  0.6684071170252466
  0.2014679258556100  0.2014679258556100  0.4877081794240823
  0.0237016718612537  0.0237016718612537  0.8535635408419253
  0.5102691620234339  0.1143044166040212  0.9506622869990835
  0.1143044166040212  0.5102691620234339  0.9506622869990835
  0.1570253302188718  0.1570253302188718  0.8905996626567401
  0.5224155511938946  0.5224155511938946  0.2880045015335142
  0.7561258191501850  0.9910565231387025  0.3676774501160764
  0.9910565231387025  0.7561258191501850  0.3676774501160764
  0.8029126790939571  0.3620926573402485  0.3960985677301920
  0.3620926573402485  0.8029126790939571  0.3960985677301920
  0.9996926707138627  0.9996926707138627  0.4979483764796768
  0.6384280199975407  0.1974839603089578  0.6047744885337920
  0.1974839603089578  0.6384280199975407  0.6047744885337920
  0.0091339737210561  0.2438412167614956  0.6324898919080866
  0.2438412167614956  0.0091339737210561  0.6324898919080866
  0.4781109383666831  0.4781109383666831  0.7132596457497584
  0.8430902475174165  0.8430902475174165  0.1096767715993607

  0.00000000E+00  0.00000000E+00  0.00000000E+00
  0.00000000E+00  0.00000000E+00  0.00000000E+00
  0.00000000E+00  0.00000000E+00  0.00000000E+00
  0.00000000E+00  0.00000000E+00  0.00000000E+00
  0.00000000E+00  0.00000000E+00  0.00000000E+00
  0.00000000E+00  0.00000000E+00  0.00000000E+00
  0.00000000E+00  0.00000000E+00  0.00000000E+00
  0.00000000E+00  0.00000000E+00  0.00000000E+00
  0.00000000E+00  0.00000000E+00  0.00000000E+00
  0.00000000E+00  0.00000000E+00  0.00000000E+00
  0.00000000E+00  0.00000000E+00  0.00000000E+00
  0.00000000E+00  0.00000000E+00  0.00000000E+00
  0.00000000E+00  0.00000000E+00  0.00000000E+00
  0.00000000E+00  0.00000000E+00  0.00000000E+00
  0.00000000E+00  0.00000000E+00  0.00000000E+00
  0.00000000E+00  0.00000000E+00  0.00000000E+00
  0.00000000E+00  0.00000000E+00  0.00000000E+00
  0.00000000E+00  0.00000000E+00  0.00000000E+00
  0.00000000E+00  0.00000000E+00  0.00000000E+00
  0.00000000E+00  0.00000000E+00  0.00000000E+00
  0.00000000E+00  0.00000000E+00  0.00000000E+00
  0.00000000E+00  0.00000000E+00  0.00000000E+00
  0.00000000E+00  0.00000000E+00  0.00000000E+00
  0.00000000E+00  0.00000000E+00  0.00000000E+00
  0.00000000E+00  0.00000000E+00  0.00000000E+00
  0.00000000E+00  0.00000000E+00  0.00000000E+00
  0.00000000E+00  0.00000000E+00  0.00000000E+00
