Mg2 Tl2 Br10                            
   1.0000000000000000     
     5.4517247344387245   -0.0000000000000001    0.0000000000000003
    -0.0000000000000011   12.1032708119693933    0.0000000000000006
    -0.0000000000000001    0.0000000000000003    9.7543888496010247
   Mg   Tl   Br
     2     2    10
Direct
  0.0000000000000000  0.0000000000000000  0.5000000000000000
  0.5000000000000000  0.5000000000000000  0.0000000000000000
  0.5000000000000000  0.0000000000000000  0.0000000000000000
  0.0000000000000000  0.5000000000000000  0.5000000000000000
  0.5000000000000000  0.7127800464753733  0.5000000000000000
  0.5000000000000000  0.2872199535246267  0.5000000000000000
  0.5000000000000000  0.0000000000000000  0.6692435570864603
  0.5000000000000000  0.0000000000000000  0.3307564429135397
  0.0000000000000000  0.0000000000000000  0.0000000000000000
  0.0000000000000000  0.2127800464753733  0.0000000000000000
  0.0000000000000000  0.7872199535246267  0.0000000000000000
  0.0000000000000000  0.5000000000000000  0.1692435570864603
  0.0000000000000000  0.5000000000000000  0.8307564429135397
  0.5000000000000000  0.5000000000000000  0.5000000000000000

  0.00000000E+00  0.00000000E+00  0.00000000E+00
  0.00000000E+00  0.00000000E+00  0.00000000E+00
  0.00000000E+00  0.00000000E+00  0.00000000E+00
  0.00000000E+00  0.00000000E+00  0.00000000E+00
  0.00000000E+00  0.00000000E+00  0.00000000E+00
  0.00000000E+00  0.00000000E+00  0.00000000E+00
  0.00000000E+00  0.00000000E+00  0.00000000E+00
  0.00000000E+00  0.00000000E+00  0.00000000E+00
  0.00000000E+00  0.00000000E+00  0.00000000E+00
  0.00000000E+00  0.00000000E+00  0.00000000E+00
  0.00000000E+00  0.00000000E+00  0.00000000E+00
  0.00000000E+00  0.00000000E+00  0.00000000E+00
  0.00000000E+00  0.00000000E+00  0.00000000E+00
  0.00000000E+00  0.00000000E+00  0.00000000E+00
