Mg2 Ga2 F10                             
   1.00000000000000     
     4.7861429314993327   -0.0105048815653721    1.8354708444446923
     1.0385961373146309    4.6721076139446103    1.8354708378252480
     0.0124358104789289    0.0099538990810927    7.2841852136993417
   Mg   Ga   F 
     2     2    10
Direct
  0.4688541925922323  0.5311458073759781  0.2500000000275477
  0.5311458074077677  0.4688541926240219  0.7499999999724523
  0.0000000000000000  0.0000000000000000  0.5000000000000000
  0.0000000000000000  0.0000000000000000  0.0000000000000000
  0.8056795291180237  0.7043749728473188  0.6396951603435781
  0.2956250270917593  0.1943194709319229  0.8603048396737520
  0.1943194708819789  0.2956250271526812  0.3603058396564265
  0.7043749729082478  0.8056795290680796  0.1396951603262480
  0.8851328080102405  0.1148671920356250  0.7499999999589733
  0.1148671919897595  0.8851328079643750  0.2500000000410267
  0.7286014831878802  0.3367393182760452  0.0394375899564636
  0.6632606817587998  0.2713985168358590  0.4605624100713186
  0.2713985168121198  0.6632606817239548  0.9605624100435364
  0.3367393182412073  0.7286014831641410  0.5394375899286814
 
  0.00000000E+00  0.00000000E+00  0.00000000E+00
  0.00000000E+00  0.00000000E+00  0.00000000E+00
  0.00000000E+00  0.00000000E+00  0.00000000E+00
  0.00000000E+00  0.00000000E+00  0.00000000E+00
  0.00000000E+00  0.00000000E+00  0.00000000E+00
  0.00000000E+00  0.00000000E+00  0.00000000E+00
  0.00000000E+00  0.00000000E+00  0.00000000E+00
  0.00000000E+00  0.00000000E+00  0.00000000E+00
  0.00000000E+00  0.00000000E+00  0.00000000E+00
  0.00000000E+00  0.00000000E+00  0.00000000E+00
  0.00000000E+00  0.00000000E+00  0.00000000E+00
  0.00000000E+00  0.00000000E+00  0.00000000E+00
  0.00000000E+00  0.00000000E+00  0.00000000E+00
  0.00000000E+00  0.00000000E+00  0.00000000E+00
