Mg4 B4 Br20                             
   1.0000000000000000     
     7.5732274098735886    0.0000000000000000    0.0000000000000008
    -0.0000000000000006    6.8480149535562589    0.0000000000000006
     0.0000000000000006    0.0000000000000002   23.3200378294212989
   Mg   B    Br
     4     4    20
Direct
  0.9847610260572708  0.4632613538040715  0.6963142585410154
  0.4847610260572708  0.0367386461959285  0.3036857414589846
  0.0152389739427292  0.9632613538040715  0.8036857414589846
  0.5152389739427292  0.5367386461959285  0.1963142585410154
  0.6026882209000206  0.2531972308903008  0.6091092373453861
  0.1026882209000206  0.2468027691096992  0.3908907626546210
  0.3973117790999794  0.7531972308903008  0.8908907626546139
  0.8973117790999794  0.7468027691096992  0.1091092373453790
  0.0483797165193565  0.5131431167141187  0.4020603726233674
  0.5483797165193565  0.9868568832858813  0.5979396273766326
  0.9516202834806435  0.0131431167141116  0.0979396273766326
  0.4516202834806435  0.4868568832858884  0.9020603726233674
  0.4620957455364945  0.6677665504361840  0.2961127236172985
  0.9620957455364945  0.8322334495638160  0.7038872763826944
  0.5379042544635055  0.1677665504361840  0.2038872763826944
  0.0379042544635055  0.3322334495638160  0.7961127236172985
  0.1372223799803649  0.3439491870418365  0.6138220253828663
  0.6372223799803649  0.1560508129581635  0.3861779746171337
  0.8627776200196351  0.8439491870418294  0.8861779746171337
  0.3627776200196351  0.6560508129581706  0.1138220253828663
  0.6318426974484552  0.3450713144821691  0.6888683179523838
  0.1318426974484552  0.1549286855178309  0.3111316820476162
  0.3681573025515448  0.8450713144821691  0.8111316820476162
  0.8681573025515448  0.6549286855178309  0.1888683179523838
  0.6367531809951572  0.4306440373082907  0.5483896551429410
  0.1367531809951572  0.0693559626917093  0.4516103448570590
  0.3632468190048428  0.9306440373082907  0.9516103448570590
  0.8632468190048428  0.5693559626917093  0.0483896551429339

  0.00000000E+00  0.00000000E+00  0.00000000E+00
  0.00000000E+00  0.00000000E+00  0.00000000E+00
  0.00000000E+00  0.00000000E+00  0.00000000E+00
  0.00000000E+00  0.00000000E+00  0.00000000E+00
  0.00000000E+00  0.00000000E+00  0.00000000E+00
  0.00000000E+00  0.00000000E+00  0.00000000E+00
  0.00000000E+00  0.00000000E+00  0.00000000E+00
  0.00000000E+00  0.00000000E+00  0.00000000E+00
  0.00000000E+00  0.00000000E+00  0.00000000E+00
  0.00000000E+00  0.00000000E+00  0.00000000E+00
  0.00000000E+00  0.00000000E+00  0.00000000E+00
  0.00000000E+00  0.00000000E+00  0.00000000E+00
  0.00000000E+00  0.00000000E+00  0.00000000E+00
  0.00000000E+00  0.00000000E+00  0.00000000E+00
  0.00000000E+00  0.00000000E+00  0.00000000E+00
  0.00000000E+00  0.00000000E+00  0.00000000E+00
  0.00000000E+00  0.00000000E+00  0.00000000E+00
  0.00000000E+00  0.00000000E+00  0.00000000E+00
  0.00000000E+00  0.00000000E+00  0.00000000E+00
  0.00000000E+00  0.00000000E+00  0.00000000E+00
  0.00000000E+00  0.00000000E+00  0.00000000E+00
  0.00000000E+00  0.00000000E+00  0.00000000E+00
  0.00000000E+00  0.00000000E+00  0.00000000E+00
  0.00000000E+00  0.00000000E+00  0.00000000E+00
  0.00000000E+00  0.00000000E+00  0.00000000E+00
  0.00000000E+00  0.00000000E+00  0.00000000E+00
  0.00000000E+00  0.00000000E+00  0.00000000E+00
  0.00000000E+00  0.00000000E+00  0.00000000E+00
