BaCl3                                   
   1.00000000000000     
     9.2191315681292085   -1.7094249990311607    0.0000000000000000
    -6.0181339241293399    6.0558425088278751    0.0000000000000000
     0.0000000000000000    0.0000000000000000    5.2180229594506509
   Ba   Cl
     2     6
Direct
  0.2991727134942934  0.5863119703946040  0.7500000000000000
  0.7008272865057066  0.4136880296053960  0.2500000000000000
  0.0912917049931963  0.2189457364132323  0.2500000000000000
  0.5977751348956346  0.7222845824691717  0.2500000000000000
  0.2441210631724005  0.7765718824606154  0.2500000000000000
  0.9087082950068037  0.7810542635867677  0.7500000000000000
  0.4022248651043654  0.2777154175308283  0.7500000000000000
  0.7558789368275995  0.2234281175393846  0.7500000000000000
 
  0.00000000E+00  0.00000000E+00  0.00000000E+00
  0.00000000E+00  0.00000000E+00  0.00000000E+00
  0.00000000E+00  0.00000000E+00  0.00000000E+00
  0.00000000E+00  0.00000000E+00  0.00000000E+00
  0.00000000E+00  0.00000000E+00  0.00000000E+00
  0.00000000E+00  0.00000000E+00  0.00000000E+00
  0.00000000E+00  0.00000000E+00  0.00000000E+00
  0.00000000E+00  0.00000000E+00  0.00000000E+00
