Al2I3                                   
   1.00000000000000     
    -8.0105446628938388    0.0003760679000242   -0.0016501352764364
     4.0064053866287272   -6.9101062908176401   -0.0045885586187050
    -3.9979980755703153    2.3077582792475968    7.0118771360075227
   Al   I 
     4     6
Direct
  0.6598847574119375  0.3406004544597749  0.0199618364668410
  0.8476228011401545  0.1523826390007201  0.4598898265528035
  0.1553546938618382  0.8425352784006250  0.5302874793507186
  0.3472899920189860  0.6528279101134373  0.9580086485361434
  0.3313405454543172  0.0981236418483604  0.2383595094422333
  0.9004419907440777  0.4728585336484841  0.2400053266256919
  0.5275462037283702  0.6691101575344831  0.2395045951204366
  0.4370622282189629  0.2021455098196299  0.7697193068796864
  0.9964729283477993  0.5664208631606371  0.7726553105945513
  0.7971838590735416  0.0031950120138475  0.7718081604309219
 
  0.00000000E+00  0.00000000E+00  0.00000000E+00
  0.00000000E+00  0.00000000E+00  0.00000000E+00
  0.00000000E+00  0.00000000E+00  0.00000000E+00
  0.00000000E+00  0.00000000E+00  0.00000000E+00
  0.00000000E+00  0.00000000E+00  0.00000000E+00
  0.00000000E+00  0.00000000E+00  0.00000000E+00
  0.00000000E+00  0.00000000E+00  0.00000000E+00
  0.00000000E+00  0.00000000E+00  0.00000000E+00
  0.00000000E+00  0.00000000E+00  0.00000000E+00
  0.00000000E+00  0.00000000E+00  0.00000000E+00
