Be10 Al6                                
   1.00000000000000     
     3.9519017618852668    0.0000000000000000    0.0000000000000000
     0.0000000000000000    7.4542013522160540   -1.1874190004501199
     0.0000000000000000    2.6476632567853087    6.1144841399622889
   Al   Be
     6    10
Direct
  0.7500000000000000  0.3949648666644876  0.9465167248394764
  0.2500000000000000  0.6050351333355124  0.0534832751605236
  0.2500000000000000  0.9098502017176173  0.4231084619290613
  0.7500000000000000  0.6522281963007970  0.3349783649687765
  0.7500000000000000  0.0901497982823827  0.5768915380709387
  0.2500000000000000  0.3477718036992030  0.6650216350312235
  0.2500000000000000  0.1931042449903231  0.0855829804855404
  0.7500000000000000  0.8068957550096769  0.9144170195144596
  0.7500000000000000  0.0961999856413769  0.2273427097022562
  0.2500000000000000  0.9086034673090495  0.0838939682657980
  0.4995462925136636  0.3462710693242528  0.3036964510594515
  0.0004537074863364  0.3462710693242528  0.3036964510594515
  0.9995462925136636  0.6537289306757401  0.6963035489405485
  0.5004537074863364  0.6537289306757401  0.6963035489405485
  0.2500000000000000  0.9038000143586231  0.7726572902977438
  0.7500000000000000  0.0913965326909505  0.9161060317342020
 
  0.00000000E+00  0.00000000E+00  0.00000000E+00
  0.00000000E+00  0.00000000E+00  0.00000000E+00
  0.00000000E+00  0.00000000E+00  0.00000000E+00
  0.00000000E+00  0.00000000E+00  0.00000000E+00
  0.00000000E+00  0.00000000E+00  0.00000000E+00
  0.00000000E+00  0.00000000E+00  0.00000000E+00
  0.00000000E+00  0.00000000E+00  0.00000000E+00
  0.00000000E+00  0.00000000E+00  0.00000000E+00
  0.00000000E+00  0.00000000E+00  0.00000000E+00
  0.00000000E+00  0.00000000E+00  0.00000000E+00
  0.00000000E+00  0.00000000E+00  0.00000000E+00
  0.00000000E+00  0.00000000E+00  0.00000000E+00
  0.00000000E+00  0.00000000E+00  0.00000000E+00
  0.00000000E+00  0.00000000E+00  0.00000000E+00
  0.00000000E+00  0.00000000E+00  0.00000000E+00
  0.00000000E+00  0.00000000E+00  0.00000000E+00
