Ca1 Ga3 F6                              
   1.00000000000000     
    -2.9784562420294769    4.2092788432679891    2.9708157208175043
     2.9750256683447938   -4.2146934776494547    2.9750256683447946
     2.9708157208175048    4.2092788432679891   -2.9784562420294778
   F    Ca   Ga
     6     1     3
Direct
  0.2672931040830875  0.5344404181095186  0.2672931040830875
  0.7328078703025156  0.0000000000000000  0.2671921296974844
  0.2675463744055548  0.0009093437387619  0.2675463744055548
  0.7324536255944452  0.9990906562612381  0.7324536255944452
  0.7327068959169125  0.4655595818904814  0.7327068959169125
  0.2671921296974844  0.0000000000000000  0.7328078703025156
  0.0000000000000000  0.0000000000000000  0.0000000000000000
  0.7501789321984944  0.5000000000000000  0.2498210678014985
  0.5000000000000000  0.0000000000000000  0.5000000000000000
  0.2498210678014985  0.5000000000000000  0.7501789321984944
 
  0.00000000E+00  0.00000000E+00  0.00000000E+00
  0.00000000E+00  0.00000000E+00  0.00000000E+00
  0.00000000E+00  0.00000000E+00  0.00000000E+00
  0.00000000E+00  0.00000000E+00  0.00000000E+00
  0.00000000E+00  0.00000000E+00  0.00000000E+00
  0.00000000E+00  0.00000000E+00  0.00000000E+00
  0.00000000E+00  0.00000000E+00  0.00000000E+00
  0.00000000E+00  0.00000000E+00  0.00000000E+00
  0.00000000E+00  0.00000000E+00  0.00000000E+00
  0.00000000E+00  0.00000000E+00  0.00000000E+00
