Mg2 B2 Br10                             
   1.00000000000000     
     8.4119520419590170   -4.7020748718405692    2.2829726210768713
     8.4327910684987675    4.7248197278729851    2.2341385940646998
    -3.8259608346856222    0.0416195953679535    6.8192180586640543
   B    Mg   Br
     2     2    10
Direct
  0.2135629341807288  0.6965053117181910  0.9399410366808425
  0.6938898454745797  0.2133774752160917  0.4390192966104749
  0.5591647294636672  0.5576694150736046  0.2457527150137722
  0.5592534842158301  0.5576749301154038  0.7458159544145957
  0.4079465627460479  0.4539241479339253  0.9270790165296674
  0.2471550820546113  0.8006641467833333  0.1907169046966999
  0.7984546694901056  0.2446228056981781  0.2622323466363028
  0.7075491329226153  0.0053587388898748  0.3858458664678182
  0.6196218122443398  0.6876148876552151  0.5483586467344423
  0.4519755600929827  0.4096130827522302  0.4270735784077644
  0.7996667277155112  0.2449275043478281  0.6896461203221733
  0.2468043052917750  0.7995393112296654  0.7633237121475247
  0.0037235272040306  0.7132897620568599  0.8872166853189540
  0.6914316269032028  0.6154184805296055  0.0482781200189706
 
  0.00000000E+00  0.00000000E+00  0.00000000E+00
  0.00000000E+00  0.00000000E+00  0.00000000E+00
  0.00000000E+00  0.00000000E+00  0.00000000E+00
  0.00000000E+00  0.00000000E+00  0.00000000E+00
  0.00000000E+00  0.00000000E+00  0.00000000E+00
  0.00000000E+00  0.00000000E+00  0.00000000E+00
  0.00000000E+00  0.00000000E+00  0.00000000E+00
  0.00000000E+00  0.00000000E+00  0.00000000E+00
  0.00000000E+00  0.00000000E+00  0.00000000E+00
  0.00000000E+00  0.00000000E+00  0.00000000E+00
  0.00000000E+00  0.00000000E+00  0.00000000E+00
  0.00000000E+00  0.00000000E+00  0.00000000E+00
  0.00000000E+00  0.00000000E+00  0.00000000E+00
  0.00000000E+00  0.00000000E+00  0.00000000E+00
