Ba4 Tl2 I10                             
   1.0000000000000000     
     9.7693046120008713    0.0597851003238069   -0.3945730283281827
     0.0565668750471400    9.6996832376658855    0.0833165926063788
     4.5888805099036620    4.9480580736394018    7.8905376114594175
   I    Ba   Tl
    10     4     2
Direct
  0.9832256711205005  0.9785372975931566  0.0385237262849643
  0.5083319235608741  0.5111406873434845  0.9814142824832928
  0.5240169433980242  0.0087578586411183  0.2765402663231811
  0.0305319193475171  0.2447252414373722  0.2616937562688335
  0.7033444544619130  0.5067112833204064  0.2804603134361656
  0.2553145339749463  0.7074343678011772  0.2641536555095030
  0.7619303439162692  0.2904600727499229  0.7336432758004818
  0.2794424615643862  0.4742395091155274  0.7212962986964300
  0.9812558146829531  0.7680597499853405  0.7412510426997230
  0.4663111877664932  0.0103403291765574  0.7292011235139668
  0.3312259034545093  0.1445357591448868  0.0246174708876836
  0.8430012436578167  0.3363550154505930  0.0056654254272672
  0.1672346292868667  0.6692419270465564  0.9911448454130891
  0.6700820948415966  0.8583924861067729  0.9763293257614905
  0.3289713265263856  0.3183320401977667  0.4511158440864733
  0.6654795484389098  0.6724363748893722  0.5229493474074189

  0.00000000E+00  0.00000000E+00  0.00000000E+00
  0.00000000E+00  0.00000000E+00  0.00000000E+00
  0.00000000E+00  0.00000000E+00  0.00000000E+00
  0.00000000E+00  0.00000000E+00  0.00000000E+00
  0.00000000E+00  0.00000000E+00  0.00000000E+00
  0.00000000E+00  0.00000000E+00  0.00000000E+00
  0.00000000E+00  0.00000000E+00  0.00000000E+00
  0.00000000E+00  0.00000000E+00  0.00000000E+00
  0.00000000E+00  0.00000000E+00  0.00000000E+00
  0.00000000E+00  0.00000000E+00  0.00000000E+00
  0.00000000E+00  0.00000000E+00  0.00000000E+00
  0.00000000E+00  0.00000000E+00  0.00000000E+00
  0.00000000E+00  0.00000000E+00  0.00000000E+00
  0.00000000E+00  0.00000000E+00  0.00000000E+00
  0.00000000E+00  0.00000000E+00  0.00000000E+00
  0.00000000E+00  0.00000000E+00  0.00000000E+00
