Be3I                                    
   1.00000000000000     
     6.7287743712490693   -0.0029374841525648    0.0000000000000000
    -3.3669310748111307    5.8254925597139442    0.0000000000000000
     0.0000000000000000    0.0000000000000000    3.6115524705109410
   Be   I 
     6     2
Direct
  0.1089748536082737  0.2178980865954045  0.2500000000000000
  0.7821039686503113  0.8910268413334066  0.2500000000000000
  0.1090258080667752  0.8909732047179233  0.2500000000000000
  0.8910251463917334  0.7821019134045955  0.7500000000000000
  0.2178960313496887  0.1089731586665934  0.7500000000000000
  0.8909741919332248  0.1090267952820767  0.7500000000000000
  0.3331397759903965  0.6668529218740105  0.7500000000000000
  0.6668602240096035  0.3331470781259895  0.2500000000000000
 
  0.00000000E+00  0.00000000E+00  0.00000000E+00
  0.00000000E+00  0.00000000E+00  0.00000000E+00
  0.00000000E+00  0.00000000E+00  0.00000000E+00
  0.00000000E+00  0.00000000E+00  0.00000000E+00
  0.00000000E+00  0.00000000E+00  0.00000000E+00
  0.00000000E+00  0.00000000E+00  0.00000000E+00
  0.00000000E+00  0.00000000E+00  0.00000000E+00
  0.00000000E+00  0.00000000E+00  0.00000000E+00
