Sr4 Tl4 F20                             
   1.0000000000000000     
    12.2224452636199103    0.0000000000000000    0.0000000000000000
     0.0000000000000000    4.2048322013789194    0.0470807784181122
     0.0000000000000000    1.9581419097596606    7.9291758665845524
   Sr   Tl   F 
     4     4    20
Direct
  0.9784178678941871  0.5847078054480050  0.2311265190667129
  0.4784178678941871  0.4152921945519950  0.2688734809332871
  0.0215821321058129  0.4152921945519950  0.7688734809332871
  0.5215821321058129  0.5847078054480050  0.7311265190667129
  0.7680762686769000  0.1541981792899492  0.5887448866372154
  0.2680762686769071  0.8458018207100508  0.9112551133627846
  0.2319237313230929  0.8458018207100508  0.4112551133627846
  0.7319237313231000  0.1541981792899492  0.0887448866372154
  0.5898905817642728  0.2224798268345864  0.5264661047438040
  0.0898905817642799  0.7775201731654136  0.9735338952561960
  0.4101094182357201  0.7775201731654136  0.4735338952561960
  0.9101094182357272  0.2224798268345864  0.0264661047438040
  0.8239863445888389  0.0832436917446202  0.3388258350314501
  0.3239863445888389  0.9167563082553727  0.1611741649685499
  0.1760136554111611  0.9167563082553727  0.6611741649685499
  0.6760136554111611  0.0832436917446202  0.8388258350314501
  0.4106328186434283  0.0770618607693336  0.7540609558519478
  0.9106328186434283  0.9229381392306664  0.7459390441480522
  0.5893671813565717  0.9229381392306664  0.2459390441480593
  0.0893671813565717  0.0770618607693336  0.2540609558519478
  0.7105305883904123  0.6503042772615188  0.6348569044071937
  0.2105305883904123  0.3496957227384883  0.8651430955928063
  0.2894694116095877  0.3496957227384883  0.3651430955928063
  0.7894694116095877  0.6503042772615188  0.1348569044071937
  0.3982819598005136  0.4976268135078925  0.9822021546741624
  0.8982819598005136  0.5023731864921146  0.5177978453258376
  0.6017180401994864  0.5023731864921146  0.0177978453258376
  0.1017180401994793  0.4976268135078925  0.4822021546741624

  0.00000000E+00  0.00000000E+00  0.00000000E+00
  0.00000000E+00  0.00000000E+00  0.00000000E+00
  0.00000000E+00  0.00000000E+00  0.00000000E+00
  0.00000000E+00  0.00000000E+00  0.00000000E+00
  0.00000000E+00  0.00000000E+00  0.00000000E+00
  0.00000000E+00  0.00000000E+00  0.00000000E+00
  0.00000000E+00  0.00000000E+00  0.00000000E+00
  0.00000000E+00  0.00000000E+00  0.00000000E+00
  0.00000000E+00  0.00000000E+00  0.00000000E+00
  0.00000000E+00  0.00000000E+00  0.00000000E+00
  0.00000000E+00  0.00000000E+00  0.00000000E+00
  0.00000000E+00  0.00000000E+00  0.00000000E+00
  0.00000000E+00  0.00000000E+00  0.00000000E+00
  0.00000000E+00  0.00000000E+00  0.00000000E+00
  0.00000000E+00  0.00000000E+00  0.00000000E+00
  0.00000000E+00  0.00000000E+00  0.00000000E+00
  0.00000000E+00  0.00000000E+00  0.00000000E+00
  0.00000000E+00  0.00000000E+00  0.00000000E+00
  0.00000000E+00  0.00000000E+00  0.00000000E+00
  0.00000000E+00  0.00000000E+00  0.00000000E+00
  0.00000000E+00  0.00000000E+00  0.00000000E+00
  0.00000000E+00  0.00000000E+00  0.00000000E+00
  0.00000000E+00  0.00000000E+00  0.00000000E+00
  0.00000000E+00  0.00000000E+00  0.00000000E+00
  0.00000000E+00  0.00000000E+00  0.00000000E+00
  0.00000000E+00  0.00000000E+00  0.00000000E+00
  0.00000000E+00  0.00000000E+00  0.00000000E+00
  0.00000000E+00  0.00000000E+00  0.00000000E+00
