Be17 In12                               
   1.00000000000000     
    -4.9537787258403485   -4.9537787258403503    5.2232031809379666
    -4.9537787258403458    5.2232031809379675   -4.9537787258403476
     5.2232031809379675   -4.9537787258403458   -4.9537787258403476
   In   Be
    12    17
Direct
  0.4775762922911966  0.2656351346516033  0.9452078739313663
  0.2656351346516033  0.4775762922911966  0.9452078739313663
  0.8986434130974317  0.8986434130974317  0.1548068360057826
  0.4775762922911966  0.9452078739313663  0.2656351346516033
  0.9452078739313663  0.4775762922911966  0.2656351346516033
  0.2656351346516033  0.9452078739313663  0.4775762922911966
  0.9452078739313663  0.2656351346516033  0.4775762922911966
  0.8048104225211290  0.5492992188396144  0.5492992188396144
  0.5492992188396144  0.8048104225211290  0.5492992188396144
  0.8986434130974317  0.1548068360057826  0.8986434130974317
  0.1548068360057826  0.8986434130974317  0.8986434130974317
  0.5492992188396144  0.5492992188396144  0.8048104225211290
  0.1593686940894727  0.1593686940894727  0.1593686940894727
  0.5789969425324131  0.0818132051032876  0.0818132051032876
  0.7561220257573282  0.4113666515489598  0.8969410143278509
  0.0818132051032876  0.5789969425324131  0.0818132051032876
  0.4113666515489598  0.7561220257573282  0.8969410143278509
  0.5576888960697559  0.5576888960697559  0.2818363331941782
  0.4550955321034635  0.2298150119418167  0.2298150119418167
  0.2298150119418167  0.4550955321034635  0.2298150119418167
  0.4248677644331451  0.4248677644331451  0.4248677644331451
  0.7561220257573282  0.8969410143278509  0.4113666515489598
  0.8969410143278509  0.7561220257573282  0.4113666515489598
  0.5576888960697559  0.2818363331941782  0.5576888960697559
  0.2818363331941782  0.5576888960697559  0.5576888960697559
  0.0818132051032876  0.0818132051032876  0.5789969425324131
  0.4113666515489598  0.8969410143278509  0.7561220257573282
  0.8969410143278509  0.4113666515489598  0.7561220257573282
  0.2298150119418167  0.2298150119418167  0.4550955321034635
 
  0.00000000E+00  0.00000000E+00  0.00000000E+00
  0.00000000E+00  0.00000000E+00  0.00000000E+00
  0.00000000E+00  0.00000000E+00  0.00000000E+00
  0.00000000E+00  0.00000000E+00  0.00000000E+00
  0.00000000E+00  0.00000000E+00  0.00000000E+00
  0.00000000E+00  0.00000000E+00  0.00000000E+00
  0.00000000E+00  0.00000000E+00  0.00000000E+00
  0.00000000E+00  0.00000000E+00  0.00000000E+00
  0.00000000E+00  0.00000000E+00  0.00000000E+00
  0.00000000E+00  0.00000000E+00  0.00000000E+00
  0.00000000E+00  0.00000000E+00  0.00000000E+00
  0.00000000E+00  0.00000000E+00  0.00000000E+00
  0.00000000E+00  0.00000000E+00  0.00000000E+00
  0.00000000E+00  0.00000000E+00  0.00000000E+00
  0.00000000E+00  0.00000000E+00  0.00000000E+00
  0.00000000E+00  0.00000000E+00  0.00000000E+00
  0.00000000E+00  0.00000000E+00  0.00000000E+00
  0.00000000E+00  0.00000000E+00  0.00000000E+00
  0.00000000E+00  0.00000000E+00  0.00000000E+00
  0.00000000E+00  0.00000000E+00  0.00000000E+00
  0.00000000E+00  0.00000000E+00  0.00000000E+00
  0.00000000E+00  0.00000000E+00  0.00000000E+00
  0.00000000E+00  0.00000000E+00  0.00000000E+00
  0.00000000E+00  0.00000000E+00  0.00000000E+00
  0.00000000E+00  0.00000000E+00  0.00000000E+00
  0.00000000E+00  0.00000000E+00  0.00000000E+00
  0.00000000E+00  0.00000000E+00  0.00000000E+00
  0.00000000E+00  0.00000000E+00  0.00000000E+00
  0.00000000E+00  0.00000000E+00  0.00000000E+00
