Mg17 B11 I1                             
   1.00000000000000     
     5.7599971246009014   -2.6875915499948215    2.7414982492897271
     1.5734209529683447    8.8497755625225558    3.4657370320946943
    -7.3525174969976268   -5.6009577673096125    2.8589327130914008
   B    I    Mg
    11     1    17
Direct
  0.6371765282606816  0.0810895374174692  0.0407882960968493
  0.2904317003586812  0.2124034189388553  0.2628520982561611
  0.8342985532231708  0.1968718794470377  0.2511113871210213
  0.3363875044175941  0.9451063048182675  0.3585854929517751
  0.0843383943697589  0.2007131624223604  0.3206046054105798
  0.2425891075170483  0.0700194044158238  0.3053010805324163
  0.0110345659827473  0.8685411289973004  0.7301836886298574
  0.8396069505870969  0.0068056688758418  0.7684208379685842
  0.0332735013008048  0.7421225618776788  0.7909906171352645
  0.6450590805559600  0.9899317688900098  0.8325458781467390
  0.9971409615991718  0.9959077232576448  0.6614595379754746
  0.7107307583066316  0.6983434130318003  0.0780501488676393
  0.1996990914085757  0.3358482009988890  0.8497531410810382
  0.2839635014940498  0.1168481269548707  0.9712001144352200
  0.7114554263969239  0.2978629782452984  0.9780807929251338
  0.9294001680975867  0.9673165851488790  0.0132817575622397
  0.1114105482021372  0.6993032027998964  0.0151288002043941
  0.9057907987540332  0.6847344288397039  0.3970730151723956
  0.5334209012896949  0.0383266311237804  0.2360688335771570
  0.1548882837603145  0.4381713419770534  0.3065618670440102
  0.0157466942309696  0.0412025797146072  0.4305456871127475
  0.4231828774440274  0.6844821439363642  0.2819565646275493
  0.5988072765924457  0.3744916790034409  0.2909807556043802
  0.3290162364215803  0.9497297828246616  0.6096753088647233
  0.9659694426513283  0.4209115786552715  0.5902373897292250
  0.6582308974645485  0.6905618023156990  0.6251656360929445
  0.7030502526014999  0.1136140711224911  0.5987469340609337
  0.3755428985776987  0.7688950523324891  0.8028611719713865
  0.4393130981332547  0.3691838416165254  0.6017895608421640
 
  0.00000000E+00  0.00000000E+00  0.00000000E+00
  0.00000000E+00  0.00000000E+00  0.00000000E+00
  0.00000000E+00  0.00000000E+00  0.00000000E+00
  0.00000000E+00  0.00000000E+00  0.00000000E+00
  0.00000000E+00  0.00000000E+00  0.00000000E+00
  0.00000000E+00  0.00000000E+00  0.00000000E+00
  0.00000000E+00  0.00000000E+00  0.00000000E+00
  0.00000000E+00  0.00000000E+00  0.00000000E+00
  0.00000000E+00  0.00000000E+00  0.00000000E+00
  0.00000000E+00  0.00000000E+00  0.00000000E+00
  0.00000000E+00  0.00000000E+00  0.00000000E+00
  0.00000000E+00  0.00000000E+00  0.00000000E+00
  0.00000000E+00  0.00000000E+00  0.00000000E+00
  0.00000000E+00  0.00000000E+00  0.00000000E+00
  0.00000000E+00  0.00000000E+00  0.00000000E+00
  0.00000000E+00  0.00000000E+00  0.00000000E+00
  0.00000000E+00  0.00000000E+00  0.00000000E+00
  0.00000000E+00  0.00000000E+00  0.00000000E+00
  0.00000000E+00  0.00000000E+00  0.00000000E+00
  0.00000000E+00  0.00000000E+00  0.00000000E+00
  0.00000000E+00  0.00000000E+00  0.00000000E+00
  0.00000000E+00  0.00000000E+00  0.00000000E+00
  0.00000000E+00  0.00000000E+00  0.00000000E+00
  0.00000000E+00  0.00000000E+00  0.00000000E+00
  0.00000000E+00  0.00000000E+00  0.00000000E+00
  0.00000000E+00  0.00000000E+00  0.00000000E+00
  0.00000000E+00  0.00000000E+00  0.00000000E+00
  0.00000000E+00  0.00000000E+00  0.00000000E+00
  0.00000000E+00  0.00000000E+00  0.00000000E+00
