Ca4 In10                                
   1.00000000000000     
     5.0079754664703806    5.0079754664703806   -4.0481746337250399
     5.0079754664703806   -5.0079754664703806    4.0481746337250399
    -5.0079754664703806   -5.0079754664703806   -4.0481746337250399
   In   Ca
    10     4
Direct
  0.8145566660440906  0.2988011770513310  0.1133578430954216
  0.4842445110072262  0.2988011770513310  0.1854433339559094
  0.8866421569045784  0.7011988229486690  0.1854433339559094
  0.3005879915124510  0.0000000000000000  0.3005879915124510
  0.1854433339559094  0.2988011770513310  0.4842445110072262
  0.8145566660440906  0.7011988229486690  0.5157554889927738
  0.6994120084875490  0.0000000000000000  0.6994120084875490
  0.1133578430954216  0.2988011770513310  0.8145566660440906
  0.5157554889927738  0.7011988229486690  0.8145566660440906
  0.1854433339559094  0.7011988229486690  0.8866421569045784
  0.7072747821964427  0.0000000000000000  0.2927252178035573
  0.2927252178035573  0.5854504356071217  0.2927252178035573
  0.2927252178035573  0.0000000000000000  0.7072747821964427
  0.7072747821964427  0.4145495643928712  0.7072747821964427
 
  0.00000000E+00  0.00000000E+00  0.00000000E+00
  0.00000000E+00  0.00000000E+00  0.00000000E+00
  0.00000000E+00  0.00000000E+00  0.00000000E+00
  0.00000000E+00  0.00000000E+00  0.00000000E+00
  0.00000000E+00  0.00000000E+00  0.00000000E+00
  0.00000000E+00  0.00000000E+00  0.00000000E+00
  0.00000000E+00  0.00000000E+00  0.00000000E+00
  0.00000000E+00  0.00000000E+00  0.00000000E+00
  0.00000000E+00  0.00000000E+00  0.00000000E+00
  0.00000000E+00  0.00000000E+00  0.00000000E+00
  0.00000000E+00  0.00000000E+00  0.00000000E+00
  0.00000000E+00  0.00000000E+00  0.00000000E+00
  0.00000000E+00  0.00000000E+00  0.00000000E+00
  0.00000000E+00  0.00000000E+00  0.00000000E+00
