Mg5 Tl9                                 
   1.0000000000000000     
     6.1352377097907800   -0.1652280784177113   -0.4224385097240829
    -3.1557204511418391    5.2358728894497206    1.7369359210217550
    -4.0526013065364568    4.7905575994079728   13.8580416624271479
   Tl   Mg
     9     5
Direct
  0.9755259598308115  0.0793420476871631  0.9671092099696708
  0.9777959884452869  0.2968351406969205  0.1312093605230942
  0.3081085839937643  0.7339449044042183  0.2482030241895501
  0.6769553210125352  0.4991887092135840  0.2436678041108493
  0.0606169247644459  0.8669512675447777  0.3985123077224202
  0.0452951894131388  0.1669555366491551  0.5426015759977574
  0.3964537343343721  0.4809874261799294  0.7021807879357880
  0.8323287302336766  0.3988989100514431  0.6748396368663094
  0.8661834496428895  0.7223269042610525  0.8486505115318863
  0.4919952283492037  0.4362906485301323  0.0401319516940504
  0.5722021022776289  0.8144384665871911  0.4460529567773364
  0.5340435996792294  0.2121125954704866  0.4990102362488713
  0.3249256507970202  0.8039588173146868  0.7765747487362376
  0.4375695372260040  0.9877686254092382  0.9807558876961977

  0.00000000E+00  0.00000000E+00  0.00000000E+00
  0.00000000E+00  0.00000000E+00  0.00000000E+00
  0.00000000E+00  0.00000000E+00  0.00000000E+00
  0.00000000E+00  0.00000000E+00  0.00000000E+00
  0.00000000E+00  0.00000000E+00  0.00000000E+00
  0.00000000E+00  0.00000000E+00  0.00000000E+00
  0.00000000E+00  0.00000000E+00  0.00000000E+00
  0.00000000E+00  0.00000000E+00  0.00000000E+00
  0.00000000E+00  0.00000000E+00  0.00000000E+00
  0.00000000E+00  0.00000000E+00  0.00000000E+00
  0.00000000E+00  0.00000000E+00  0.00000000E+00
  0.00000000E+00  0.00000000E+00  0.00000000E+00
  0.00000000E+00  0.00000000E+00  0.00000000E+00
  0.00000000E+00  0.00000000E+00  0.00000000E+00
