In10 Br18                               
   1.00000000000000     
     0.0365894654978932   -7.7741850574426046    6.9586931024070440
     6.6943115178444268   -3.8761437937975427   -6.9108944731281552
     6.7412736766876842    3.8608627964536559    6.9697503572571264
   Br   In
    18    10
Direct
  0.2821486395352224  0.0683714605690326  0.0876153753392330
  0.9077422818312755  0.2848041591765238  0.0667455591961854
  0.4052238177351413  0.7502289301415814  0.0925066708889304
  0.4091209069312356  0.4314857322209775  0.2173932002273986
  0.0934162362366493  0.5955995896559187  0.2510342490038298
  0.9332436928719474  0.9151637291099277  0.2845702264425256
  0.2501938332946096  0.9080746192028215  0.4052196155175523
  0.7821346163241714  0.4058690674721532  0.4308118140949659
  0.5680185565325147  0.7829316306956855  0.4067385452711321
  0.4342748923754129  0.2118879970351131  0.5885755098090613
  0.2166924086823556  0.5913244630051935  0.5682570306753902
  0.7518411818779285  0.0902107487014447  0.5966149933189371
  0.0695139054383347  0.0904162451178152  0.7188995147504045
  0.9035118998620248  0.4071515747209631  0.7487169813040708
  0.5836224421810456  0.5664505625567884  0.7809167784353761
  0.5927638324387416  0.2493380580178766  0.9059483225453135
  0.0872979576106871  0.7166315891051696  0.9331040677715450
  0.7182745560975476  0.9308163535412390  0.9141665602514664
  0.7540595777759975  0.5309092928324119  0.0307835580360347
  0.1532277922735403  0.8462390474119417  0.1532902678488313
  0.5324933090836197  0.0316144667951264  0.2498782331352842
  0.3453045789616311  0.6551092856145218  0.3457804013055892
  0.0298633971985609  0.2489890455149819  0.4673500432331110
  0.9718982808860162  0.7554943170032047  0.5331863387926106
  0.6535233163484122  0.3447642996014082  0.6543385697059847
  0.4678335898408150  0.9683338297898771  0.7537251269522542
  0.8454481409362771  0.1524960451108441  0.8457891721319868
  0.2574123588382804  0.4693938602794745  0.9681432740149845
 
  0.00000000E+00  0.00000000E+00  0.00000000E+00
  0.00000000E+00  0.00000000E+00  0.00000000E+00
  0.00000000E+00  0.00000000E+00  0.00000000E+00
  0.00000000E+00  0.00000000E+00  0.00000000E+00
  0.00000000E+00  0.00000000E+00  0.00000000E+00
  0.00000000E+00  0.00000000E+00  0.00000000E+00
  0.00000000E+00  0.00000000E+00  0.00000000E+00
  0.00000000E+00  0.00000000E+00  0.00000000E+00
  0.00000000E+00  0.00000000E+00  0.00000000E+00
  0.00000000E+00  0.00000000E+00  0.00000000E+00
  0.00000000E+00  0.00000000E+00  0.00000000E+00
  0.00000000E+00  0.00000000E+00  0.00000000E+00
  0.00000000E+00  0.00000000E+00  0.00000000E+00
  0.00000000E+00  0.00000000E+00  0.00000000E+00
  0.00000000E+00  0.00000000E+00  0.00000000E+00
  0.00000000E+00  0.00000000E+00  0.00000000E+00
  0.00000000E+00  0.00000000E+00  0.00000000E+00
  0.00000000E+00  0.00000000E+00  0.00000000E+00
  0.00000000E+00  0.00000000E+00  0.00000000E+00
  0.00000000E+00  0.00000000E+00  0.00000000E+00
  0.00000000E+00  0.00000000E+00  0.00000000E+00
  0.00000000E+00  0.00000000E+00  0.00000000E+00
  0.00000000E+00  0.00000000E+00  0.00000000E+00
  0.00000000E+00  0.00000000E+00  0.00000000E+00
  0.00000000E+00  0.00000000E+00  0.00000000E+00
  0.00000000E+00  0.00000000E+00  0.00000000E+00
  0.00000000E+00  0.00000000E+00  0.00000000E+00
  0.00000000E+00  0.00000000E+00  0.00000000E+00
