Ca3 Tl1 Cl1                             
   1.0000000000000000     
     5.3557613956611494    0.0000000000000000   -0.0000000000000000
    -0.0000000000000000    5.3557613956611485    0.0000000000000000
    -0.0000000000000000    0.0000000000000000    5.3557613956611485
   Cl   Tl   Ca
     1     1     3
Direct
  0.0000000000000000  0.0000000000000000  0.0000000000000000
  0.5000000000000000  0.5000000000000000  0.5000000000000000
  0.5000000000000000  0.0000000000000000  0.0000000000000000
  0.0000000000000000  0.5000000000000000  0.0000000000000000
  0.0000000000000000  0.0000000000000000  0.5000000000000000

  0.00000000E+00  0.00000000E+00  0.00000000E+00
  0.00000000E+00  0.00000000E+00  0.00000000E+00
  0.00000000E+00  0.00000000E+00  0.00000000E+00
  0.00000000E+00  0.00000000E+00  0.00000000E+00
  0.00000000E+00  0.00000000E+00  0.00000000E+00
