Ca4 In2 Cl10                            
   1.0000000000000000     
     7.9865955245038984   -3.9221364697037662    0.2365169354977687
     7.9866116693365559    3.9221481694779343    0.2363584452478580
    -4.0551961141452049   -0.0001438090082899    6.7202578059431683
   Cl   In   Ca
    10     2     4
Direct
  0.5000144963099515  0.0000166439261093  0.0000077533930707
  0.0233544198437059  0.2279245064893587  0.0236018769719522
  0.5231938039432151  0.7279127503304608  0.2278704371746159
  0.2721082558588606  0.4768701620791305  0.2721571335429900
  0.7721083957322747  0.9766890740638132  0.4764480942822757
  0.0000189579835066  0.5000393791058499  0.5000371250067914
  0.2279266611518764  0.0233625957840147  0.5235819439790319
  0.7279418532837809  0.5231672334892323  0.7278852854601610
  0.4768733424591574  0.2721114525190131  0.7721763181300005
  0.9766719592154942  0.7721272949536697  0.9764487899997505
  0.7500029998278350  0.2499444350205451  0.2499697166445358
  0.2499458858063974  0.7500035751496341  0.7499722792170829
  0.8386204462725573  0.6613449738479176  0.1613847552896814
  0.3387290739825133  0.1614470905071030  0.3386808397970213
  0.6613529331814334  0.8386080540174419  0.6613928266191493
  0.1614365151474573  0.3387307787167018  0.8386848244918923

  0.00000000E+00  0.00000000E+00  0.00000000E+00
  0.00000000E+00  0.00000000E+00  0.00000000E+00
  0.00000000E+00  0.00000000E+00  0.00000000E+00
  0.00000000E+00  0.00000000E+00  0.00000000E+00
  0.00000000E+00  0.00000000E+00  0.00000000E+00
  0.00000000E+00  0.00000000E+00  0.00000000E+00
  0.00000000E+00  0.00000000E+00  0.00000000E+00
  0.00000000E+00  0.00000000E+00  0.00000000E+00
  0.00000000E+00  0.00000000E+00  0.00000000E+00
  0.00000000E+00  0.00000000E+00  0.00000000E+00
  0.00000000E+00  0.00000000E+00  0.00000000E+00
  0.00000000E+00  0.00000000E+00  0.00000000E+00
  0.00000000E+00  0.00000000E+00  0.00000000E+00
  0.00000000E+00  0.00000000E+00  0.00000000E+00
  0.00000000E+00  0.00000000E+00  0.00000000E+00
  0.00000000E+00  0.00000000E+00  0.00000000E+00
