Ca2F3                                   
   1.00000000000000     
    -5.7774557746776676    0.0122073927142846   -0.0014497837803906
     2.8977096284370711   -4.9941637781952020    0.0013924962532739
    -2.8900500610746538    1.6701372951739635    5.2591363508451385
   Ca   F 
     4     6
Direct
  0.6539671127440698  0.3481348768527184  0.0391362220277074
  0.8764841589295784  0.1233001255689103  0.3705326447182813
  0.1228389156581216  0.8761768525475873  0.6294662105927245
  0.3470928209780055  0.6543875696556469  0.9608702276942580
  0.3000047663554568  0.0703763304272940  0.2958310841906950
  0.4728332721226138  0.7000736444886044  0.2971134921803369
  0.9295754694781095  0.5239892092772536  0.2955444101159799
  0.0710462582734834  0.4740227586733212  0.7034138955678131
  0.5251872328049245  0.2994954880937755  0.7044446080085578
  0.7011699926556574  0.9302431444149093  0.7036472049036533
 
  0.00000000E+00  0.00000000E+00  0.00000000E+00
  0.00000000E+00  0.00000000E+00  0.00000000E+00
  0.00000000E+00  0.00000000E+00  0.00000000E+00
  0.00000000E+00  0.00000000E+00  0.00000000E+00
  0.00000000E+00  0.00000000E+00  0.00000000E+00
  0.00000000E+00  0.00000000E+00  0.00000000E+00
  0.00000000E+00  0.00000000E+00  0.00000000E+00
  0.00000000E+00  0.00000000E+00  0.00000000E+00
  0.00000000E+00  0.00000000E+00  0.00000000E+00
  0.00000000E+00  0.00000000E+00  0.00000000E+00
