Mg3Al2                                  
   1.00000000000000     
     7.3669931810454878    0.0000330056481584    0.0000330130132715
     0.0000330130132715    7.3669931810454887    0.0000330056481584
     0.0000330056481584    0.0000330130132715    7.3669931810454878
   Al   Mg
     8    12
Direct
  0.9324203083304141  0.4324296839479160  0.0676209935191352
  0.1821528121414602  0.1821528121414602  0.1821528121414602
  0.8178516227224648  0.6822185300788632  0.3178540543048527
  0.0676209935191352  0.9324203083304141  0.4324296839479160
  0.5676053449084009  0.5676053449084009  0.5676053449084009
  0.3178540543048527  0.8178516227224648  0.6822185300788632
  0.6822185300788632  0.3178540543048527  0.8178516227224648
  0.4324296839479160  0.0676209935191352  0.9324203083304141
  0.1250337661703469  0.7957001842439624  0.0456767763934423
  0.7957001842439624  0.0456767763934423  0.1250337661703469
  0.5456776847606690  0.3749628908723750  0.2042911245392176
  0.4543078261494671  0.8749198008778833  0.2957036260654107
  0.2042911245392176  0.5456776847606690  0.3749628908723750
  0.8749198008778833  0.2957036260654107  0.4543078261494671
  0.3749628908723750  0.2042911245392176  0.5456776847606690
  0.7042959809979834  0.9543146113431433  0.6250623776325881
  0.9543146113431433  0.6250623776325881  0.7042959809979834
  0.0456767763934423  0.1250337661703469  0.7957001842439624
  0.2957036260654107  0.4543078261494671  0.8749198008778833
  0.6250623776325881  0.7042959809979834  0.9543146113431433
 
  0.00000000E+00  0.00000000E+00  0.00000000E+00
  0.00000000E+00  0.00000000E+00  0.00000000E+00
  0.00000000E+00  0.00000000E+00  0.00000000E+00
  0.00000000E+00  0.00000000E+00  0.00000000E+00
  0.00000000E+00  0.00000000E+00  0.00000000E+00
  0.00000000E+00  0.00000000E+00  0.00000000E+00
  0.00000000E+00  0.00000000E+00  0.00000000E+00
  0.00000000E+00  0.00000000E+00  0.00000000E+00
  0.00000000E+00  0.00000000E+00  0.00000000E+00
  0.00000000E+00  0.00000000E+00  0.00000000E+00
  0.00000000E+00  0.00000000E+00  0.00000000E+00
  0.00000000E+00  0.00000000E+00  0.00000000E+00
  0.00000000E+00  0.00000000E+00  0.00000000E+00
  0.00000000E+00  0.00000000E+00  0.00000000E+00
  0.00000000E+00  0.00000000E+00  0.00000000E+00
  0.00000000E+00  0.00000000E+00  0.00000000E+00
  0.00000000E+00  0.00000000E+00  0.00000000E+00
  0.00000000E+00  0.00000000E+00  0.00000000E+00
  0.00000000E+00  0.00000000E+00  0.00000000E+00
  0.00000000E+00  0.00000000E+00  0.00000000E+00
