BaAl3                                   
   1.00000000000000     
     7.4242965042755102   -0.0019827051509626    0.0000000000000000
    -3.7143667233583968    6.4283739288537465    0.0000000000000000
     0.0000000000000000    0.0000000000000000    4.5367011722439052
   Al   Ba
     6     2
Direct
  0.1271687902081666  0.2542951267422779  0.2500000000000000
  0.7457034258722430  0.8728312067115951  0.2500000000000000
  0.1270732976837436  0.8729281896757612  0.2500000000000000
  0.8729267023162564  0.1270718103242388  0.7500000000000000
  0.2542965741277570  0.1271687932884049  0.7500000000000000
  0.8728312097918334  0.7457048732577221  0.7500000000000000
  0.6667488171553444  0.3332518844443726  0.2500000000000000
  0.3332511828446556  0.6667481155556274  0.7500000000000000
 
  0.00000000E+00  0.00000000E+00  0.00000000E+00
  0.00000000E+00  0.00000000E+00  0.00000000E+00
  0.00000000E+00  0.00000000E+00  0.00000000E+00
  0.00000000E+00  0.00000000E+00  0.00000000E+00
  0.00000000E+00  0.00000000E+00  0.00000000E+00
  0.00000000E+00  0.00000000E+00  0.00000000E+00
  0.00000000E+00  0.00000000E+00  0.00000000E+00
  0.00000000E+00  0.00000000E+00  0.00000000E+00
