Ca4 Br6                                 
   1.00000000000000     
    -7.1211509992110704   -0.1365154881260782   -0.2002725234265084
     3.4423833283972565   -6.2357058254256232    0.2002402182468532
    -3.3014780056337463    1.9062611586407143    7.2875838483725506
   Ca   Br
     4     6
Direct
  0.6439444397902037  0.3410789935808225  0.0215702072493755
  0.8410358118615591  0.1439188331493355  0.4785202193137579
  0.1589062989277892  0.8559867929304374  0.5215626299574865
  0.3560293193180968  0.6589468082352425  0.9784972521610413
  0.2412846542204150  0.0431150624887024  0.2233326842254755
  0.9478911928323797  0.4478658259347768  0.2500337409507623
  0.5431334657471396  0.7412853141193310  0.2767155808731090
  0.4568567639789620  0.2587062776385807  0.7233200089148113
  0.0521001976157081  0.5520859035173160  0.7500427345705560
  0.7587178557077792  0.9569101884054518  0.7768049417836167
 
  0.00000000E+00  0.00000000E+00  0.00000000E+00
  0.00000000E+00  0.00000000E+00  0.00000000E+00
  0.00000000E+00  0.00000000E+00  0.00000000E+00
  0.00000000E+00  0.00000000E+00  0.00000000E+00
  0.00000000E+00  0.00000000E+00  0.00000000E+00
  0.00000000E+00  0.00000000E+00  0.00000000E+00
  0.00000000E+00  0.00000000E+00  0.00000000E+00
  0.00000000E+00  0.00000000E+00  0.00000000E+00
  0.00000000E+00  0.00000000E+00  0.00000000E+00
  0.00000000E+00  0.00000000E+00  0.00000000E+00
