B20 I4                                  
   1.00000000000000     
     6.0363469239069305    3.0241005971068544    0.0112719467804451
    -6.0363469239069305    3.0241005971068544    0.0112719467804451
     0.0000000000000000    1.9709264560184050   10.4793692334156674
   B    I 
    20     4
Direct
  0.7164835504309437  0.5666040062397855  0.7229285280291649
  0.4333959937602145  0.2835164495690563  0.7770714719708351
  0.2835164495690563  0.4333959937602145  0.2770714719708351
  0.5666040062397855  0.7164835504309437  0.2229285280291649
  0.0854099793792074  0.5067432573294610  0.6887060517284951
  0.4932567426705390  0.9145900206207926  0.8112939482715049
  0.9145900206207926  0.4932567426705390  0.3112939482715049
  0.5067432573294610  0.0854099793792074  0.1887060517284951
  0.0539146153707364  0.4464551813048701  0.5470602023682147
  0.5535448186951299  0.9460853846292636  0.9529397976317853
  0.9460853846292636  0.5535448186951299  0.4529397976317853
  0.4464551813048701  0.0539146153707364  0.0470602023682147
  0.9035979414186528  0.5498011912286458  0.6114533561380355
  0.4501988087713542  0.0964020585813472  0.8885466438619645
  0.0964020585813472  0.4501988087713542  0.3885466438619645
  0.5498011912286458  0.9035979414186528  0.1114533561380355
  0.0249000951859131  0.7186787729074879  0.7322491107303222
  0.2813212270925121  0.9750999048140869  0.7677508892696778
  0.9750999048140869  0.2813212270925121  0.2677508892696778
  0.7186787729074879  0.0249000951859131  0.2322491107303222
  0.6697820357237632  0.8733954399296948  0.6419852559777155
  0.1266045600703052  0.3302179642762368  0.8580147440222845
  0.3302179642762368  0.1266045600703052  0.3580147440222845
  0.8733954399296948  0.6697820357237632  0.1419852559777155
 
  0.00000000E+00  0.00000000E+00  0.00000000E+00
  0.00000000E+00  0.00000000E+00  0.00000000E+00
  0.00000000E+00  0.00000000E+00  0.00000000E+00
  0.00000000E+00  0.00000000E+00  0.00000000E+00
  0.00000000E+00  0.00000000E+00  0.00000000E+00
  0.00000000E+00  0.00000000E+00  0.00000000E+00
  0.00000000E+00  0.00000000E+00  0.00000000E+00
  0.00000000E+00  0.00000000E+00  0.00000000E+00
  0.00000000E+00  0.00000000E+00  0.00000000E+00
  0.00000000E+00  0.00000000E+00  0.00000000E+00
  0.00000000E+00  0.00000000E+00  0.00000000E+00
  0.00000000E+00  0.00000000E+00  0.00000000E+00
  0.00000000E+00  0.00000000E+00  0.00000000E+00
  0.00000000E+00  0.00000000E+00  0.00000000E+00
  0.00000000E+00  0.00000000E+00  0.00000000E+00
  0.00000000E+00  0.00000000E+00  0.00000000E+00
  0.00000000E+00  0.00000000E+00  0.00000000E+00
  0.00000000E+00  0.00000000E+00  0.00000000E+00
  0.00000000E+00  0.00000000E+00  0.00000000E+00
  0.00000000E+00  0.00000000E+00  0.00000000E+00
  0.00000000E+00  0.00000000E+00  0.00000000E+00
  0.00000000E+00  0.00000000E+00  0.00000000E+00
  0.00000000E+00  0.00000000E+00  0.00000000E+00
  0.00000000E+00  0.00000000E+00  0.00000000E+00
