Ba15 Tl1                                
   1.0000000000000000     
     4.3974880744263896   -7.6166746937504080   -0.0000000000000000
     4.3974880744263896    7.6166746937504080    0.0000000000000000
     0.0000000000000000    0.0000000000000000   14.3348326047473602
   Ba   Tl
    15     1
Direct
  0.0000000000000000  0.0000000000000000  0.0000000000000000
  0.9969331411008753  0.4984665705359959  0.5000000000000000
  0.0037026633646207  0.5018513316974307  0.0000000000000000
  0.5015334294351277  0.4984665705648723  0.5000000000000000
  0.4981486683328100  0.5018513316671900  0.0000000000000000
  0.5015334294640041  0.0030668588991247  0.5000000000000000
  0.4981486683025693  0.9962973366353793  0.0000000000000000
  0.1632654643281342  0.3265319287062241  0.2639103187629033
  0.1632654643281342  0.3265319287062241  0.7360896812370967
  0.1632654643780924  0.8367345356219076  0.2639103187629033
  0.1632654643780924  0.8367345356219076  0.7360896812370967
  0.6734680712937759  0.8367345356718658  0.2639103187629033
  0.6734680712937759  0.8367345356718658  0.7360896812370967
  0.6666669999999968  0.3333330000000032  0.2464016199891930
  0.6666669999999968  0.3333330000000032  0.7535983800108070
  0.0000000000000000  0.0000000000000000  0.5000000000000000

  0.00000000E+00  0.00000000E+00  0.00000000E+00
  0.00000000E+00  0.00000000E+00  0.00000000E+00
  0.00000000E+00  0.00000000E+00  0.00000000E+00
  0.00000000E+00  0.00000000E+00  0.00000000E+00
  0.00000000E+00  0.00000000E+00  0.00000000E+00
  0.00000000E+00  0.00000000E+00  0.00000000E+00
  0.00000000E+00  0.00000000E+00  0.00000000E+00
  0.00000000E+00  0.00000000E+00  0.00000000E+00
  0.00000000E+00  0.00000000E+00  0.00000000E+00
  0.00000000E+00  0.00000000E+00  0.00000000E+00
  0.00000000E+00  0.00000000E+00  0.00000000E+00
  0.00000000E+00  0.00000000E+00  0.00000000E+00
  0.00000000E+00  0.00000000E+00  0.00000000E+00
  0.00000000E+00  0.00000000E+00  0.00000000E+00
  0.00000000E+00  0.00000000E+00  0.00000000E+00
  0.00000000E+00  0.00000000E+00  0.00000000E+00
