Be2 B2 Cl6                              
   1.00000000000000     
     1.1418936326061782   -7.7654099670974421   -1.5260712011762210
     2.2568361019321541    8.2277388196395602    1.8743548808696453
     1.3859691861195755    2.5191775371311760   10.9988973309619560
   Be   Cl   B 
     2     6     2
Direct
  0.4142424406263530  0.3706799230967732  0.9877587660858396
  0.1865656037700134  0.2300656181710394  0.3122399869371222
  0.0446502348399278  0.9415760937671465  0.9043662515331903
  0.4770184864248321  0.2091516349904126  0.1819105341156018
  0.5507327278562997  0.1629397257087888  0.4643752541262032
  0.5559554964794415  0.6591134956112370  0.3955836782713078
  0.0467196970103885  0.4346633887088203  0.8359510903311644
  0.1240163247730308  0.3917310685283866  0.1181576345612498
  0.4080166789237012  0.2121585081932764  0.3180951909748160
  0.1918823092960125  0.3877205432241055  0.9819616130635183
 
  0.00000000E+00  0.00000000E+00  0.00000000E+00
  0.00000000E+00  0.00000000E+00  0.00000000E+00
  0.00000000E+00  0.00000000E+00  0.00000000E+00
  0.00000000E+00  0.00000000E+00  0.00000000E+00
  0.00000000E+00  0.00000000E+00  0.00000000E+00
  0.00000000E+00  0.00000000E+00  0.00000000E+00
  0.00000000E+00  0.00000000E+00  0.00000000E+00
  0.00000000E+00  0.00000000E+00  0.00000000E+00
  0.00000000E+00  0.00000000E+00  0.00000000E+00
  0.00000000E+00  0.00000000E+00  0.00000000E+00
