Ba1 In3 Br6                             
   1.0000000000000000     
     8.5007087774149301    0.0000951020760324    0.0002047804694423
     0.0000951020760324    8.5007087774149301    0.0002047804694423
     4.2505386418786442    4.2505386418786442    6.0108661511145769
   Br   Ba   In
     6     1     3
Direct
  0.7393523171474641  0.2606476828525359  0.0000000000000000
  0.2606394457433652  0.2606394457433652  0.0000157171364918
  0.2606476828525359  0.7393523171474641  0.0000000000000000
  0.7393605542566348  0.7393605542566348  0.9999842828635082
  0.7393585038782362  0.7393585038782362  0.5212968752004343
  0.2606414961217638  0.2606414961217638  0.4787031247995657
  0.0000000000000000  0.0000000000000000  0.0000000000000000
  0.5000000000000000  0.5000000000000000  0.0000000000000000
  0.2498680487158609  0.7501319512841391  0.5000000000000000
  0.7501319512841391  0.2498680487158609  0.5000000000000000

  0.00000000E+00  0.00000000E+00  0.00000000E+00
  0.00000000E+00  0.00000000E+00  0.00000000E+00
  0.00000000E+00  0.00000000E+00  0.00000000E+00
  0.00000000E+00  0.00000000E+00  0.00000000E+00
  0.00000000E+00  0.00000000E+00  0.00000000E+00
  0.00000000E+00  0.00000000E+00  0.00000000E+00
  0.00000000E+00  0.00000000E+00  0.00000000E+00
  0.00000000E+00  0.00000000E+00  0.00000000E+00
  0.00000000E+00  0.00000000E+00  0.00000000E+00
  0.00000000E+00  0.00000000E+00  0.00000000E+00
