Mg13 In16                               
   1.00000000000000     
    -5.6281503408342370   -5.6281503408342370    5.6281503408342370
    -5.6281503408342370    5.6281503408342370   -5.6281503408342370
     5.6281503408342370   -5.6281503408342370   -5.6281503408342370
   In   Mg
    16    13
Direct
  0.6542865534339981  0.0000000000000000  0.0000000000000000
  0.3875871453391753  0.1964011169406206  0.0000000000000000
  0.1964011169406206  0.3875871453391753  0.0000000000000000
  0.0000000000000000  0.6542865534339981  0.0000000000000000
  0.8035988830593794  0.8035988830593794  0.1911860283985476
  0.3875871453391753  0.0000000000000000  0.1964011169406206
  0.0000000000000000  0.3875871453391753  0.1964011169406206
  0.3457134465660019  0.3457134465660019  0.3457134465660019
  0.1964011169406206  0.0000000000000000  0.3875871453391753
  0.0000000000000000  0.1964011169406206  0.3875871453391753
  0.8088139716014524  0.6124128546608247  0.6124128546608247
  0.6124128546608247  0.8088139716014524  0.6124128546608247
  0.0000000000000000  0.0000000000000000  0.6542865534339981
  0.8035988830593794  0.1911860283985476  0.8035988830593794
  0.1911860283985476  0.8035988830593794  0.8035988830593794
  0.6124128546608247  0.6124128546608247  0.8088139716014524
  0.0000000000000000  0.0000000000000000  0.0000000000000000
  0.6903327361593554  0.4101189019670812  0.0000000000000000
  0.4101189019670812  0.6903327361593554  0.0000000000000000
  0.5898810980329188  0.5898810980329188  0.2802138341922742
  0.7197861658077258  0.3096672638406446  0.3096672638406446
  0.3096672638406446  0.7197861658077258  0.3096672638406446
  0.6903327361593554  0.0000000000000000  0.4101189019670812
  0.0000000000000000  0.6903327361593554  0.4101189019670812
  0.5898810980329188  0.2802138341922742  0.5898810980329188
  0.2802138341922742  0.5898810980329188  0.5898810980329188
  0.4101189019670812  0.0000000000000000  0.6903327361593554
  0.0000000000000000  0.4101189019670812  0.6903327361593554
  0.3096672638406446  0.3096672638406446  0.7197861658077258
 
  0.00000000E+00  0.00000000E+00  0.00000000E+00
  0.00000000E+00  0.00000000E+00  0.00000000E+00
  0.00000000E+00  0.00000000E+00  0.00000000E+00
  0.00000000E+00  0.00000000E+00  0.00000000E+00
  0.00000000E+00  0.00000000E+00  0.00000000E+00
  0.00000000E+00  0.00000000E+00  0.00000000E+00
  0.00000000E+00  0.00000000E+00  0.00000000E+00
  0.00000000E+00  0.00000000E+00  0.00000000E+00
  0.00000000E+00  0.00000000E+00  0.00000000E+00
  0.00000000E+00  0.00000000E+00  0.00000000E+00
  0.00000000E+00  0.00000000E+00  0.00000000E+00
  0.00000000E+00  0.00000000E+00  0.00000000E+00
  0.00000000E+00  0.00000000E+00  0.00000000E+00
  0.00000000E+00  0.00000000E+00  0.00000000E+00
  0.00000000E+00  0.00000000E+00  0.00000000E+00
  0.00000000E+00  0.00000000E+00  0.00000000E+00
  0.00000000E+00  0.00000000E+00  0.00000000E+00
  0.00000000E+00  0.00000000E+00  0.00000000E+00
  0.00000000E+00  0.00000000E+00  0.00000000E+00
  0.00000000E+00  0.00000000E+00  0.00000000E+00
  0.00000000E+00  0.00000000E+00  0.00000000E+00
  0.00000000E+00  0.00000000E+00  0.00000000E+00
  0.00000000E+00  0.00000000E+00  0.00000000E+00
  0.00000000E+00  0.00000000E+00  0.00000000E+00
  0.00000000E+00  0.00000000E+00  0.00000000E+00
  0.00000000E+00  0.00000000E+00  0.00000000E+00
  0.00000000E+00  0.00000000E+00  0.00000000E+00
  0.00000000E+00  0.00000000E+00  0.00000000E+00
  0.00000000E+00  0.00000000E+00  0.00000000E+00
