Ga4 Br6                                 
   1.00000000000000     
    -7.8725478684929140   -0.2479963122553789    0.2889489425603215
     3.7268383119361923   -6.3140455757559550   -0.0100958954692047
    -4.1304819642965471    1.8923533201260254    7.0154634921568650
   Ga   Br
     4     6
Direct
  0.6342047419532406  0.3607881995865370  0.0592866530023741
  0.8276468620723207  0.1237386925062154  0.4587752898259652
  0.1714493497258189  0.8515046679511968  0.5198505818900472
  0.3083373040691058  0.6394526743869875  0.9433455726155486
  0.0335983606559864  0.4638761344226552  0.2198957108471973
  0.2174134702239456  0.9913022159891796  0.2014549237344951
  0.5763587142153455  0.8071951593134088  0.2702979057086381
  0.4691180253695535  0.3456980791715125  0.7931730975060347
  0.6523801519289449  0.8907887800022394  0.7805308571529395
  0.1096930197857588  0.5258553966700390  0.7533894077167389
 
  0.00000000E+00  0.00000000E+00  0.00000000E+00
  0.00000000E+00  0.00000000E+00  0.00000000E+00
  0.00000000E+00  0.00000000E+00  0.00000000E+00
  0.00000000E+00  0.00000000E+00  0.00000000E+00
  0.00000000E+00  0.00000000E+00  0.00000000E+00
  0.00000000E+00  0.00000000E+00  0.00000000E+00
  0.00000000E+00  0.00000000E+00  0.00000000E+00
  0.00000000E+00  0.00000000E+00  0.00000000E+00
  0.00000000E+00  0.00000000E+00  0.00000000E+00
  0.00000000E+00  0.00000000E+00  0.00000000E+00
