Ca2 Al2 I10                             
   1.0000000000000000     
     5.2318925279611799   -0.0000000000000001    0.0000000000000004
    -0.0000000000000011   13.2798568959283152    0.0000000000000015
     0.0000000000000001    0.0000000000000009   12.3391969999918256
   Ca   Al   I 
     2     2    10
Direct
  0.0000000000000000  0.0000000000000000  0.5000000000000000
  0.5000000000000000  0.5000000000000000  0.0000000000000000
  0.5000000000000000  0.0000000000000000  0.0000000000000000
  0.0000000000000000  0.5000000000000000  0.5000000000000000
  0.5000000000000000  0.8540481145718104  0.5000000000000000
  0.5000000000000000  0.1459518854281896  0.5000000000000000
  0.5000000000000000  0.0000000000000000  0.2082555476582684
  0.5000000000000000  0.0000000000000000  0.7917444523417316
  0.0000000000000000  0.0000000000000000  0.0000000000000000
  0.0000000000000000  0.3540481145718104  0.0000000000000000
  0.0000000000000000  0.6459518854281896  0.0000000000000000
  0.0000000000000000  0.5000000000000000  0.7082555476582684
  0.0000000000000000  0.5000000000000000  0.2917444523417316
  0.5000000000000000  0.5000000000000000  0.5000000000000000

  0.00000000E+00  0.00000000E+00  0.00000000E+00
  0.00000000E+00  0.00000000E+00  0.00000000E+00
  0.00000000E+00  0.00000000E+00  0.00000000E+00
  0.00000000E+00  0.00000000E+00  0.00000000E+00
  0.00000000E+00  0.00000000E+00  0.00000000E+00
  0.00000000E+00  0.00000000E+00  0.00000000E+00
  0.00000000E+00  0.00000000E+00  0.00000000E+00
  0.00000000E+00  0.00000000E+00  0.00000000E+00
  0.00000000E+00  0.00000000E+00  0.00000000E+00
  0.00000000E+00  0.00000000E+00  0.00000000E+00
  0.00000000E+00  0.00000000E+00  0.00000000E+00
  0.00000000E+00  0.00000000E+00  0.00000000E+00
  0.00000000E+00  0.00000000E+00  0.00000000E+00
  0.00000000E+00  0.00000000E+00  0.00000000E+00
