Mg4 Tl8 Br16                            
   1.0000000000000000     
     9.6676086426111691    0.1003113026164014    0.0224600122746493
     0.0814532712921769    7.9222980585158815   -0.0882346152610961
     0.0324582737959435   -0.1589410112136178   13.9760661851537744
   Mg   Br   Tl
     4    16     8
Direct
  0.7160104530990168  0.2407323919480149  0.0750287775157332
  0.2144230901664699  0.2626323652634710  0.4239668478480993
  0.7865204174440734  0.7492912579291868  0.5752073188683227
  0.2847978754995282  0.7533838274924776  0.9250819487183577
  0.1793432453063204  0.8043428106296844  0.0889973995699833
  0.4606073762553464  0.2051573717495714  0.0645026597204676
  0.8096225215144699  0.9954595879463000  0.1676280914275381
  0.8083666067495869  0.5083568958852567  0.1459928335674761
  0.3012926755103464  0.9857702197070068  0.3558180559564903
  0.3202243028752676  0.4992021915731897  0.3327397944041266
  0.9590525971240282  0.3154268882890463  0.4339342594129150
  0.6824296944967756  0.7673306172565049  0.4101905763770404
  0.3169898333522312  0.2976898785708997  0.5891405823265075
  0.0389462646500505  0.8125067117404683  0.5638656666882653
  0.7065899571245993  0.4850541156587056  0.6504513768547895
  0.6734001793445117  0.9993641145742274  0.6617126104548063
  0.1631646313535384  0.5035050718209888  0.8535750476169781
  0.2229682864901861  0.0136866133774731  0.8341507164266062
  0.5374075931572335  0.6813972806284738  0.9382130748063702
  0.8189825584447874  0.1953447190705333  0.9096097100184011
  0.1221684352217096  0.2287193167787649  0.0252080654005482
  0.5128554415432021  0.7861931159925675  0.1772853703527133
  0.0147206437821978  0.7173411916527073  0.3235526396193649
  0.6224126969243073  0.2075941861502955  0.4722102545572469
  0.3785579836827182  0.7144502510183983  0.5284827835603636
  0.9853962810062669  0.2117207328946478  0.6727881730086480
  0.4869528715447515  0.2927961023662391  0.8274968868066139
  0.8757954863364859  0.7651501720349216  0.9727684781153130

  0.00000000E+00  0.00000000E+00  0.00000000E+00
  0.00000000E+00  0.00000000E+00  0.00000000E+00
  0.00000000E+00  0.00000000E+00  0.00000000E+00
  0.00000000E+00  0.00000000E+00  0.00000000E+00
  0.00000000E+00  0.00000000E+00  0.00000000E+00
  0.00000000E+00  0.00000000E+00  0.00000000E+00
  0.00000000E+00  0.00000000E+00  0.00000000E+00
  0.00000000E+00  0.00000000E+00  0.00000000E+00
  0.00000000E+00  0.00000000E+00  0.00000000E+00
  0.00000000E+00  0.00000000E+00  0.00000000E+00
  0.00000000E+00  0.00000000E+00  0.00000000E+00
  0.00000000E+00  0.00000000E+00  0.00000000E+00
  0.00000000E+00  0.00000000E+00  0.00000000E+00
  0.00000000E+00  0.00000000E+00  0.00000000E+00
  0.00000000E+00  0.00000000E+00  0.00000000E+00
  0.00000000E+00  0.00000000E+00  0.00000000E+00
  0.00000000E+00  0.00000000E+00  0.00000000E+00
  0.00000000E+00  0.00000000E+00  0.00000000E+00
  0.00000000E+00  0.00000000E+00  0.00000000E+00
  0.00000000E+00  0.00000000E+00  0.00000000E+00
  0.00000000E+00  0.00000000E+00  0.00000000E+00
  0.00000000E+00  0.00000000E+00  0.00000000E+00
  0.00000000E+00  0.00000000E+00  0.00000000E+00
  0.00000000E+00  0.00000000E+00  0.00000000E+00
  0.00000000E+00  0.00000000E+00  0.00000000E+00
  0.00000000E+00  0.00000000E+00  0.00000000E+00
  0.00000000E+00  0.00000000E+00  0.00000000E+00
  0.00000000E+00  0.00000000E+00  0.00000000E+00
