BeIn2Cl6                                
   1.00000000000000     
     3.2492189187914602    1.8758550251023853    5.3062544718685878
    -3.2492189187914602    1.8758550251023853    5.3062544718685878
     0.0000000000000000   -3.7516891276429716    5.3062470684672762
   Be   Cl   In
     1     6     2
Direct
  0.0000000000000000  0.0000000000000000  0.0000000000000000
  0.7588541483238345  0.7588541483238345  0.2411635736040409
  0.7588612149661884  0.2411370865934188  0.2411375613042637
  0.2411370865934188  0.7588612149661884  0.2411375613042637
  0.2411458516761655  0.2411458516761655  0.7588364263959591
  0.7588629134065812  0.2411387850338116  0.7588624386957363
  0.2411387850338116  0.7588629134065812  0.7588624386957363
  0.2500003429610089  0.2500003429610089  0.2500014648648161
  0.7499996570389911  0.7499996570389911  0.7499985351351839
 
  0.00000000E+00  0.00000000E+00  0.00000000E+00
  0.00000000E+00  0.00000000E+00  0.00000000E+00
  0.00000000E+00  0.00000000E+00  0.00000000E+00
  0.00000000E+00  0.00000000E+00  0.00000000E+00
  0.00000000E+00  0.00000000E+00  0.00000000E+00
  0.00000000E+00  0.00000000E+00  0.00000000E+00
  0.00000000E+00  0.00000000E+00  0.00000000E+00
  0.00000000E+00  0.00000000E+00  0.00000000E+00
  0.00000000E+00  0.00000000E+00  0.00000000E+00
