MgIn5                                   
   1.00000000000000     
    -4.9567353627436388    2.8570195040848372   -0.2000529252050516
    -0.0030246034179206   -5.7209060309135511    0.2037111613890616
    -1.5276069954647469    2.6478904024563445    5.4308001409731244
   In   Mg
     5     1
Direct
  0.3331516268966439  0.6646076008569608  0.0027427782488019
  0.6695668264121366  0.3357858797110254  0.9997489745320607
  0.9981528060844624  0.9995709523734746  0.9974485483050231
  0.1683165622170080  0.1658366253018286  0.4931144587338920
  0.4986143476411726  0.8349719515221707  0.5069819694268105
  0.8321978307485978  0.4992269902345541  0.4999632707534403
 
  0.00000000E+00  0.00000000E+00  0.00000000E+00
  0.00000000E+00  0.00000000E+00  0.00000000E+00
  0.00000000E+00  0.00000000E+00  0.00000000E+00
  0.00000000E+00  0.00000000E+00  0.00000000E+00
  0.00000000E+00  0.00000000E+00  0.00000000E+00
  0.00000000E+00  0.00000000E+00  0.00000000E+00
