Be1 In1 F5                              
   1.00000000000000     
    -1.8192965430124330    3.6500381312208217    4.2869931502009564
     1.8192965430124330   -3.6500381312208217    4.2869931502009564
     1.8192965430124330    3.6500381312208217   -4.2869931502009564
   Be   In   F 
     1     1     5
Direct
  0.5000000000000000  0.5000000000000000  0.0000000000000000
  0.0000000000000000  0.5000000000000000  0.5000000000000000
  0.3431079245450590  0.0000000000000000  0.3431079245450590
  0.6568920754549410  0.0000000000000000  0.6568920754549410
  0.2325284840191273  0.7325284840191273  0.5000000000000000
  0.7674715159808727  0.2674715159808727  0.5000000000000000
  0.0000000000000000  0.0000000000000000  0.0000000000000000
 
  0.00000000E+00  0.00000000E+00  0.00000000E+00
  0.00000000E+00  0.00000000E+00  0.00000000E+00
  0.00000000E+00  0.00000000E+00  0.00000000E+00
  0.00000000E+00  0.00000000E+00  0.00000000E+00
  0.00000000E+00  0.00000000E+00  0.00000000E+00
  0.00000000E+00  0.00000000E+00  0.00000000E+00
  0.00000000E+00  0.00000000E+00  0.00000000E+00
