Sr5Tl2                                  
   1.0000000000000000     
     2.9308529519332689    1.6807362102714318   10.1473611488675513
    -2.9308529519332689    1.6807362102714318   10.1473611488675513
     0.0000000000000000   -3.3832898088956620   10.1510082115563947
   Sr   Tl
     5     2
Direct
  0.2223177178804718  0.2223177178804718  0.2223628729963139
  0.3711695369851782  0.3711695369851782  0.3713622197008704
  0.5001684662458530  0.5001684662458530  0.5001449762839982
  0.6290743005967272  0.6290743005967272  0.6287973628884131
  0.7779058698037247  0.7779058698037247  0.7778673698712950
  0.0932580971186709  0.0932580971186709  0.0931683448708895
  0.9062060113693775  0.9062060113693775  0.9063968533882161

  0.00000000E+00  0.00000000E+00  0.00000000E+00
  0.00000000E+00  0.00000000E+00  0.00000000E+00
  0.00000000E+00  0.00000000E+00  0.00000000E+00
  0.00000000E+00  0.00000000E+00  0.00000000E+00
  0.00000000E+00  0.00000000E+00  0.00000000E+00
  0.00000000E+00  0.00000000E+00  0.00000000E+00
  0.00000000E+00  0.00000000E+00  0.00000000E+00
