Mg8 Br2                                 
   1.00000000000000     
     4.3423758714509741    0.0000000000000000    0.0000000000000000
     0.0000000000000000    4.3423758714509741    0.0000000000000000
     0.0000000000000000    0.0000000000000000   14.8847081865155069
   Mg   Br
     8     2
Direct
  0.0000000000000000  0.0000000000000000  0.0000000000000000
  0.5000000000000000  0.5000000000000000  0.0000000000000000
  0.0000000000000000  0.0000000000000000  0.3449485127915324
  0.5000000000000000  0.5000000000000000  0.3449485127915324
  0.5000000000000000  0.0000000000000000  0.4936928743807059
  0.0000000000000000  0.5000000000000000  0.5063071256192941
  0.0000000000000000  0.0000000000000000  0.6550514872084676
  0.5000000000000000  0.5000000000000000  0.6550514872084676
  0.0000000000000000  0.5000000000000000  0.2094964456457333
  0.5000000000000000  0.0000000000000000  0.7905035543542667
 
  0.00000000E+00  0.00000000E+00  0.00000000E+00
  0.00000000E+00  0.00000000E+00  0.00000000E+00
  0.00000000E+00  0.00000000E+00  0.00000000E+00
  0.00000000E+00  0.00000000E+00  0.00000000E+00
  0.00000000E+00  0.00000000E+00  0.00000000E+00
  0.00000000E+00  0.00000000E+00  0.00000000E+00
  0.00000000E+00  0.00000000E+00  0.00000000E+00
  0.00000000E+00  0.00000000E+00  0.00000000E+00
  0.00000000E+00  0.00000000E+00  0.00000000E+00
  0.00000000E+00  0.00000000E+00  0.00000000E+00
