TlCl3                                   
   1.0000000000000000     
     3.3988783489849026    1.9574296635428610    6.7008931343480560
    -3.3968403440453931    1.9572329435313665    6.6999232580362085
     0.0008540308338299   -3.9203998545187213    6.7016787488380301
   Cl   Tl
     6     2
Direct
  0.7133679786652323  0.4368547686843200  0.0749570678844833
  0.5635689445340972  0.9249720916841824  0.2866079050481432
  0.0751654327178244  0.7136797490663724  0.4365360137622361
  0.9249733949957175  0.2865337445383531  0.5634094877941678
  0.4365222588246169  0.0752058691471547  0.7135543365209358
  0.2868182405596968  0.5630848500611236  0.9251234929897194
  0.3332142370042277  0.3332296796986682  0.3336592105375189
  0.6667695126985791  0.6668392471198175  0.6665524854627947

  0.00000000E+00  0.00000000E+00  0.00000000E+00
  0.00000000E+00  0.00000000E+00  0.00000000E+00
  0.00000000E+00  0.00000000E+00  0.00000000E+00
  0.00000000E+00  0.00000000E+00  0.00000000E+00
  0.00000000E+00  0.00000000E+00  0.00000000E+00
  0.00000000E+00  0.00000000E+00  0.00000000E+00
  0.00000000E+00  0.00000000E+00  0.00000000E+00
  0.00000000E+00  0.00000000E+00  0.00000000E+00
