Ba2Cl3                                  
   1.00000000000000     
    -8.6280994338398944    0.0011806831060794    0.0014307267991809
     4.3145701268996284   -7.4720915621828308   -0.0017440738386235
    -4.3148309501706468    2.4922090156561842    5.6931733535916997
   Ba   Cl
     4     6
Direct
  0.6312133917674814  0.3686410855012738  0.1062993558052128
  0.8687137373315252  0.1312234768581249  0.3936671014984228
  0.1313302983818545  0.8687106533975211  0.6062639650100721
  0.3687216951799783  0.6312642635200021  0.8936447663895564
  0.5453231100072315  0.7498366081297334  0.2496988974506138
  0.2498428144317728  0.0452814161564419  0.2502515587454184
  0.9546638107209731  0.4546210574302876  0.2499767197907090
  0.0451180850465391  0.5454175040070695  0.7502630057021378
  0.7501706790819753  0.9546566833942620  0.7496879067512481
  0.4547023780506620  0.2501472516052914  0.7502467228566019
 
  0.00000000E+00  0.00000000E+00  0.00000000E+00
  0.00000000E+00  0.00000000E+00  0.00000000E+00
  0.00000000E+00  0.00000000E+00  0.00000000E+00
  0.00000000E+00  0.00000000E+00  0.00000000E+00
  0.00000000E+00  0.00000000E+00  0.00000000E+00
  0.00000000E+00  0.00000000E+00  0.00000000E+00
  0.00000000E+00  0.00000000E+00  0.00000000E+00
  0.00000000E+00  0.00000000E+00  0.00000000E+00
  0.00000000E+00  0.00000000E+00  0.00000000E+00
  0.00000000E+00  0.00000000E+00  0.00000000E+00
