Ca2 Al2 Cl6                             
   1.00000000000000     
     6.8943838920317448    0.0019633331207598   -0.0257475046927462
    -3.4450343525347038    5.9798127787966813    0.0318783653085125
    -3.4748907310938639   -1.9763696424244037    8.1244769762417572
   Ca   Cl   Al
     2     6     2
Direct
  0.6656879206181117  0.3327551052518842  0.9986327860080806
  0.3343723422832880  0.6671799366037519  0.0012880984343724
  0.7925231901654541  0.0624761765501063  0.1872653133351250
  0.4619715832658997  0.3958325241952991  0.1884089613037006
  0.1244220731684536  0.7258486459977505  0.1877429948573663
  0.8756827753567862  0.2741706743279479  0.8121643402733838
  0.5379781736389617  0.6038915932746889  0.8114449476213252
  0.2073770161441857  0.9374818041869517  0.8126234376942136
  0.2424183619575331  0.1175767718029022  0.3603328457221266
  0.7575665634013333  0.8823867678087254  0.6395962747503106
 
  0.00000000E+00  0.00000000E+00  0.00000000E+00
  0.00000000E+00  0.00000000E+00  0.00000000E+00
  0.00000000E+00  0.00000000E+00  0.00000000E+00
  0.00000000E+00  0.00000000E+00  0.00000000E+00
  0.00000000E+00  0.00000000E+00  0.00000000E+00
  0.00000000E+00  0.00000000E+00  0.00000000E+00
  0.00000000E+00  0.00000000E+00  0.00000000E+00
  0.00000000E+00  0.00000000E+00  0.00000000E+00
  0.00000000E+00  0.00000000E+00  0.00000000E+00
  0.00000000E+00  0.00000000E+00  0.00000000E+00
