Mg17 Tl12                               
   1.0000000000000000     
    -5.6754194346997551   -5.6754194346997551    5.6755879765488890
    -5.6754194346997551    5.6755879765488890   -5.6754194346997551
     5.6755879765488890   -5.6754194346997551   -5.6754194346997551
   Tl   Mg
    12    17
Direct
  0.3930607962907331  0.1989915925036172  0.9999188243954720
  0.1989915925036172  0.3930607962907331  0.9999188243954720
  0.8004519772072314  0.8004519772072314  0.1940177602944573
  0.3930607962907331  0.9999188243954720  0.1989915925036172
  0.9999188243954720  0.3930607962907331  0.1989915925036172
  0.1989915925036172  0.9999188243954720  0.3930607962907331
  0.9999188243954720  0.1989915925036172  0.3930607962907331
  0.8061510516481647  0.6069385799758749  0.6069385799758749
  0.6069385799758749  0.8061510516481647  0.6069385799758749
  0.8004519772072314  0.1940177602944573  0.8004519772072314
  0.1940177602944573  0.8004519772072314  0.8004519772072314
  0.6069385799758749  0.6069385799758749  0.8061510516481647
  0.0001547810832818  0.0001547810832818  0.0001547810832818
  0.6703076944901341  0.0001373388671766  0.0001373388671766
  0.6912355671319759  0.4110181229519227  0.0001475752790228
  0.0001373388671766  0.6703076944901341  0.0001373388671766
  0.4110181229519227  0.6912355671319759  0.0001475752790228
  0.5888376387419072  0.5888376387419072  0.2803661969654385
  0.7199367418912743  0.3088796828056886  0.3088796828056886
  0.3088796828056886  0.7199367418912743  0.3088796828056886
  0.3298303813259835  0.3298303813259835  0.3298303813259835
  0.6912355671319759  0.0001475752790228  0.4110181229519227
  0.0001475752790228  0.6912355671319759  0.4110181229519227
  0.5888376387419072  0.2803661969654385  0.5888376387419072
  0.2803661969654385  0.5888376387419072  0.5888376387419072
  0.0001373388671766  0.0001373388671766  0.6703076944901341
  0.4110181229519227  0.0001475752790228  0.6912355671319759
  0.0001475752790228  0.4110181229519227  0.6912355671319759
  0.3088796828056886  0.3088796828056886  0.7199367418912743

  0.00000000E+00  0.00000000E+00  0.00000000E+00
  0.00000000E+00  0.00000000E+00  0.00000000E+00
  0.00000000E+00  0.00000000E+00  0.00000000E+00
  0.00000000E+00  0.00000000E+00  0.00000000E+00
  0.00000000E+00  0.00000000E+00  0.00000000E+00
  0.00000000E+00  0.00000000E+00  0.00000000E+00
  0.00000000E+00  0.00000000E+00  0.00000000E+00
  0.00000000E+00  0.00000000E+00  0.00000000E+00
  0.00000000E+00  0.00000000E+00  0.00000000E+00
  0.00000000E+00  0.00000000E+00  0.00000000E+00
  0.00000000E+00  0.00000000E+00  0.00000000E+00
  0.00000000E+00  0.00000000E+00  0.00000000E+00
  0.00000000E+00  0.00000000E+00  0.00000000E+00
  0.00000000E+00  0.00000000E+00  0.00000000E+00
  0.00000000E+00  0.00000000E+00  0.00000000E+00
  0.00000000E+00  0.00000000E+00  0.00000000E+00
  0.00000000E+00  0.00000000E+00  0.00000000E+00
  0.00000000E+00  0.00000000E+00  0.00000000E+00
  0.00000000E+00  0.00000000E+00  0.00000000E+00
  0.00000000E+00  0.00000000E+00  0.00000000E+00
  0.00000000E+00  0.00000000E+00  0.00000000E+00
  0.00000000E+00  0.00000000E+00  0.00000000E+00
  0.00000000E+00  0.00000000E+00  0.00000000E+00
  0.00000000E+00  0.00000000E+00  0.00000000E+00
  0.00000000E+00  0.00000000E+00  0.00000000E+00
  0.00000000E+00  0.00000000E+00  0.00000000E+00
  0.00000000E+00  0.00000000E+00  0.00000000E+00
  0.00000000E+00  0.00000000E+00  0.00000000E+00
  0.00000000E+00  0.00000000E+00  0.00000000E+00
