Sr2 B10                                 
   1.00000000000000     
     3.5568027958632653   -4.5180955355531243    0.0000000000000000
     3.5568027958632653    4.5180955355531243    0.0000000000000000
     0.0000000000000000    0.0000000000000000    5.9695105279493017
   B    Sr
    10     2
Direct
  0.1806080187816619  0.1806080187816619  0.0000000000000000
  0.8194502227886531  0.8194502227886531  0.0000000000000000
  0.8114704558690278  0.7358631620978713  0.2500000000000000
  0.2640844137413154  0.1884368771287797  0.2500000000000000
  0.0052505465622232  0.9946477687690916  0.2500000000000000
  0.1806080187816619  0.1806080187816619  0.5000000000000000
  0.8194502227886531  0.8194502227886531  0.5000000000000000
  0.9946477687690916  0.0052505465622232  0.7500000000000000
  0.7358631620978713  0.8114704558690278  0.7500000000000000
  0.1884368771287797  0.2640844137413154  0.7500000000000000
  0.3263878893585002  0.6735424033325756  0.2500000000000000
  0.6735424033325756  0.3263878893585002  0.7500000000000000
 
  0.00000000E+00  0.00000000E+00  0.00000000E+00
  0.00000000E+00  0.00000000E+00  0.00000000E+00
  0.00000000E+00  0.00000000E+00  0.00000000E+00
  0.00000000E+00  0.00000000E+00  0.00000000E+00
  0.00000000E+00  0.00000000E+00  0.00000000E+00
  0.00000000E+00  0.00000000E+00  0.00000000E+00
  0.00000000E+00  0.00000000E+00  0.00000000E+00
  0.00000000E+00  0.00000000E+00  0.00000000E+00
  0.00000000E+00  0.00000000E+00  0.00000000E+00
  0.00000000E+00  0.00000000E+00  0.00000000E+00
  0.00000000E+00  0.00000000E+00  0.00000000E+00
  0.00000000E+00  0.00000000E+00  0.00000000E+00
