Be1 Al6                                 
   1.00000000000000     
     6.2830473035642811    0.0000000000000000    0.0000000000000000
     0.0000000000000000    6.2830473035642811    0.0000000000000000
     0.0000000000000000    0.0000000000000000    6.2830473035642811
   Al   Be
     6     1
Direct
  0.3018442180104230  0.0000000000000000  0.0000000000000000
  0.6981557819895770  0.0000000000000000  0.0000000000000000
  0.0000000000000000  0.3018442180104230  0.0000000000000000
  0.0000000000000000  0.6981557819895770  0.0000000000000000
  0.0000000000000000  0.0000000000000000  0.3018442180104230
  0.0000000000000000  0.0000000000000000  0.6981557819895770
  0.5000000000000000  0.5000000000000000  0.5000000000000000
 
  0.00000000E+00  0.00000000E+00  0.00000000E+00
  0.00000000E+00  0.00000000E+00  0.00000000E+00
  0.00000000E+00  0.00000000E+00  0.00000000E+00
  0.00000000E+00  0.00000000E+00  0.00000000E+00
  0.00000000E+00  0.00000000E+00  0.00000000E+00
  0.00000000E+00  0.00000000E+00  0.00000000E+00
  0.00000000E+00  0.00000000E+00  0.00000000E+00
