Mg4Tl3                                  
   1.0000000000000000     
     5.7111653164022114    6.5859298089583476    0.0000000000000000
    -2.8532451005389468    8.2313343954073641    0.0000000000000000
     0.0000000000000000    0.0000000000000000    5.3309205894707228
   Mg   Tl
     8     6
Direct
  0.5691792462788285  0.1483226737237402  0.0000000000000000
  0.7197841961275344  0.4257231095199998  0.0000000000000000
  0.4289228127779054  0.8573957635264904  0.0000000000000000
  0.9980544631664614  0.9964820018917635  0.0000000000000000
  0.9551128464987215  0.2321881452897685  0.5000000000000000
  0.5266358785721295  0.3836553599494721  0.5000000000000000
  0.0947722010463607  0.5240076418977040  0.5000000000000000
  0.8040394327628988  0.9547954887898271  0.5000000000000000
  0.1240920787559290  0.2822778136940798  0.0000000000000000
  0.3072296433111106  0.5530107305451821  0.0000000000000000
  0.8539569432570104  0.7358688849849031  0.0000000000000000
  0.3990096065303916  0.0995335795204326  0.5000000000000000
  0.6694216856295157  0.6452747692674876  0.5000000000000000
  0.2169889652852248  0.8274640373991318  0.5000000000000000

  0.00000000E+00  0.00000000E+00  0.00000000E+00
  0.00000000E+00  0.00000000E+00  0.00000000E+00
  0.00000000E+00  0.00000000E+00  0.00000000E+00
  0.00000000E+00  0.00000000E+00  0.00000000E+00
  0.00000000E+00  0.00000000E+00  0.00000000E+00
  0.00000000E+00  0.00000000E+00  0.00000000E+00
  0.00000000E+00  0.00000000E+00  0.00000000E+00
  0.00000000E+00  0.00000000E+00  0.00000000E+00
  0.00000000E+00  0.00000000E+00  0.00000000E+00
  0.00000000E+00  0.00000000E+00  0.00000000E+00
  0.00000000E+00  0.00000000E+00  0.00000000E+00
  0.00000000E+00  0.00000000E+00  0.00000000E+00
  0.00000000E+00  0.00000000E+00  0.00000000E+00
  0.00000000E+00  0.00000000E+00  0.00000000E+00
