Ba4 B4 I20                              
   1.0000000000000000     
     5.5566595864517723   -0.0000000000000001    0.0000000000000005
    -0.0000000000000004    8.6721169062468846    0.0000000000000005
    -0.0000000000000008    0.0000000000000001   30.8676467692421497
   Ba   B    I 
     4     4    20
Direct
  0.7504277237496098  0.2881139472782834  0.2187158743571445
  0.2504277237496169  0.2118860527217166  0.7812841256428555
  0.2495722762503760  0.7881139472782834  0.2812841256428555
  0.7495722762503760  0.7118860527217166  0.7187158743571445
  0.2654665733599586  0.7111900593290201  0.4566866750148435
  0.7654665733599586  0.7888099406709799  0.5433133249851494
  0.7345334266400414  0.2111900593290201  0.0433133249851494
  0.2345334266400343  0.2888099406709799  0.9566866750148435
  0.0135565979409762  0.6099117978021908  0.5095676874864949
  0.5135565979409762  0.8900882021978092  0.4904323125135051
  0.9864434020590167  0.1099117978021980  0.9904323125135051
  0.4864434020590309  0.3900882021978092  0.0095676874864949
  0.0798763805271676  0.8538321358394398  0.4075254420862535
  0.5798763805271676  0.6461678641605602  0.5924745579137465
  0.9201236194728324  0.3538321358394398  0.0924745579137465
  0.4201236194728324  0.1461678641605531  0.9075254420862535
  0.2522407695139108  0.5330327831304302  0.1931841440950706
  0.7522407695139108  0.9669672168695698  0.8068158559049294
  0.7477592304860892  0.0330327831304302  0.3068158559049365
  0.2477592304860892  0.4669672168695698  0.6931841440950706
  0.7508924604569103  0.5467677077389652  0.3037339040688849
  0.2508924604569103  0.9532322922610348  0.6962660959311151
  0.2491075395430897  0.0467677077389652  0.1962660959311151
  0.7491075395430897  0.4532322922610348  0.8037339040688849
  0.0545236765027326  0.4944158279572974  0.9315769572332968
  0.5545236765027326  0.0055841720427026  0.0684230427667032
  0.9454763234972674  0.9944158279572974  0.5684230427667032
  0.4454763234972674  0.5055841720427026  0.4315769572332968

  0.00000000E+00  0.00000000E+00  0.00000000E+00
  0.00000000E+00  0.00000000E+00  0.00000000E+00
  0.00000000E+00  0.00000000E+00  0.00000000E+00
  0.00000000E+00  0.00000000E+00  0.00000000E+00
  0.00000000E+00  0.00000000E+00  0.00000000E+00
  0.00000000E+00  0.00000000E+00  0.00000000E+00
  0.00000000E+00  0.00000000E+00  0.00000000E+00
  0.00000000E+00  0.00000000E+00  0.00000000E+00
  0.00000000E+00  0.00000000E+00  0.00000000E+00
  0.00000000E+00  0.00000000E+00  0.00000000E+00
  0.00000000E+00  0.00000000E+00  0.00000000E+00
  0.00000000E+00  0.00000000E+00  0.00000000E+00
  0.00000000E+00  0.00000000E+00  0.00000000E+00
  0.00000000E+00  0.00000000E+00  0.00000000E+00
  0.00000000E+00  0.00000000E+00  0.00000000E+00
  0.00000000E+00  0.00000000E+00  0.00000000E+00
  0.00000000E+00  0.00000000E+00  0.00000000E+00
  0.00000000E+00  0.00000000E+00  0.00000000E+00
  0.00000000E+00  0.00000000E+00  0.00000000E+00
  0.00000000E+00  0.00000000E+00  0.00000000E+00
  0.00000000E+00  0.00000000E+00  0.00000000E+00
  0.00000000E+00  0.00000000E+00  0.00000000E+00
  0.00000000E+00  0.00000000E+00  0.00000000E+00
  0.00000000E+00  0.00000000E+00  0.00000000E+00
  0.00000000E+00  0.00000000E+00  0.00000000E+00
  0.00000000E+00  0.00000000E+00  0.00000000E+00
  0.00000000E+00  0.00000000E+00  0.00000000E+00
  0.00000000E+00  0.00000000E+00  0.00000000E+00
