BaAl                                    
   1.00000000000000     
     4.9575347902283582    0.0000000000000000    0.0000000000000000
     0.0000000000000000    4.1701030274421615    0.0000000000000000
     0.0000000000000000    0.0000000000000000    6.8402780087508885
   Al   Ba
     2     2
Direct
  0.2500000000000000  0.0000000000000000  0.1084948023483889
  0.7500000000000000  0.0000000000000000  0.8915051976516111
  0.7500000000000000  0.5000000000000000  0.2981254797197508
  0.2500000000000000  0.5000000000000000  0.7018745202802492
 
  0.00000000E+00  0.00000000E+00  0.00000000E+00
  0.00000000E+00  0.00000000E+00  0.00000000E+00
  0.00000000E+00  0.00000000E+00  0.00000000E+00
  0.00000000E+00  0.00000000E+00  0.00000000E+00
