SrI                                     
   1.00000000000000     
     2.1569709626989089    1.2455059007616616    4.9309026393319861
    -2.1569709626989089    1.2455059007616616    4.9309026393319861
     0.0000000000000000   -2.4906451598614807    4.9310635400381804
   I    Sr
     1     1
Direct
  0.0000000000000000  0.0000000000000000  0.0000000000000000
  0.5000000000000000  0.5000000000000000  0.5000000000000000
 
  0.00000000E+00  0.00000000E+00  0.00000000E+00
  0.00000000E+00  0.00000000E+00  0.00000000E+00
