Be2 Tl2 Cl6                             
   1.0000000000000000     
     6.9682525182264934   -0.5007773108015147   -0.0047408427581760
    -3.9304820782240237    7.0252558237799807   -2.1841128283587250
    -3.3593449705723217   -4.8967851045878703    8.0176971041105496
   Be   Cl   Tl
     2     6     2
Direct
  0.7155739948460180  0.2918273802210365  0.1263317969986204
  0.2844653617587198  0.7080815931461046  0.8735671230774429
  0.6666796345718282  0.1040485428217153  0.2171118607989797
  0.6222693120747920  0.4865724339806121  0.2104820420325453
  0.1490202738559319  0.5566890302280925  0.2309133802684045
  0.8510637178696854  0.4433467343096140  0.7690609992558208
  0.3776066114401075  0.5131878954625222  0.7893430668317336
  0.3333738397238761  0.8958500120513264  0.7827869683379589
  0.1070149226289416  0.9227936514196813  0.2377558765010050
  0.8929323312300923  0.0772027263592960  0.7621468858974794

  0.00000000E+00  0.00000000E+00  0.00000000E+00
  0.00000000E+00  0.00000000E+00  0.00000000E+00
  0.00000000E+00  0.00000000E+00  0.00000000E+00
  0.00000000E+00  0.00000000E+00  0.00000000E+00
  0.00000000E+00  0.00000000E+00  0.00000000E+00
  0.00000000E+00  0.00000000E+00  0.00000000E+00
  0.00000000E+00  0.00000000E+00  0.00000000E+00
  0.00000000E+00  0.00000000E+00  0.00000000E+00
  0.00000000E+00  0.00000000E+00  0.00000000E+00
  0.00000000E+00  0.00000000E+00  0.00000000E+00
