Tl12 F28                                
   1.0000000000000000     
     7.5092349090143582   -0.0221485589243442   -0.0004440125091652
    -0.0189760830624357    7.5530412875924631   -0.1385044183955987
     0.0073010948853174   -0.2045082176758508   10.6258403173837817
   F    Tl
    28    12
Direct
  0.1004853690430210  0.6397057842794638  0.1491703617230726
  0.6939882844602963  0.8017660543086436  0.1331982513561485
  0.5998349608331566  0.1394765074606283  0.1494708280070611
  0.1937425031798625  0.3019420837840698  0.1329160314248767
  0.4378380245854103  0.5512137393343508  0.1013732811944479
  0.9372595525505645  0.0518939772947746  0.1016607940739505
  0.2539369742364528  0.2739056501896897  0.4108028267815342
  0.8766314798615227  0.2717785413404030  0.3479324705199645
  0.5628196042178359  0.4525845698827524  0.3353977672580442
  0.0626896451090673  0.9523187109270026  0.3349928527206600
  0.5656507613739876  0.0779793231677033  0.4174603923334388
  0.0657618871404253  0.5780263143769702  0.4170773577858995
  0.7540369879342350  0.7740970340922573  0.4114311764795744
  0.3767207844866505  0.7721452017800132  0.3472946824020084
  0.3942408152636716  0.1448916120884576  0.6491342322793301
  0.8153120559150082  0.3037668062581531  0.6294583929251090
  0.8949721542259752  0.6446273172360719  0.6495065020833266
  0.3155764713845741  0.8039838356363944  0.6291578369191981
  0.0595372428889007  0.0413094266791347  0.6010411223439931
  0.5601462381207440  0.5419948028405130  0.6013674231075328
  0.2465667239897797  0.7653088321466655  0.9053004580232127
  0.6238470594632588  0.7623702601363860  0.8524499054599133
  0.9384041632766369  0.9434392830329230  0.8378529190080570
  0.4385437442957283  0.4431411793481175  0.8374929673600846
  0.9367936696668551  0.5690801899885614  0.9146817977174422
  0.4367408651686020  0.0690576731162693  0.9141782848917259
  0.7465073166929130  0.2655054085348212  0.9059648304307899
  0.1237501746795360  0.2627742955734504  0.8518125892604402
  0.7735202397986569  0.4588009478732502  0.1303474428546352
  0.2728426439181533  0.9590210759932773  0.1298470378203831
  0.7817717891406417  0.9994952934627648  0.2842556293490190
  0.2821898202774875  0.4995764767886115  0.2839608587808016
  0.7876146261632897  0.4954915774291635  0.4704588124719038
  0.2872028510704041  0.9954340367372865  0.4701297137048712
  0.7211993222800714  0.9618221269153509  0.6352203049308258
  0.2219003855857338  0.4620682711648243  0.6347818029174164
  0.7174235854821163  0.4939675446393537  0.7825046294765912
  0.2169831237752717  0.9940663046854539  0.7821764705374505
  0.7125275232010395  0.9899968131924695  0.9715191586627583
  0.2129085752624320  0.4899751162835742  0.9712198026224144

  0.00000000E+00  0.00000000E+00  0.00000000E+00
  0.00000000E+00  0.00000000E+00  0.00000000E+00
  0.00000000E+00  0.00000000E+00  0.00000000E+00
  0.00000000E+00  0.00000000E+00  0.00000000E+00
  0.00000000E+00  0.00000000E+00  0.00000000E+00
  0.00000000E+00  0.00000000E+00  0.00000000E+00
  0.00000000E+00  0.00000000E+00  0.00000000E+00
  0.00000000E+00  0.00000000E+00  0.00000000E+00
  0.00000000E+00  0.00000000E+00  0.00000000E+00
  0.00000000E+00  0.00000000E+00  0.00000000E+00
  0.00000000E+00  0.00000000E+00  0.00000000E+00
  0.00000000E+00  0.00000000E+00  0.00000000E+00
  0.00000000E+00  0.00000000E+00  0.00000000E+00
  0.00000000E+00  0.00000000E+00  0.00000000E+00
  0.00000000E+00  0.00000000E+00  0.00000000E+00
  0.00000000E+00  0.00000000E+00  0.00000000E+00
  0.00000000E+00  0.00000000E+00  0.00000000E+00
  0.00000000E+00  0.00000000E+00  0.00000000E+00
  0.00000000E+00  0.00000000E+00  0.00000000E+00
  0.00000000E+00  0.00000000E+00  0.00000000E+00
  0.00000000E+00  0.00000000E+00  0.00000000E+00
  0.00000000E+00  0.00000000E+00  0.00000000E+00
  0.00000000E+00  0.00000000E+00  0.00000000E+00
  0.00000000E+00  0.00000000E+00  0.00000000E+00
  0.00000000E+00  0.00000000E+00  0.00000000E+00
  0.00000000E+00  0.00000000E+00  0.00000000E+00
  0.00000000E+00  0.00000000E+00  0.00000000E+00
  0.00000000E+00  0.00000000E+00  0.00000000E+00
  0.00000000E+00  0.00000000E+00  0.00000000E+00
  0.00000000E+00  0.00000000E+00  0.00000000E+00
  0.00000000E+00  0.00000000E+00  0.00000000E+00
  0.00000000E+00  0.00000000E+00  0.00000000E+00
  0.00000000E+00  0.00000000E+00  0.00000000E+00
  0.00000000E+00  0.00000000E+00  0.00000000E+00
  0.00000000E+00  0.00000000E+00  0.00000000E+00
  0.00000000E+00  0.00000000E+00  0.00000000E+00
  0.00000000E+00  0.00000000E+00  0.00000000E+00
  0.00000000E+00  0.00000000E+00  0.00000000E+00
  0.00000000E+00  0.00000000E+00  0.00000000E+00
  0.00000000E+00  0.00000000E+00  0.00000000E+00
