BeAl3                                   
   1.00000000000000     
     3.8804413570310063    0.0000000000000000    0.0000000000000000
     0.0000000000000000    3.8804413570310063    0.0000000000000000
     0.0000000000000000    0.0000000000000000    3.8804413570310063
   Al   Be
     3     1
Direct
  0.5000000000000000  0.5000000000000000  0.0000000000000000
  0.5000000000000000  0.0000000000000000  0.5000000000000000
  0.0000000000000000  0.5000000000000000  0.5000000000000000
  0.0000000000000000  0.0000000000000000  0.0000000000000000
 
  0.00000000E+00  0.00000000E+00  0.00000000E+00
  0.00000000E+00  0.00000000E+00  0.00000000E+00
  0.00000000E+00  0.00000000E+00  0.00000000E+00
  0.00000000E+00  0.00000000E+00  0.00000000E+00
