Sr7 Al10                                
   1.00000000000000     
     2.9257993290809527   -5.0685182154972868    0.0059018172432802
    -5.8523787652786261   -0.0004491177991700   -0.0058492928222975
     2.9097216974220936   -1.6800753941740048  -15.8859927981032847
   Al   Sr
    10     7
Direct
  0.2865635838796265  0.7134716062757960  0.1375528465410554
  0.8970283958901888  0.5853546512910057  0.2725682725316361
  0.4146817242834118  0.1030078531866323  0.2725679404541026
  0.4142397576787218  0.5857965182758491  0.2729576469148185
  0.1974839713017147  0.8025570062922185  0.4050163822279345
  0.8025664353302346  0.1974922069265190  0.5950131685630353
  0.5858030001397410  0.4142555940346710  0.7270672207519624
  0.5853628301599088  0.8970333051200896  0.7274579805641110
  0.1030241570366144  0.4146955972076540  0.7274583059163859
  0.7134763709452656  0.2865769814059576  0.8624693136219577
  0.6407282579962796  0.3593074918677317  0.0748965060158042
  0.9462315881213499  0.0538026225531638  0.1585468054977355
  0.8711265697339599  0.1289145417677773  0.3865148101297962
  0.5000324647938683  0.5000203776442333  0.5000068127577606
  0.1289263401633747  0.8711324094623336  0.6135108487177590
  0.0538115074890015  0.9462438292581012  0.8414698744167595
  0.3593130450567514  0.6407374074302794  0.9251252643773924
 
  0.00000000E+00  0.00000000E+00  0.00000000E+00
  0.00000000E+00  0.00000000E+00  0.00000000E+00
  0.00000000E+00  0.00000000E+00  0.00000000E+00
  0.00000000E+00  0.00000000E+00  0.00000000E+00
  0.00000000E+00  0.00000000E+00  0.00000000E+00
  0.00000000E+00  0.00000000E+00  0.00000000E+00
  0.00000000E+00  0.00000000E+00  0.00000000E+00
  0.00000000E+00  0.00000000E+00  0.00000000E+00
  0.00000000E+00  0.00000000E+00  0.00000000E+00
  0.00000000E+00  0.00000000E+00  0.00000000E+00
  0.00000000E+00  0.00000000E+00  0.00000000E+00
  0.00000000E+00  0.00000000E+00  0.00000000E+00
  0.00000000E+00  0.00000000E+00  0.00000000E+00
  0.00000000E+00  0.00000000E+00  0.00000000E+00
  0.00000000E+00  0.00000000E+00  0.00000000E+00
  0.00000000E+00  0.00000000E+00  0.00000000E+00
  0.00000000E+00  0.00000000E+00  0.00000000E+00
