Ba2 In2 F10                             
   1.00000000000000     
     4.9370868752902819    0.0450643537058477    1.8488767733805320
     1.1258927228326874    4.8072048753490710    1.8488770296129107
    -0.5451923507979837   -0.4363217124758819    8.7432811060841100
   Ba   In   F 
     2     2    10
Direct
  0.5096940612626497  0.4903059383029742  0.2500000004746781
  0.4903059387373503  0.5096940616970329  0.7499999995253219
  0.0000000000000000  0.0000000000000000  0.5000000000000000
  0.0000000000000000  0.0000000000000000  0.0000000000000000
  0.9807870852013281  0.6103162573829053  0.6251793581255356
  0.3896837449134765  0.0192119141012341  0.8748206419047975
  0.0192119147986745  0.3896837426170947  0.3748216418744690
  0.6103162550865235  0.9807870858987684  0.1251793580952025
  0.9644180904576913  0.0355819085724747  0.7500000004921574
  0.0355819095423087  0.9644180914275182  0.2499999995078426
  0.8143399239996327  0.4208702673958697  0.9595070735892364
  0.5791297303305356  0.1856600753271991  0.5404929282611519
  0.1856600760003673  0.5791297326041303  0.0404929264107636
  0.4208702696694644  0.8143399246728009  0.4595070717388552
 
  0.00000000E+00  0.00000000E+00  0.00000000E+00
  0.00000000E+00  0.00000000E+00  0.00000000E+00
  0.00000000E+00  0.00000000E+00  0.00000000E+00
  0.00000000E+00  0.00000000E+00  0.00000000E+00
  0.00000000E+00  0.00000000E+00  0.00000000E+00
  0.00000000E+00  0.00000000E+00  0.00000000E+00
  0.00000000E+00  0.00000000E+00  0.00000000E+00
  0.00000000E+00  0.00000000E+00  0.00000000E+00
  0.00000000E+00  0.00000000E+00  0.00000000E+00
  0.00000000E+00  0.00000000E+00  0.00000000E+00
  0.00000000E+00  0.00000000E+00  0.00000000E+00
  0.00000000E+00  0.00000000E+00  0.00000000E+00
  0.00000000E+00  0.00000000E+00  0.00000000E+00
  0.00000000E+00  0.00000000E+00  0.00000000E+00
