Ca4 Al10 I2                             
   1.00000000000000     
     5.2568170550531539    0.4668270535021502    0.2964538739254690
    -2.0525175671165932    8.0742016728092398    2.6883175079188195
    -2.5650277728338646   -0.4549481004302725    9.2619096649521424
   I    Ca   Al
     2     4    10
Direct
  0.1570306179797356  0.3278817880342757  0.1805227174634041
  0.5863695170736136  0.5405238745601721  0.9115858343280578
  0.9907823937332552  0.6711749037765529  0.1459862478974614
  0.7522488147974968  0.2441308002182794  0.4285804860612146
  0.7244106628729128  0.8086546928925600  0.6459478773829801
  0.0072348730248990  0.3931805962121260  0.8093216339109119
  0.9967596623906090  0.0427741486894462  0.0491117958691021
  0.4889483459963770  0.9291316078842584  0.0623397329222115
  0.3720936262799057  0.9040035327728901  0.3323609308095996
  0.5899195083759068  0.6097740499575721  0.3935559233045112
  0.8709503336944238  0.9107252436263806  0.3302017992986848
  0.1234627442467868  0.6290284646495792  0.4997639278194015
  0.2410158491238050  0.0258042258366018  0.5392582600877631
  0.3485341274286213  0.3332155232690113  0.5876056756423296
  0.6270312920787759  0.0869886054957121  0.7863248321215792
  0.1232076309028685  0.0428079421245826  0.7973323250807809
 
  0.00000000E+00  0.00000000E+00  0.00000000E+00
  0.00000000E+00  0.00000000E+00  0.00000000E+00
  0.00000000E+00  0.00000000E+00  0.00000000E+00
  0.00000000E+00  0.00000000E+00  0.00000000E+00
  0.00000000E+00  0.00000000E+00  0.00000000E+00
  0.00000000E+00  0.00000000E+00  0.00000000E+00
  0.00000000E+00  0.00000000E+00  0.00000000E+00
  0.00000000E+00  0.00000000E+00  0.00000000E+00
  0.00000000E+00  0.00000000E+00  0.00000000E+00
  0.00000000E+00  0.00000000E+00  0.00000000E+00
  0.00000000E+00  0.00000000E+00  0.00000000E+00
  0.00000000E+00  0.00000000E+00  0.00000000E+00
  0.00000000E+00  0.00000000E+00  0.00000000E+00
  0.00000000E+00  0.00000000E+00  0.00000000E+00
  0.00000000E+00  0.00000000E+00  0.00000000E+00
  0.00000000E+00  0.00000000E+00  0.00000000E+00
