Ba1 Tl2 Cl6                             
   1.0000000000000000     
     3.8016126128009429    2.1992695159031799    6.2102274706300067
    -3.8016126128009429    2.1992695159031799    6.2102274706300067
     0.0000000000000001   -4.3888236990912413    6.2067922845626589
   Ba   Cl   Tl
     1     6     2
Direct
  0.0000000000000000  0.0000000000000000  0.0000000000000000
  0.7263433629737150  0.7263433629737150  0.2736586754582149
  0.7261611732989195  0.2738339420268261  0.2738534772575676
  0.2738339420268261  0.7261611732989195  0.2738534772575676
  0.2736566370262850  0.2736566370262850  0.7263413245417851
  0.7261660579731739  0.2738388267010805  0.7261465227424324
  0.2738388267010805  0.7261660579731739  0.7261465227424324
  0.2500008189349714  0.2500008189349714  0.2499998015659557
  0.7499991810650286  0.7499991810650286  0.7500001984340443

  0.00000000E+00  0.00000000E+00  0.00000000E+00
  0.00000000E+00  0.00000000E+00  0.00000000E+00
  0.00000000E+00  0.00000000E+00  0.00000000E+00
  0.00000000E+00  0.00000000E+00  0.00000000E+00
  0.00000000E+00  0.00000000E+00  0.00000000E+00
  0.00000000E+00  0.00000000E+00  0.00000000E+00
  0.00000000E+00  0.00000000E+00  0.00000000E+00
  0.00000000E+00  0.00000000E+00  0.00000000E+00
  0.00000000E+00  0.00000000E+00  0.00000000E+00
