Sr4 B4 Cl20                             
   1.0000000000000000     
     0.0000000000000000    5.9679061848780934    0.7027570764930561
    11.9864722274810909    0.0000000000000000    0.0000000000000000
     0.0000000000000000   -1.6538791675139091  -12.5025581305595299
   Sr   B    Cl
     4     4    20
Direct
  0.1363925960695695  0.2883721988911390  0.4627035678511220
  0.8636074039304305  0.7883721988911390  0.5372964321488851
  0.1896344961092709  0.9068876712661762  0.2478134859554189
  0.8103655038907362  0.4068876712661691  0.7521865140445811
  0.5727061144889802  0.9130228320226124  0.1041989321515828
  0.4272938855110269  0.4130228320226195  0.8958010678484172
  0.9522696921601295  0.5557616983134110  0.3222462366062686
  0.0477303078398634  0.0557616983134182  0.6777537633937314
  0.3173040837316847  0.8298844287352978  0.4703069334248013
  0.1812427980515992  0.5379826376819352  0.4538328460517249
  0.8187572019484008  0.0379826376819352  0.5461671539482680
  0.8129288722624253  0.9118926915549466  0.0384602894466326
  0.8722937660532253  0.4152523493965958  0.2620234519632092
  0.3871582384384453  0.0346781724114749  0.0686225928641164
  0.9403388530091306  0.1420606492846161  0.7762822741730346
  0.7040394516386499  0.9242819993188149  0.2659787000150118
  0.1277062339467747  0.9152523493965958  0.7379765480367837
  0.6966380060286923  0.6229835411573106  0.3550908351366715
  0.6128417615615547  0.5346781724114749  0.9313774071358836
  0.6826959162683153  0.3298844287353049  0.5296930665751987
  0.5935407971557964  0.2827017157684537  0.9180279673795937
  0.1850125215081420  0.1318363941971796  0.3100290158274959
  0.3033619939713077  0.1229835411573106  0.6449091648633285
  0.0596611469908694  0.6420606492846161  0.2237177258269725
  0.1870711277375676  0.4118926915549466  0.9615397105533603
  0.8149874784918509  0.6318363941971867  0.6899709841725112
  0.2959605483613430  0.4242819993188149  0.7340212999849882
  0.4064592028442036  0.7827017157684537  0.0819720326204063

  0.00000000E+00  0.00000000E+00  0.00000000E+00
  0.00000000E+00  0.00000000E+00  0.00000000E+00
  0.00000000E+00  0.00000000E+00  0.00000000E+00
  0.00000000E+00  0.00000000E+00  0.00000000E+00
  0.00000000E+00  0.00000000E+00  0.00000000E+00
  0.00000000E+00  0.00000000E+00  0.00000000E+00
  0.00000000E+00  0.00000000E+00  0.00000000E+00
  0.00000000E+00  0.00000000E+00  0.00000000E+00
  0.00000000E+00  0.00000000E+00  0.00000000E+00
  0.00000000E+00  0.00000000E+00  0.00000000E+00
  0.00000000E+00  0.00000000E+00  0.00000000E+00
  0.00000000E+00  0.00000000E+00  0.00000000E+00
  0.00000000E+00  0.00000000E+00  0.00000000E+00
  0.00000000E+00  0.00000000E+00  0.00000000E+00
  0.00000000E+00  0.00000000E+00  0.00000000E+00
  0.00000000E+00  0.00000000E+00  0.00000000E+00
  0.00000000E+00  0.00000000E+00  0.00000000E+00
  0.00000000E+00  0.00000000E+00  0.00000000E+00
  0.00000000E+00  0.00000000E+00  0.00000000E+00
  0.00000000E+00  0.00000000E+00  0.00000000E+00
  0.00000000E+00  0.00000000E+00  0.00000000E+00
  0.00000000E+00  0.00000000E+00  0.00000000E+00
  0.00000000E+00  0.00000000E+00  0.00000000E+00
  0.00000000E+00  0.00000000E+00  0.00000000E+00
  0.00000000E+00  0.00000000E+00  0.00000000E+00
  0.00000000E+00  0.00000000E+00  0.00000000E+00
  0.00000000E+00  0.00000000E+00  0.00000000E+00
  0.00000000E+00  0.00000000E+00  0.00000000E+00
