Ba1 B3 Cl6                              
   1.00000000000000     
     7.3376157860991915   -0.3624287309595922   -0.5746944141875885
    -0.3624287309595921    7.3376157860991915   -0.5746944141875883
     2.9290621054477417    2.9290621054477413    5.5046989954241647
   Cl   Ba   B 
     6     1     3
Direct
  0.7333749042161202  0.2666250957838798  0.0000000000000000
  0.4063356788412449  0.4063356788412449  0.8493930290672864
  0.2666250957838798  0.7333749042161202  0.0000000000000000
  0.5936643211587551  0.5936643211587551  0.1506069709327136
  0.8190839944572588  0.8190839944572588  0.5398493013955346
  0.1809160055427412  0.1809160055427412  0.4601506986044654
  0.0000000000000000  0.0000000000000000  0.0000000000000000
  0.5000000000000000  0.5000000000000000  0.0000000000000000
  0.1294470510272490  0.8705529489727510  0.5000000000000000
  0.8705529489727510  0.1294470510272490  0.5000000000000000
 
  0.00000000E+00  0.00000000E+00  0.00000000E+00
  0.00000000E+00  0.00000000E+00  0.00000000E+00
  0.00000000E+00  0.00000000E+00  0.00000000E+00
  0.00000000E+00  0.00000000E+00  0.00000000E+00
  0.00000000E+00  0.00000000E+00  0.00000000E+00
  0.00000000E+00  0.00000000E+00  0.00000000E+00
  0.00000000E+00  0.00000000E+00  0.00000000E+00
  0.00000000E+00  0.00000000E+00  0.00000000E+00
  0.00000000E+00  0.00000000E+00  0.00000000E+00
  0.00000000E+00  0.00000000E+00  0.00000000E+00
