Ca5 B2                                  
   1.00000000000000     
     1.7770991523331301    2.1118604065624251   11.0704746756701269
    -1.7770991523331301    2.1118604065624251   11.0704746756701269
     0.0000000000000000   -2.9677486292531561   10.9957093483269688
   Ca   B 
     5     2
Direct
  0.2899277413097892  0.2899277413097892  0.1104894913502505
  0.4024767799243847  0.4024767799243847  0.3188442577824091
  0.5000165126678624  0.5000165126678624  0.5000041023661268
  0.5975609600091758  0.5975609600091758  0.6811708029503123
  0.7100935829554658  0.7100935829554658  0.8895698030843562
  0.9946359260219211  0.9946359260219211  0.3167736392468115
  0.0053884971113973  0.0053884971113973  0.6832479032197369
 
  0.00000000E+00  0.00000000E+00  0.00000000E+00
  0.00000000E+00  0.00000000E+00  0.00000000E+00
  0.00000000E+00  0.00000000E+00  0.00000000E+00
  0.00000000E+00  0.00000000E+00  0.00000000E+00
  0.00000000E+00  0.00000000E+00  0.00000000E+00
  0.00000000E+00  0.00000000E+00  0.00000000E+00
  0.00000000E+00  0.00000000E+00  0.00000000E+00
