Ca13Al14                                
   1.00000000000000     
     7.7272575566610264   -4.9093538255009310   -0.0047062618598056
     7.7272575566610264    4.9093538255009310   -0.0047062618598056
    -3.0061644258035365    0.0000000000000000    9.2288041168532402
   Al   Ca
    14    13
Direct
  0.7751625893866674  0.2248276141010876  0.9999689174481432
  0.2248276141010876  0.7751625893866674  0.9999689174481432
  0.7943521933220339  0.5232479236191026  0.0823862159702884
  0.5232479236191026  0.7943521933220339  0.0823862159702884
  0.0015699025742322  0.0015699025742322  0.1585132503983289
  0.7403098008689923  0.7403098008689923  0.3432288531298298
  0.3398668442990669  0.3398668442990669  0.4314128326540612
  0.6463866539959540  0.3536881012623425  0.4999816352881012
  0.3536881012623425  0.6463866539959540  0.4999816352881012
  0.6602158735243862  0.6602158735243862  0.5685081363848354
  0.2597220369909863  0.2597220369909863  0.6567234560091890
  0.9984670399610209  0.9984670399610209  0.8413854657298003
  0.4768092412662455  0.2056776681321040  0.9175693231537139
  0.2056776681321040  0.4768092412662455  0.9175693231537139
  0.1960486702939690  0.1960486702939690  0.0838392718465215
  0.5036460622053980  0.5036460622053980  0.2024916617632329
  0.6435095220223275  0.0809255792129875  0.2271793812982565
  0.0809255792129875  0.6435095220223275  0.2271793812982565
  0.9438429693162718  0.3492475907060637  0.3661968729097111
  0.3492475907060637  0.9438429693162718  0.3661968729097111
  0.0000310049025245  0.0000310049025245  0.5000002629238267
  0.6507861728681874  0.0561907209792736  0.6337674291151316
  0.0561907209792736  0.6507861728681874  0.6337674291151316
  0.9190976477377362  0.3565446799507086  0.7728016288701127
  0.3565446799507086  0.9190976477377362  0.7728016288701127
  0.4963719170201202  0.4963719170201202  0.7974718694428020
  0.8039939794802393  0.8039939794802393  0.9161221316106776
 
  0.00000000E+00  0.00000000E+00  0.00000000E+00
  0.00000000E+00  0.00000000E+00  0.00000000E+00
  0.00000000E+00  0.00000000E+00  0.00000000E+00
  0.00000000E+00  0.00000000E+00  0.00000000E+00
  0.00000000E+00  0.00000000E+00  0.00000000E+00
  0.00000000E+00  0.00000000E+00  0.00000000E+00
  0.00000000E+00  0.00000000E+00  0.00000000E+00
  0.00000000E+00  0.00000000E+00  0.00000000E+00
  0.00000000E+00  0.00000000E+00  0.00000000E+00
  0.00000000E+00  0.00000000E+00  0.00000000E+00
  0.00000000E+00  0.00000000E+00  0.00000000E+00
  0.00000000E+00  0.00000000E+00  0.00000000E+00
  0.00000000E+00  0.00000000E+00  0.00000000E+00
  0.00000000E+00  0.00000000E+00  0.00000000E+00
  0.00000000E+00  0.00000000E+00  0.00000000E+00
  0.00000000E+00  0.00000000E+00  0.00000000E+00
  0.00000000E+00  0.00000000E+00  0.00000000E+00
  0.00000000E+00  0.00000000E+00  0.00000000E+00
  0.00000000E+00  0.00000000E+00  0.00000000E+00
  0.00000000E+00  0.00000000E+00  0.00000000E+00
  0.00000000E+00  0.00000000E+00  0.00000000E+00
  0.00000000E+00  0.00000000E+00  0.00000000E+00
  0.00000000E+00  0.00000000E+00  0.00000000E+00
  0.00000000E+00  0.00000000E+00  0.00000000E+00
  0.00000000E+00  0.00000000E+00  0.00000000E+00
  0.00000000E+00  0.00000000E+00  0.00000000E+00
  0.00000000E+00  0.00000000E+00  0.00000000E+00
