SrTl                                    
   1.0000000000000000     
     4.1185076524633333    0.0000000000000000   -0.0000000000000000
     0.0000000000000000    4.1185076524633333    0.0000000000000000
     0.0000000000000000   -0.0000000000000000    4.1185076524633333
   Sr   Tl
     1     1
Direct
  0.0000000000000000  0.0000000000000000  0.0000000000000000
  0.5000000000000000  0.5000000000000000  0.5000000000000000

  0.00000000E+00  0.00000000E+00  0.00000000E+00
  0.00000000E+00  0.00000000E+00  0.00000000E+00
