Tl10 I18                                
   1.0000000000000000     
     1.0972756869791547   -6.9664576787860142    7.7237342391365447
     6.2349699809537285   -4.5476145705744404   -7.5587431669867069
     9.3410925394269544    5.4527392876583232   10.1176921644744819
   I    Tl
    18    10
Direct
  0.3014295748836417  0.9611460384661541  0.0679014742954251
  0.0408941920910735  0.2884278734917771  0.0172077050208443
  0.4988878880978049  0.6525251446991120  0.1402584167745999
  0.6092884047476588  0.3356433378903034  0.2324436234390390
  0.0397422791192099  0.6785562116494646  0.2560512372492738
  0.8628914284171643  0.0659872027425052  0.2633299687437116
  0.2448811441163627  0.0227681483710072  0.4126269378942240
  0.8232785794294202  0.5158457376573296  0.6107020358991804
  0.5850000477441952  0.7556922901556220  0.4466893759509105
  0.4147068802965421  0.2441592734718157  0.5534003173634972
  0.1763100776288766  0.4838827329184241  0.3891550821757406
  0.7552917410580022  0.9770179259003839  0.5871740734669189
  0.1375460682283105  0.9343354238154262  0.7365661355348720
  0.9600236755691895  0.3215912261071594  0.7441046828837869
  0.3906902752546486  0.6644966972950854  0.7676282199883744
  0.5007350258299113  0.3473970926554912  0.8599362167263749
  0.9591901276244101  0.7117671829904921  0.9828945037351815
  0.6988715503313188  0.0387499106487752  0.9320810317562973
  0.7361036513719554  0.4226564334935716  0.0068513320678818
  0.0251277679450936  0.8621041579334161  0.1557925174223058
  0.5153553784230311  0.9985088615392641  0.2142081014093122
  0.4626703065721429  0.5646865220812529  0.3228091217079765
  0.9799132864121844  0.2072662946374351  0.4839590539017351
  0.0202164376704772  0.7926721913835024  0.5160862072018162
  0.5370363816716477  0.4351953606040340  0.6772057596231491
  0.4850414613879295  0.0014844880229887  0.7856280233288260
  0.9751335436238335  0.1380474590863443  0.8442267705710549
  0.2638428244539242  0.5774887802918514  0.9931820738676862

  0.00000000E+00  0.00000000E+00  0.00000000E+00
  0.00000000E+00  0.00000000E+00  0.00000000E+00
  0.00000000E+00  0.00000000E+00  0.00000000E+00
  0.00000000E+00  0.00000000E+00  0.00000000E+00
  0.00000000E+00  0.00000000E+00  0.00000000E+00
  0.00000000E+00  0.00000000E+00  0.00000000E+00
  0.00000000E+00  0.00000000E+00  0.00000000E+00
  0.00000000E+00  0.00000000E+00  0.00000000E+00
  0.00000000E+00  0.00000000E+00  0.00000000E+00
  0.00000000E+00  0.00000000E+00  0.00000000E+00
  0.00000000E+00  0.00000000E+00  0.00000000E+00
  0.00000000E+00  0.00000000E+00  0.00000000E+00
  0.00000000E+00  0.00000000E+00  0.00000000E+00
  0.00000000E+00  0.00000000E+00  0.00000000E+00
  0.00000000E+00  0.00000000E+00  0.00000000E+00
  0.00000000E+00  0.00000000E+00  0.00000000E+00
  0.00000000E+00  0.00000000E+00  0.00000000E+00
  0.00000000E+00  0.00000000E+00  0.00000000E+00
  0.00000000E+00  0.00000000E+00  0.00000000E+00
  0.00000000E+00  0.00000000E+00  0.00000000E+00
  0.00000000E+00  0.00000000E+00  0.00000000E+00
  0.00000000E+00  0.00000000E+00  0.00000000E+00
  0.00000000E+00  0.00000000E+00  0.00000000E+00
  0.00000000E+00  0.00000000E+00  0.00000000E+00
  0.00000000E+00  0.00000000E+00  0.00000000E+00
  0.00000000E+00  0.00000000E+00  0.00000000E+00
  0.00000000E+00  0.00000000E+00  0.00000000E+00
  0.00000000E+00  0.00000000E+00  0.00000000E+00
