Mg1 Al3 Cl6                             
   1.00000000000000     
     7.1348848194985894    0.0382797006842792    0.0127490108887282
     0.0382797006842792    7.1348848194985894    0.0127490108887284
     3.5955731658313557    3.5955731658313561    5.1001739653231475
   Cl   Mg   Al
     6     1     3
Direct
  0.7475569925762287  0.2524430074237713  0.0000000000000000
  0.2397990671130046  0.2397990671130046  0.0219530221723332
  0.2524430074237713  0.7475569925762287  0.0000000000000000
  0.7602009328869954  0.7602009328869954  0.9780469778276668
  0.7680316887064933  0.7680316887064933  0.5004183583856587
  0.2319683112935067  0.2319683112935067  0.4995816416143413
  0.0000000000000000  0.0000000000000000  0.0000000000000000
  0.5000000000000000  0.5000000000000000  0.0000000000000000
  0.1839285845175240  0.8160714154824760  0.5000000000000000
  0.8160714154824760  0.1839285845175240  0.5000000000000000
 
  0.00000000E+00  0.00000000E+00  0.00000000E+00
  0.00000000E+00  0.00000000E+00  0.00000000E+00
  0.00000000E+00  0.00000000E+00  0.00000000E+00
  0.00000000E+00  0.00000000E+00  0.00000000E+00
  0.00000000E+00  0.00000000E+00  0.00000000E+00
  0.00000000E+00  0.00000000E+00  0.00000000E+00
  0.00000000E+00  0.00000000E+00  0.00000000E+00
  0.00000000E+00  0.00000000E+00  0.00000000E+00
  0.00000000E+00  0.00000000E+00  0.00000000E+00
  0.00000000E+00  0.00000000E+00  0.00000000E+00
