Mg1 In2 Br10                            
   1.0000000000000000     
     4.6876692610473238    5.0630781337893964    0.3682304533286972
    -4.6876692610473238    5.0630781337893964    0.3682304533286972
     0.0000000000000000    4.0983607978226155    9.8718259399450794
   Mg   In   Br
     1     2    10
Direct
  0.3905176563473205  0.6094823436526795  0.0000000000000000
  0.0008394769661919  0.9962020567185803  0.7424046485934426
  0.0037979432814197  0.9991605230338081  0.2575953514065574
  0.2596808191441511  0.3160005507933690  0.6393974192634531
  0.6839994492066239  0.7403191808558489  0.3606025807365469
  0.7839305577660056  0.6444605866004736  0.9138297972596447
  0.3555394133995264  0.2160694422339944  0.0861702027403553
  0.9262675287322608  0.0737324712677392  0.0000000000000000
  0.1046329146789873  0.8953670853210127  0.5000000000000000
  0.7234945855704211  0.2651595335906194  0.6869352363426557
  0.7348404664093806  0.2765054144295789  0.3130647636573443
  0.3358565365344646  0.7593983480367470  0.7679957740093784
  0.2406016519632530  0.6641434634655354  0.2320042259906216

  0.00000000E+00  0.00000000E+00  0.00000000E+00
  0.00000000E+00  0.00000000E+00  0.00000000E+00
  0.00000000E+00  0.00000000E+00  0.00000000E+00
  0.00000000E+00  0.00000000E+00  0.00000000E+00
  0.00000000E+00  0.00000000E+00  0.00000000E+00
  0.00000000E+00  0.00000000E+00  0.00000000E+00
  0.00000000E+00  0.00000000E+00  0.00000000E+00
  0.00000000E+00  0.00000000E+00  0.00000000E+00
  0.00000000E+00  0.00000000E+00  0.00000000E+00
  0.00000000E+00  0.00000000E+00  0.00000000E+00
  0.00000000E+00  0.00000000E+00  0.00000000E+00
  0.00000000E+00  0.00000000E+00  0.00000000E+00
  0.00000000E+00  0.00000000E+00  0.00000000E+00
