Ca4 B4 Br20                             
   1.0000000000000000     
    15.9657519900585552    0.0000000000000000    0.0000000000000000
     0.0000000000000000    7.8454159695616461    0.9216781476447444
     0.0000000000000000    4.3100338239603362   11.2413455643527023
   Ca   B    Br
     4     4    20
Direct
  0.9936868675357857  0.2519159521971090  0.4937464063885599
  0.4936868675357857  0.7480840478028910  0.0062535936114401
  0.0063131324642143  0.7480840478028910  0.5062535936114401
  0.5063131324642143  0.2519159521971090  0.9937464063885599
  0.6971035262712206  0.1167285982154169  0.4709229738908220
  0.1971035262712206  0.8832714017845831  0.0290770261091708
  0.3028964737287794  0.8832714017845831  0.5290770261091780
  0.8028964737287794  0.1167285982154169  0.9709229738908220
  0.6289956183848844  0.3355908577602023  0.4302737370208973
  0.1289956183848844  0.6644091422397977  0.0697262629791027
  0.3710043816151156  0.6644091422397977  0.5697262629791027
  0.8710043816151156  0.3355908577602023  0.9302737370208973
  0.7899468580158029  0.1349013141577800  0.3642422419544289
  0.2899468580158029  0.8650986858422200  0.1357577580455711
  0.2100531419841971  0.8650986858422200  0.6357577580455640
  0.7100531419841971  0.1349013141577800  0.8642422419544360
  0.4694973168558505  0.1236037012259601  0.8173132733923651
  0.9694973168558505  0.8763962987740399  0.6826867266076349
  0.5305026831441495  0.8763962987740399  0.1826867266076349
  0.0305026831441495  0.1236037012259601  0.3173132733923651
  0.6748458497660437  0.8810432200604552  0.6158221692918602
  0.1748458497660437  0.1189567799395448  0.8841778307081398
  0.3251541502339563  0.1189567799395448  0.3841778307081469
  0.8251541502339563  0.8810432200604552  0.1158221692918602
  0.3781776533010230  0.4701746438986163  0.0229015193797508
  0.8781776533010230  0.5298253561013837  0.4770984806202563
  0.6218223466989770  0.5298253561013837  0.9770984806202492
  0.1218223466989770  0.4701746438986163  0.5229015193797508

  0.00000000E+00  0.00000000E+00  0.00000000E+00
  0.00000000E+00  0.00000000E+00  0.00000000E+00
  0.00000000E+00  0.00000000E+00  0.00000000E+00
  0.00000000E+00  0.00000000E+00  0.00000000E+00
  0.00000000E+00  0.00000000E+00  0.00000000E+00
  0.00000000E+00  0.00000000E+00  0.00000000E+00
  0.00000000E+00  0.00000000E+00  0.00000000E+00
  0.00000000E+00  0.00000000E+00  0.00000000E+00
  0.00000000E+00  0.00000000E+00  0.00000000E+00
  0.00000000E+00  0.00000000E+00  0.00000000E+00
  0.00000000E+00  0.00000000E+00  0.00000000E+00
  0.00000000E+00  0.00000000E+00  0.00000000E+00
  0.00000000E+00  0.00000000E+00  0.00000000E+00
  0.00000000E+00  0.00000000E+00  0.00000000E+00
  0.00000000E+00  0.00000000E+00  0.00000000E+00
  0.00000000E+00  0.00000000E+00  0.00000000E+00
  0.00000000E+00  0.00000000E+00  0.00000000E+00
  0.00000000E+00  0.00000000E+00  0.00000000E+00
  0.00000000E+00  0.00000000E+00  0.00000000E+00
  0.00000000E+00  0.00000000E+00  0.00000000E+00
  0.00000000E+00  0.00000000E+00  0.00000000E+00
  0.00000000E+00  0.00000000E+00  0.00000000E+00
  0.00000000E+00  0.00000000E+00  0.00000000E+00
  0.00000000E+00  0.00000000E+00  0.00000000E+00
  0.00000000E+00  0.00000000E+00  0.00000000E+00
  0.00000000E+00  0.00000000E+00  0.00000000E+00
  0.00000000E+00  0.00000000E+00  0.00000000E+00
  0.00000000E+00  0.00000000E+00  0.00000000E+00
