Sr4 B4 I20                              
   1.0000000000000000     
     9.9749483302025066   -0.0000000000000001    0.0000000000000005
    -0.0000000000000009   11.3760065453208288    0.0000000000000003
     0.0000000000000002    0.0000000000000003   13.0434490648980415
   Sr   B    I 
     4     4    20
Direct
  0.5589170836874118  0.2255959979549900  0.3495080023426027
  0.0589170836874047  0.2744040020450100  0.6504919976573902
  0.4410829163125882  0.7255959979549900  0.1504919976573973
  0.9410829163125882  0.7744040020450100  0.8495080023426098
  0.0349982806969891  0.7290533338762089  0.3694245671489540
  0.5349982806969820  0.7709466661237911  0.6305754328510389
  0.9650017193030180  0.2290533338762089  0.1305754328510389
  0.4650017193030109  0.2709466661237911  0.8694245671489540
  0.8501800401730222  0.6382243168087385  0.3810122150192612
  0.3501800401730151  0.8617756831912615  0.6189877849807388
  0.1498199598269778  0.1382243168087314  0.1189877849807388
  0.6498199598269778  0.3617756831912686  0.8810122150192612
  0.0439373913540777  0.9143994418829635  0.3795070343280571
  0.5439373913540777  0.5856005581170365  0.6204929656719429
  0.9560626086459223  0.4143994418829564  0.1204929656719429
  0.4560626086459223  0.0856005581170436  0.8795070343280571
  0.1867127838579066  0.7375317833307733  0.0043017104615544
  0.6867127838579066  0.7624682166692267  0.9956982895384456
  0.8132872161420934  0.2375317833307733  0.4956982895384456
  0.3132872161420934  0.2624682166692267  0.5043017104615544
  0.5277687992292641  0.4676465808300421  0.2264612251403335
  0.0277687992292712  0.0323534191699579  0.7735387748596594
  0.4722312007707359  0.9676465808300350  0.2735387748596736
  0.9722312007707359  0.5323534191699650  0.7264612251403406
  0.2858371925198853  0.3743486321787088  0.8485995279249039
  0.7858371925198782  0.1256513678212912  0.1514004720750961
  0.7141628074801218  0.8743486321787088  0.6514004720750961
  0.2141628074801147  0.6256513678212912  0.3485995279249039

  0.00000000E+00  0.00000000E+00  0.00000000E+00
  0.00000000E+00  0.00000000E+00  0.00000000E+00
  0.00000000E+00  0.00000000E+00  0.00000000E+00
  0.00000000E+00  0.00000000E+00  0.00000000E+00
  0.00000000E+00  0.00000000E+00  0.00000000E+00
  0.00000000E+00  0.00000000E+00  0.00000000E+00
  0.00000000E+00  0.00000000E+00  0.00000000E+00
  0.00000000E+00  0.00000000E+00  0.00000000E+00
  0.00000000E+00  0.00000000E+00  0.00000000E+00
  0.00000000E+00  0.00000000E+00  0.00000000E+00
  0.00000000E+00  0.00000000E+00  0.00000000E+00
  0.00000000E+00  0.00000000E+00  0.00000000E+00
  0.00000000E+00  0.00000000E+00  0.00000000E+00
  0.00000000E+00  0.00000000E+00  0.00000000E+00
  0.00000000E+00  0.00000000E+00  0.00000000E+00
  0.00000000E+00  0.00000000E+00  0.00000000E+00
  0.00000000E+00  0.00000000E+00  0.00000000E+00
  0.00000000E+00  0.00000000E+00  0.00000000E+00
  0.00000000E+00  0.00000000E+00  0.00000000E+00
  0.00000000E+00  0.00000000E+00  0.00000000E+00
  0.00000000E+00  0.00000000E+00  0.00000000E+00
  0.00000000E+00  0.00000000E+00  0.00000000E+00
  0.00000000E+00  0.00000000E+00  0.00000000E+00
  0.00000000E+00  0.00000000E+00  0.00000000E+00
  0.00000000E+00  0.00000000E+00  0.00000000E+00
  0.00000000E+00  0.00000000E+00  0.00000000E+00
  0.00000000E+00  0.00000000E+00  0.00000000E+00
  0.00000000E+00  0.00000000E+00  0.00000000E+00
