Ba2 Al2 F10                             
   1.0000000000000000     
     3.5243632215962952   -0.0000000000000000    0.0000000000000002
    -0.0000000000000005    8.4757386058228121    0.0000000000000005
     0.0000000000000000    0.0000000000000000    7.7113721883592170
   Ba   Al   F 
     2     2    10
Direct
  0.0000000000000000  0.0000000000000000  0.5000000000000000
  0.5000000000000000  0.5000000000000000  0.0000000000000000
  0.5000000000000000  0.0000000000000000  0.0000000000000000
  0.0000000000000000  0.5000000000000000  0.5000000000000000
  0.5000000000000000  0.7805763421897964  0.5000000000000000
  0.5000000000000000  0.2194236578102036  0.5000000000000000
  0.5000000000000000  0.0000000000000000  0.2203944120071597
  0.5000000000000000  0.0000000000000000  0.7796055879928403
  0.0000000000000000  0.0000000000000000  0.0000000000000000
  0.0000000000000000  0.2805763421897964  0.0000000000000000
  0.0000000000000000  0.7194236578102036  0.0000000000000000
  0.0000000000000000  0.5000000000000000  0.7203944120071597
  0.0000000000000000  0.5000000000000000  0.2796055879928474
  0.5000000000000000  0.5000000000000000  0.5000000000000000

  0.00000000E+00  0.00000000E+00  0.00000000E+00
  0.00000000E+00  0.00000000E+00  0.00000000E+00
  0.00000000E+00  0.00000000E+00  0.00000000E+00
  0.00000000E+00  0.00000000E+00  0.00000000E+00
  0.00000000E+00  0.00000000E+00  0.00000000E+00
  0.00000000E+00  0.00000000E+00  0.00000000E+00
  0.00000000E+00  0.00000000E+00  0.00000000E+00
  0.00000000E+00  0.00000000E+00  0.00000000E+00
  0.00000000E+00  0.00000000E+00  0.00000000E+00
  0.00000000E+00  0.00000000E+00  0.00000000E+00
  0.00000000E+00  0.00000000E+00  0.00000000E+00
  0.00000000E+00  0.00000000E+00  0.00000000E+00
  0.00000000E+00  0.00000000E+00  0.00000000E+00
  0.00000000E+00  0.00000000E+00  0.00000000E+00
