In8 Cl14                                
   1.00000000000000     
     3.7424496480256249   -6.4877748733007055    0.0089936466142142
    -3.7424496480256249   -6.4877748733007055    0.0089936466142142
     0.0000000000000000    4.3454724235302074  -15.4783906932632451
   Cl   In
    14     8
Direct
  0.3443294745596290  0.3443294745596290  0.0356334019936639
  0.8984953558838171  0.3770187430707423  0.1708001194866995
  0.3770187430707423  0.8984953558838171  0.1708001194866995
  0.8985112921233096  0.8985112921233096  0.1712851119031527
  0.6280036164408571  0.1482365651720983  0.4032662369840168
  0.1482365651720983  0.6280036164408571  0.4032662369840168
  0.6277213588146608  0.6277213588146608  0.4037690203028461
  0.3724802403490486  0.3724802403490486  0.5963054141440125
  0.8519183811273763  0.3721111244852864  0.5967576257735487
  0.3721111244852864  0.8519183811273763  0.5967576257735487
  0.1015967536965121  0.1015967536965121  0.8286612395228872
  0.6230172064364297  0.1015750353289135  0.8291460409284284
  0.1015750353289135  0.6230172064364297  0.8291460409284284
  0.6558748271697823  0.6558748271697823  0.9643715973523754
  0.9997820726786273  0.9997820726786273  0.9997566506044109
  0.7073888940897461  0.7073888940897461  0.1191653044133858
  0.4158539722030170  0.4158539722030170  0.2493025596270755
  0.1530683474721215  0.1530683474721215  0.4608612577855524
  0.5000655673692691  0.5000655673692691  0.5000110128140847
  0.8469058697149805  0.8469058697149805  0.5391258507325105
  0.5841363000332933  0.5841363000332933  0.7506460528805619
  0.2927090017804801  0.2927090017804801  0.8808654795781337
 
  0.00000000E+00  0.00000000E+00  0.00000000E+00
  0.00000000E+00  0.00000000E+00  0.00000000E+00
  0.00000000E+00  0.00000000E+00  0.00000000E+00
  0.00000000E+00  0.00000000E+00  0.00000000E+00
  0.00000000E+00  0.00000000E+00  0.00000000E+00
  0.00000000E+00  0.00000000E+00  0.00000000E+00
  0.00000000E+00  0.00000000E+00  0.00000000E+00
  0.00000000E+00  0.00000000E+00  0.00000000E+00
  0.00000000E+00  0.00000000E+00  0.00000000E+00
  0.00000000E+00  0.00000000E+00  0.00000000E+00
  0.00000000E+00  0.00000000E+00  0.00000000E+00
  0.00000000E+00  0.00000000E+00  0.00000000E+00
  0.00000000E+00  0.00000000E+00  0.00000000E+00
  0.00000000E+00  0.00000000E+00  0.00000000E+00
  0.00000000E+00  0.00000000E+00  0.00000000E+00
  0.00000000E+00  0.00000000E+00  0.00000000E+00
  0.00000000E+00  0.00000000E+00  0.00000000E+00
  0.00000000E+00  0.00000000E+00  0.00000000E+00
  0.00000000E+00  0.00000000E+00  0.00000000E+00
  0.00000000E+00  0.00000000E+00  0.00000000E+00
  0.00000000E+00  0.00000000E+00  0.00000000E+00
  0.00000000E+00  0.00000000E+00  0.00000000E+00
