Sr17 In11 I1                            
   1.0000000000000000     
     8.2456596581773489   -4.6111218028326864    3.3993920802143571
     0.5065219121221790   10.6413450424950522    4.0746159195463747
    -9.5235862457100069   -5.9766841717224359    4.6441665174965987
   In   I    Sr
    11     1    17
Direct
  0.5953431283930399  0.9326575369695789  0.0006453537798166
  0.3427782930403112  0.4090471259290425  0.1552268904890610
  0.8155987709432821  0.2125285465925799  0.2379182213619870
  0.2237345299618667  0.8176222542260874  0.2781371990053003
  0.2299257564679422  0.3228571626201102  0.3446523386579798
  0.3626140873984909  0.1252906410814134  0.4037226970841346
  0.9547073800523975  0.7201312486982161  0.5940289309969842
  0.8847918087436781  0.9781577070842147  0.6532230044811627
  0.9472681105119989  0.5435960316646131  0.7259595964961179
  0.5779411775927414  0.9754401863862512  0.7616550647110714
  0.1847997135865924  0.2552138147822234  0.8430265719746401
  0.7052442799247984  0.5673265406486152  0.9980747209195115
  0.0158710099661690  0.5328366008914145  0.0017126708704893
  0.2294971102069212  0.9498232415772776  0.0035612578485242
  0.5634305118932375  0.2551914835163558  0.9986599362516202
  0.9544970328350288  0.1737361010230813  0.9998945988647989
  0.3947059155774966  0.6083756046388800  0.9983181874998479
  0.7848022256982787  0.7145596334651714  0.3187228148364483
  0.5797851090613122  0.9793936572659021  0.2876623001450724
  0.0539437833951837  0.5364578786895393  0.3432730024727704
  0.9692622799380075  0.9670360372242115  0.2048733151672835
  0.4886201141193496  0.7209400028960502  0.4536093665502179
  0.6367273765251014  0.3873379282250937  0.4017261597389137
  0.2324991934429761  0.9861825573118921  0.5963685521666378
  0.0353987856607176  0.2718911661330381  0.5478388432693322
  0.7665895804173886  0.7650204108618937  0.7975938901180868
  0.7130056367261233  0.1959051754571135  0.6592941757770419
  0.2919245863324917  0.6964960763138137  0.7143536422463086
  0.4656487115870576  0.3982876478263009  0.6762676962188223

  0.00000000E+00  0.00000000E+00  0.00000000E+00
  0.00000000E+00  0.00000000E+00  0.00000000E+00
  0.00000000E+00  0.00000000E+00  0.00000000E+00
  0.00000000E+00  0.00000000E+00  0.00000000E+00
  0.00000000E+00  0.00000000E+00  0.00000000E+00
  0.00000000E+00  0.00000000E+00  0.00000000E+00
  0.00000000E+00  0.00000000E+00  0.00000000E+00
  0.00000000E+00  0.00000000E+00  0.00000000E+00
  0.00000000E+00  0.00000000E+00  0.00000000E+00
  0.00000000E+00  0.00000000E+00  0.00000000E+00
  0.00000000E+00  0.00000000E+00  0.00000000E+00
  0.00000000E+00  0.00000000E+00  0.00000000E+00
  0.00000000E+00  0.00000000E+00  0.00000000E+00
  0.00000000E+00  0.00000000E+00  0.00000000E+00
  0.00000000E+00  0.00000000E+00  0.00000000E+00
  0.00000000E+00  0.00000000E+00  0.00000000E+00
  0.00000000E+00  0.00000000E+00  0.00000000E+00
  0.00000000E+00  0.00000000E+00  0.00000000E+00
  0.00000000E+00  0.00000000E+00  0.00000000E+00
  0.00000000E+00  0.00000000E+00  0.00000000E+00
  0.00000000E+00  0.00000000E+00  0.00000000E+00
  0.00000000E+00  0.00000000E+00  0.00000000E+00
  0.00000000E+00  0.00000000E+00  0.00000000E+00
  0.00000000E+00  0.00000000E+00  0.00000000E+00
  0.00000000E+00  0.00000000E+00  0.00000000E+00
  0.00000000E+00  0.00000000E+00  0.00000000E+00
  0.00000000E+00  0.00000000E+00  0.00000000E+00
  0.00000000E+00  0.00000000E+00  0.00000000E+00
  0.00000000E+00  0.00000000E+00  0.00000000E+00
