Mg4 In4 I2                              
   1.00000000000000     
     5.1844467175513058    0.5014137466760856    0.0000000000000000
    -2.1073211139802064    3.5578585082778851    0.0000000000000000
     0.0000000000000000    0.0000000000000000   16.6148994795241300
   In   I    Mg
     4     2     4
Direct
  0.2967093095805424  0.6519538732972308  0.0367273215497192
  0.2967093095805424  0.6519538732972308  0.4632726784502736
  0.7032906904194647  0.3480461267027692  0.5367273215497192
  0.7032906904194647  0.3480461267027692  0.9632726784502808
  0.7830364680017752  0.2450749432954709  0.2500000000000000
  0.2169635319982248  0.7549250567045291  0.7500000000000000
  0.8858136397468215  0.9330641826036441  0.1052390874960238
  0.8858136397468215  0.9330641826036441  0.3947609125039762
  0.1141863602531714  0.0669358173963559  0.6052390874960238
  0.1141863602531714  0.0669358173963559  0.8947609125039762
 
  0.00000000E+00  0.00000000E+00  0.00000000E+00
  0.00000000E+00  0.00000000E+00  0.00000000E+00
  0.00000000E+00  0.00000000E+00  0.00000000E+00
  0.00000000E+00  0.00000000E+00  0.00000000E+00
  0.00000000E+00  0.00000000E+00  0.00000000E+00
  0.00000000E+00  0.00000000E+00  0.00000000E+00
  0.00000000E+00  0.00000000E+00  0.00000000E+00
  0.00000000E+00  0.00000000E+00  0.00000000E+00
  0.00000000E+00  0.00000000E+00  0.00000000E+00
  0.00000000E+00  0.00000000E+00  0.00000000E+00
