Mg10 Al4 I32                            
   1.00000000000000     
     6.5211751527151529   -6.7087560545390339    0.0000000000000000
     6.5211751527151529    6.7087560545390339    0.0000000000000000
     0.0000000000000000    0.0000000000000000   21.4840660818754898
   Mg   Al   I 
    10     4    32
Direct
  0.0000000000000000  0.0000000000000000  0.7504125087606255
  0.0000000000000000  0.0000000000000000  0.2495874912393745
  0.5000000000000000  0.5000000000000000  0.7495874912393745
  0.5000000000000000  0.5000000000000000  0.2504125087606255
  0.5000000000000000  0.5000000000000000  0.5000000000000000
  0.0000000000000000  0.0000000000000000  0.0000000000000000
  0.0000000000000000  0.5000000000000000  0.6719147911502787
  0.5000000000000000  0.0000000000000000  0.3280852088497213
  0.5000000000000000  0.0000000000000000  0.8280852088497213
  0.0000000000000000  0.5000000000000000  0.1719147911502787
  0.5000000000000000  0.0000000000000000  0.6302150699670648
  0.0000000000000000  0.5000000000000000  0.3697849300329352
  0.0000000000000000  0.5000000000000000  0.8697849300329352
  0.5000000000000000  0.0000000000000000  0.1302150699670648
  0.5299553783285447  0.2032652816713991  0.7339399982733070
  0.4700446216714553  0.7967347183286009  0.7339399982733070
  0.2032652816713991  0.5299553783285447  0.2660600017266859
  0.7967347183286009  0.4700446216714553  0.2660600017266859
  0.9700446216714553  0.2967347183286009  0.7660600017266930
  0.0299553783285447  0.7032652816713991  0.7660600017266930
  0.2967347183286009  0.9700446216714553  0.2339399982733141
  0.7032652816713991  0.0299553783285447  0.2339399982733141
  0.2037910591075160  0.0147530772725304  0.6396445879991290
  0.7962089408924840  0.9852469227274696  0.6396445879991290
  0.0147530772725304  0.2037910591075160  0.3603554120008710
  0.9852469227274696  0.7962089408924840  0.3603554120008710
  0.2962089408924840  0.4852469227274696  0.8603554120008710
  0.7037910591075160  0.5147530772725304  0.8603554120008710
  0.6972623868441730  0.0149295608407414  0.0353223395861875
  0.3027376131558270  0.9850704391592586  0.0353223395861875
  0.0149295608407414  0.6972623868441730  0.9646776604138125
  0.9850704391592586  0.3027376131558270  0.9646776604138125
  0.8027376131558270  0.4850704391592586  0.4646776604138125
  0.1972623868441730  0.5149295608407414  0.4646776604138125
  0.4850704391592586  0.8027376131558270  0.5353223395861875
  0.5149295608407414  0.1972623868441730  0.5353223395861875
  0.9764893221363238  0.7815080714226497  0.1409961784454978
  0.0235106778636762  0.2184919285773503  0.1409961784454978
  0.7815080714226497  0.9764893221363238  0.8590038215545022
  0.2184919285773503  0.0235106778636762  0.8590038215545022
  0.5235106778636762  0.7184919285773503  0.3590038215545022
  0.4764893221363238  0.2815080714226497  0.3590038215545022
  0.7184919285773503  0.5235106778636762  0.6409961784454978
  0.2815080714226497  0.4764893221363238  0.6409961784454978
  0.5147530772725304  0.7037910591075160  0.1396445879991290
  0.4852469227274696  0.2962089408924840  0.1396445879991290
 
  0.00000000E+00  0.00000000E+00  0.00000000E+00
  0.00000000E+00  0.00000000E+00  0.00000000E+00
  0.00000000E+00  0.00000000E+00  0.00000000E+00
  0.00000000E+00  0.00000000E+00  0.00000000E+00
  0.00000000E+00  0.00000000E+00  0.00000000E+00
  0.00000000E+00  0.00000000E+00  0.00000000E+00
  0.00000000E+00  0.00000000E+00  0.00000000E+00
  0.00000000E+00  0.00000000E+00  0.00000000E+00
  0.00000000E+00  0.00000000E+00  0.00000000E+00
  0.00000000E+00  0.00000000E+00  0.00000000E+00
  0.00000000E+00  0.00000000E+00  0.00000000E+00
  0.00000000E+00  0.00000000E+00  0.00000000E+00
  0.00000000E+00  0.00000000E+00  0.00000000E+00
  0.00000000E+00  0.00000000E+00  0.00000000E+00
  0.00000000E+00  0.00000000E+00  0.00000000E+00
  0.00000000E+00  0.00000000E+00  0.00000000E+00
  0.00000000E+00  0.00000000E+00  0.00000000E+00
  0.00000000E+00  0.00000000E+00  0.00000000E+00
  0.00000000E+00  0.00000000E+00  0.00000000E+00
  0.00000000E+00  0.00000000E+00  0.00000000E+00
  0.00000000E+00  0.00000000E+00  0.00000000E+00
  0.00000000E+00  0.00000000E+00  0.00000000E+00
  0.00000000E+00  0.00000000E+00  0.00000000E+00
  0.00000000E+00  0.00000000E+00  0.00000000E+00
  0.00000000E+00  0.00000000E+00  0.00000000E+00
  0.00000000E+00  0.00000000E+00  0.00000000E+00
  0.00000000E+00  0.00000000E+00  0.00000000E+00
  0.00000000E+00  0.00000000E+00  0.00000000E+00
  0.00000000E+00  0.00000000E+00  0.00000000E+00
  0.00000000E+00  0.00000000E+00  0.00000000E+00
  0.00000000E+00  0.00000000E+00  0.00000000E+00
  0.00000000E+00  0.00000000E+00  0.00000000E+00
  0.00000000E+00  0.00000000E+00  0.00000000E+00
  0.00000000E+00  0.00000000E+00  0.00000000E+00
  0.00000000E+00  0.00000000E+00  0.00000000E+00
  0.00000000E+00  0.00000000E+00  0.00000000E+00
  0.00000000E+00  0.00000000E+00  0.00000000E+00
  0.00000000E+00  0.00000000E+00  0.00000000E+00
  0.00000000E+00  0.00000000E+00  0.00000000E+00
  0.00000000E+00  0.00000000E+00  0.00000000E+00
  0.00000000E+00  0.00000000E+00  0.00000000E+00
  0.00000000E+00  0.00000000E+00  0.00000000E+00
  0.00000000E+00  0.00000000E+00  0.00000000E+00
  0.00000000E+00  0.00000000E+00  0.00000000E+00
  0.00000000E+00  0.00000000E+00  0.00000000E+00
  0.00000000E+00  0.00000000E+00  0.00000000E+00
