Be2 B2 I6                               
   1.00000000000000     
     1.8183172808411892   -7.0420098704963223    0.0000000000000000
     1.8183172808411892    7.0420098704963223    0.0000000000000000
     0.0000000000000000    0.0000000000000000   13.7769369002035020
   Be   B    I 
     2     2     6
Direct
  0.0000000000000000  0.0000000000000000  0.0000000000000000
  0.0000000000000000  0.0000000000000000  0.5000000000000000
  0.2560542001211772  0.7439457998788228  0.2500000000000000
  0.7439457998788228  0.2560542001211772  0.7500000000000000
  0.6081073129315087  0.3918926870684913  0.0625345936402795
  0.3918926870684913  0.6081073129315087  0.9374654063597205
  0.3918926870684913  0.6081073129315087  0.5625345936402795
  0.6081073129315087  0.3918926870684913  0.4374654063597205
  0.8739633004695122  0.1260366995304878  0.2500000000000000
  0.1260366995304878  0.8739633004695122  0.7500000000000000
 
  0.00000000E+00  0.00000000E+00  0.00000000E+00
  0.00000000E+00  0.00000000E+00  0.00000000E+00
  0.00000000E+00  0.00000000E+00  0.00000000E+00
  0.00000000E+00  0.00000000E+00  0.00000000E+00
  0.00000000E+00  0.00000000E+00  0.00000000E+00
  0.00000000E+00  0.00000000E+00  0.00000000E+00
  0.00000000E+00  0.00000000E+00  0.00000000E+00
  0.00000000E+00  0.00000000E+00  0.00000000E+00
  0.00000000E+00  0.00000000E+00  0.00000000E+00
  0.00000000E+00  0.00000000E+00  0.00000000E+00
