Mg2 Tl2 Cl10                            
   1.00000000000000     
     6.1906028136131646   -3.2400797466397857    0.2839577597819668
     6.3510439354190824    3.4139723202872907    0.2058325013872049
    -4.2246741259524310   -0.2441204722168100    8.8052053185729200
   Tl   Mg   Cl
     2     2    10
Direct
  0.9992886178573031  0.9997068348179496  0.0005902947791654
  0.0008341246614165  0.9992082481650613  0.5008773877320749
  0.5783077849703488  0.6305650441494564  0.2121029626880784
  0.4217622965784429  0.3694358833587330  0.7875980270860552
  0.2443058124730868  0.5643783220125087  0.0363342454376934
  0.3629213951621608  0.0155920028746195  0.1518739220790835
  0.7967646624027225  0.2142113086254511  0.2482421022517656
  0.9420012897999044  0.6544417492671428  0.3397594820256913
  0.4220763158293579  0.7671018420252054  0.4462371773029332
  0.5786877277587479  0.2343782072103622  0.5540346321910405
  0.0583998747583436  0.3457687775721325  0.6596599002754786
  0.2029024372994002  0.7863988490551890  0.7520591151748022
  0.6366221941768728  0.9838639906386675  0.8472629598824000
  0.7553254662718842  0.4351489402275277  0.9636677910937408
 
  0.00000000E+00  0.00000000E+00  0.00000000E+00
  0.00000000E+00  0.00000000E+00  0.00000000E+00
  0.00000000E+00  0.00000000E+00  0.00000000E+00
  0.00000000E+00  0.00000000E+00  0.00000000E+00
  0.00000000E+00  0.00000000E+00  0.00000000E+00
  0.00000000E+00  0.00000000E+00  0.00000000E+00
  0.00000000E+00  0.00000000E+00  0.00000000E+00
  0.00000000E+00  0.00000000E+00  0.00000000E+00
  0.00000000E+00  0.00000000E+00  0.00000000E+00
  0.00000000E+00  0.00000000E+00  0.00000000E+00
  0.00000000E+00  0.00000000E+00  0.00000000E+00
  0.00000000E+00  0.00000000E+00  0.00000000E+00
  0.00000000E+00  0.00000000E+00  0.00000000E+00
  0.00000000E+00  0.00000000E+00  0.00000000E+00
