Ca4 B10 I2                              
   1.00000000000000     
     9.8843037501994182    2.9965668168199073    2.8198736126691659
    -2.6142610536559956    5.2669851335205022   -1.0481782920234117
    -3.8942000494480018   -3.3137779672776091    4.2657732218574713
   I    Ca   B 
     2     4    10
Direct
  0.8452469037642558  0.0642579761741828  0.3400341174891537
  0.9168982815540616  0.7300405518321682  0.7911277822713174
  0.1265212828688647  0.9303107042165024  0.4008957501500703
  0.5471468192696349  0.1902255436592597  0.2575241509602435
  0.5884469878902863  0.7644868027488698  0.7072631941968694
  0.1309171573215764  0.3448990268411549  0.9878993614569325
  0.2018206471876738  0.5486220876424639  0.4518697160596972
  0.3385153911576850  0.4738611779747330  0.6506894298100079
  0.4128396220780601  0.7743662344488840  0.2591830136982409
  0.4401701150962154  0.5217512373921096  0.1631776283293078
  0.3930625535430252  0.6660844466022766  0.9721565154445599
  0.3574713940399974  0.7899976693477058  0.7619602884434613
  0.4362086900465911  0.0694017262131652  0.7580026066967918
  0.4255846020027292  0.2745878099149976  0.6258015282216860
  0.4307536792415121  0.0124818994293747  0.4841157116344519
  0.4083958729378381  0.3444251055621592  0.8880992051371805
 
  0.00000000E+00  0.00000000E+00  0.00000000E+00
  0.00000000E+00  0.00000000E+00  0.00000000E+00
  0.00000000E+00  0.00000000E+00  0.00000000E+00
  0.00000000E+00  0.00000000E+00  0.00000000E+00
  0.00000000E+00  0.00000000E+00  0.00000000E+00
  0.00000000E+00  0.00000000E+00  0.00000000E+00
  0.00000000E+00  0.00000000E+00  0.00000000E+00
  0.00000000E+00  0.00000000E+00  0.00000000E+00
  0.00000000E+00  0.00000000E+00  0.00000000E+00
  0.00000000E+00  0.00000000E+00  0.00000000E+00
  0.00000000E+00  0.00000000E+00  0.00000000E+00
  0.00000000E+00  0.00000000E+00  0.00000000E+00
  0.00000000E+00  0.00000000E+00  0.00000000E+00
  0.00000000E+00  0.00000000E+00  0.00000000E+00
  0.00000000E+00  0.00000000E+00  0.00000000E+00
  0.00000000E+00  0.00000000E+00  0.00000000E+00
