Sr13 In14                               
   1.0000000000000000     
     6.1195047591374969    6.1195047591374969    6.1185939422505431
     6.1195047591374969   -6.1185939422505431   -6.1195047591374969
    -6.1185939422505431    6.1195047591374969   -6.1195047591374969
   In   Sr
    14    13
Direct
  0.3271846761717683  0.0000239647458997  0.0000239647458997
  0.6728153238282317  0.9999760352541003  0.9999760352541003
  0.3166890687324297  0.3166890687324297  0.9999935301185801
  0.0000239647458997  0.3271846761717683  0.0000239647458997
  0.9999760352541003  0.6728153238282317  0.9999760352541003
  0.6833109312675703  0.6833109312675703  0.0000064698814199
  0.3166890687324297  0.9999935301185801  0.3166890687324297
  0.9999935301185801  0.3166890687324297  0.3166890687324297
  0.0000239647458997  0.0000239647458997  0.3271846761717683
  0.3269890579989791  0.3269890579989791  0.3269890579989791
  0.9999760352541003  0.9999760352541003  0.6728153238282317
  0.6730109420010209  0.6730109420010209  0.6730109420010209
  0.6833109312675703  0.0000064698814199  0.6833109312675703
  0.0000064698814199  0.6833109312675703  0.6833109312675703
  0.0000000000000000  0.0000000000000000  0.0000000000000000
  0.6726525439660520  0.3273474560339480  0.0000000000000000
  0.3273474560339480  0.6726525439660520  0.0000000000000000
  0.6725089427912323  0.6725089427912323  0.3451292219349682
  0.6726525439660520  0.0000000000000000  0.3273474560339480
  0.0000000000000000  0.6726525439660520  0.3273474560339480
  0.6548707780650318  0.3274910572087677  0.3274910572087677
  0.3274910572087677  0.6548707780650318  0.3274910572087677
  0.3273474560339480  0.0000000000000000  0.6726525439660520
  0.6725089427912323  0.3451292219349682  0.6725089427912323
  0.0000000000000000  0.3273474560339480  0.6726525439660520
  0.3451292219349682  0.6725089427912323  0.6725089427912323
  0.3274910572087677  0.3274910572087677  0.6548707780650318

  0.00000000E+00  0.00000000E+00  0.00000000E+00
  0.00000000E+00  0.00000000E+00  0.00000000E+00
  0.00000000E+00  0.00000000E+00  0.00000000E+00
  0.00000000E+00  0.00000000E+00  0.00000000E+00
  0.00000000E+00  0.00000000E+00  0.00000000E+00
  0.00000000E+00  0.00000000E+00  0.00000000E+00
  0.00000000E+00  0.00000000E+00  0.00000000E+00
  0.00000000E+00  0.00000000E+00  0.00000000E+00
  0.00000000E+00  0.00000000E+00  0.00000000E+00
  0.00000000E+00  0.00000000E+00  0.00000000E+00
  0.00000000E+00  0.00000000E+00  0.00000000E+00
  0.00000000E+00  0.00000000E+00  0.00000000E+00
  0.00000000E+00  0.00000000E+00  0.00000000E+00
  0.00000000E+00  0.00000000E+00  0.00000000E+00
  0.00000000E+00  0.00000000E+00  0.00000000E+00
  0.00000000E+00  0.00000000E+00  0.00000000E+00
  0.00000000E+00  0.00000000E+00  0.00000000E+00
  0.00000000E+00  0.00000000E+00  0.00000000E+00
  0.00000000E+00  0.00000000E+00  0.00000000E+00
  0.00000000E+00  0.00000000E+00  0.00000000E+00
  0.00000000E+00  0.00000000E+00  0.00000000E+00
  0.00000000E+00  0.00000000E+00  0.00000000E+00
  0.00000000E+00  0.00000000E+00  0.00000000E+00
  0.00000000E+00  0.00000000E+00  0.00000000E+00
  0.00000000E+00  0.00000000E+00  0.00000000E+00
  0.00000000E+00  0.00000000E+00  0.00000000E+00
  0.00000000E+00  0.00000000E+00  0.00000000E+00
