GaCl3                                   
   1.00000000000000     
     5.9051048435181768    0.0003664362758733   -0.0000867198142502
     0.0005338470469604    8.9026418501550832   -0.0858813752300479
    -0.0003769347272636   -3.5463883629274511   10.8301973398859062
   Cl   Ga
    12     4
Direct
  0.2271585569924355  0.6868301972906181  0.0395558180340103
  0.7988763022497096  0.9986673937577280  0.1019364795722097
  0.2170790890672833  0.3171401457326652  0.1969576042865739
  0.7169712862231279  0.6829024558800967  0.3030231319153529
  0.2988280210215279  0.0014859088463552  0.3980696474939123
  0.7270444766849664  0.3132932928742065  0.4605026181716312
  0.2728830868168259  0.6868624522277358  0.5395326700866221
  0.7011609804678045  0.9986437802682318  0.6019546403633811
  0.2830131058375471  0.3172023186315016  0.6970250712142416
  0.7830378127701749  0.6828615055160867  0.8030336292219147
  0.2011533060590978  0.0013963826620085  0.8980212245191765
  0.7729617580860051  0.3133032933731386  0.9604673976808371
  0.9971200743737469  0.1954006130946127  0.0487643156622042
  0.4970553377821219  0.8046969575750609  0.4512222902276974
  0.5029139585424716  0.1954307896328089  0.5488107640779347
  0.0029628470251524  0.8046625126371296  0.9512226974723106
 
  0.00000000E+00  0.00000000E+00  0.00000000E+00
  0.00000000E+00  0.00000000E+00  0.00000000E+00
  0.00000000E+00  0.00000000E+00  0.00000000E+00
  0.00000000E+00  0.00000000E+00  0.00000000E+00
  0.00000000E+00  0.00000000E+00  0.00000000E+00
  0.00000000E+00  0.00000000E+00  0.00000000E+00
  0.00000000E+00  0.00000000E+00  0.00000000E+00
  0.00000000E+00  0.00000000E+00  0.00000000E+00
  0.00000000E+00  0.00000000E+00  0.00000000E+00
  0.00000000E+00  0.00000000E+00  0.00000000E+00
  0.00000000E+00  0.00000000E+00  0.00000000E+00
  0.00000000E+00  0.00000000E+00  0.00000000E+00
  0.00000000E+00  0.00000000E+00  0.00000000E+00
  0.00000000E+00  0.00000000E+00  0.00000000E+00
  0.00000000E+00  0.00000000E+00  0.00000000E+00
  0.00000000E+00  0.00000000E+00  0.00000000E+00
