Sr2                                     
   1.00000000000000     
     3.6953245616402639   -0.0000000009951247    1.4079844939197688
     1.8323891696461683    5.3165936902837307    0.7440769374523184
    -0.0452759395419151   -0.0518501879007440    5.6721009550843950
   Sr
     2
Direct
  0.6240731878697972  0.2500000000000071  0.2499999999999787
  0.3759268121302028  0.7499999999999929  0.7500000000000213
 
  0.00000000E+00  0.00000000E+00  0.00000000E+00
  0.00000000E+00  0.00000000E+00  0.00000000E+00
