B10 Br18                                
   1.00000000000000     
     0.3008103955578628   -7.9346414848154643    7.8808935828337718
     6.7063963085184861   -4.1945575020579424   -7.8564287656802776
     7.4319930604721280    4.2678711316067091    8.4239454563145379
   Br   B 
    18    10
Direct
  0.2122545070831592  0.0568974461041236  0.1231768872704606
  0.9141995281597985  0.2270449112104629  0.0381591383913431
  0.4393442131031975  0.7444097938439995  0.0680238461713145
  0.4200910292422577  0.4581540607841319  0.2676748808045275
  0.0579374771613175  0.5651108219457939  0.2480105030208293
  0.9371404020510354  0.8870485750984116  0.2050741715883859
  0.2439227269942705  0.9467831228870054  0.4281507550264720
  0.7021033181166985  0.3812373012808692  0.4491615913702063
  0.5383762178155393  0.7332665461923114  0.4128398362630321
  0.4361898206944943  0.2949978265071849  0.6279116970168062
  0.2605693653305963  0.5889781690786080  0.5267635498905889
  0.7640087018250554  0.0559907986222399  0.5704431774123506
  0.0463142443536597  0.0785817904378519  0.7741723340209106
  0.9435637934719736  0.4326556306892257  0.7548157175474728
  0.6227156855703484  0.5562573903814609  0.7156908535014139
  0.5584200893938416  0.2536889588765305  0.9266439049268413
  0.1237974712639840  0.7878187602207944  0.9499058828511266
  0.7703682906303015  0.9544462732335148  0.9126641111561256
  0.6561220429170831  0.4145795275081099  0.9634978480166865
  0.0908791893261593  0.9107753907465437  0.0925678482882120
  0.4794451872729155  0.9030672787734133  0.1674223499428038
  0.4065864290992138  0.5931993746041258  0.4025550457075084
  0.0070081763047369  0.3125986916813446  0.6201457285701295
  0.0911564203176596  0.8395744152896469  0.4718621813608337
  0.5868288423513590  0.4110419851231768  0.5975245297985623
  0.6093308609533992  0.0114243249228352  0.6736674339442601
  0.9105204173147854  0.0864646122267416  0.9085595383662124
  0.1709055518811908  0.5140062217295664  0.1030146577745512
 
  0.00000000E+00  0.00000000E+00  0.00000000E+00
  0.00000000E+00  0.00000000E+00  0.00000000E+00
  0.00000000E+00  0.00000000E+00  0.00000000E+00
  0.00000000E+00  0.00000000E+00  0.00000000E+00
  0.00000000E+00  0.00000000E+00  0.00000000E+00
  0.00000000E+00  0.00000000E+00  0.00000000E+00
  0.00000000E+00  0.00000000E+00  0.00000000E+00
  0.00000000E+00  0.00000000E+00  0.00000000E+00
  0.00000000E+00  0.00000000E+00  0.00000000E+00
  0.00000000E+00  0.00000000E+00  0.00000000E+00
  0.00000000E+00  0.00000000E+00  0.00000000E+00
  0.00000000E+00  0.00000000E+00  0.00000000E+00
  0.00000000E+00  0.00000000E+00  0.00000000E+00
  0.00000000E+00  0.00000000E+00  0.00000000E+00
  0.00000000E+00  0.00000000E+00  0.00000000E+00
  0.00000000E+00  0.00000000E+00  0.00000000E+00
  0.00000000E+00  0.00000000E+00  0.00000000E+00
  0.00000000E+00  0.00000000E+00  0.00000000E+00
  0.00000000E+00  0.00000000E+00  0.00000000E+00
  0.00000000E+00  0.00000000E+00  0.00000000E+00
  0.00000000E+00  0.00000000E+00  0.00000000E+00
  0.00000000E+00  0.00000000E+00  0.00000000E+00
  0.00000000E+00  0.00000000E+00  0.00000000E+00
  0.00000000E+00  0.00000000E+00  0.00000000E+00
  0.00000000E+00  0.00000000E+00  0.00000000E+00
  0.00000000E+00  0.00000000E+00  0.00000000E+00
  0.00000000E+00  0.00000000E+00  0.00000000E+00
  0.00000000E+00  0.00000000E+00  0.00000000E+00
