Ca22 B14                                
   1.00000000000000     
    -7.2451319475584963    7.2423535768903786    0.0005969157506318
     7.2457078156535006    0.0000000000000000   -7.2490069561806605
    -7.2451319475584963   -7.2423535768903786    0.0005969157506318
   Ca   B 
    22    14
Direct
  0.9999579832478318  0.0000469765620821  0.9999579832478318
  0.4032778933448782  0.2687434885986733  0.1343756368571931
  0.8653596608807561  0.2686830610427293  0.1343229334270717
  0.8656785009012538  0.7313392646549204  0.1346034099272657
  0.5000347923243638  0.0000077712214548  0.1618263208010404
  0.1616733087680160  0.6615393419050406  0.1616733087680160
  0.4998940391494600  0.6615951865857781  0.1617411409399665
  0.1343756368571931  0.2687434885986733  0.4032778933448782
  0.1618263208010404  0.0000077712214548  0.5000347923243638
  0.4999885327913844  0.9999956354338622  0.4999885327913844
  0.8381507749260706  0.9999787150917712  0.4999423237691971
  0.5000342567928655  0.3383627414464172  0.5000342567928655
  0.8382451748551887  0.3383980903872228  0.5000956503486762
  0.1617411409399665  0.6615951865857781  0.4998940391494600
  0.4999497137006017  0.6616331356571195  0.4999497137006017
  0.8656039827769249  0.7312413210297350  0.5966867303002488
  0.4999423237691971  0.9999787150917712  0.8381507749260706
  0.5000956503486762  0.3383980903872228  0.8382451748551887
  0.8383068192486078  0.3384440313935073  0.8383068192486078
  0.1343229334270717  0.2686830610427293  0.8653596608807561
  0.1346034099272657  0.7313392646549204  0.8656785009012538
  0.5966867303002488  0.7312413210297350  0.8656039827769249
  0.7059965834612569  0.4120188069517283  0.1178860326101017
  0.2266071281526791  0.9998758485442778  0.2266071281526791
  0.7734709332110654  0.9999994206300187  0.2265055047386682
  0.2262324285003672  0.4522811472620205  0.2262324285003672
  0.7058951896169532  0.4119388511697011  0.2940999968055422
  0.7058767876948693  0.5880731350902551  0.2940797964155308
  0.8820885218958807  0.5879878573331112  0.2939773097195442
  0.1178860326101017  0.4120188069517283  0.7059965834612569
  0.2940999968055422  0.4119388511697011  0.7058951896169532
  0.2940797964155308  0.5880731350902551  0.7058767876948693
  0.2265055047386682  0.9999994206300187  0.7734709332110654
  0.7733949723957920  0.0001166999553561  0.7733949723957920
  0.7737392347028731  0.5476945022661397  0.7737392347028731
  0.2939773097195442  0.5879878573331112  0.8820885218958807
 
  0.00000000E+00  0.00000000E+00  0.00000000E+00
  0.00000000E+00  0.00000000E+00  0.00000000E+00
  0.00000000E+00  0.00000000E+00  0.00000000E+00
  0.00000000E+00  0.00000000E+00  0.00000000E+00
  0.00000000E+00  0.00000000E+00  0.00000000E+00
  0.00000000E+00  0.00000000E+00  0.00000000E+00
  0.00000000E+00  0.00000000E+00  0.00000000E+00
  0.00000000E+00  0.00000000E+00  0.00000000E+00
  0.00000000E+00  0.00000000E+00  0.00000000E+00
  0.00000000E+00  0.00000000E+00  0.00000000E+00
  0.00000000E+00  0.00000000E+00  0.00000000E+00
  0.00000000E+00  0.00000000E+00  0.00000000E+00
  0.00000000E+00  0.00000000E+00  0.00000000E+00
  0.00000000E+00  0.00000000E+00  0.00000000E+00
  0.00000000E+00  0.00000000E+00  0.00000000E+00
  0.00000000E+00  0.00000000E+00  0.00000000E+00
  0.00000000E+00  0.00000000E+00  0.00000000E+00
  0.00000000E+00  0.00000000E+00  0.00000000E+00
  0.00000000E+00  0.00000000E+00  0.00000000E+00
  0.00000000E+00  0.00000000E+00  0.00000000E+00
  0.00000000E+00  0.00000000E+00  0.00000000E+00
  0.00000000E+00  0.00000000E+00  0.00000000E+00
  0.00000000E+00  0.00000000E+00  0.00000000E+00
  0.00000000E+00  0.00000000E+00  0.00000000E+00
  0.00000000E+00  0.00000000E+00  0.00000000E+00
  0.00000000E+00  0.00000000E+00  0.00000000E+00
  0.00000000E+00  0.00000000E+00  0.00000000E+00
  0.00000000E+00  0.00000000E+00  0.00000000E+00
  0.00000000E+00  0.00000000E+00  0.00000000E+00
  0.00000000E+00  0.00000000E+00  0.00000000E+00
  0.00000000E+00  0.00000000E+00  0.00000000E+00
  0.00000000E+00  0.00000000E+00  0.00000000E+00
  0.00000000E+00  0.00000000E+00  0.00000000E+00
  0.00000000E+00  0.00000000E+00  0.00000000E+00
  0.00000000E+00  0.00000000E+00  0.00000000E+00
  0.00000000E+00  0.00000000E+00  0.00000000E+00
