Be2I                                    
   1.00000000000000     
     6.1997265167016504    0.0000000000000000    0.0000000000000000
     0.0000000000000000    6.1997265167016504    0.0000000000000000
     0.0000000000000000    0.0000000000000000    3.6343747718503252
   Be   I 
     4     2
Direct
  0.2878031270680808  0.2878031270680808  0.0000000000000000
  0.7121968729319192  0.7121968729319192  0.0000000000000000
  0.7878031270680808  0.2121968729319192  0.5000000000000000
  0.2121968729319192  0.7878031270680808  0.5000000000000000
  0.0000000000000000  0.0000000000000000  0.0000000000000000
  0.5000000000000000  0.5000000000000000  0.5000000000000000
 
  0.00000000E+00  0.00000000E+00  0.00000000E+00
  0.00000000E+00  0.00000000E+00  0.00000000E+00
  0.00000000E+00  0.00000000E+00  0.00000000E+00
  0.00000000E+00  0.00000000E+00  0.00000000E+00
  0.00000000E+00  0.00000000E+00  0.00000000E+00
  0.00000000E+00  0.00000000E+00  0.00000000E+00
