Ba13 Tl16                               
   1.0000000000000000     
    -6.6466807247227369   -6.6466807247227369    6.6466807247227369
    -6.6466807247227369    6.6466807247227369   -6.6466807247227369
     6.6466807247227369   -6.6466807247227369   -6.6466807247227369
   Tl   Ba
    16    13
Direct
  0.6982276976479369  0.0000000000000000  0.0000000000000000
  0.3570970921488765  0.1767024584142476  0.0000000000000000
  0.1767024584142476  0.3570970921488765  0.0000000000000000
  0.0000000000000000  0.6982276976479369  0.0000000000000000
  0.8232975415857524  0.8232975415857524  0.1803946337346289
  0.3570970921488765  0.0000000000000000  0.1767024584142476
  0.0000000000000000  0.3570970921488765  0.1767024584142476
  0.3017723023520631  0.3017723023520631  0.3017723023520631
  0.1767024584142476  0.0000000000000000  0.3570970921488765
  0.0000000000000000  0.1767024584142476  0.3570970921488765
  0.8196053662653711  0.6429029078511235  0.6429029078511235
  0.6429029078511235  0.8196053662653711  0.6429029078511235
  0.0000000000000000  0.0000000000000000  0.6982276976479369
  0.8232975415857524  0.1803946337346289  0.8232975415857524
  0.1803946337346289  0.8232975415857524  0.8232975415857524
  0.6429029078511235  0.6429029078511235  0.8196053662653711
  0.0000000000000000  0.0000000000000000  0.0000000000000000
  0.7333264474826464  0.4498136481703980  0.0000000000000000
  0.4498136481703980  0.7333264474826464  0.0000000000000000
  0.5501863518296020  0.5501863518296020  0.2835127993122555
  0.7164872006877445  0.2666735525173536  0.2666735525173536
  0.2666735525173536  0.7164872006877445  0.2666735525173536
  0.7333264474826464  0.0000000000000000  0.4498136481703980
  0.0000000000000000  0.7333264474826464  0.4498136481703980
  0.5501863518296020  0.2835127993122555  0.5501863518296020
  0.2835127993122555  0.5501863518296020  0.5501863518296020
  0.4498136481703980  0.0000000000000000  0.7333264474826464
  0.0000000000000000  0.4498136481703980  0.7333264474826464
  0.2666735525173536  0.2666735525173536  0.7164872006877445

  0.00000000E+00  0.00000000E+00  0.00000000E+00
  0.00000000E+00  0.00000000E+00  0.00000000E+00
  0.00000000E+00  0.00000000E+00  0.00000000E+00
  0.00000000E+00  0.00000000E+00  0.00000000E+00
  0.00000000E+00  0.00000000E+00  0.00000000E+00
  0.00000000E+00  0.00000000E+00  0.00000000E+00
  0.00000000E+00  0.00000000E+00  0.00000000E+00
  0.00000000E+00  0.00000000E+00  0.00000000E+00
  0.00000000E+00  0.00000000E+00  0.00000000E+00
  0.00000000E+00  0.00000000E+00  0.00000000E+00
  0.00000000E+00  0.00000000E+00  0.00000000E+00
  0.00000000E+00  0.00000000E+00  0.00000000E+00
  0.00000000E+00  0.00000000E+00  0.00000000E+00
  0.00000000E+00  0.00000000E+00  0.00000000E+00
  0.00000000E+00  0.00000000E+00  0.00000000E+00
  0.00000000E+00  0.00000000E+00  0.00000000E+00
  0.00000000E+00  0.00000000E+00  0.00000000E+00
  0.00000000E+00  0.00000000E+00  0.00000000E+00
  0.00000000E+00  0.00000000E+00  0.00000000E+00
  0.00000000E+00  0.00000000E+00  0.00000000E+00
  0.00000000E+00  0.00000000E+00  0.00000000E+00
  0.00000000E+00  0.00000000E+00  0.00000000E+00
  0.00000000E+00  0.00000000E+00  0.00000000E+00
  0.00000000E+00  0.00000000E+00  0.00000000E+00
  0.00000000E+00  0.00000000E+00  0.00000000E+00
  0.00000000E+00  0.00000000E+00  0.00000000E+00
  0.00000000E+00  0.00000000E+00  0.00000000E+00
  0.00000000E+00  0.00000000E+00  0.00000000E+00
  0.00000000E+00  0.00000000E+00  0.00000000E+00
