Mg6 In4 F24                             
   1.00000000000000     
     0.0000000537807859   -0.0000001533853541    5.1986282388769087
    10.1901079871058897   -0.0443775156186323    0.0000001382549411
     0.0334348312912318    7.6755100862491998   -0.0000002174044147
   Mg   F    In
     6    24     4
Direct
  0.0000000536341389  0.9207636044722705  0.0797481190757239
  0.4999995095936214  0.2112895687334486  0.1476525118324687
  0.5000005022182279  0.7112900119333645  0.3523593076622049
  0.9999999015474472  0.4207631300670513  0.4202647368918164
  0.5000006579213121  0.0879367709321812  0.7836658655898461
  0.4999992534624695  0.5879369288306435  0.7163452940574473
  0.2666310662740159  0.5437445322234993  0.9165552107117918
  0.7333701107949295  0.5437455261971706  0.9165543660738180
  0.2562748865653006  0.7794185275618588  0.1706426713486664
  0.7437252483394943  0.7794182873971067  0.1706417136998795
  0.9999994963106715  0.4024845620555624  0.1054561712797621
  0.2499218117396182  0.0584995392598913  0.1833491442554234
  0.7500759543658049  0.0584987925196501  0.1833503855393346
  0.2499231739838024  0.5584990035700130  0.3166632440895754
  0.7500789863903066  0.5584997569056256  0.3166645040069156
  0.0000004847395374  0.9024836985989282  0.3945544231837275
  0.2562744898463052  0.2794185852833309  0.3293693686254855
  0.7437254099107022  0.2794188354165286  0.3293684254986715
  0.2666310281443884  0.0437438448599252  0.5834554474905005
  0.7333678569633690  0.0437428841101166  0.5834546383760184
  0.2751833934594856  0.7276075730160301  0.5838862863635512
  0.7248161500652799  0.7276080121272486  0.5838886682433042
  0.9999982634902764  0.2516141561093974  0.6114403561071171
  0.2479271415206057  0.4570795641658734  0.6237816561186094
  0.7520705927246922  0.4570791520300475  0.6237822059169105
  0.2479287061545108  0.9570806256653341  0.8762300686310809
  0.7520735338911919  0.9570810033048787  0.8762306080382771
  0.0000018476218031  0.7516157932584804  0.8885721810050953
  0.2751839493950641  0.2276080795351092  0.9161233531829609
  0.7248165603700301  0.2276075813673799  0.9161257063405870
  0.0000005355534469  0.6184002097683319  0.1066665506028457
  0.9999994749175940  0.1184001699875594  0.3933451881320877
  0.0000006378064583  0.8749108836482904  0.6681269703789852
  0.9999993302840693  0.3749108050879073  0.8318846516494816
 
  0.00000000E+00  0.00000000E+00  0.00000000E+00
  0.00000000E+00  0.00000000E+00  0.00000000E+00
  0.00000000E+00  0.00000000E+00  0.00000000E+00
  0.00000000E+00  0.00000000E+00  0.00000000E+00
  0.00000000E+00  0.00000000E+00  0.00000000E+00
  0.00000000E+00  0.00000000E+00  0.00000000E+00
  0.00000000E+00  0.00000000E+00  0.00000000E+00
  0.00000000E+00  0.00000000E+00  0.00000000E+00
  0.00000000E+00  0.00000000E+00  0.00000000E+00
  0.00000000E+00  0.00000000E+00  0.00000000E+00
  0.00000000E+00  0.00000000E+00  0.00000000E+00
  0.00000000E+00  0.00000000E+00  0.00000000E+00
  0.00000000E+00  0.00000000E+00  0.00000000E+00
  0.00000000E+00  0.00000000E+00  0.00000000E+00
  0.00000000E+00  0.00000000E+00  0.00000000E+00
  0.00000000E+00  0.00000000E+00  0.00000000E+00
  0.00000000E+00  0.00000000E+00  0.00000000E+00
  0.00000000E+00  0.00000000E+00  0.00000000E+00
  0.00000000E+00  0.00000000E+00  0.00000000E+00
  0.00000000E+00  0.00000000E+00  0.00000000E+00
  0.00000000E+00  0.00000000E+00  0.00000000E+00
  0.00000000E+00  0.00000000E+00  0.00000000E+00
  0.00000000E+00  0.00000000E+00  0.00000000E+00
  0.00000000E+00  0.00000000E+00  0.00000000E+00
  0.00000000E+00  0.00000000E+00  0.00000000E+00
  0.00000000E+00  0.00000000E+00  0.00000000E+00
  0.00000000E+00  0.00000000E+00  0.00000000E+00
  0.00000000E+00  0.00000000E+00  0.00000000E+00
  0.00000000E+00  0.00000000E+00  0.00000000E+00
  0.00000000E+00  0.00000000E+00  0.00000000E+00
  0.00000000E+00  0.00000000E+00  0.00000000E+00
  0.00000000E+00  0.00000000E+00  0.00000000E+00
  0.00000000E+00  0.00000000E+00  0.00000000E+00
  0.00000000E+00  0.00000000E+00  0.00000000E+00
