Ca4 Ga4 Br2                             
   1.00000000000000     
     4.2762473018448093   -0.0004545206297423    0.0000000000000000
    -2.1380372762503987    3.7035246434558422    0.0000000000000000
     0.0000000000000000    0.0000000000000000   16.5566814475053263
   Ga   Br   Ca
     4     2     4
Direct
  0.3333355284565158  0.6666466628654817  0.0135306000807702
  0.3333355284565158  0.6666466628654817  0.4864693999192298
  0.6666644715434842  0.3333533371345183  0.5135306000807702
  0.6666644715434842  0.3333533371345183  0.9864693999192298
  0.6651330787326941  0.3351003189790305  0.2500000000000000
  0.3348669212673059  0.6648996810209695  0.7500000000000000
  0.9999143289415002  0.0001063970481709  0.1207251728374530
  0.9999143289415002  0.0001063970481709  0.3792748271625470
  0.0000856710584927  0.9998936029518291  0.6207251728374530
  0.0000856710584927  0.9998936029518291  0.8792748271625470
 
  0.00000000E+00  0.00000000E+00  0.00000000E+00
  0.00000000E+00  0.00000000E+00  0.00000000E+00
  0.00000000E+00  0.00000000E+00  0.00000000E+00
  0.00000000E+00  0.00000000E+00  0.00000000E+00
  0.00000000E+00  0.00000000E+00  0.00000000E+00
  0.00000000E+00  0.00000000E+00  0.00000000E+00
  0.00000000E+00  0.00000000E+00  0.00000000E+00
  0.00000000E+00  0.00000000E+00  0.00000000E+00
  0.00000000E+00  0.00000000E+00  0.00000000E+00
  0.00000000E+00  0.00000000E+00  0.00000000E+00
