In1 Br6                                 
   1.00000000000000     
     4.5692290039457539    1.4390223027789000    6.3626232196337122
    -5.0387895116942021    4.7661525286642874    4.8469794327557931
     2.5241153138601349   -6.5748946248819937    5.5799787163271217
   Br   In
     6     1
Direct
  0.9557522234508795  0.3992687093298954  0.8443436935292041
  0.6530347943112744  0.0935832789639619  0.1640039541569820
  0.9641342458207376  0.9081117471201523  0.3987933200557379
  0.0453022017267415  0.1494873282502027  0.5788871330018353
  0.3413977322226032  0.9379497325597654  0.8609469639606075
  0.0409435042134518  0.5922509195550489  0.0629676573784721
  0.9998352982543111  0.9197482842209581  0.0904572779171815
 
  0.00000000E+00  0.00000000E+00  0.00000000E+00
  0.00000000E+00  0.00000000E+00  0.00000000E+00
  0.00000000E+00  0.00000000E+00  0.00000000E+00
  0.00000000E+00  0.00000000E+00  0.00000000E+00
  0.00000000E+00  0.00000000E+00  0.00000000E+00
  0.00000000E+00  0.00000000E+00  0.00000000E+00
  0.00000000E+00  0.00000000E+00  0.00000000E+00
