Ca2 In3                                 
   1.00000000000000     
    -2.3098821478595388    3.3253307045721119    4.8940048981682098
     2.3098821478595388   -3.3253307045721119    4.8940048981682098
     2.3098821478595388    3.3253307045721119   -4.8940048981682098
   In   Ca
     3     2
Direct
  0.2798135551799419  0.0000000000000000  0.2798135551799419
  0.0000000000000000  0.5000000000000000  0.5000000000000000
  0.7201864448200581  0.0000000000000000  0.7201864448200581
  0.2896224937156404  0.2896224937156404  0.0000000000000000
  0.7103775062843596  0.7103775062843596  0.0000000000000000
 
  0.00000000E+00  0.00000000E+00  0.00000000E+00
  0.00000000E+00  0.00000000E+00  0.00000000E+00
  0.00000000E+00  0.00000000E+00  0.00000000E+00
  0.00000000E+00  0.00000000E+00  0.00000000E+00
  0.00000000E+00  0.00000000E+00  0.00000000E+00
