Mg16Al13                                
   1.00000000000000     
     7.4343665352020052   -4.2599249432211179    3.0464133377687421
     0.0031231984138731    8.4962244281928943    3.0054607940551228
    -7.4360931762511617   -4.2638918822346978    3.0440489896924352
   Al   Mg
    13    16
Direct
  0.6339385465664265  0.8127080903116948  0.9999186580645087
  0.8146901799022430  0.6256997248234910  0.0000301431067271
  0.6174401396774556  0.3154652417735946  0.9999271871456727
  0.3626922694075816  0.3673554756853719  0.1803838854476396
  0.1848780219028825  0.8189449766911849  0.1845348786595693
  0.8174158642468399  0.1853013721847319  0.1840789490230392
  0.3661705640902966  0.1831538362317104  0.3691442540452314
  0.1792207186338786  0.3674479145457141  0.3689932733892576
  0.8104162601888163  0.9984518420222841  0.6309253384875930
  0.9971248672460931  0.8140038856198188  0.6309759238714889
  0.6333834848455382  0.0011110958816829  0.8157494250505906
  0.0003489707249926  0.6343988746217732  0.8155992345664060
  0.1825118637031906  0.1870798943459420  0.8198129849312963
  0.3532888544925683  0.0119372067313321  0.0000625933891527
  0.0013477703761211  0.0003359105331242  0.9999803393625157
  0.9959033168974898  0.3459663175065870  0.0000446489534056
  0.3138521974222783  0.6007313747314527  0.9999651617935470
  0.6797487436727536  0.6763817055609422  0.2778727391010989
  0.6000543559731284  0.9993650522824780  0.3131803869031629
  0.0005692990088590  0.6010156088034293  0.3174364584096807
  0.0001566262043369  0.9976008283538746  0.3457028313903052
  0.7090308099965341  0.3958154421760227  0.3900532147749374
  0.4012029053346851  0.7181217355106710  0.4020389073060571
  0.9991552739242877  0.3160842340796393  0.5980173999337595
  0.3189620025376243  0.0056994007192159  0.6098737271759802
  0.6542845242839448  0.6516939397514037  0.6541738862539148
  0.6832168442406257  0.2836287462596871  0.6826450047707766
  0.2868331894035876  0.6861831847917585  0.6868104034131974
  0.4018315350949351  0.3984770874693737  0.7220703202795065
 
  0.00000000E+00  0.00000000E+00  0.00000000E+00
  0.00000000E+00  0.00000000E+00  0.00000000E+00
  0.00000000E+00  0.00000000E+00  0.00000000E+00
  0.00000000E+00  0.00000000E+00  0.00000000E+00
  0.00000000E+00  0.00000000E+00  0.00000000E+00
  0.00000000E+00  0.00000000E+00  0.00000000E+00
  0.00000000E+00  0.00000000E+00  0.00000000E+00
  0.00000000E+00  0.00000000E+00  0.00000000E+00
  0.00000000E+00  0.00000000E+00  0.00000000E+00
  0.00000000E+00  0.00000000E+00  0.00000000E+00
  0.00000000E+00  0.00000000E+00  0.00000000E+00
  0.00000000E+00  0.00000000E+00  0.00000000E+00
  0.00000000E+00  0.00000000E+00  0.00000000E+00
  0.00000000E+00  0.00000000E+00  0.00000000E+00
  0.00000000E+00  0.00000000E+00  0.00000000E+00
  0.00000000E+00  0.00000000E+00  0.00000000E+00
  0.00000000E+00  0.00000000E+00  0.00000000E+00
  0.00000000E+00  0.00000000E+00  0.00000000E+00
  0.00000000E+00  0.00000000E+00  0.00000000E+00
  0.00000000E+00  0.00000000E+00  0.00000000E+00
  0.00000000E+00  0.00000000E+00  0.00000000E+00
  0.00000000E+00  0.00000000E+00  0.00000000E+00
  0.00000000E+00  0.00000000E+00  0.00000000E+00
  0.00000000E+00  0.00000000E+00  0.00000000E+00
  0.00000000E+00  0.00000000E+00  0.00000000E+00
  0.00000000E+00  0.00000000E+00  0.00000000E+00
  0.00000000E+00  0.00000000E+00  0.00000000E+00
  0.00000000E+00  0.00000000E+00  0.00000000E+00
  0.00000000E+00  0.00000000E+00  0.00000000E+00
