Ca4 In4 Cl20                            
   1.0000000000000000     
     7.1645609793315179   -0.0000000000000002    0.0000000000000007
    -0.0000000000000006    7.4129250046762474    0.0000000000000005
     0.0000000000000007    0.0000000000000002   20.5529999102533978
   Ca   In   Cl
     4     4    20
Direct
  0.8861566102101932  0.6313642287443457  0.5581949167613303
  0.3861566102101932  0.8686357712556543  0.4418050832386697
  0.1138433897898068  0.1313642287443457  0.9418050832386697
  0.6138433897898068  0.3686357712556543  0.0581949167613303
  0.2253426252780883  0.1488238986579944  0.6201359196580043
  0.7253426252780883  0.3511761013420056  0.3798640803419957
  0.7746573747219117  0.6488238986579944  0.8798640803419957
  0.2746573747219117  0.8511761013420056  0.1201359196580043
  0.0468201841612910  0.7297988997162506  0.4490157687213525
  0.5468201841612910  0.7702011002837494  0.5509842312786475
  0.9531798158387090  0.2297988997162506  0.0509842312786475
  0.4531798158387090  0.2702011002837494  0.9490157687213525
  0.5407173575212312  0.6174828502494449  0.3565077978039000
  0.0407173575212312  0.8825171497505551  0.6434922021960858
  0.4592826424787688  0.1174828502494449  0.1434922021960929
  0.9592826424787688  0.3825171497505551  0.8565077978039071
  0.0182430784566137  0.3970176607418310  0.6511906354375938
  0.5182430784566137  0.1029823392581690  0.3488093645624062
  0.9817569215433863  0.8970176607418310  0.8488093645624062
  0.4817569215433863  0.6029823392581690  0.1511906354375938
  0.5020821298754825  0.1734928481950391  0.6787940857604298
  0.0020821298754825  0.3265071518049680  0.3212059142395702
  0.4979178701245175  0.6734928481950391  0.8212059142395702
  0.9979178701245175  0.8265071518049609  0.1787940857604298
  0.7528884767291331  0.3191909447884953  0.4969050703080740
  0.2528884767291331  0.1808090552115047  0.5030949296919260
  0.2471115232708669  0.8191909447884953  0.0030949296919260
  0.7471115232708669  0.6808090552115047  0.9969050703080740

  0.00000000E+00  0.00000000E+00  0.00000000E+00
  0.00000000E+00  0.00000000E+00  0.00000000E+00
  0.00000000E+00  0.00000000E+00  0.00000000E+00
  0.00000000E+00  0.00000000E+00  0.00000000E+00
  0.00000000E+00  0.00000000E+00  0.00000000E+00
  0.00000000E+00  0.00000000E+00  0.00000000E+00
  0.00000000E+00  0.00000000E+00  0.00000000E+00
  0.00000000E+00  0.00000000E+00  0.00000000E+00
  0.00000000E+00  0.00000000E+00  0.00000000E+00
  0.00000000E+00  0.00000000E+00  0.00000000E+00
  0.00000000E+00  0.00000000E+00  0.00000000E+00
  0.00000000E+00  0.00000000E+00  0.00000000E+00
  0.00000000E+00  0.00000000E+00  0.00000000E+00
  0.00000000E+00  0.00000000E+00  0.00000000E+00
  0.00000000E+00  0.00000000E+00  0.00000000E+00
  0.00000000E+00  0.00000000E+00  0.00000000E+00
  0.00000000E+00  0.00000000E+00  0.00000000E+00
  0.00000000E+00  0.00000000E+00  0.00000000E+00
  0.00000000E+00  0.00000000E+00  0.00000000E+00
  0.00000000E+00  0.00000000E+00  0.00000000E+00
  0.00000000E+00  0.00000000E+00  0.00000000E+00
  0.00000000E+00  0.00000000E+00  0.00000000E+00
  0.00000000E+00  0.00000000E+00  0.00000000E+00
  0.00000000E+00  0.00000000E+00  0.00000000E+00
  0.00000000E+00  0.00000000E+00  0.00000000E+00
  0.00000000E+00  0.00000000E+00  0.00000000E+00
  0.00000000E+00  0.00000000E+00  0.00000000E+00
  0.00000000E+00  0.00000000E+00  0.00000000E+00
