Ba2 B1                                  
   1.00000000000000     
     0.0000000000000000    3.7486163621365569    3.7486163621365569
     3.7486163621365569    0.0000000000000000    3.7486163621365569
     3.7486163621365569    3.7486163621365569    0.0000000000000000
   B    Ba
     1     2
Direct
  0.0000000000000000  0.0000000000000000  0.0000000000000000
  0.2500000000000000  0.2500000000000000  0.2500000000000000
  0.7500000000000000  0.7500000000000000  0.7500000000000000
 
  0.00000000E+00  0.00000000E+00  0.00000000E+00
  0.00000000E+00  0.00000000E+00  0.00000000E+00
  0.00000000E+00  0.00000000E+00  0.00000000E+00
