Ba4 B4 F2                               
   1.00000000000000     
     4.6701867070497300   -0.7992896958238439    0.0000000000000000
    -3.0274785161656999    3.6450898195396997    0.0000000000000000
     0.0000000000000000    0.0000000000000000   15.8793698285186320
   B    Ba   F 
     4     4     2
Direct
  0.7313140738292105  0.2687375314368765  0.0000917352756531
  0.2686859261707895  0.7312624685631235  0.9999082647243469
  0.7313140738292105  0.2687375314368765  0.4999082647243469
  0.2686859261707895  0.7312624685631235  0.5000917352756531
  0.0007710107019818  0.9995392313531397  0.1144257222737721
  0.0007710107019818  0.9995392313531397  0.3855742777262279
  0.9992289892980182  0.0004607686468603  0.6144257222737721
  0.9992289892980182  0.0004607686468603  0.8855742777262279
  0.5042603130122458  0.4960884069868001  0.2500000000000000
  0.4957396869877542  0.5039115930131999  0.7500000000000000
 
  0.00000000E+00  0.00000000E+00  0.00000000E+00
  0.00000000E+00  0.00000000E+00  0.00000000E+00
  0.00000000E+00  0.00000000E+00  0.00000000E+00
  0.00000000E+00  0.00000000E+00  0.00000000E+00
  0.00000000E+00  0.00000000E+00  0.00000000E+00
  0.00000000E+00  0.00000000E+00  0.00000000E+00
  0.00000000E+00  0.00000000E+00  0.00000000E+00
  0.00000000E+00  0.00000000E+00  0.00000000E+00
  0.00000000E+00  0.00000000E+00  0.00000000E+00
  0.00000000E+00  0.00000000E+00  0.00000000E+00
