Sr1 In1 Cl3                             
   1.00000000000000     
     5.7183225422672210    0.0000000000000000    0.0000000000000000
     0.0000000000000000    5.7183225422672210    0.0000000000000000
     0.0000000000000000    0.0000000000000000    5.7488526636548114
   Cl   Sr   In
     3     1     1
Direct
  0.0000000000000000  0.0000000000000000  0.0444514755757410
  0.5000000000000000  0.0000000000000000  0.5996231481494405
  0.0000000000000000  0.5000000000000000  0.5996231481494405
  0.0000000000000000  0.0000000000000000  0.5359916580178847
  0.5000000000000000  0.5000000000000000  0.8616105701074943
 
  0.00000000E+00  0.00000000E+00  0.00000000E+00
  0.00000000E+00  0.00000000E+00  0.00000000E+00
  0.00000000E+00  0.00000000E+00  0.00000000E+00
  0.00000000E+00  0.00000000E+00  0.00000000E+00
  0.00000000E+00  0.00000000E+00  0.00000000E+00
