Mg4 Tl4 Cl2                             
   1.00000000000000     
     6.3589678489084420   -1.7772817639297087   -0.5348476261880535
    -4.6942369340727410    4.7356542907418344    0.5644015552396980
    -1.4903599590751868    0.7719343088590283   12.3602025616752815
   Tl   Mg   Cl
     4     4     2
Direct
  0.4487968213623148  0.6191865219959993  0.0950441699902314
  0.4915691686407655  0.5378839361207639  0.4995274985694564
  0.6076893987163956  0.1376677386183687  0.5044713833809666
  0.5259481555658141  0.4613761251659554  0.9036988345493100
  0.1725971790240877  0.8385508183325214  0.0869613307068491
  0.9348379417387918  0.1075948084401901  0.2930572212523685
  0.0402345349763706  0.9725315387226701  0.7057241836569830
  0.8025709369341527  0.2434918873476022  0.9121134446637029
  0.7124256176130785  0.2983599708398259  0.2430271602506693
  0.2633302454282429  0.7833566544161243  0.7559687729794788
 
  0.00000000E+00  0.00000000E+00  0.00000000E+00
  0.00000000E+00  0.00000000E+00  0.00000000E+00
  0.00000000E+00  0.00000000E+00  0.00000000E+00
  0.00000000E+00  0.00000000E+00  0.00000000E+00
  0.00000000E+00  0.00000000E+00  0.00000000E+00
  0.00000000E+00  0.00000000E+00  0.00000000E+00
  0.00000000E+00  0.00000000E+00  0.00000000E+00
  0.00000000E+00  0.00000000E+00  0.00000000E+00
  0.00000000E+00  0.00000000E+00  0.00000000E+00
  0.00000000E+00  0.00000000E+00  0.00000000E+00
