Ba1 Al3 I6                              
   1.00000000000000     
     8.7412937545888880    0.0066446241689001    0.0007584110356988
     0.0066446241689001    8.7412937545888862    0.0007584110356988
     4.3745002390275598    4.3745002390275598    6.1838902477297273
   I    Ba   Al
     6     1     3
Direct
  0.7308583175228449  0.2691416824771551  0.0000000000000000
  0.2687399809143827  0.2687399809143827  0.0004368780755826
  0.2691416824771551  0.7308583175228449  0.0000000000000000
  0.7312600190856173  0.7312600190856173  0.9995631219244174
  0.7311096723232566  0.7311096723232566  0.5378754024232464
  0.2688903276767434  0.2688903276767434  0.4621245975767536
  0.0000000000000000  0.0000000000000000  0.0000000000000000
  0.5000000000000000  0.5000000000000000  0.0000000000000000
  0.2498209948647414  0.7501790051352586  0.5000000000000000
  0.7501790051352586  0.2498209948647414  0.5000000000000000
 
  0.00000000E+00  0.00000000E+00  0.00000000E+00
  0.00000000E+00  0.00000000E+00  0.00000000E+00
  0.00000000E+00  0.00000000E+00  0.00000000E+00
  0.00000000E+00  0.00000000E+00  0.00000000E+00
  0.00000000E+00  0.00000000E+00  0.00000000E+00
  0.00000000E+00  0.00000000E+00  0.00000000E+00
  0.00000000E+00  0.00000000E+00  0.00000000E+00
  0.00000000E+00  0.00000000E+00  0.00000000E+00
  0.00000000E+00  0.00000000E+00  0.00000000E+00
  0.00000000E+00  0.00000000E+00  0.00000000E+00
