Ca16 Al12 Br1                           
   1.00000000000000     
     8.3885844020010065   -4.8423725400397641    3.4254899731729425
    -0.0122261269349692    9.6494977767176664    3.4051733088004426
    -8.3641940998613791   -4.8147435885489998    3.4060851094611242
   Al   Br   Ca
    12     1    16
Direct
  0.8055201111378665  0.6281477809448219  0.0000237681835813
  0.6305540448764191  0.8126406017882246  0.0000317678786672
  0.3737081842295495  0.3893204401610575  0.2244982313453150
  0.1492056660476351  0.7752775436283272  0.1648494334005974
  0.8179763405733453  0.1872976057266982  0.1872811624307289
  0.3737718305545457  0.2246694345213811  0.3893307401682193
  0.1770177112347184  0.3713211536741525  0.3713127943094605
  0.8055522308464589  0.9999412575870679  0.6283239749812353
  0.9844526919848207  0.8355095922640032  0.6104637168983018
  0.6305579938388206  0.9999997300545829  0.8126376654166236
  0.9844354077517110  0.6104019708497148  0.8354935494391711
  0.1492286375453347  0.1648749971953194  0.7754439736193675
  0.4270010085593796  0.0000796504301022  0.9999502188968137
  0.5426069400451041  0.2920491363508475  0.0000329656206262
  0.2800242342976773  0.5515563566517940  0.0000569507260337
  0.1580219602798536  0.0000432203281164  0.0000246591383117
  0.9948500507118894  0.2587975425020446  0.9998217295518543
  0.6962651028957296  0.7168579814220948  0.2808647291937163
  0.5423002334083336  0.9999996202674666  0.2918954860960099
  0.9794837264328109  0.5639970698415837  0.2831999271089529
  0.9948909375154145  0.9997543985756465  0.2585046443760888
  0.4154925008522667  0.7189578783748729  0.4361849719478670
  0.7283758171454409  0.4486698868382888  0.4486250517200503
  0.2799471258877517  0.0000712732389374  0.5515648629277266
  0.9793943636869287  0.2830038463209448  0.5638923248607313
  0.7368562019396734  0.7417501556074910  0.7418712747384291
  0.6961877831934018  0.2807865801420917  0.7167209003335131
  0.2501003640204260  0.7081094980557054  0.7081389702717047
  0.4154207985066805  0.4361147966566179  0.7189615544202965
 
  0.00000000E+00  0.00000000E+00  0.00000000E+00
  0.00000000E+00  0.00000000E+00  0.00000000E+00
  0.00000000E+00  0.00000000E+00  0.00000000E+00
  0.00000000E+00  0.00000000E+00  0.00000000E+00
  0.00000000E+00  0.00000000E+00  0.00000000E+00
  0.00000000E+00  0.00000000E+00  0.00000000E+00
  0.00000000E+00  0.00000000E+00  0.00000000E+00
  0.00000000E+00  0.00000000E+00  0.00000000E+00
  0.00000000E+00  0.00000000E+00  0.00000000E+00
  0.00000000E+00  0.00000000E+00  0.00000000E+00
  0.00000000E+00  0.00000000E+00  0.00000000E+00
  0.00000000E+00  0.00000000E+00  0.00000000E+00
  0.00000000E+00  0.00000000E+00  0.00000000E+00
  0.00000000E+00  0.00000000E+00  0.00000000E+00
  0.00000000E+00  0.00000000E+00  0.00000000E+00
  0.00000000E+00  0.00000000E+00  0.00000000E+00
  0.00000000E+00  0.00000000E+00  0.00000000E+00
  0.00000000E+00  0.00000000E+00  0.00000000E+00
  0.00000000E+00  0.00000000E+00  0.00000000E+00
  0.00000000E+00  0.00000000E+00  0.00000000E+00
  0.00000000E+00  0.00000000E+00  0.00000000E+00
  0.00000000E+00  0.00000000E+00  0.00000000E+00
  0.00000000E+00  0.00000000E+00  0.00000000E+00
  0.00000000E+00  0.00000000E+00  0.00000000E+00
  0.00000000E+00  0.00000000E+00  0.00000000E+00
  0.00000000E+00  0.00000000E+00  0.00000000E+00
  0.00000000E+00  0.00000000E+00  0.00000000E+00
  0.00000000E+00  0.00000000E+00  0.00000000E+00
  0.00000000E+00  0.00000000E+00  0.00000000E+00
