InBr2                                   
   1.00000000000000     
     8.0536698158726452    0.0001657367438711    0.0001077778399123
    -0.0000126121786166   10.7922914971562829    0.0005506862910908
     0.0001286495099897    0.0006372521388039   10.8269800265237475
   Br   In
    16     8
Direct
  0.3376619638295111  0.1866284245220342  0.0505580769552907
  0.1624277732027437  0.8129074185043237  0.0504812861872423
  0.9945300407480815  0.4604025717035825  0.1857319965680801
  0.5051528773137406  0.5391521139016788  0.1856346512979314
  0.9945671254276860  0.0391747656189310  0.3140929154002734
  0.5051343868176019  0.9603501283535323  0.3142279353036699
  0.3375348167249967  0.3130174133105683  0.4494708742470053
  0.1622645915451741  0.6868021298967477  0.4494068951755352
  0.8378302227054419  0.3131786347664161  0.5505236464718379
  0.6625420193474483  0.6869470502941866  0.5504608257888464
  0.4949987665468001  0.0396065912352555  0.6856206309132276
  0.0054640999487887  0.9607877304896633  0.6858067917997346
  0.4949155331594426  0.4608254601976824  0.8142607999002820
  0.0055260294436010  0.5395623983677069  0.8142003562287954
  0.8375372246676420  0.1870858295928386  0.9494417065489245
  0.6624109075031797  0.8133145491681262  0.9493418827395104
  0.2498969340359949  0.9997450734054212  0.1794596473278531
  0.6650924139089298  0.2498674234187561  0.2500516225559650
  0.8346194412656516  0.7498425115344105  0.2499010525290046
  0.2498275180382805  0.4999041618265068  0.3204839126757051
  0.7502541467689738  0.5000672311879484  0.6794546127484935
  0.1654435053230330  0.2501065054341538  0.7500297711623816
  0.3349838452047607  0.7501039936811864  0.7498604080178097
  0.7501638165225231  0.0002198895883296  0.8204977014566310
 
  0.00000000E+00  0.00000000E+00  0.00000000E+00
  0.00000000E+00  0.00000000E+00  0.00000000E+00
  0.00000000E+00  0.00000000E+00  0.00000000E+00
  0.00000000E+00  0.00000000E+00  0.00000000E+00
  0.00000000E+00  0.00000000E+00  0.00000000E+00
  0.00000000E+00  0.00000000E+00  0.00000000E+00
  0.00000000E+00  0.00000000E+00  0.00000000E+00
  0.00000000E+00  0.00000000E+00  0.00000000E+00
  0.00000000E+00  0.00000000E+00  0.00000000E+00
  0.00000000E+00  0.00000000E+00  0.00000000E+00
  0.00000000E+00  0.00000000E+00  0.00000000E+00
  0.00000000E+00  0.00000000E+00  0.00000000E+00
  0.00000000E+00  0.00000000E+00  0.00000000E+00
  0.00000000E+00  0.00000000E+00  0.00000000E+00
  0.00000000E+00  0.00000000E+00  0.00000000E+00
  0.00000000E+00  0.00000000E+00  0.00000000E+00
  0.00000000E+00  0.00000000E+00  0.00000000E+00
  0.00000000E+00  0.00000000E+00  0.00000000E+00
  0.00000000E+00  0.00000000E+00  0.00000000E+00
  0.00000000E+00  0.00000000E+00  0.00000000E+00
  0.00000000E+00  0.00000000E+00  0.00000000E+00
  0.00000000E+00  0.00000000E+00  0.00000000E+00
  0.00000000E+00  0.00000000E+00  0.00000000E+00
  0.00000000E+00  0.00000000E+00  0.00000000E+00
