Mg2Tl                                   
   1.0000000000000000     
     8.2059804729805279   -0.0003550340421548    0.0000000000000000
    -4.1032977049651125    7.1064279256332137    0.0000000000000000
     0.0000000000000000    0.0000000000000000    3.6649758590898642
   Mg   Tl
     6     3
Direct
  0.2848863050239032  0.9999971565104389  0.0000000000000000
  0.9999972964469706  0.2848861207559850  0.0000000000000000
  0.7151192708361123  0.7151191301019324  0.0000000000000000
  0.6239786931762836  0.0000033175096803  0.5000000000000000
  0.3760352786382697  0.3760353730530213  0.5000000000000000
  0.0000032345495242  0.6239788791334888  0.5000000000000000
  0.6666644000703954  0.3333407990878356  0.0000000000000000
  0.3333407561999024  0.6666644278513729  0.0000000000000000
  0.0000071250586444  0.0000071359962348  0.5000000000000000

  0.00000000E+00  0.00000000E+00  0.00000000E+00
  0.00000000E+00  0.00000000E+00  0.00000000E+00
  0.00000000E+00  0.00000000E+00  0.00000000E+00
  0.00000000E+00  0.00000000E+00  0.00000000E+00
  0.00000000E+00  0.00000000E+00  0.00000000E+00
  0.00000000E+00  0.00000000E+00  0.00000000E+00
  0.00000000E+00  0.00000000E+00  0.00000000E+00
  0.00000000E+00  0.00000000E+00  0.00000000E+00
  0.00000000E+00  0.00000000E+00  0.00000000E+00
