Ca3In                                   
   1.00000000000000     
     4.0341034191161720   -4.0341034191161720    0.0000000000000000
    -4.0341034191161720    0.0000000000000000   -4.0341034191161720
     4.0341034191161720    4.0341034191161720    0.0000000000000000
   Ca   In
     3     1
Direct
  0.7500000000000000  0.5000000000000000  0.2500000000000000
  0.5000000000000000  0.0000000000000000  0.5000000000000000
  0.2500000000000000  0.5000000000000000  0.7500000000000000
  0.0000000000000000  0.0000000000000000  0.0000000000000000
 
  0.00000000E+00  0.00000000E+00  0.00000000E+00
  0.00000000E+00  0.00000000E+00  0.00000000E+00
  0.00000000E+00  0.00000000E+00  0.00000000E+00
  0.00000000E+00  0.00000000E+00  0.00000000E+00
