Mg4 Ga4 Cl20                            
   1.0000000000000000     
     0.0000000000000000    9.1584818762135800    2.4313942274681297
    15.6852686075545833    0.0000000000000000    0.0000000000000000
     0.0000000000000000   -1.8875120311807645   -6.8731726604475254
   Mg   Ga   Cl
     4     4    20
Direct
  0.6744935249774500  0.5041594498015343  0.6602632906278956
  0.3255064750225429  0.0041594498015201  0.3397367093721044
  0.8325437433023524  0.0914043134424389  0.8081587229674057
  0.1674562566976547  0.5914043134424389  0.1918412770325943
  0.4281844879141516  0.8089429529472483  0.2279326105482085
  0.5718155120858412  0.3089429529472483  0.7720673894517915
  0.0785958983455473  0.5243646880837431  0.5821188879049544
  0.9214041016544527  0.0243646880837431  0.4178811120950456
  0.1574760338262351  0.9618074716144420  0.5051752072533944
  0.2499573888560391  0.5097978783857116  0.9338370316448987
  0.7500426111439609  0.0097978783857045  0.0661629683550942
  0.6259983240208129  0.7515733012260029  0.2114002535862483
  0.1503676170431802  0.4520414672706536  0.3728643609468492
  0.3608055095559095  0.9371249060533913  0.0563118916931629
  0.9249283632013459  0.1549153853290761  0.5333661054245482
  0.4692902293262193  0.8580506996716935  0.5452686325246248
  0.8496323829568198  0.9520414672706536  0.6271356390531437
  0.8839392369673078  0.6011256128783842  0.9045199240238802
  0.6391944904440834  0.4371249060533913  0.9436881083068371
  0.8425239661737649  0.4618074716144420  0.4948247927466056
  0.5408918158185401  0.1012660523164541  0.5398992561619522
  0.8121736324869602  0.2410248009792610  0.9400730513017876
  0.1160607630326780  0.1011256128783842  0.0954800759761198
  0.0750716367986541  0.6549153853290761  0.4666338945754447
  0.3740016759791800  0.2515733012260171  0.7885997464137375
  0.1878263675130398  0.7410248009792682  0.0599269486982124
  0.5307097706737878  0.3580506996716935  0.4547313674753752
  0.4591081841814599  0.6012660523164470  0.4601007438380478

  0.00000000E+00  0.00000000E+00  0.00000000E+00
  0.00000000E+00  0.00000000E+00  0.00000000E+00
  0.00000000E+00  0.00000000E+00  0.00000000E+00
  0.00000000E+00  0.00000000E+00  0.00000000E+00
  0.00000000E+00  0.00000000E+00  0.00000000E+00
  0.00000000E+00  0.00000000E+00  0.00000000E+00
  0.00000000E+00  0.00000000E+00  0.00000000E+00
  0.00000000E+00  0.00000000E+00  0.00000000E+00
  0.00000000E+00  0.00000000E+00  0.00000000E+00
  0.00000000E+00  0.00000000E+00  0.00000000E+00
  0.00000000E+00  0.00000000E+00  0.00000000E+00
  0.00000000E+00  0.00000000E+00  0.00000000E+00
  0.00000000E+00  0.00000000E+00  0.00000000E+00
  0.00000000E+00  0.00000000E+00  0.00000000E+00
  0.00000000E+00  0.00000000E+00  0.00000000E+00
  0.00000000E+00  0.00000000E+00  0.00000000E+00
  0.00000000E+00  0.00000000E+00  0.00000000E+00
  0.00000000E+00  0.00000000E+00  0.00000000E+00
  0.00000000E+00  0.00000000E+00  0.00000000E+00
  0.00000000E+00  0.00000000E+00  0.00000000E+00
  0.00000000E+00  0.00000000E+00  0.00000000E+00
  0.00000000E+00  0.00000000E+00  0.00000000E+00
  0.00000000E+00  0.00000000E+00  0.00000000E+00
  0.00000000E+00  0.00000000E+00  0.00000000E+00
  0.00000000E+00  0.00000000E+00  0.00000000E+00
  0.00000000E+00  0.00000000E+00  0.00000000E+00
  0.00000000E+00  0.00000000E+00  0.00000000E+00
  0.00000000E+00  0.00000000E+00  0.00000000E+00
