Mg3In                                   
   1.00000000000000     
    -3.2051394270024005    5.5374492699914875   -0.1622601522644734
    -3.1939788950960191   -5.5310603730881001    0.0002429206081696
    -2.9373106297700446    1.6950825438568353   10.1160812653248104
   In   Mg
     4    12
Direct
  0.5775053111182871  0.2888782336840947  0.1285814008167634
  0.7457133216475853  0.8728538404708814  0.3776037468980107
  0.2541895555121840  0.1271387655596783  0.6223954371246379
  0.4223955496848930  0.7111305510722090  0.8714141383968155
  0.0828077593446324  0.2904629241455510  0.1247631662827402
  0.0827818180744657  0.7925175933322848  0.1247879171961301
  0.5824437705534748  0.7913872598038765  0.1245887142904394
  0.2501270873879236  0.3766378416148726  0.3748270429233216
  0.7527890716267294  0.3763602130540349  0.3747901603346335
  0.2500978290282276  0.8734705092258324  0.3748475180517516
  0.7497994516060871  0.1265017909157251  0.6251587634800657
  0.2471012052758610  0.6236199346866087  0.6252094971268676
  0.7497833839917121  0.6233424737100677  0.6251731825897124
  0.4174585415573446  0.2086291880732460  0.8754172801107245
  0.9171104716246035  0.2075109926140897  0.8752120959371297
  0.9170958719659836  0.7095578880369615  0.8752299384402562
 
  0.00000000E+00  0.00000000E+00  0.00000000E+00
  0.00000000E+00  0.00000000E+00  0.00000000E+00
  0.00000000E+00  0.00000000E+00  0.00000000E+00
  0.00000000E+00  0.00000000E+00  0.00000000E+00
  0.00000000E+00  0.00000000E+00  0.00000000E+00
  0.00000000E+00  0.00000000E+00  0.00000000E+00
  0.00000000E+00  0.00000000E+00  0.00000000E+00
  0.00000000E+00  0.00000000E+00  0.00000000E+00
  0.00000000E+00  0.00000000E+00  0.00000000E+00
  0.00000000E+00  0.00000000E+00  0.00000000E+00
  0.00000000E+00  0.00000000E+00  0.00000000E+00
  0.00000000E+00  0.00000000E+00  0.00000000E+00
  0.00000000E+00  0.00000000E+00  0.00000000E+00
  0.00000000E+00  0.00000000E+00  0.00000000E+00
  0.00000000E+00  0.00000000E+00  0.00000000E+00
  0.00000000E+00  0.00000000E+00  0.00000000E+00
