Be2Br3                                  
   1.00000000000000     
    -6.3646816368545549    0.0243498428893979   -0.5901893649555398
     3.2189869886542195   -5.5127857495133386   -0.2112578488382974
    -2.5567501877161534    2.5555306741684931    8.7643732754063670
   Be   Br
     4     6
Direct
  0.9908928183592778  0.0686752340164318  0.1190842568561408
  0.6524014050299414  0.4754200125618979  0.2342135902321303
  0.3476815895878147  0.5246580017953093  0.7658041057236886
  0.0092153393580077  0.9314030365556292  0.8809777183501950
  0.3169063723269687  0.1792607099437902  0.2649965348670307
  0.6682197025589218  0.8149274529251826  0.2400211683954936
  0.9718092632684474  0.4639589329693052  0.2378089630352491
  0.0282781791250244  0.5361170127164954  0.7621353617847859
  0.3318923139976775  0.1851468087575512  0.7599813047563231
  0.6831030163879319  0.8208327977583991  0.7349769959989558
 
  0.00000000E+00  0.00000000E+00  0.00000000E+00
  0.00000000E+00  0.00000000E+00  0.00000000E+00
  0.00000000E+00  0.00000000E+00  0.00000000E+00
  0.00000000E+00  0.00000000E+00  0.00000000E+00
  0.00000000E+00  0.00000000E+00  0.00000000E+00
  0.00000000E+00  0.00000000E+00  0.00000000E+00
  0.00000000E+00  0.00000000E+00  0.00000000E+00
  0.00000000E+00  0.00000000E+00  0.00000000E+00
  0.00000000E+00  0.00000000E+00  0.00000000E+00
  0.00000000E+00  0.00000000E+00  0.00000000E+00
