BeF3                                    
   1.00000000000000     
     5.4600477086190375    0.5236315110585897    0.0000000000000000
    -2.2760225365961992    4.9898693797830358    0.0000000000000000
     0.0000000000000000    0.0000000000000000    2.4227299554369575
   Be   F 
     2     6
Direct
  0.2771554114159400  0.7228361398006911  0.7500000000000000
  0.7228445885840529  0.2771638601993089  0.2500000000000000
  0.2070797967651998  0.4691915664877087  0.2500000000000000
  0.5307644608552664  0.7928852281620919  0.2500000000000000
  0.1428775106154774  0.8571523236336489  0.2500000000000000
  0.7929202032348073  0.5308084335122913  0.7500000000000000
  0.4692355391447336  0.2071147718379081  0.7500000000000000
  0.8571224893845155  0.1428476763663511  0.7500000000000000
 
  0.00000000E+00  0.00000000E+00  0.00000000E+00
  0.00000000E+00  0.00000000E+00  0.00000000E+00
  0.00000000E+00  0.00000000E+00  0.00000000E+00
  0.00000000E+00  0.00000000E+00  0.00000000E+00
  0.00000000E+00  0.00000000E+00  0.00000000E+00
  0.00000000E+00  0.00000000E+00  0.00000000E+00
  0.00000000E+00  0.00000000E+00  0.00000000E+00
  0.00000000E+00  0.00000000E+00  0.00000000E+00
