Tl8 Br14                                
   1.0000000000000000     
     4.0560125393072273   -6.9762123575354398    0.1588283834812215
    -4.0560125393072273   -6.9762123575354398    0.1588283834812215
     0.0000000000000000    5.0270179069891965  -16.3211812594340167
   Br   Tl
    14     8
Direct
  0.3647607555007468  0.3647607555007468  0.0482822689434173
  0.9113491339266560  0.3772320371847613  0.1686431521713203
  0.3772320371847613  0.9113491339266560  0.1686431521713203
  0.9057493058665571  0.9057493058665571  0.1654198467668380
  0.6015228689968168  0.1251719139902363  0.4064966896316733
  0.1251719139902363  0.6015228689968168  0.4064966896316733
  0.6041234590022952  0.6041234590022952  0.3860898469045821
  0.3965564148121956  0.3965564148121956  0.6139065554065510
  0.8755501909152201  0.3991302322327357  0.5935935003374837
  0.3991302322327357  0.8755501909152201  0.5935935003374837
  0.0938333302010861  0.0938333302010861  0.8333305190020184
  0.6229322844173382  0.0883801705165297  0.8317689976726754
  0.0883801705165297  0.6229322844173382  0.8317689976726754
  0.6326324625684023  0.6326324625684023  0.9516378877431890
  0.0010439509315106  0.0010439509315106  0.9999334137080140
  0.7083201448946568  0.7083201448946568  0.1123863978168131
  0.3651258301813911  0.3651258301813911  0.2496093171566756
  0.1847663017521839  0.1847663017521839  0.4598886400417683
  0.5003369879624060  0.5003369879624060  0.5000003840508569
  0.8160182691969453  0.8160182691969453  0.5402510932773836
  0.6349825527303992  0.6349825527303992  0.7505271390522807
  0.2912814022189494  0.2912814022189494  0.8874320105033178

  0.00000000E+00  0.00000000E+00  0.00000000E+00
  0.00000000E+00  0.00000000E+00  0.00000000E+00
  0.00000000E+00  0.00000000E+00  0.00000000E+00
  0.00000000E+00  0.00000000E+00  0.00000000E+00
  0.00000000E+00  0.00000000E+00  0.00000000E+00
  0.00000000E+00  0.00000000E+00  0.00000000E+00
  0.00000000E+00  0.00000000E+00  0.00000000E+00
  0.00000000E+00  0.00000000E+00  0.00000000E+00
  0.00000000E+00  0.00000000E+00  0.00000000E+00
  0.00000000E+00  0.00000000E+00  0.00000000E+00
  0.00000000E+00  0.00000000E+00  0.00000000E+00
  0.00000000E+00  0.00000000E+00  0.00000000E+00
  0.00000000E+00  0.00000000E+00  0.00000000E+00
  0.00000000E+00  0.00000000E+00  0.00000000E+00
  0.00000000E+00  0.00000000E+00  0.00000000E+00
  0.00000000E+00  0.00000000E+00  0.00000000E+00
  0.00000000E+00  0.00000000E+00  0.00000000E+00
  0.00000000E+00  0.00000000E+00  0.00000000E+00
  0.00000000E+00  0.00000000E+00  0.00000000E+00
  0.00000000E+00  0.00000000E+00  0.00000000E+00
  0.00000000E+00  0.00000000E+00  0.00000000E+00
  0.00000000E+00  0.00000000E+00  0.00000000E+00
