Ca4 Tl4 Br2                             
   1.0000000000000000     
     4.6289398339301275    0.0061212610545778    0.0031008508636149
    -2.3091792090884455    4.0258794418319441   -0.0024708911455874
     0.0099578051168958   -0.0043265821838211   17.4298062928002508
   Tl   Br   Ca
     4     2     4
Direct
  0.3332119197518537  0.6672522408780779  0.0364107619377236
  0.3334088594062621  0.6672446117499717  0.4636900794365317
  0.6665484661045014  0.3328418100188344  0.5363562577931447
  0.6668019695001064  0.3326281314013286  0.9636716498615030
  0.6662058442718219  0.3278496666179649  0.2500541690921807
  0.3338563989075496  0.6722163078831969  0.7499662320381688
  0.9997015078222233  0.0033265821227602  0.1294342059759899
  0.0006337197457071  0.0030476156189749  0.3706622714396843
  0.9993202373621841  0.9970446403867399  0.6294036106491419
  0.0003110771277974  0.9965483933221506  0.8706307617759421

  0.00000000E+00  0.00000000E+00  0.00000000E+00
  0.00000000E+00  0.00000000E+00  0.00000000E+00
  0.00000000E+00  0.00000000E+00  0.00000000E+00
  0.00000000E+00  0.00000000E+00  0.00000000E+00
  0.00000000E+00  0.00000000E+00  0.00000000E+00
  0.00000000E+00  0.00000000E+00  0.00000000E+00
  0.00000000E+00  0.00000000E+00  0.00000000E+00
  0.00000000E+00  0.00000000E+00  0.00000000E+00
  0.00000000E+00  0.00000000E+00  0.00000000E+00
  0.00000000E+00  0.00000000E+00  0.00000000E+00
