In1                                     
   1.00000000000000     
     1.9152366274970507    1.9152366274970507    1.9152366274970507
     1.9152366274970507   -1.9152366274970507   -1.9152366274970507
    -1.9152366274970507    1.9152366274970507   -1.9152366274970507
   In
     1
Direct
  0.0000000000000000  0.0000000000000000  0.0000000000000000
 
  0.00000000E+00  0.00000000E+00  0.00000000E+00
