Ca2 Al2 Br10                            
   1.00000000000000     
     5.5394316942236461    0.8532853054017644    4.3678538058952165
     2.0464667129806040    5.2177939579038810    4.3678547148788907
    -0.0422329685851236   -0.0337971401026385   18.5186198975219369
   Ca   Al   Br
     2     2    10
Direct
  0.6953690899906135  0.3046309144536465  0.2499999965628348
  0.3046309100093865  0.6953690855463535  0.7500000034371652
  0.0000000000000000  0.0000000000000000  0.5000000000000000
  0.0000000000000000  0.0000000000000000  0.0000000000000000
  0.6919013656729192  0.9065680438600907  0.6586039623848379
  0.0934319490534534  0.3080976402624600  0.8413960365324513
  0.3080976343270834  0.0934319561399164  0.3413970376151667
  0.9065680509465466  0.6919013597375496  0.1586039634675487
  0.8079003983588677  0.1920996030067812  0.7500000005661462
  0.1920996016411323  0.8079003969932188  0.2499999994338538
  0.7494393660579917  0.3584398986152735  0.0649701609309901
  0.6415600965711832  0.2505606336836053  0.4350298417755880
  0.2505606339420083  0.6415601013847194  0.9350298390690099
  0.3584399034288168  0.7494393663163947  0.5649701582244120
 
  0.00000000E+00  0.00000000E+00  0.00000000E+00
  0.00000000E+00  0.00000000E+00  0.00000000E+00
  0.00000000E+00  0.00000000E+00  0.00000000E+00
  0.00000000E+00  0.00000000E+00  0.00000000E+00
  0.00000000E+00  0.00000000E+00  0.00000000E+00
  0.00000000E+00  0.00000000E+00  0.00000000E+00
  0.00000000E+00  0.00000000E+00  0.00000000E+00
  0.00000000E+00  0.00000000E+00  0.00000000E+00
  0.00000000E+00  0.00000000E+00  0.00000000E+00
  0.00000000E+00  0.00000000E+00  0.00000000E+00
  0.00000000E+00  0.00000000E+00  0.00000000E+00
  0.00000000E+00  0.00000000E+00  0.00000000E+00
  0.00000000E+00  0.00000000E+00  0.00000000E+00
  0.00000000E+00  0.00000000E+00  0.00000000E+00
