Be4 Al4 Br20                            
   1.0000000000000000     
     6.3987030882520530   -0.0000000000000001    0.0000000000000006
    -0.0000000000000006    9.0513379658525590    0.0000000000000007
     0.0000000000000003    0.0000000000000006   19.2320642557186439
   Be   Al   Br
     4     4    20
Direct
  0.4822832453573298  0.4409615068362029  0.4118586080999478
  0.9822832453573298  0.0590384931637971  0.5881413919000522
  0.5177167546426631  0.9409615068362029  0.0881413919000522
  0.0177167546426631  0.5590384931637971  0.9118586080999478
  0.1436241873111896  0.8186454878766014  0.4269706698714089
  0.6436241873111896  0.6813545121233986  0.5730293301285840
  0.8563758126888104  0.3186454878766014  0.0730293301285840
  0.3563758126888104  0.1813545121233986  0.9269706698714089
  0.9429866581135968  0.6276365156113712  0.4861340882582468
  0.4429866581135897  0.8723634843886288  0.5138659117417532
  0.0570133418864032  0.1276365156113712  0.0138659117417532
  0.5570133418864032  0.3723634843886288  0.9861340882582468
  0.0205877283128828  0.8926960021847847  0.3208749121770325
  0.5205877283128828  0.6073039978152153  0.6791250878229675
  0.9794122716871172  0.3926960021847847  0.1791250878229675
  0.4794122716871172  0.1073039978152153  0.8208749121770325
  0.0071847843311232  0.5558502780737484  0.0225881349422963
  0.5071847843311232  0.9441497219262516  0.9774118650577037
  0.9928152156688768  0.0558502780737484  0.4774118650577037
  0.4928152156688839  0.4441497219262516  0.5225881349422963
  0.4558371858668622  0.7575837708533086  0.1428627984328230
  0.9558371858668622  0.7424162291466914  0.8571372015671770
  0.5441628141331378  0.2575837708533086  0.3571372015671770
  0.0441628141331378  0.2424162291466914  0.6428627984328230
  0.1186256082542201  0.3623850673623394  0.8616931726143875
  0.6186256082542201  0.1376149326376606  0.1383068273856125
  0.8813743917457799  0.8623850673623394  0.6383068273856125
  0.3813743917457799  0.6376149326376606  0.3616931726143875

  0.00000000E+00  0.00000000E+00  0.00000000E+00
  0.00000000E+00  0.00000000E+00  0.00000000E+00
  0.00000000E+00  0.00000000E+00  0.00000000E+00
  0.00000000E+00  0.00000000E+00  0.00000000E+00
  0.00000000E+00  0.00000000E+00  0.00000000E+00
  0.00000000E+00  0.00000000E+00  0.00000000E+00
  0.00000000E+00  0.00000000E+00  0.00000000E+00
  0.00000000E+00  0.00000000E+00  0.00000000E+00
  0.00000000E+00  0.00000000E+00  0.00000000E+00
  0.00000000E+00  0.00000000E+00  0.00000000E+00
  0.00000000E+00  0.00000000E+00  0.00000000E+00
  0.00000000E+00  0.00000000E+00  0.00000000E+00
  0.00000000E+00  0.00000000E+00  0.00000000E+00
  0.00000000E+00  0.00000000E+00  0.00000000E+00
  0.00000000E+00  0.00000000E+00  0.00000000E+00
  0.00000000E+00  0.00000000E+00  0.00000000E+00
  0.00000000E+00  0.00000000E+00  0.00000000E+00
  0.00000000E+00  0.00000000E+00  0.00000000E+00
  0.00000000E+00  0.00000000E+00  0.00000000E+00
  0.00000000E+00  0.00000000E+00  0.00000000E+00
  0.00000000E+00  0.00000000E+00  0.00000000E+00
  0.00000000E+00  0.00000000E+00  0.00000000E+00
  0.00000000E+00  0.00000000E+00  0.00000000E+00
  0.00000000E+00  0.00000000E+00  0.00000000E+00
  0.00000000E+00  0.00000000E+00  0.00000000E+00
  0.00000000E+00  0.00000000E+00  0.00000000E+00
  0.00000000E+00  0.00000000E+00  0.00000000E+00
  0.00000000E+00  0.00000000E+00  0.00000000E+00
