Sr9 Tl4                                 
   1.0000000000000000     
     0.0120214829829395    0.0026926444299807    5.6209482231931176
    -6.8807010004156428    6.8857153393370023    2.7995163596939161
    -6.8912610112689521   -6.8842175698046741   -2.8277550705665906
   Sr   Tl
     9     4
Direct
  0.5000003890015847  0.9999855132131472  0.9999763314920571
  0.8856269195637481  0.3024045350112132  0.0751265357534194
  0.3899146273535976  0.4984534716095865  0.2768412618965286
  0.1866295234248341  0.9248267068023495  0.3017477722068733
  0.8871356880156185  0.7238725677950768  0.4981764056464328
  0.1128583706863395  0.2760764599954442  0.5017707052141773
  0.8133762820991066  0.0751328326352834  0.6982037166953603
  0.6100931700171017  0.5014922938265940  0.7231275625144278
  0.1143691558500350  0.6975606109512569  0.9248268589729776
  0.7406452855542582  0.6734175169443404  0.1499506599025295
  0.5869439415910804  0.1499708994828595  0.3265333694391330
  0.4130557494830569  0.8499766987129149  0.6734298973787176
  0.2593508973596457  0.3265298930199378  0.8499889228873627

  0.00000000E+00  0.00000000E+00  0.00000000E+00
  0.00000000E+00  0.00000000E+00  0.00000000E+00
  0.00000000E+00  0.00000000E+00  0.00000000E+00
  0.00000000E+00  0.00000000E+00  0.00000000E+00
  0.00000000E+00  0.00000000E+00  0.00000000E+00
  0.00000000E+00  0.00000000E+00  0.00000000E+00
  0.00000000E+00  0.00000000E+00  0.00000000E+00
  0.00000000E+00  0.00000000E+00  0.00000000E+00
  0.00000000E+00  0.00000000E+00  0.00000000E+00
  0.00000000E+00  0.00000000E+00  0.00000000E+00
  0.00000000E+00  0.00000000E+00  0.00000000E+00
  0.00000000E+00  0.00000000E+00  0.00000000E+00
  0.00000000E+00  0.00000000E+00  0.00000000E+00
