Ba15 B1                                 
   1.00000000000000     
     4.3747645131005095   -7.5773142467130690    0.0000000000000000
     4.3747645131005095    7.5773142467130690    0.0000000000000000
     0.0000000000000000    0.0000000000000000   13.9512632413513558
   Ba   B 
    15     1
Direct
  0.3333330000000032  0.6666669999999968  0.5000000000000000
  0.8293689098827031  0.6587378197613276  0.0000000000000000
  0.8356075022544687  0.6712140045132102  0.5000000000000000
  0.8293689098786174  0.1706310901213826  0.0000000000000000
  0.8356075022587461  0.1643924977412539  0.5000000000000000
  0.3412621802386724  0.1706310901172969  0.0000000000000000
  0.3287859954867898  0.1643924977455313  0.5000000000000000
  0.6510415101557925  0.8255212550824922  0.2250919799260416
  0.6510415101557925  0.8255212550824922  0.7749080200739513
  0.1744787449267022  0.8255212550732978  0.2250919799260416
  0.1744787449267022  0.8255212550732978  0.7749080200739513
  0.1744787449175078  0.3489584898442075  0.2250919799260416
  0.1744787449175078  0.3489584898442075  0.7749080200739513
  0.6666669999999968  0.3333330000000032  0.2550747554014805
  0.6666669999999968  0.3333330000000032  0.7449252445985195
  0.3333330000000032  0.6666669999999968  0.0000000000000000
 
  0.00000000E+00  0.00000000E+00  0.00000000E+00
  0.00000000E+00  0.00000000E+00  0.00000000E+00
  0.00000000E+00  0.00000000E+00  0.00000000E+00
  0.00000000E+00  0.00000000E+00  0.00000000E+00
  0.00000000E+00  0.00000000E+00  0.00000000E+00
  0.00000000E+00  0.00000000E+00  0.00000000E+00
  0.00000000E+00  0.00000000E+00  0.00000000E+00
  0.00000000E+00  0.00000000E+00  0.00000000E+00
  0.00000000E+00  0.00000000E+00  0.00000000E+00
  0.00000000E+00  0.00000000E+00  0.00000000E+00
  0.00000000E+00  0.00000000E+00  0.00000000E+00
  0.00000000E+00  0.00000000E+00  0.00000000E+00
  0.00000000E+00  0.00000000E+00  0.00000000E+00
  0.00000000E+00  0.00000000E+00  0.00000000E+00
  0.00000000E+00  0.00000000E+00  0.00000000E+00
  0.00000000E+00  0.00000000E+00  0.00000000E+00
