Ba4 In2 Cl10                            
   1.0000000000000000     
     8.0769051476182021   -4.3646661234951791   -0.2226776905629636
     8.0770788747530045    4.3650331384247778   -0.2226791439600350
    -4.5099591864639805   -0.0000904804314533    7.4764472425428297
   Cl   In   Ba
    10     2     4
Direct
  0.5000477672668566  0.0000502033972438  0.0000677068734802
  0.0103645950820663  0.2178114900394235  0.0108196572033563
  0.5107913072362393  0.7176991425963593  0.2178664221935733
  0.2824183755206278  0.4893006631491730  0.2823578628136687
  0.7824953065811684  0.9896520643778004  0.4895381629622548
  0.0000846955327987  0.5000348921387143  0.5000778169408804
  0.2177900018004806  0.0103380606620931  0.5108042750805595
  0.7177145004098051  0.5107336351403120  0.7177987114644893
  0.4893512002843607  0.2823622687048584  0.7823763833117212
  0.9896991517082157  0.7824446439802486  0.9895230982904692
  0.7492164602497127  0.2504002408769566  0.2495080856282641
  0.2502220615294277  0.7494413962335713  0.7494015480253822
  0.8423259089874975  0.6580424834719949  0.1579850001529195
  0.3420504008773548  0.1576318265059626  0.3420893987061291
  0.6580725637495775  0.8423212036342207  0.6580138964345963
  0.1576557031838277  0.3420357850910705  0.8420719739182516

  0.00000000E+00  0.00000000E+00  0.00000000E+00
  0.00000000E+00  0.00000000E+00  0.00000000E+00
  0.00000000E+00  0.00000000E+00  0.00000000E+00
  0.00000000E+00  0.00000000E+00  0.00000000E+00
  0.00000000E+00  0.00000000E+00  0.00000000E+00
  0.00000000E+00  0.00000000E+00  0.00000000E+00
  0.00000000E+00  0.00000000E+00  0.00000000E+00
  0.00000000E+00  0.00000000E+00  0.00000000E+00
  0.00000000E+00  0.00000000E+00  0.00000000E+00
  0.00000000E+00  0.00000000E+00  0.00000000E+00
  0.00000000E+00  0.00000000E+00  0.00000000E+00
  0.00000000E+00  0.00000000E+00  0.00000000E+00
  0.00000000E+00  0.00000000E+00  0.00000000E+00
  0.00000000E+00  0.00000000E+00  0.00000000E+00
  0.00000000E+00  0.00000000E+00  0.00000000E+00
  0.00000000E+00  0.00000000E+00  0.00000000E+00
