Ba18 Al11                               
   1.00000000000000     
     9.4608875065873388    8.1025933808763355   -0.4134864885157850
    -9.4608875065873388    8.1025933808763355   -0.4134864885157849
     0.0000000000000000    7.4620818307446095    7.7430234174047792
   Ba   Al
    18    11
Direct
  0.0086593534357462  0.0086593534357462  0.9903045928079877
  0.2830903667445028  0.5880760103315126  0.9197900785664430
  0.8625466666494717  0.2276089196072562  0.0748331163916021
  0.2276089196072562  0.8625466666494717  0.0748331163916021
  0.5880760103315126  0.2830903667445028  0.9197900785664430
  0.3138611518132350  0.3138611518132350  0.7656712251035174
  0.6888351943854474  0.6888351943854474  0.8357975136365852
  0.6094649500253126  0.0184458226098130  0.7612288106430256
  0.0184458226098130  0.6094649500253126  0.7612288106430256
  0.0179180366066873  0.0179180366066873  0.6182861452202033
  0.5224376942709128  0.9440336928981736  0.4951058698119439
  0.9440336928981736  0.5224376942709128  0.4951058698119439
  0.9713770611969039  0.2885388758494116  0.3586599937064818
  0.2885388758494116  0.9713770611969039  0.3586599937064818
  0.7133689358627748  0.7133689358627748  0.3983014090009434
  0.3953187876923181  0.6660307028237114  0.3306920836038358
  0.6660307028237114  0.3953187876923181  0.3306920836038358
  0.3346424140073410  0.3346424140073410  0.3291892634992308
  0.7395639005578047  0.8796684929277845  0.9949179251041684
  0.8796684929277845  0.7395639005578047  0.9949179251041684
  0.8338162966355682  0.1591258699888343  0.8043809764250369
  0.1591258699888343  0.8338162966355682  0.8043809764250369
  0.0804549973185473  0.3207373178967998  0.6524566856309022
  0.3207373178967998  0.0804549973185473  0.6524566856309022
  0.8400028795474057  0.9825662307442968  0.4238450305815746
  0.9825662307442968  0.8400028795474057  0.4238450305815746
  0.6095878721258288  0.9939110934893165  0.1139120329522498
  0.9939110934893165  0.6095878721258288  0.1139120329522498
  0.1063104119572458  0.1063104119572458  0.2028056438969870
 
  0.00000000E+00  0.00000000E+00  0.00000000E+00
  0.00000000E+00  0.00000000E+00  0.00000000E+00
  0.00000000E+00  0.00000000E+00  0.00000000E+00
  0.00000000E+00  0.00000000E+00  0.00000000E+00
  0.00000000E+00  0.00000000E+00  0.00000000E+00
  0.00000000E+00  0.00000000E+00  0.00000000E+00
  0.00000000E+00  0.00000000E+00  0.00000000E+00
  0.00000000E+00  0.00000000E+00  0.00000000E+00
  0.00000000E+00  0.00000000E+00  0.00000000E+00
  0.00000000E+00  0.00000000E+00  0.00000000E+00
  0.00000000E+00  0.00000000E+00  0.00000000E+00
  0.00000000E+00  0.00000000E+00  0.00000000E+00
  0.00000000E+00  0.00000000E+00  0.00000000E+00
  0.00000000E+00  0.00000000E+00  0.00000000E+00
  0.00000000E+00  0.00000000E+00  0.00000000E+00
  0.00000000E+00  0.00000000E+00  0.00000000E+00
  0.00000000E+00  0.00000000E+00  0.00000000E+00
  0.00000000E+00  0.00000000E+00  0.00000000E+00
  0.00000000E+00  0.00000000E+00  0.00000000E+00
  0.00000000E+00  0.00000000E+00  0.00000000E+00
  0.00000000E+00  0.00000000E+00  0.00000000E+00
  0.00000000E+00  0.00000000E+00  0.00000000E+00
  0.00000000E+00  0.00000000E+00  0.00000000E+00
  0.00000000E+00  0.00000000E+00  0.00000000E+00
  0.00000000E+00  0.00000000E+00  0.00000000E+00
  0.00000000E+00  0.00000000E+00  0.00000000E+00
  0.00000000E+00  0.00000000E+00  0.00000000E+00
  0.00000000E+00  0.00000000E+00  0.00000000E+00
  0.00000000E+00  0.00000000E+00  0.00000000E+00
