Ca8 F2                                  
   1.00000000000000     
     4.9709805939332679    0.0000000000000000    0.0000000000000000
     0.0000000000000000    4.9709805939332670    0.0000000000000000
     0.0000000000000000    0.0000000000000000   13.2473234348628637
   Ca   F 
     8     2
Direct
  0.0000000000000000  0.0000000000000000  0.0000000000000000
  0.5000000000000000  0.5000000000000000  0.0000000000000000
  0.0000000000000000  0.0000000000000000  0.2714063402287010
  0.5000000000000000  0.5000000000000000  0.2714063402287010
  0.5000000000000000  0.0000000000000000  0.5129768593878836
  0.0000000000000000  0.5000000000000000  0.4870231406121235
  0.0000000000000000  0.0000000000000000  0.7285936597712990
  0.5000000000000000  0.5000000000000000  0.7285936597712990
  0.0000000000000000  0.5000000000000000  0.3080636992154737
  0.5000000000000000  0.0000000000000000  0.6919363007845263
 
  0.00000000E+00  0.00000000E+00  0.00000000E+00
  0.00000000E+00  0.00000000E+00  0.00000000E+00
  0.00000000E+00  0.00000000E+00  0.00000000E+00
  0.00000000E+00  0.00000000E+00  0.00000000E+00
  0.00000000E+00  0.00000000E+00  0.00000000E+00
  0.00000000E+00  0.00000000E+00  0.00000000E+00
  0.00000000E+00  0.00000000E+00  0.00000000E+00
  0.00000000E+00  0.00000000E+00  0.00000000E+00
  0.00000000E+00  0.00000000E+00  0.00000000E+00
  0.00000000E+00  0.00000000E+00  0.00000000E+00
