Be4 B4 F20                              
   1.0000000000000000     
     8.7463206539094429    0.0000000000000000    0.0000000000000000
     0.0000000000000000    4.4579235261575096    1.0394151599523747
     0.0000000000000000    3.4640796344148965    7.9166351104242842
   Be   B    F 
     4     4    20
Direct
  0.9664702922689656  0.7651901226993374  0.1434617715562396
  0.4664702922689585  0.2348098773006555  0.3565382284437604
  0.0335297077310344  0.2348098773006555  0.8565382284437675
  0.5335297077310344  0.7651901226993374  0.6434617715562325
  0.8260574420753528  0.7156893456609623  0.5748086632609102
  0.3260574420753457  0.2843106543390377  0.9251913367390898
  0.1739425579246472  0.2843106543390377  0.4251913367390898
  0.6739425579246472  0.7156893456609623  0.0748086632609102
  0.5580931818647485  0.1868057389207962  0.5279212212511553
  0.0580931818647485  0.8131942610792109  0.9720787787488447
  0.4419068181352515  0.8131942610792109  0.4720787787488447
  0.9419068181352515  0.1868057389207962  0.0279212212511553
  0.7989516467859801  0.8176994904385282  0.3951953497301517
  0.2989516467859872  0.1823005095614718  0.1048046502698483
  0.2010483532140199  0.1823005095614718  0.6048046502698483
  0.7010483532140199  0.8176994904385282  0.8951953497301517
  0.3736174481793313  0.0277363351682212  0.9060776172143861
  0.8736174481793313  0.9722636648317646  0.5939223827856139
  0.6263825518206687  0.9722636648317646  0.0939223827856139
  0.1263825518206687  0.0277363351682212  0.4060776172143932
  0.6839716094806363  0.5446360299499915  0.6912315978879136
  0.1839716094806292  0.4553639700500014  0.8087684021120864
  0.3160283905193779  0.4553639700500014  0.3087684021120793
  0.8160283905193637  0.5446360299499915  0.1912315978879136
  0.4338182710032328  0.5910377971719072  0.8273126520659986
  0.9338182710032328  0.4089622028280928  0.6726873479340014
  0.5661817289967672  0.4089622028280928  0.1726873479340014
  0.0661817289967672  0.5910377971719072  0.3273126520659986

  0.00000000E+00  0.00000000E+00  0.00000000E+00
  0.00000000E+00  0.00000000E+00  0.00000000E+00
  0.00000000E+00  0.00000000E+00  0.00000000E+00
  0.00000000E+00  0.00000000E+00  0.00000000E+00
  0.00000000E+00  0.00000000E+00  0.00000000E+00
  0.00000000E+00  0.00000000E+00  0.00000000E+00
  0.00000000E+00  0.00000000E+00  0.00000000E+00
  0.00000000E+00  0.00000000E+00  0.00000000E+00
  0.00000000E+00  0.00000000E+00  0.00000000E+00
  0.00000000E+00  0.00000000E+00  0.00000000E+00
  0.00000000E+00  0.00000000E+00  0.00000000E+00
  0.00000000E+00  0.00000000E+00  0.00000000E+00
  0.00000000E+00  0.00000000E+00  0.00000000E+00
  0.00000000E+00  0.00000000E+00  0.00000000E+00
  0.00000000E+00  0.00000000E+00  0.00000000E+00
  0.00000000E+00  0.00000000E+00  0.00000000E+00
  0.00000000E+00  0.00000000E+00  0.00000000E+00
  0.00000000E+00  0.00000000E+00  0.00000000E+00
  0.00000000E+00  0.00000000E+00  0.00000000E+00
  0.00000000E+00  0.00000000E+00  0.00000000E+00
  0.00000000E+00  0.00000000E+00  0.00000000E+00
  0.00000000E+00  0.00000000E+00  0.00000000E+00
  0.00000000E+00  0.00000000E+00  0.00000000E+00
  0.00000000E+00  0.00000000E+00  0.00000000E+00
  0.00000000E+00  0.00000000E+00  0.00000000E+00
  0.00000000E+00  0.00000000E+00  0.00000000E+00
  0.00000000E+00  0.00000000E+00  0.00000000E+00
  0.00000000E+00  0.00000000E+00  0.00000000E+00
