Sr22 Al14                               
   1.00000000000000     
    -8.6964115331712080    8.6870055878797370    0.0081833131252247
     8.7046001650037752    0.0000000000000000   -8.7444197211366852
    -8.6964115331712080   -8.6870055878797370    0.0081833131252247
   Sr   Al
    22    14
Direct
  0.9999970297925955  0.0000669932356416  0.9999970297925955
  0.3898376034052333  0.2586576201717179  0.1295346156415746
  0.8687857723682484  0.2585523973447650  0.1293114180509036
  0.8707364803771611  0.7415422945343764  0.1312153655589867
  0.4998480497923055  0.0000589020373312  0.1639026234604657
  0.1633033732875333  0.6628903429811714  0.1633033732875333
  0.4998755724525239  0.6633515914946244  0.1636937648015859
  0.1295346156415746  0.2586576201717179  0.3898376034052333
  0.1639026234604657  0.0000589020373312  0.4998480497923055
  0.4999115906481535  0.9998600457040467  0.4999115906481535
  0.8360678655654681  0.9999309478607117  0.5001127989546603
  0.5004118555991539  0.3368768651878113  0.5004118555991539
  0.8361537907669288  0.3364970145611963  0.5000797109626163
  0.1636937648015859  0.6633515914946244  0.4998755724525239
  0.4995613747048679  0.6629963379739436  0.4995613747048679
  0.8704619398978366  0.7413554394634616  0.6101693136697932
  0.5001127989546603  0.9999309478607117  0.8360678655654681
  0.5000797109626163  0.3364970145611963  0.8361537907669288
  0.8365320000266721  0.3369553957888769  0.8365320000266721
  0.1293114180509036  0.2585523973447650  0.8687857723682484
  0.1312153655589867  0.7415422945343764  0.8707364803771611
  0.6101693136697932  0.7413554394634616  0.8704619398978366
  0.6945286345206299  0.3891220250915808  0.0833356374675631
  0.2195876242097725  0.0000219106767432  0.2195876242097725
  0.7788034377596489  0.0000165784202082  0.2212021899941945
  0.2176101177791310  0.4352941019191334  0.2176101177791310
  0.6947404402968260  0.3891494310762909  0.3054438651299449
  0.6945807423340966  0.6109140946850502  0.3052505105545933
  0.9166594811051993  0.6109450443718814  0.3054786106421261
  0.0833356374675631  0.3891220250915808  0.6945286345206299
  0.3054438651299449  0.3891494310762909  0.6947404402968260
  0.3052505105545933  0.6109140946850502  0.6945807423340966
  0.2212021899941945  0.0000165784202082  0.7788034377596489
  0.7804571754411072  0.0000175896774408  0.7804571754411072
  0.7824176229799207  0.5648336546287851  0.7824176229799207
  0.3054786106421261  0.6109450443718814  0.9166594811051993
 
  0.00000000E+00  0.00000000E+00  0.00000000E+00
  0.00000000E+00  0.00000000E+00  0.00000000E+00
  0.00000000E+00  0.00000000E+00  0.00000000E+00
  0.00000000E+00  0.00000000E+00  0.00000000E+00
  0.00000000E+00  0.00000000E+00  0.00000000E+00
  0.00000000E+00  0.00000000E+00  0.00000000E+00
  0.00000000E+00  0.00000000E+00  0.00000000E+00
  0.00000000E+00  0.00000000E+00  0.00000000E+00
  0.00000000E+00  0.00000000E+00  0.00000000E+00
  0.00000000E+00  0.00000000E+00  0.00000000E+00
  0.00000000E+00  0.00000000E+00  0.00000000E+00
  0.00000000E+00  0.00000000E+00  0.00000000E+00
  0.00000000E+00  0.00000000E+00  0.00000000E+00
  0.00000000E+00  0.00000000E+00  0.00000000E+00
  0.00000000E+00  0.00000000E+00  0.00000000E+00
  0.00000000E+00  0.00000000E+00  0.00000000E+00
  0.00000000E+00  0.00000000E+00  0.00000000E+00
  0.00000000E+00  0.00000000E+00  0.00000000E+00
  0.00000000E+00  0.00000000E+00  0.00000000E+00
  0.00000000E+00  0.00000000E+00  0.00000000E+00
  0.00000000E+00  0.00000000E+00  0.00000000E+00
  0.00000000E+00  0.00000000E+00  0.00000000E+00
  0.00000000E+00  0.00000000E+00  0.00000000E+00
  0.00000000E+00  0.00000000E+00  0.00000000E+00
  0.00000000E+00  0.00000000E+00  0.00000000E+00
  0.00000000E+00  0.00000000E+00  0.00000000E+00
  0.00000000E+00  0.00000000E+00  0.00000000E+00
  0.00000000E+00  0.00000000E+00  0.00000000E+00
  0.00000000E+00  0.00000000E+00  0.00000000E+00
  0.00000000E+00  0.00000000E+00  0.00000000E+00
  0.00000000E+00  0.00000000E+00  0.00000000E+00
  0.00000000E+00  0.00000000E+00  0.00000000E+00
  0.00000000E+00  0.00000000E+00  0.00000000E+00
  0.00000000E+00  0.00000000E+00  0.00000000E+00
  0.00000000E+00  0.00000000E+00  0.00000000E+00
  0.00000000E+00  0.00000000E+00  0.00000000E+00
