Tl4 Br16                                
   1.0000000000000000     
    10.3600310053570848   -0.0099239613328960    1.1093981813576799
     0.0068809604425654    8.7986882222614682   -0.0020061708649452
    -0.3161516591267605    0.0029012245611776    8.9516612692730142
   Br   Tl
    16     4
Direct
  0.2055431056157246  0.1247435427050831  0.0334242074502527
  0.6028204355022950  0.4004339489288569  0.1429501683175971
  0.6070207814459891  0.9038047350601275  0.1722722307936095
  0.9909186417403220  0.5607770165765871  0.2279838723479060
  0.0092143800484834  0.0613242300547157  0.2718612312082200
  0.3921383405323766  0.4041531617206147  0.3273158244253835
  0.3969145771789684  0.8999697826847068  0.3559626920368046
  0.7939807672532879  0.6259263147552119  0.4665501501958218
  0.2054716399355101  0.3752261561686794  0.5334356552707220
  0.6027838741782006  0.0992297353625702  0.6430339076670677
  0.6073312442831451  0.5961023101189369  0.6722332408354745
  0.9909394481835250  0.9392839961226045  0.7280219154391290
  0.0093036761762093  0.4388995744063706  0.7718794579738528
  0.3922395926537874  0.0958163076780139  0.8273149933779251
  0.3969836954458543  0.6001435294941544  0.8560258181638147
  0.7937151399476576  0.8740303484818028  0.9668397082898252
  0.2019756108399946  0.4669429138978813  0.0389056874996214
  0.7995433744237772  0.9678215795809990  0.4626608043414819
  0.2021306494575299  0.0328335816279690  0.5388698639888716
  0.7996310251573746  0.5323372345741078  0.9625585703766291

  0.00000000E+00  0.00000000E+00  0.00000000E+00
  0.00000000E+00  0.00000000E+00  0.00000000E+00
  0.00000000E+00  0.00000000E+00  0.00000000E+00
  0.00000000E+00  0.00000000E+00  0.00000000E+00
  0.00000000E+00  0.00000000E+00  0.00000000E+00
  0.00000000E+00  0.00000000E+00  0.00000000E+00
  0.00000000E+00  0.00000000E+00  0.00000000E+00
  0.00000000E+00  0.00000000E+00  0.00000000E+00
  0.00000000E+00  0.00000000E+00  0.00000000E+00
  0.00000000E+00  0.00000000E+00  0.00000000E+00
  0.00000000E+00  0.00000000E+00  0.00000000E+00
  0.00000000E+00  0.00000000E+00  0.00000000E+00
  0.00000000E+00  0.00000000E+00  0.00000000E+00
  0.00000000E+00  0.00000000E+00  0.00000000E+00
  0.00000000E+00  0.00000000E+00  0.00000000E+00
  0.00000000E+00  0.00000000E+00  0.00000000E+00
  0.00000000E+00  0.00000000E+00  0.00000000E+00
  0.00000000E+00  0.00000000E+00  0.00000000E+00
  0.00000000E+00  0.00000000E+00  0.00000000E+00
  0.00000000E+00  0.00000000E+00  0.00000000E+00
