Be4 B4 F20                              
   1.0000000000000000     
     4.7813580537654552    0.0000000000000000    0.0000000000000003
    -0.0000000000000002    4.7903801484763875    0.0000000000000002
    -0.0000000000000001   -0.0000000000000001   12.0725438184764275
   Be   B    F 
     4     4    20
Direct
  0.4170463071121659  0.2499673533747284  0.4294333358161850
  0.9170463071121659  0.2500326466252716  0.5705666641838079
  0.5829536928878269  0.7499673533747142  0.0705666641838079
  0.0829536928878269  0.7500326466252858  0.9294333358161921
  0.1909316023524497  0.7499758779251877  0.3357628203932848
  0.6909316023524497  0.7500241220748123  0.6642371796067081
  0.8090683976475503  0.2499758779251877  0.1642371796067081
  0.3090683976475503  0.2500241220748123  0.8357628203932848
  0.4897774005417475  0.7500069560645457  0.5853664417937310
  0.9897774005417403  0.7499930439354543  0.4146335582062761
  0.5102225994582525  0.2500069560645457  0.9146335582062690
  0.0102225994582525  0.2499930439354543  0.0853664417937239
  0.1084209073745512  0.7500253632160749  0.2287396614168884
  0.6084209073745512  0.7499746367839251  0.7712603385831116
  0.8915790926254488  0.2500253632160749  0.2712603385831116
  0.3915790926254417  0.2499746367839251  0.7287396614168884
  0.7904565386728351  0.7499648216641788  0.9766898088694234
  0.2904565386728351  0.7500351783358212  0.0233101911305766
  0.2095434613271649  0.2499648216641788  0.5233101911305766
  0.7095434613271649  0.2500351783358212  0.4766898088694234
  0.6162900894039822  0.4870502262015748  0.1478825897559304
  0.1162900894039822  0.0129497737984252  0.8521174102440767
  0.3837099105960178  0.9870502262015748  0.3521174102440767
  0.8837099105960178  0.5129497737984252  0.6478825897559233
  0.1163823472766126  0.4871796212896697  0.8520899317738682
  0.6163823472766126  0.0128203787103303  0.1479100682261318
  0.8836176527233874  0.9871796212896697  0.6479100682261318
  0.3836176527233874  0.5128203787103303  0.3520899317738682

  0.00000000E+00  0.00000000E+00  0.00000000E+00
  0.00000000E+00  0.00000000E+00  0.00000000E+00
  0.00000000E+00  0.00000000E+00  0.00000000E+00
  0.00000000E+00  0.00000000E+00  0.00000000E+00
  0.00000000E+00  0.00000000E+00  0.00000000E+00
  0.00000000E+00  0.00000000E+00  0.00000000E+00
  0.00000000E+00  0.00000000E+00  0.00000000E+00
  0.00000000E+00  0.00000000E+00  0.00000000E+00
  0.00000000E+00  0.00000000E+00  0.00000000E+00
  0.00000000E+00  0.00000000E+00  0.00000000E+00
  0.00000000E+00  0.00000000E+00  0.00000000E+00
  0.00000000E+00  0.00000000E+00  0.00000000E+00
  0.00000000E+00  0.00000000E+00  0.00000000E+00
  0.00000000E+00  0.00000000E+00  0.00000000E+00
  0.00000000E+00  0.00000000E+00  0.00000000E+00
  0.00000000E+00  0.00000000E+00  0.00000000E+00
  0.00000000E+00  0.00000000E+00  0.00000000E+00
  0.00000000E+00  0.00000000E+00  0.00000000E+00
  0.00000000E+00  0.00000000E+00  0.00000000E+00
  0.00000000E+00  0.00000000E+00  0.00000000E+00
  0.00000000E+00  0.00000000E+00  0.00000000E+00
  0.00000000E+00  0.00000000E+00  0.00000000E+00
  0.00000000E+00  0.00000000E+00  0.00000000E+00
  0.00000000E+00  0.00000000E+00  0.00000000E+00
  0.00000000E+00  0.00000000E+00  0.00000000E+00
  0.00000000E+00  0.00000000E+00  0.00000000E+00
  0.00000000E+00  0.00000000E+00  0.00000000E+00
  0.00000000E+00  0.00000000E+00  0.00000000E+00
