Ba2 B4 Br16                             
   1.00000000000000     
     8.5038279658109666   -0.1948036624267182    0.6070470967805385
    -1.8827384905752196    8.2974119941514353    0.5983672041679339
    -2.2745584297624011   -2.7784135079444430   10.3520333132498514
   B    Br   Ba
     4    16     2
Direct
  0.8796969660026335  0.1002522816769371  0.2061571227930656
  0.4005397582021075  0.6208014267823714  0.2936892939426627
  0.5995028786873675  0.3792493277933602  0.7063187864059159
  0.1202940570315860  0.8997871776592774  0.7938375787769658
  0.6689984971902092  0.9524112146987278  0.0917182231873923
  0.0297547852221101  0.2161408600379389  0.1001174465343553
  0.5394620660336997  0.5051972514715075  0.1965040171295414
  0.2410945576321382  0.6929325679313934  0.1734476180073798
  0.8076952401253550  0.2597555447285842  0.3267123781954737
  0.9951057134333041  0.9610854218847251  0.3029400790981995
  0.5486324334279260  0.8312056164492745  0.4081886668649517
  0.2845970336226102  0.4707601180980348  0.3997316509828366
  0.7153858631589287  0.5293243876958798  0.6002716893835824
  0.4513884752417923  0.1688604914776732  0.5918018219919574
  0.0048911273653403  0.0389859086894262  0.6970584142166558
  0.1922947302550000  0.7403128689206042  0.6732782025751263
  0.7589334759106663  0.3070761724983768  0.8265561547055498
  0.4605895750259990  0.4948258787630380  0.8035039203623455
  0.9702741656515244  0.7839058251757649  0.8999113393353682
  0.3310127740982836  0.0476583552887462  0.9082665555949703
  0.3815927572204458  0.1193376951604179  0.2500218749306740
  0.6185630694609614  0.8808336071179497  0.7499671649850228
 
  0.00000000E+00  0.00000000E+00  0.00000000E+00
  0.00000000E+00  0.00000000E+00  0.00000000E+00
  0.00000000E+00  0.00000000E+00  0.00000000E+00
  0.00000000E+00  0.00000000E+00  0.00000000E+00
  0.00000000E+00  0.00000000E+00  0.00000000E+00
  0.00000000E+00  0.00000000E+00  0.00000000E+00
  0.00000000E+00  0.00000000E+00  0.00000000E+00
  0.00000000E+00  0.00000000E+00  0.00000000E+00
  0.00000000E+00  0.00000000E+00  0.00000000E+00
  0.00000000E+00  0.00000000E+00  0.00000000E+00
  0.00000000E+00  0.00000000E+00  0.00000000E+00
  0.00000000E+00  0.00000000E+00  0.00000000E+00
  0.00000000E+00  0.00000000E+00  0.00000000E+00
  0.00000000E+00  0.00000000E+00  0.00000000E+00
  0.00000000E+00  0.00000000E+00  0.00000000E+00
  0.00000000E+00  0.00000000E+00  0.00000000E+00
  0.00000000E+00  0.00000000E+00  0.00000000E+00
  0.00000000E+00  0.00000000E+00  0.00000000E+00
  0.00000000E+00  0.00000000E+00  0.00000000E+00
  0.00000000E+00  0.00000000E+00  0.00000000E+00
  0.00000000E+00  0.00000000E+00  0.00000000E+00
  0.00000000E+00  0.00000000E+00  0.00000000E+00
