Ba3 Tl11                                
   1.0000000000000000     
    -2.6114674077138278    6.0091800176340513    7.7497159356586183
     2.5800751252986536   -6.0107839886044649    7.7431985996729651
     2.6110958908998119    6.0102171117864485   -7.7533254810189920
   Tl   Ba
    11     3
Direct
  0.6915036046487657  0.4986562919770918  0.1903999116356729
  0.4256605897222201  0.1476243358858511  0.2784457995750245
  0.1277808925838784  0.8506139376022190  0.2787512315225911
  0.7109800191472146  0.3389886537888387  0.3693448089996778
  0.0285494839104814  0.6542918042109420  0.3700649779586627
  0.5000430538986080  0.0000034054090108  0.5000113171898093
  0.9715253179753418  0.3457115833309672  0.6299253391551360
  0.2890785882344460  0.6610028039971567  0.6306498917945405
  0.8722980436430063  0.1493912092930358  0.7212438094830063
  0.5744025234362127  0.8523676174484009  0.7215554863494091
  0.3085769563293397  0.5013516128489073  0.8096168359201315
  0.0000277838768241  0.9999975875549652  0.9999891435966433
  0.3080494187820690  0.3084881406745197  0.9984744021916967
  0.6920237238115661  0.6915110159781150  0.0015270446279843

  0.00000000E+00  0.00000000E+00  0.00000000E+00
  0.00000000E+00  0.00000000E+00  0.00000000E+00
  0.00000000E+00  0.00000000E+00  0.00000000E+00
  0.00000000E+00  0.00000000E+00  0.00000000E+00
  0.00000000E+00  0.00000000E+00  0.00000000E+00
  0.00000000E+00  0.00000000E+00  0.00000000E+00
  0.00000000E+00  0.00000000E+00  0.00000000E+00
  0.00000000E+00  0.00000000E+00  0.00000000E+00
  0.00000000E+00  0.00000000E+00  0.00000000E+00
  0.00000000E+00  0.00000000E+00  0.00000000E+00
  0.00000000E+00  0.00000000E+00  0.00000000E+00
  0.00000000E+00  0.00000000E+00  0.00000000E+00
  0.00000000E+00  0.00000000E+00  0.00000000E+00
  0.00000000E+00  0.00000000E+00  0.00000000E+00
