Ca2 Tl2 Cl10                            
   1.0000000000000000     
     4.8901620709219724   -0.0000000000000001    0.0000000000000003
    -0.0000000000000010   11.3419422841774136    0.0000000000000006
     0.0000000000000001    0.0000000000000002    9.1916737710787029
   Ca   Tl   Cl
     2     2    10
Direct
  0.0000000000000000  0.0000000000000000  0.5000000000000000
  0.5000000000000000  0.5000000000000000  0.0000000000000000
  0.5000000000000000  0.0000000000000000  0.0000000000000000
  0.0000000000000000  0.5000000000000000  0.5000000000000000
  0.5000000000000000  0.7479418912905302  0.5000000000000000
  0.5000000000000000  0.2520581087094698  0.5000000000000000
  0.5000000000000000  0.0000000000000000  0.3233027070724646
  0.5000000000000000  0.0000000000000000  0.6766972929275354
  0.0000000000000000  0.0000000000000000  0.0000000000000000
  0.0000000000000000  0.2479418912905302  0.0000000000000000
  0.0000000000000000  0.7520581087094698  0.0000000000000000
  0.0000000000000000  0.5000000000000000  0.8233027070724646
  0.0000000000000000  0.5000000000000000  0.1766972929275354
  0.5000000000000000  0.5000000000000000  0.5000000000000000

  0.00000000E+00  0.00000000E+00  0.00000000E+00
  0.00000000E+00  0.00000000E+00  0.00000000E+00
  0.00000000E+00  0.00000000E+00  0.00000000E+00
  0.00000000E+00  0.00000000E+00  0.00000000E+00
  0.00000000E+00  0.00000000E+00  0.00000000E+00
  0.00000000E+00  0.00000000E+00  0.00000000E+00
  0.00000000E+00  0.00000000E+00  0.00000000E+00
  0.00000000E+00  0.00000000E+00  0.00000000E+00
  0.00000000E+00  0.00000000E+00  0.00000000E+00
  0.00000000E+00  0.00000000E+00  0.00000000E+00
  0.00000000E+00  0.00000000E+00  0.00000000E+00
  0.00000000E+00  0.00000000E+00  0.00000000E+00
  0.00000000E+00  0.00000000E+00  0.00000000E+00
  0.00000000E+00  0.00000000E+00  0.00000000E+00
