Sr4 Tl4 Br20                            
   1.0000000000000000     
    16.2406033469889586    0.0000000000000000    0.0000000000000000
     0.0000000000000000    7.3925843368075279   -3.0120286968764760
     0.0000000000000000   -2.4091162552766514   11.0712781924040549
   Sr   Tl   Br
     4     4    20
Direct
  0.9835404233758425  0.2572253535920979  0.2668710542445112
  0.4835404233758425  0.7427746464079021  0.2331289457554959
  0.0164595766241575  0.7427746464079021  0.7331289457554888
  0.5164595766241575  0.2572253535920979  0.7668710542445112
  0.7869301232542725  0.0167379979160529  0.5253481032731599
  0.2869301232542654  0.9832620020839471  0.9746518967268401
  0.2130698767457275  0.9832620020839471  0.4746518967268401
  0.7130698767457275  0.0167379979160529  0.0253481032731599
  0.3847148526396111  0.6269677621510255  0.6326321581210053
  0.8847148526396182  0.3730322378489745  0.8673678418789947
  0.6152851473603818  0.3730322378489745  0.3673678418789947
  0.1152851473603889  0.6269677621510255  0.1326321581210053
  0.8395079471982427  0.0189426112634195  0.2482689185348974
  0.3395079471982427  0.9810573887365805  0.2517310814651026
  0.1604920528017502  0.9810573887365805  0.7517310814651026
  0.6604920528017573  0.0189426112634195  0.7482689185348974
  0.5834280002708923  0.1438803052986017  0.4649663331361182
  0.0834280002708923  0.8561196947013983  0.0350336668638818
  0.4165719997291077  0.8561196947013983  0.5350336668638747
  0.9165719997291077  0.1438803052986017  0.9649663331361253
  0.3439883667347132  0.4306482352174754  0.7335318913811548
  0.8439883667347132  0.5693517647825317  0.7664681086188452
  0.6560116332652868  0.5693517647825317  0.2664681086188523
  0.1560116332652868  0.4306482352174754  0.2335318913811548
  0.4283345652144348  0.3098308637840574  0.0205509005217763
  0.9283345652144348  0.6901691362159426  0.4794490994782237
  0.5716654347855652  0.6901691362159426  0.9794490994782237
  0.0716654347855652  0.3098308637840574  0.5205509005217763

  0.00000000E+00  0.00000000E+00  0.00000000E+00
  0.00000000E+00  0.00000000E+00  0.00000000E+00
  0.00000000E+00  0.00000000E+00  0.00000000E+00
  0.00000000E+00  0.00000000E+00  0.00000000E+00
  0.00000000E+00  0.00000000E+00  0.00000000E+00
  0.00000000E+00  0.00000000E+00  0.00000000E+00
  0.00000000E+00  0.00000000E+00  0.00000000E+00
  0.00000000E+00  0.00000000E+00  0.00000000E+00
  0.00000000E+00  0.00000000E+00  0.00000000E+00
  0.00000000E+00  0.00000000E+00  0.00000000E+00
  0.00000000E+00  0.00000000E+00  0.00000000E+00
  0.00000000E+00  0.00000000E+00  0.00000000E+00
  0.00000000E+00  0.00000000E+00  0.00000000E+00
  0.00000000E+00  0.00000000E+00  0.00000000E+00
  0.00000000E+00  0.00000000E+00  0.00000000E+00
  0.00000000E+00  0.00000000E+00  0.00000000E+00
  0.00000000E+00  0.00000000E+00  0.00000000E+00
  0.00000000E+00  0.00000000E+00  0.00000000E+00
  0.00000000E+00  0.00000000E+00  0.00000000E+00
  0.00000000E+00  0.00000000E+00  0.00000000E+00
  0.00000000E+00  0.00000000E+00  0.00000000E+00
  0.00000000E+00  0.00000000E+00  0.00000000E+00
  0.00000000E+00  0.00000000E+00  0.00000000E+00
  0.00000000E+00  0.00000000E+00  0.00000000E+00
  0.00000000E+00  0.00000000E+00  0.00000000E+00
  0.00000000E+00  0.00000000E+00  0.00000000E+00
  0.00000000E+00  0.00000000E+00  0.00000000E+00
  0.00000000E+00  0.00000000E+00  0.00000000E+00
