Mg2 Al2 F10                             
   1.00000000000000     
     4.6919320762969781   -0.0163866391907524    1.7660481932264633
     1.0122117915900055    4.5814757099516257    1.7660481492614435
     0.0076593425898688    0.0061311585350434    7.0192858583573381
   Mg   Al   F 
     2     2    10
Direct
  0.4653720737830085  0.5346279262328082  0.2499999999962981
  0.5346279262169915  0.4653720737671918  0.7500000000037019
  0.0000000000000000  0.0000000000000000  0.5000000000000000
  0.0000000000000000  0.0000000000000000  0.0000000000000000
  0.8005561217269488  0.7196478851822974  0.6297738306413692
  0.2803521148552264  0.1994428782466500  0.8702261693533444
  0.1994428782730537  0.2803521148177026  0.3702271693586354
  0.7196478851447736  0.8005561217533526  0.1297738306466556
  0.9082723036942042  0.0917276962910307  0.7500000000059970
  0.0917276963057958  0.9082723037089693  0.2499999999940030
  0.7284500052596528  0.3234135634293551  0.0357280443814005
  0.6765864365531797  0.2715499947268967  0.4642719556564288
  0.2715499947403401  0.6765864365706449  0.9642719556185995
  0.3234135634468203  0.7284500052731033  0.5357280443435712
 
  0.00000000E+00  0.00000000E+00  0.00000000E+00
  0.00000000E+00  0.00000000E+00  0.00000000E+00
  0.00000000E+00  0.00000000E+00  0.00000000E+00
  0.00000000E+00  0.00000000E+00  0.00000000E+00
  0.00000000E+00  0.00000000E+00  0.00000000E+00
  0.00000000E+00  0.00000000E+00  0.00000000E+00
  0.00000000E+00  0.00000000E+00  0.00000000E+00
  0.00000000E+00  0.00000000E+00  0.00000000E+00
  0.00000000E+00  0.00000000E+00  0.00000000E+00
  0.00000000E+00  0.00000000E+00  0.00000000E+00
  0.00000000E+00  0.00000000E+00  0.00000000E+00
  0.00000000E+00  0.00000000E+00  0.00000000E+00
  0.00000000E+00  0.00000000E+00  0.00000000E+00
  0.00000000E+00  0.00000000E+00  0.00000000E+00
