Sr16 B12 Br1                            
   1.00000000000000     
     9.7950476423009221   -5.6550703805598186    4.1538083969594517
    -0.1365133039386575   10.0869009052804763    2.8136574679743096
    -8.8106306597887176   -4.9207506998746826    2.8179516719528839
   B    Br   Sr
    12     1    16
Direct
  0.8043887290586795  0.6799480578249870  0.0085620374909041
  0.7112537416377123  0.7539167812186705  0.9980897914843254
  0.2795294291768116  0.4835888080027289  0.3913515373585739
  0.8133150379778300  0.5212347343711059  0.0138070556946772
  0.9515438873180457  0.2903494106955691  0.2907497843745617
  0.2795428628606942  0.3912872822617501  0.4833839212172890
  0.1224744302794676  0.3773757044363109  0.3772674004723697
  0.8046823357466479  0.0085389603705508  0.6800726715531837
  0.9490980575637451  0.0460347180768466  0.6727197960848272
  0.7116162830774186  0.9978240789335970  0.7540794038526712
  0.9486980822993303  0.6725744957825484  0.0452304695085886
  0.8132011431377251  0.0138061825739584  0.5212429227105844
  0.4290956600849469  0.9699051645372379  0.9699736227487037
  0.7058060396444148  0.2224221839142331  0.0050474607912605
  0.1929911812787211  0.7769904981427231  0.0310212416743738
  0.9077810483381583  0.4984820636415179  0.4984150617595233
  0.0637052040963155  0.2549578555493426  0.0280718040603389
  0.7793316373158703  0.7104318943586136  0.2822749452827509
  0.7053317648730797  0.0049381710449410  0.2226441874181262
  0.1093617226560184  0.6400746869768881  0.3098716631411804
  0.0633105369038702  0.0280298136386747  0.2547408694508206
  0.5039334946368754  0.7678216857638986  0.3949135978848659
  0.4425656869063843  0.3379927971888534  0.3379861491950251
  0.1929755831325934  0.0310786934135550  0.7768150314436184
  0.1092931811691358  0.3098457522896396  0.6396330579603884
  0.8308350713347963  0.7884929059399184  0.7887797133142485
  0.7796936790204754  0.2825329963805459  0.7106229332049523
  0.4900143261141636  0.7450734154937422  0.7451431624953102
  0.5038301623600532  0.3944512071770490  0.7674907063719445
 
  0.00000000E+00  0.00000000E+00  0.00000000E+00
  0.00000000E+00  0.00000000E+00  0.00000000E+00
  0.00000000E+00  0.00000000E+00  0.00000000E+00
  0.00000000E+00  0.00000000E+00  0.00000000E+00
  0.00000000E+00  0.00000000E+00  0.00000000E+00
  0.00000000E+00  0.00000000E+00  0.00000000E+00
  0.00000000E+00  0.00000000E+00  0.00000000E+00
  0.00000000E+00  0.00000000E+00  0.00000000E+00
  0.00000000E+00  0.00000000E+00  0.00000000E+00
  0.00000000E+00  0.00000000E+00  0.00000000E+00
  0.00000000E+00  0.00000000E+00  0.00000000E+00
  0.00000000E+00  0.00000000E+00  0.00000000E+00
  0.00000000E+00  0.00000000E+00  0.00000000E+00
  0.00000000E+00  0.00000000E+00  0.00000000E+00
  0.00000000E+00  0.00000000E+00  0.00000000E+00
  0.00000000E+00  0.00000000E+00  0.00000000E+00
  0.00000000E+00  0.00000000E+00  0.00000000E+00
  0.00000000E+00  0.00000000E+00  0.00000000E+00
  0.00000000E+00  0.00000000E+00  0.00000000E+00
  0.00000000E+00  0.00000000E+00  0.00000000E+00
  0.00000000E+00  0.00000000E+00  0.00000000E+00
  0.00000000E+00  0.00000000E+00  0.00000000E+00
  0.00000000E+00  0.00000000E+00  0.00000000E+00
  0.00000000E+00  0.00000000E+00  0.00000000E+00
  0.00000000E+00  0.00000000E+00  0.00000000E+00
  0.00000000E+00  0.00000000E+00  0.00000000E+00
  0.00000000E+00  0.00000000E+00  0.00000000E+00
  0.00000000E+00  0.00000000E+00  0.00000000E+00
  0.00000000E+00  0.00000000E+00  0.00000000E+00
