Be2 Tl2 I10                             
   1.0000000000000000     
     6.2279044911344048   -0.0000000000000004    0.0000000000000002
    -0.0000000000000017   14.1632540782308407    0.0000000000000009
    -0.0000000000000000    0.0000000000000007    9.0597043786905918
   Be   Tl   I 
     2     2    10
Direct
  0.0000000000000000  0.0000000000000000  0.5000000000000000
  0.5000000000000000  0.5000000000000000  0.0000000000000000
  0.5000000000000000  0.0000000000000000  0.0000000000000000
  0.0000000000000000  0.5000000000000000  0.5000000000000000
  0.5000000000000000  0.7067410005107035  0.5000000000000000
  0.5000000000000000  0.2932589994892965  0.5000000000000000
  0.5000000000000000  0.0000000000000000  0.6666040804534035
  0.5000000000000000  0.0000000000000000  0.3333959195465965
  0.0000000000000000  0.0000000000000000  0.0000000000000000
  0.0000000000000000  0.2067410005107035  0.0000000000000000
  0.0000000000000000  0.7932589994892965  0.0000000000000000
  0.0000000000000000  0.5000000000000000  0.1666040804534035
  0.0000000000000000  0.5000000000000000  0.8333959195465965
  0.5000000000000000  0.5000000000000000  0.5000000000000000

  0.00000000E+00  0.00000000E+00  0.00000000E+00
  0.00000000E+00  0.00000000E+00  0.00000000E+00
  0.00000000E+00  0.00000000E+00  0.00000000E+00
  0.00000000E+00  0.00000000E+00  0.00000000E+00
  0.00000000E+00  0.00000000E+00  0.00000000E+00
  0.00000000E+00  0.00000000E+00  0.00000000E+00
  0.00000000E+00  0.00000000E+00  0.00000000E+00
  0.00000000E+00  0.00000000E+00  0.00000000E+00
  0.00000000E+00  0.00000000E+00  0.00000000E+00
  0.00000000E+00  0.00000000E+00  0.00000000E+00
  0.00000000E+00  0.00000000E+00  0.00000000E+00
  0.00000000E+00  0.00000000E+00  0.00000000E+00
  0.00000000E+00  0.00000000E+00  0.00000000E+00
  0.00000000E+00  0.00000000E+00  0.00000000E+00
