Mg21 B40                                
   1.00000000000000     
     3.9238090293694707   -6.7962363402345476    0.0000000000000000
     3.9238090293694707    6.7962363402345476    0.0000000000000000
     0.0000000000000000    0.0000000000000000   13.4244334519651343
   Mg   B 
    21    40
Direct
  0.9999999999816325  0.2896524765097510  0.4640863950265199
  0.6666669999999968  0.3333330000000032  0.2894818428974091
  0.6192427314445652  0.9999999999662066  0.5933537516950054
  0.3807572685892282  0.3807572685892282  0.5933537516950054
  0.0000000000000000  0.0000000000000000  0.1279067107896239
  0.0000000003271836  0.2383919732968209  0.7019898753201517
  0.2919853109685775  0.9999999999485567  0.0309555385100424
  0.9999999999662066  0.6192427314445652  0.5933537516950054
  0.7103475235086165  0.7103475235086165  0.4640863950265199
  0.2383919732968209  0.0000000003271836  0.7019898753201517
  0.3333330000000032  0.6666669999999968  0.0832160538698830
  0.9999999999387583  0.6531495722402951  0.8631189590626676
  0.7616080263759955  0.7616080263759955  0.7019898753201517
  0.3468504278209394  0.3468504278209394  0.8631189590626676
  0.6666669999999968  0.3333330000000032  0.0832160538698830
  0.3333330000000032  0.6666669999999968  0.2894818428974091
  0.9999999999485567  0.2919853109685775  0.0309555385100424
  0.2896524765097510  0.9999999999816325  0.4640863950265199
  0.7080146890828729  0.7080146890828729  0.0309555385100424
  0.6531495722402951  0.9999999999387583  0.8631189590626676
  0.0000000000000000  0.0000000000000000  0.3215428288052991
  0.3400354939163819  0.5439407816224175  0.4502750160680193
  0.1304133238138192  0.3366721259072634  0.1936446072799427
  0.4480872087160819  0.1218945217551877  0.8745651899476314
  0.7937411986310678  0.6633278755994496  0.1936446072799427
  0.4623675289771469  0.0000000008172236  0.1890088936802812
  0.0000000000000000  0.0000000000000000  0.5527213513093798
  0.3333330000000032  0.6666669999999968  0.8821949856392237
  0.2062588005867312  0.8695866754616688  0.1936446072799427
  0.2005635118557265  0.9999999997295177  0.8723153403794939
  0.0000000006313527  0.6748206377142552  0.2625083250738243
  0.3366721259072634  0.1304133238138192  0.1936446072799427
  0.3872454483297858  0.3872454483297858  0.3867906713333511
  0.7994364884147558  0.7994364884147558  0.8723153403794939
  0.6666669999999968  0.3333330000000032  0.8821949856392237
  0.9999999983145429  0.6127545533556713  0.3867906713333511
  0.5376324702056294  0.5376324702056294  0.1890088936802812
  0.7960947098754758  0.4560592160415524  0.4502750160680193
  0.5519127930255650  0.6738073127303394  0.8745651899476314
  0.0000000008172236  0.4623675289771469  0.1890088936802812
  0.8695866754616688  0.2062588005867312  0.1936446072799427
  0.0000000000828706  0.6646680143695320  0.1364263988002108
  0.3251793616543921  0.3251793616543921  0.2625083250738243
  0.3333330000000032  0.6666669999999968  0.5591171268505306
  0.9999999997295177  0.2005635118557265  0.8723153403794939
  0.6666669999999968  0.3333330000000032  0.5591171268505306
  0.1218945217551877  0.4480872087160819  0.8745651899476314
  0.4560592160415524  0.7960947098754758  0.4502750160680193
  0.2039052900420728  0.6599645085021066  0.4502750160680193
  0.6646680143695320  0.0000000000828706  0.1364263988002108
  0.3353319855475903  0.3353319855475903  0.1364263988002108
  0.8781054785535787  0.3261926852192474  0.8745651899476314
  0.6748206377142552  0.0000000006313527  0.2625083250738243
  0.5439407816224175  0.3400354939163819  0.4502750160680193
  0.6633278755994496  0.7937411986310678  0.1936446072799427
  0.6127545533556713  0.9999999983145429  0.3867906713333511
  0.6599645085021066  0.2039052900420728  0.4502750160680193
  0.3261926852192474  0.8781054785535787  0.8745651899476314
  0.0000000000000000  0.0000000000000000  0.9427577543027681
  0.6738073127303394  0.5519127930255650  0.8745651899476314
  0.0000000000000000  0.0000000000000000  0.8182450098607106
 
  0.00000000E+00  0.00000000E+00  0.00000000E+00
  0.00000000E+00  0.00000000E+00  0.00000000E+00
  0.00000000E+00  0.00000000E+00  0.00000000E+00
  0.00000000E+00  0.00000000E+00  0.00000000E+00
  0.00000000E+00  0.00000000E+00  0.00000000E+00
  0.00000000E+00  0.00000000E+00  0.00000000E+00
  0.00000000E+00  0.00000000E+00  0.00000000E+00
  0.00000000E+00  0.00000000E+00  0.00000000E+00
  0.00000000E+00  0.00000000E+00  0.00000000E+00
  0.00000000E+00  0.00000000E+00  0.00000000E+00
  0.00000000E+00  0.00000000E+00  0.00000000E+00
  0.00000000E+00  0.00000000E+00  0.00000000E+00
  0.00000000E+00  0.00000000E+00  0.00000000E+00
  0.00000000E+00  0.00000000E+00  0.00000000E+00
  0.00000000E+00  0.00000000E+00  0.00000000E+00
  0.00000000E+00  0.00000000E+00  0.00000000E+00
  0.00000000E+00  0.00000000E+00  0.00000000E+00
  0.00000000E+00  0.00000000E+00  0.00000000E+00
  0.00000000E+00  0.00000000E+00  0.00000000E+00
  0.00000000E+00  0.00000000E+00  0.00000000E+00
  0.00000000E+00  0.00000000E+00  0.00000000E+00
  0.00000000E+00  0.00000000E+00  0.00000000E+00
  0.00000000E+00  0.00000000E+00  0.00000000E+00
  0.00000000E+00  0.00000000E+00  0.00000000E+00
  0.00000000E+00  0.00000000E+00  0.00000000E+00
  0.00000000E+00  0.00000000E+00  0.00000000E+00
  0.00000000E+00  0.00000000E+00  0.00000000E+00
  0.00000000E+00  0.00000000E+00  0.00000000E+00
  0.00000000E+00  0.00000000E+00  0.00000000E+00
  0.00000000E+00  0.00000000E+00  0.00000000E+00
  0.00000000E+00  0.00000000E+00  0.00000000E+00
  0.00000000E+00  0.00000000E+00  0.00000000E+00
  0.00000000E+00  0.00000000E+00  0.00000000E+00
  0.00000000E+00  0.00000000E+00  0.00000000E+00
  0.00000000E+00  0.00000000E+00  0.00000000E+00
  0.00000000E+00  0.00000000E+00  0.00000000E+00
  0.00000000E+00  0.00000000E+00  0.00000000E+00
  0.00000000E+00  0.00000000E+00  0.00000000E+00
  0.00000000E+00  0.00000000E+00  0.00000000E+00
  0.00000000E+00  0.00000000E+00  0.00000000E+00
  0.00000000E+00  0.00000000E+00  0.00000000E+00
  0.00000000E+00  0.00000000E+00  0.00000000E+00
  0.00000000E+00  0.00000000E+00  0.00000000E+00
  0.00000000E+00  0.00000000E+00  0.00000000E+00
  0.00000000E+00  0.00000000E+00  0.00000000E+00
  0.00000000E+00  0.00000000E+00  0.00000000E+00
  0.00000000E+00  0.00000000E+00  0.00000000E+00
  0.00000000E+00  0.00000000E+00  0.00000000E+00
  0.00000000E+00  0.00000000E+00  0.00000000E+00
  0.00000000E+00  0.00000000E+00  0.00000000E+00
  0.00000000E+00  0.00000000E+00  0.00000000E+00
  0.00000000E+00  0.00000000E+00  0.00000000E+00
  0.00000000E+00  0.00000000E+00  0.00000000E+00
  0.00000000E+00  0.00000000E+00  0.00000000E+00
  0.00000000E+00  0.00000000E+00  0.00000000E+00
  0.00000000E+00  0.00000000E+00  0.00000000E+00
  0.00000000E+00  0.00000000E+00  0.00000000E+00
  0.00000000E+00  0.00000000E+00  0.00000000E+00
  0.00000000E+00  0.00000000E+00  0.00000000E+00
  0.00000000E+00  0.00000000E+00  0.00000000E+00
  0.00000000E+00  0.00000000E+00  0.00000000E+00
