Be8 Tl4 Cl28                            
   1.0000000000000000     
     8.5152557898611061   -0.9337865891370987   -0.7256763314334106
    -1.8070325970604872   23.0717099617669774    0.0674374004129309
    -0.4141649574517736    0.0682784010588579    7.3285365597784367
   Be   Cl   Tl
     8    28     4
Direct
  0.4860733167383700  0.5915613125302173  0.0373430859429291
  0.2417773279665312  0.1102045369628115  0.1843585803652772
  0.8429337747008674  0.6250777303619799  0.2965560390929483
  0.5555173774373472  0.1356859061279607  0.3160439408197391
  0.5607778005917865  0.8964179515554846  0.7249361381237662
  0.1737628522968535  0.3760829092243512  0.6851074564468718
  0.8050730058396027  0.8559891239140640  0.8957537672105929
  0.5319107986899212  0.4122692897547964  0.9400153574330403
  0.7061683669202381  0.6381555988109611  0.0451848432853268
  0.0175759544386551  0.8216389045236241  0.8702851596039736
  0.8665465206085514  0.8493339914048121  0.1599417318507506
  0.9027264146713989  0.5473116215750906  0.3131408314453452
  0.6847088209824932  0.3886409182095747  0.1335274147092775
  0.7151425907408964  0.2111047000537667  0.2857501060669705
  0.4415137336314103  0.5309972434992716  0.2090228248943262
  0.4406804843538694  0.1013326275343189  0.0618038050502818
  0.1854022696697371  0.6603481352521001  0.0851135546899116
  0.4651578478620308  0.9102997227900431  0.4715334125606461
  0.1178752196756747  0.0340886853063225  0.2479962597413845
  0.2359999889191826  0.3423175794185980  0.4717882380653720
  0.9580293060485445  0.3106927875682928  0.7062176959493200
  0.3616162394093720  0.1593757523213952  0.4120735722439974
  0.5992782572978044  0.8105457668859941  0.7706474081113655
  0.0598832599223300  0.6911842196230324  0.2815174387927186
  0.7764330307870750  0.6567752032387375  0.5105328003963976
  0.8110371960145670  0.9360437518454390  0.7805639107125160
  0.6483311320884226  0.0773798793963394  0.4746330360017907
  0.8335118226476439  0.3434285130250316  0.8989444603014576
  0.4513117839299099  0.9244135741680921  0.9177270186544035
  0.5743423044317169  0.4706348247976777  0.7605424745145939
  0.0741350924953537  0.8148891883347957  0.6100975123915404
  0.3344810184851497  0.6179191465018476  0.8475193925230400
  0.1164104308995348  0.4543505401776997  0.6651249553216587
  0.1162635333574045  0.1585551921115140  0.0035190115597601
  0.9141525336155922  0.1816042495915511  0.1503746975888447
  0.3135774204119244  0.3645192676388476  0.9355206275361283
  0.1122953495487664  0.4428276252181576  0.2403283255600925
  0.7287356733048682  0.9722036055596348  0.2371115316640768
  0.3342466989774877  0.0170119690292481  0.6224970666049146
  0.9052034495911130  0.5563864541565380  0.7395045161726301

  0.00000000E+00  0.00000000E+00  0.00000000E+00
  0.00000000E+00  0.00000000E+00  0.00000000E+00
  0.00000000E+00  0.00000000E+00  0.00000000E+00
  0.00000000E+00  0.00000000E+00  0.00000000E+00
  0.00000000E+00  0.00000000E+00  0.00000000E+00
  0.00000000E+00  0.00000000E+00  0.00000000E+00
  0.00000000E+00  0.00000000E+00  0.00000000E+00
  0.00000000E+00  0.00000000E+00  0.00000000E+00
  0.00000000E+00  0.00000000E+00  0.00000000E+00
  0.00000000E+00  0.00000000E+00  0.00000000E+00
  0.00000000E+00  0.00000000E+00  0.00000000E+00
  0.00000000E+00  0.00000000E+00  0.00000000E+00
  0.00000000E+00  0.00000000E+00  0.00000000E+00
  0.00000000E+00  0.00000000E+00  0.00000000E+00
  0.00000000E+00  0.00000000E+00  0.00000000E+00
  0.00000000E+00  0.00000000E+00  0.00000000E+00
  0.00000000E+00  0.00000000E+00  0.00000000E+00
  0.00000000E+00  0.00000000E+00  0.00000000E+00
  0.00000000E+00  0.00000000E+00  0.00000000E+00
  0.00000000E+00  0.00000000E+00  0.00000000E+00
  0.00000000E+00  0.00000000E+00  0.00000000E+00
  0.00000000E+00  0.00000000E+00  0.00000000E+00
  0.00000000E+00  0.00000000E+00  0.00000000E+00
  0.00000000E+00  0.00000000E+00  0.00000000E+00
  0.00000000E+00  0.00000000E+00  0.00000000E+00
  0.00000000E+00  0.00000000E+00  0.00000000E+00
  0.00000000E+00  0.00000000E+00  0.00000000E+00
  0.00000000E+00  0.00000000E+00  0.00000000E+00
  0.00000000E+00  0.00000000E+00  0.00000000E+00
  0.00000000E+00  0.00000000E+00  0.00000000E+00
  0.00000000E+00  0.00000000E+00  0.00000000E+00
  0.00000000E+00  0.00000000E+00  0.00000000E+00
  0.00000000E+00  0.00000000E+00  0.00000000E+00
  0.00000000E+00  0.00000000E+00  0.00000000E+00
  0.00000000E+00  0.00000000E+00  0.00000000E+00
  0.00000000E+00  0.00000000E+00  0.00000000E+00
  0.00000000E+00  0.00000000E+00  0.00000000E+00
  0.00000000E+00  0.00000000E+00  0.00000000E+00
  0.00000000E+00  0.00000000E+00  0.00000000E+00
  0.00000000E+00  0.00000000E+00  0.00000000E+00
