Al2F                                    
   1.00000000000000     
     6.2934335176258358    0.0000000000000000    0.0000000000000000
     0.0000000000000000    6.2934335176258358    0.0000000000000000
     0.0000000000000000    0.0000000000000000    2.6644993071399017
   Al   F 
     4     2
Direct
  0.2104936890613303  0.2104936890613303  0.0000000000000000
  0.7895063109386697  0.7895063109386697  0.0000000000000000
  0.7104936890613303  0.2895063109386697  0.5000000000000000
  0.2895063109386697  0.7104936890613303  0.5000000000000000
  0.0000000000000000  0.0000000000000000  0.0000000000000000
  0.5000000000000000  0.5000000000000000  0.5000000000000000
 
  0.00000000E+00  0.00000000E+00  0.00000000E+00
  0.00000000E+00  0.00000000E+00  0.00000000E+00
  0.00000000E+00  0.00000000E+00  0.00000000E+00
  0.00000000E+00  0.00000000E+00  0.00000000E+00
  0.00000000E+00  0.00000000E+00  0.00000000E+00
  0.00000000E+00  0.00000000E+00  0.00000000E+00
