Ga3Br                                   
   1.00000000000000     
    -2.1255535299605119    2.1255535299605119    5.3313957420808453
     2.1255535299605119   -2.1255535299605119    5.3313957420808453
     2.1255535299605119    2.1255535299605119   -5.3313957420808453
   Br   Ga
     1     3
Direct
  0.0000000000000000  0.0000000000000000  0.0000000000000000
  0.7500000000000000  0.2500000000000000  0.5000000000000000
  0.2500000000000000  0.7500000000000000  0.5000000000000000
  0.5000000000000000  0.5000000000000000  0.0000000000000000
 
  0.00000000E+00  0.00000000E+00  0.00000000E+00
  0.00000000E+00  0.00000000E+00  0.00000000E+00
  0.00000000E+00  0.00000000E+00  0.00000000E+00
  0.00000000E+00  0.00000000E+00  0.00000000E+00
