Sr6 Tl4 Br24                            
   1.0000000000000000     
     0.0000000000000000    0.0000000000000000    7.6659305280883201
    14.7451266742202058   -0.0011131717549648    0.0000000000000000
     0.0005904539157057   14.5427685995700564    0.0000000000000000
   Sr   Br   Tl
     6    24     4
Direct
  0.0000000000000000  0.9262142708056729  0.0310479986864252
  0.5000000000000000  0.1402501793161548  0.9761655068695134
  0.5000000000000000  0.9681363646922421  0.2447378490510559
  0.0000000000000000  0.5737050251061220  0.5311018349554502
  0.5000000000000000  0.3597319289807714  0.4762214581248969
  0.5000000000000000  0.5320238687295955  0.7446813672754686
  0.2487384323443180  0.2855939245765313  0.9013259126123359
  0.7512615676556820  0.2855939245765313  0.9013259126123359
  0.2415009631622240  0.8187576045637854  0.1906759170997034
  0.7584990368377760  0.8187576045637854  0.1906759170997034
  0.0000000000000000  0.3262219791681957  0.1518232002669961
  0.2507615291355663  0.0712292512840236  0.1278773350527018
  0.7492384708644266  0.0712292512840236  0.1278773350527018
  0.2488932573715985  0.7206760012052484  0.4344339876872141
  0.7511067426284015  0.7206760012052484  0.4344339876872141
  0.0000000000000000  0.9819441105022619  0.3812052975268543
  0.2340156650185108  0.4736335733902592  0.3688531644464206
  0.7659843349814963  0.4736335733902592  0.3688531644464206
  0.2487222126216793  0.2144683503244522  0.4013560843514838
  0.7512777873783207  0.2144683503244522  0.4013560843514838
  0.2414592058423892  0.6813587854299143  0.6907430448491780
  0.7585407941576108  0.6813587854299143  0.6907430448491780
  0.0000000000000000  0.1738178917178956  0.6517804384959049
  0.2508375883977081  0.4288126826508005  0.6279178500872789
  0.7491624116022919  0.4288126826508005  0.6279178500872789
  0.2488615531391716  0.7792655566289923  0.9344546311864050
  0.7511384468608284  0.7792655566289923  0.9344546311864050
  0.0000000000000000  0.5179045981747166  0.8813149800222249
  0.2340699994395550  0.0264148591896358  0.8687242715047248
  0.7659300005604450  0.0264148591896358  0.8687242715047248
  0.0000000000000000  0.8097950778543037  0.3405488715651259
  0.0000000000000000  0.3284280261618662  0.3281113524613559
  0.0000000000000000  0.6900071867892521  0.8406545533935130
  0.0000000000000000  0.1715983135134991  0.8280808935502506

  0.00000000E+00  0.00000000E+00  0.00000000E+00
  0.00000000E+00  0.00000000E+00  0.00000000E+00
  0.00000000E+00  0.00000000E+00  0.00000000E+00
  0.00000000E+00  0.00000000E+00  0.00000000E+00
  0.00000000E+00  0.00000000E+00  0.00000000E+00
  0.00000000E+00  0.00000000E+00  0.00000000E+00
  0.00000000E+00  0.00000000E+00  0.00000000E+00
  0.00000000E+00  0.00000000E+00  0.00000000E+00
  0.00000000E+00  0.00000000E+00  0.00000000E+00
  0.00000000E+00  0.00000000E+00  0.00000000E+00
  0.00000000E+00  0.00000000E+00  0.00000000E+00
  0.00000000E+00  0.00000000E+00  0.00000000E+00
  0.00000000E+00  0.00000000E+00  0.00000000E+00
  0.00000000E+00  0.00000000E+00  0.00000000E+00
  0.00000000E+00  0.00000000E+00  0.00000000E+00
  0.00000000E+00  0.00000000E+00  0.00000000E+00
  0.00000000E+00  0.00000000E+00  0.00000000E+00
  0.00000000E+00  0.00000000E+00  0.00000000E+00
  0.00000000E+00  0.00000000E+00  0.00000000E+00
  0.00000000E+00  0.00000000E+00  0.00000000E+00
  0.00000000E+00  0.00000000E+00  0.00000000E+00
  0.00000000E+00  0.00000000E+00  0.00000000E+00
  0.00000000E+00  0.00000000E+00  0.00000000E+00
  0.00000000E+00  0.00000000E+00  0.00000000E+00
  0.00000000E+00  0.00000000E+00  0.00000000E+00
  0.00000000E+00  0.00000000E+00  0.00000000E+00
  0.00000000E+00  0.00000000E+00  0.00000000E+00
  0.00000000E+00  0.00000000E+00  0.00000000E+00
  0.00000000E+00  0.00000000E+00  0.00000000E+00
  0.00000000E+00  0.00000000E+00  0.00000000E+00
  0.00000000E+00  0.00000000E+00  0.00000000E+00
  0.00000000E+00  0.00000000E+00  0.00000000E+00
  0.00000000E+00  0.00000000E+00  0.00000000E+00
  0.00000000E+00  0.00000000E+00  0.00000000E+00
