Mg3F                                    
   1.00000000000000     
    -1.9908330041001350    1.9908330041001350    4.8855491942266847
     1.9908330041001350   -1.9908330041001350    4.8855491942266847
     1.9908330041001350    1.9908330041001350   -4.8855491942266847
   F    Mg
     1     3
Direct
  0.0000000000000000  0.0000000000000000  0.0000000000000000
  0.5000000000000000  0.5000000000000000  0.0000000000000000
  0.7500000000000000  0.2500000000000000  0.5000000000000000
  0.2500000000000000  0.7500000000000000  0.5000000000000000
 
  0.00000000E+00  0.00000000E+00  0.00000000E+00
  0.00000000E+00  0.00000000E+00  0.00000000E+00
  0.00000000E+00  0.00000000E+00  0.00000000E+00
  0.00000000E+00  0.00000000E+00  0.00000000E+00
