Sr18 Al11                               
   1.00000000000000     
     8.3536254375695904   -4.8059358015669122    3.3710093355754633
    -0.1699360087772539   10.4630496563194608    4.7561504461695705
    -8.9064108620577827   -5.0178795329835886    4.2919239739457993
   Al   Sr
    11    18
Direct
  0.6406807292252523  0.8497513508990835  0.0161934435072908
  0.3088766009954611  0.3054070269661935  0.0985450736454041
  0.7274877593580911  0.1107639664968261  0.1586736209170923
  0.3595491984157988  0.0630692700929743  0.3915820784404147
  0.2519549164460599  0.2210558553147521  0.2825897178346537
  0.4218437138028150  0.5177217553054660  0.3234897334653866
  0.9246667632241881  0.0030756304654815  0.6370277052899169
  0.9907398687344866  0.8204312435701624  0.7621718847716963
  0.8605706198496250  0.5431071609812221  0.6734460061370839
  0.5587580423055769  0.9926138962027053  0.8822118793539602
  0.1953471710044710  0.2412373000726760  0.8285745460161635
  0.3116949750394014  0.9851646643774359  0.0545694221594246
  0.6108427216353434  0.3053642231885050  0.0068179797270389
  0.9467966006580184  0.0713296184972521  0.9641468500902448
  0.8573818267525155  0.6863470554660580  0.9706306705428531
  0.0471554562203451  0.4444490017154266  0.9483943413897791
  0.4598882759533041  0.5702660499284633  0.0404169133442238
  0.8367835562036205  0.6704589243918733  0.4181933622291467
  0.6158365258763041  0.9213136157756878  0.3304876223393762
  0.0510735440397951  0.3921444862658063  0.2927443615371672
  0.9893971064842830  0.9945605340534769  0.3087185818112346
  0.2399489558717249  0.7443193708267373  0.3280394885001527
  0.6146118895066763  0.3098320262882410  0.3627603045073968
  0.2549243457931070  0.9991481211389086  0.6583716590135182
  0.9817146542593989  0.2840028509743888  0.5701068465695798
  0.6169334823907633  0.7560370709507609  0.6528250389553847
  0.6600512500484186  0.1418461498901138  0.6750148104974230
  0.2400149201256312  0.6797784445168773  0.7393987731295866
  0.4246765297794965  0.3754403353864646  0.6238572842774133
 
  0.00000000E+00  0.00000000E+00  0.00000000E+00
  0.00000000E+00  0.00000000E+00  0.00000000E+00
  0.00000000E+00  0.00000000E+00  0.00000000E+00
  0.00000000E+00  0.00000000E+00  0.00000000E+00
  0.00000000E+00  0.00000000E+00  0.00000000E+00
  0.00000000E+00  0.00000000E+00  0.00000000E+00
  0.00000000E+00  0.00000000E+00  0.00000000E+00
  0.00000000E+00  0.00000000E+00  0.00000000E+00
  0.00000000E+00  0.00000000E+00  0.00000000E+00
  0.00000000E+00  0.00000000E+00  0.00000000E+00
  0.00000000E+00  0.00000000E+00  0.00000000E+00
  0.00000000E+00  0.00000000E+00  0.00000000E+00
  0.00000000E+00  0.00000000E+00  0.00000000E+00
  0.00000000E+00  0.00000000E+00  0.00000000E+00
  0.00000000E+00  0.00000000E+00  0.00000000E+00
  0.00000000E+00  0.00000000E+00  0.00000000E+00
  0.00000000E+00  0.00000000E+00  0.00000000E+00
  0.00000000E+00  0.00000000E+00  0.00000000E+00
  0.00000000E+00  0.00000000E+00  0.00000000E+00
  0.00000000E+00  0.00000000E+00  0.00000000E+00
  0.00000000E+00  0.00000000E+00  0.00000000E+00
  0.00000000E+00  0.00000000E+00  0.00000000E+00
  0.00000000E+00  0.00000000E+00  0.00000000E+00
  0.00000000E+00  0.00000000E+00  0.00000000E+00
  0.00000000E+00  0.00000000E+00  0.00000000E+00
  0.00000000E+00  0.00000000E+00  0.00000000E+00
  0.00000000E+00  0.00000000E+00  0.00000000E+00
  0.00000000E+00  0.00000000E+00  0.00000000E+00
  0.00000000E+00  0.00000000E+00  0.00000000E+00
