Ba4 In10 I2                             
   1.0000000000000000     
     9.4776616800840632   -0.1695206350642063   -0.2279336220030120
    -4.8648877978894838    7.9268342594540524    0.3714186525010450
    -4.8745373522820685   -2.2917093582819352    7.5919597530749190
   I    Ba   In
     2     4    10
Direct
  0.0010012781801905  0.4030827332094447  0.4034401313191935
  0.0009888440313190  0.9034432877227943  0.9030784604287163
  0.8163945318889674  0.6116727489608706  0.1116835841957666
  0.5011589716346521  0.1057474211209595  0.2891308745358145
  0.5011488546599523  0.7891205914044761  0.6057493755017802
  0.1847449845537597  0.2971139552286672  0.7971283663247419
  0.9985822560291382  0.1532873594132269  0.1515987948498037
  0.4980870084341049  0.7961693914798644  0.9837057223104324
  0.2134865941020934  0.6136174282267177  0.1136388759562053
  0.4980245313894898  0.4836482631409069  0.2961950997854075
  0.7887682102531244  0.8979561626248653  0.3979907189649765
  0.9986737222736366  0.6516841939264708  0.6532710460648374
  0.2018477417944737  0.9853756242556670  0.4853222015709520
  0.4989779072407572  0.3946717542664828  0.6279273220281567
  0.7991261136013321  0.2853225375249124  0.7852757017771808
  0.4989884499330088  0.1278865474936808  0.8946637243860067

  0.00000000E+00  0.00000000E+00  0.00000000E+00
  0.00000000E+00  0.00000000E+00  0.00000000E+00
  0.00000000E+00  0.00000000E+00  0.00000000E+00
  0.00000000E+00  0.00000000E+00  0.00000000E+00
  0.00000000E+00  0.00000000E+00  0.00000000E+00
  0.00000000E+00  0.00000000E+00  0.00000000E+00
  0.00000000E+00  0.00000000E+00  0.00000000E+00
  0.00000000E+00  0.00000000E+00  0.00000000E+00
  0.00000000E+00  0.00000000E+00  0.00000000E+00
  0.00000000E+00  0.00000000E+00  0.00000000E+00
  0.00000000E+00  0.00000000E+00  0.00000000E+00
  0.00000000E+00  0.00000000E+00  0.00000000E+00
  0.00000000E+00  0.00000000E+00  0.00000000E+00
  0.00000000E+00  0.00000000E+00  0.00000000E+00
  0.00000000E+00  0.00000000E+00  0.00000000E+00
  0.00000000E+00  0.00000000E+00  0.00000000E+00
