Mg4In3                                  
   1.00000000000000     
     5.5912355408850143    6.4566627800342644    0.0000000000000000
    -2.7977347169157070    8.0726523036167084    0.0000000000000000
     0.0000000000000000    0.0000000000000000    5.2367940697684103
   In   Mg
     6     8
Direct
  0.1307520208612658  0.2853922320887534  0.0000000000000000
  0.2976867951558404  0.5602857751733978  0.0000000000000000
  0.8558412668022441  0.7267184112000606  0.0000000000000000
  0.3924714018781330  0.0955701357814718  0.5000000000000000
  0.6671474850533130  0.6544687152286883  0.5000000000000000
  0.2263076365168217  0.8205581986918844  0.5000000000000000
  0.5684219924915226  0.1495212051009673  0.0000000000000000
  0.7203944009275318  0.4248969386806820  0.0000000000000000
  0.4281614197526125  0.8576221647800253  0.0000000000000000
  0.9964431088846055  0.9966717999503558  0.0000000000000000
  0.9551421596937573  0.2312268149131356  0.5000000000000000
  0.5273485108902918  0.3834540450839583  0.5000000000000000
  0.0950143506570527  0.5237709065943008  0.5000000000000000
  0.8030674504350230  0.9558426567323224  0.5000000000000000
 
  0.00000000E+00  0.00000000E+00  0.00000000E+00
  0.00000000E+00  0.00000000E+00  0.00000000E+00
  0.00000000E+00  0.00000000E+00  0.00000000E+00
  0.00000000E+00  0.00000000E+00  0.00000000E+00
  0.00000000E+00  0.00000000E+00  0.00000000E+00
  0.00000000E+00  0.00000000E+00  0.00000000E+00
  0.00000000E+00  0.00000000E+00  0.00000000E+00
  0.00000000E+00  0.00000000E+00  0.00000000E+00
  0.00000000E+00  0.00000000E+00  0.00000000E+00
  0.00000000E+00  0.00000000E+00  0.00000000E+00
  0.00000000E+00  0.00000000E+00  0.00000000E+00
  0.00000000E+00  0.00000000E+00  0.00000000E+00
  0.00000000E+00  0.00000000E+00  0.00000000E+00
  0.00000000E+00  0.00000000E+00  0.00000000E+00
