Ga4                                     
   1.00000000000000     
     2.0166588844829025   -2.3029018234878507    0.0000000000000000
     2.0166588844829025    2.3029018234878507    0.0000000000000000
     0.0000000000000000    0.0000000000000002    8.1272707750477995
   Ga
     4
Direct
  0.2467196616513476  0.7532803383486524  0.1249795046737603
  0.7532803383486524  0.2467196616513476  0.8750204953262397
  0.2532803383486524  0.7467196616513476  0.6249795046737603
  0.7467196616513476  0.2532803383486524  0.3750204953262397
 
  0.00000000E+00  0.00000000E+00  0.00000000E+00
  0.00000000E+00  0.00000000E+00  0.00000000E+00
  0.00000000E+00  0.00000000E+00  0.00000000E+00
  0.00000000E+00  0.00000000E+00  0.00000000E+00
