Mg1                                     
   1.00000000000000     
     0.0000000000000000    0.0000000000000000   -3.0410862603840196
    -1.5435545367999328   -2.6735134951145776    0.0000000000000000
    -1.5435545367999328    2.6735134951145776    0.0000000000000000
   Mg
     1
Direct
  0.0000000000000000  0.0000000000000000  0.0000000000000000
 
  0.00000000E+00  0.00000000E+00  0.00000000E+00
