Ba4 Ga4 F20                             
   1.0000000000000000     
     4.8413308754371567    0.0000000000000000    0.0000000000000003
    -0.0000000000000003    5.6354530378583343    0.0000000000000003
     0.0000000000000000    0.0000000000000000   13.9108683894423439
   Ba   Ga   F 
     4     4    20
Direct
  0.7170409545397902  0.6524847313724820  0.6596362620741232
  0.2170409545397831  0.8475152686275180  0.3403637379258768
  0.2829590454602169  0.1524847313724820  0.8403637379258768
  0.7829590454602098  0.3475152686275180  0.1596362620741232
  0.3197790813737527  0.1376769271264067  0.5843508355073439
  0.8197790813737527  0.3623230728735933  0.4156491644926561
  0.6802209186262473  0.6376769271264067  0.9156491644926561
  0.1802209186262473  0.8623230728735933  0.0843508355073439
  0.9716038491672521  0.6086894657594968  0.4883401758077426
  0.4716038491672521  0.8913105342405032  0.5116598241922574
  0.0283961508327479  0.1086894657595039  0.0116598241922574
  0.5283961508327479  0.3913105342404961  0.9883401758077426
  0.6735523778057484  0.5898015845877964  0.3285754613425169
  0.1735523778057484  0.9101984154122036  0.6714245386574689
  0.3264476221942516  0.0898015845877964  0.1714245386574760
  0.8264476221942516  0.4101984154122036  0.8285754613425169
  0.1884898468201470  0.3921603161950244  0.6594844353636873
  0.6884898468201470  0.1078396838049756  0.3405155646363127
  0.8115101531798530  0.8921603161950244  0.8405155646363127
  0.3115101531798530  0.6078396838049756  0.1594844353636873
  0.6329709186970334  0.1469215225429039  0.6683479740000777
  0.1329709186970334  0.3530784774571032  0.3316520259999223
  0.3670290813029666  0.6469215225428968  0.8316520259999223
  0.8670290813029666  0.8530784774571032  0.1683479740000777
  0.5032708126726817  0.3714147652128403  0.5007480290616328
  0.0032708126726817  0.1285852347871597  0.4992519709383600
  0.4967291873273183  0.8714147652128403  0.9992519709383672
  0.9967291873273183  0.6285852347871597  0.0007480290616400

  0.00000000E+00  0.00000000E+00  0.00000000E+00
  0.00000000E+00  0.00000000E+00  0.00000000E+00
  0.00000000E+00  0.00000000E+00  0.00000000E+00
  0.00000000E+00  0.00000000E+00  0.00000000E+00
  0.00000000E+00  0.00000000E+00  0.00000000E+00
  0.00000000E+00  0.00000000E+00  0.00000000E+00
  0.00000000E+00  0.00000000E+00  0.00000000E+00
  0.00000000E+00  0.00000000E+00  0.00000000E+00
  0.00000000E+00  0.00000000E+00  0.00000000E+00
  0.00000000E+00  0.00000000E+00  0.00000000E+00
  0.00000000E+00  0.00000000E+00  0.00000000E+00
  0.00000000E+00  0.00000000E+00  0.00000000E+00
  0.00000000E+00  0.00000000E+00  0.00000000E+00
  0.00000000E+00  0.00000000E+00  0.00000000E+00
  0.00000000E+00  0.00000000E+00  0.00000000E+00
  0.00000000E+00  0.00000000E+00  0.00000000E+00
  0.00000000E+00  0.00000000E+00  0.00000000E+00
  0.00000000E+00  0.00000000E+00  0.00000000E+00
  0.00000000E+00  0.00000000E+00  0.00000000E+00
  0.00000000E+00  0.00000000E+00  0.00000000E+00
  0.00000000E+00  0.00000000E+00  0.00000000E+00
  0.00000000E+00  0.00000000E+00  0.00000000E+00
  0.00000000E+00  0.00000000E+00  0.00000000E+00
  0.00000000E+00  0.00000000E+00  0.00000000E+00
  0.00000000E+00  0.00000000E+00  0.00000000E+00
  0.00000000E+00  0.00000000E+00  0.00000000E+00
  0.00000000E+00  0.00000000E+00  0.00000000E+00
  0.00000000E+00  0.00000000E+00  0.00000000E+00
