Ba5 In2                                 
   1.0000000000000000     
     3.0066981363797027    1.7362800576142285   10.8852157290757923
    -3.0066981363797027    1.7362800576142285   10.8852157290757923
     0.0000000000000000   -3.4728799999368052   10.8852654881766213
   Ba   In
     5     2
Direct
  0.2239224235599409  0.2239224235599409  0.2239289235784412
  0.3718183899120859  0.3718183899120859  0.3718776838916114
  0.4999972786380127  0.4999972786380127  0.5000039861969086
  0.6282219373535867  0.6282219373535867  0.6282010108241352
  0.7760819140699198  0.7760819140699198  0.7760669111870016
  0.0977406962902023  0.0977406962902023  0.0977750973978573
  0.9023173601762480  0.9023173601762480  0.9022463869240482

  0.00000000E+00  0.00000000E+00  0.00000000E+00
  0.00000000E+00  0.00000000E+00  0.00000000E+00
  0.00000000E+00  0.00000000E+00  0.00000000E+00
  0.00000000E+00  0.00000000E+00  0.00000000E+00
  0.00000000E+00  0.00000000E+00  0.00000000E+00
  0.00000000E+00  0.00000000E+00  0.00000000E+00
  0.00000000E+00  0.00000000E+00  0.00000000E+00
