Be41 B67                                
   1.00000000000000     
     9.1351439087039381    0.0000000000000000    0.0000000000000000
     0.0000000000000000    9.1351439087039381    0.0000000000000000
     0.0000000000000000    0.0000000000000000    9.1351439087039399
   B    Be
    67    41
Direct
  0.3043254940507651  0.1589072295192082  0.0000000000000000
  0.6956745059492278  0.1589072295192082  0.0000000000000000
  0.5000000000000000  0.2317835679740483  0.0000000000000000
  0.1589072295192082  0.3043254940507651  0.0000000000000000
  0.8410927704807918  0.3043254940507651  0.0000000000000000
  0.2317835679740483  0.5000000000000000  0.0000000000000000
  0.7682164320259517  0.5000000000000000  0.0000000000000000
  0.1589072295192082  0.6956745059492278  0.0000000000000000
  0.8410927704807918  0.6956745059492278  0.0000000000000000
  0.5000000000000000  0.7682164320259517  0.0000000000000000
  0.3043254940507651  0.8410927704807918  0.0000000000000000
  0.6956745059492278  0.8410927704807918  0.0000000000000000
  0.5000000000000000  0.1881830919032197  0.1881830919032197
  0.1881830919032197  0.5000000000000000  0.1881830919032197
  0.8118169080967803  0.5000000000000000  0.1881830919032197
  0.5000000000000000  0.8118169080967803  0.1881830919032197
  0.5000000000000000  0.5000000000000000  0.2657537430659858
  0.3043254940507651  0.0000000000000000  0.1589072295192082
  0.6956745059492278  0.0000000000000000  0.1589072295192082
  0.0000000000000000  0.3043254940507651  0.1589072295192082
  0.0000000000000000  0.6956745059492278  0.1589072295192082
  0.5000000000000000  0.0000000000000000  0.2317835679740483
  0.0000000000000000  0.5000000000000000  0.2317835679740483
  0.5000000000000000  0.3136171548081421  0.3136171548081421
  0.3136171548081421  0.5000000000000000  0.3136171548081421
  0.6863828451918579  0.5000000000000000  0.3136171548081421
  0.5000000000000000  0.6863828451918579  0.3136171548081421
  0.1589072295192082  0.0000000000000000  0.3043254940507651
  0.8410927704807918  0.0000000000000000  0.3043254940507651
  0.0000000000000000  0.1589072295192082  0.3043254940507651
  0.0000000000000000  0.8410927704807918  0.3043254940507651
  0.2317835679740483  0.0000000000000000  0.5000000000000000
  0.7682164320259517  0.0000000000000000  0.5000000000000000
  0.1881830919032197  0.1881830919032197  0.5000000000000000
  0.8118169080967803  0.1881830919032197  0.5000000000000000
  0.5000000000000000  0.2657537430659858  0.5000000000000000
  0.0000000000000000  0.2317835679740483  0.5000000000000000
  0.3136171548081421  0.3136171548081421  0.5000000000000000
  0.6863828451918579  0.3136171548081421  0.5000000000000000
  0.2657537430659858  0.5000000000000000  0.5000000000000000
  0.5000000000000000  0.5000000000000000  0.5000000000000000
  0.7342462569340142  0.5000000000000000  0.5000000000000000
  0.3136171548081421  0.6863828451918579  0.5000000000000000
  0.6863828451918579  0.6863828451918579  0.5000000000000000
  0.0000000000000000  0.7682164320259517  0.5000000000000000
  0.5000000000000000  0.7342462569340142  0.5000000000000000
  0.1881830919032197  0.8118169080967803  0.5000000000000000
  0.8118169080967803  0.8118169080967803  0.5000000000000000
  0.1589072295192082  0.0000000000000000  0.6956745059492278
  0.8410927704807918  0.0000000000000000  0.6956745059492278
  0.0000000000000000  0.1589072295192082  0.6956745059492278
  0.0000000000000000  0.8410927704807918  0.6956745059492278
  0.5000000000000000  0.3136171548081421  0.6863828451918579
  0.3136171548081421  0.5000000000000000  0.6863828451918579
  0.6863828451918579  0.5000000000000000  0.6863828451918579
  0.5000000000000000  0.6863828451918579  0.6863828451918579
  0.5000000000000000  0.0000000000000000  0.7682164320259517
  0.0000000000000000  0.5000000000000000  0.7682164320259517
  0.3043254940507651  0.0000000000000000  0.8410927704807918
  0.6956745059492278  0.0000000000000000  0.8410927704807918
  0.0000000000000000  0.3043254940507651  0.8410927704807918
  0.0000000000000000  0.6956745059492278  0.8410927704807918
  0.5000000000000000  0.5000000000000000  0.7342462569340142
  0.5000000000000000  0.1881830919032197  0.8118169080967803
  0.1881830919032197  0.5000000000000000  0.8118169080967803
  0.8118169080967803  0.5000000000000000  0.8118169080967803
  0.5000000000000000  0.8118169080967803  0.8118169080967803
  0.1609534639253880  0.0000000000000000  0.0000000000000000
  0.5000000000000000  0.0000000000000000  0.0000000000000000
  0.8390465360746120  0.0000000000000000  0.0000000000000000
  0.0000000000000000  0.1609534639253880  0.0000000000000000
  0.0000000000000000  0.5000000000000000  0.0000000000000000
  0.0000000000000000  0.8390465360746120  0.0000000000000000
  0.3685179065599726  0.3685179065599726  0.1319248808616322
  0.6314820934400274  0.3685179065599726  0.1319248808616322
  0.3685179065599726  0.6314820934400274  0.1319248808616322
  0.6314820934400274  0.6314820934400274  0.1319248808616322
  0.1686893257138564  0.1686893257138564  0.1686893257138564
  0.8313106742861436  0.1686893257138564  0.1686893257138564
  0.1686893257138564  0.8313106742861436  0.1686893257138564
  0.8313106742861436  0.8313106742861436  0.1686893257138564
  0.0000000000000000  0.0000000000000000  0.1609534639253880
  0.3685179065599726  0.1319248808616322  0.3685179065599726
  0.6314820934400274  0.1319248808616322  0.3685179065599726
  0.1319248808616322  0.3685179065599726  0.3685179065599726
  0.8680751191383678  0.3685179065599726  0.3685179065599726
  0.1319248808616322  0.6314820934400274  0.3685179065599726
  0.8680751191383678  0.6314820934400274  0.3685179065599726
  0.3685179065599726  0.8680751191383678  0.3685179065599726
  0.6314820934400274  0.8680751191383678  0.3685179065599726
  0.0000000000000000  0.0000000000000000  0.5000000000000000
  0.3685179065599726  0.1319248808616322  0.6314820934400274
  0.6314820934400274  0.1319248808616322  0.6314820934400274
  0.1319248808616322  0.3685179065599726  0.6314820934400274
  0.8680751191383678  0.3685179065599726  0.6314820934400274
  0.1319248808616322  0.6314820934400274  0.6314820934400274
  0.8680751191383678  0.6314820934400274  0.6314820934400274
  0.3685179065599726  0.8680751191383678  0.6314820934400274
  0.6314820934400274  0.8680751191383678  0.6314820934400274
  0.0000000000000000  0.0000000000000000  0.8390465360746120
  0.1686893257138564  0.1686893257138564  0.8313106742861436
  0.8313106742861436  0.1686893257138564  0.8313106742861436
  0.1686893257138564  0.8313106742861436  0.8313106742861436
  0.8313106742861436  0.8313106742861436  0.8313106742861436
  0.3685179065599726  0.3685179065599726  0.8680751191383678
  0.6314820934400274  0.3685179065599726  0.8680751191383678
  0.3685179065599726  0.6314820934400274  0.8680751191383678
  0.6314820934400274  0.6314820934400274  0.8680751191383678
 
  0.00000000E+00  0.00000000E+00  0.00000000E+00
  0.00000000E+00  0.00000000E+00  0.00000000E+00
  0.00000000E+00  0.00000000E+00  0.00000000E+00
  0.00000000E+00  0.00000000E+00  0.00000000E+00
  0.00000000E+00  0.00000000E+00  0.00000000E+00
  0.00000000E+00  0.00000000E+00  0.00000000E+00
  0.00000000E+00  0.00000000E+00  0.00000000E+00
  0.00000000E+00  0.00000000E+00  0.00000000E+00
  0.00000000E+00  0.00000000E+00  0.00000000E+00
  0.00000000E+00  0.00000000E+00  0.00000000E+00
  0.00000000E+00  0.00000000E+00  0.00000000E+00
  0.00000000E+00  0.00000000E+00  0.00000000E+00
  0.00000000E+00  0.00000000E+00  0.00000000E+00
  0.00000000E+00  0.00000000E+00  0.00000000E+00
  0.00000000E+00  0.00000000E+00  0.00000000E+00
  0.00000000E+00  0.00000000E+00  0.00000000E+00
  0.00000000E+00  0.00000000E+00  0.00000000E+00
  0.00000000E+00  0.00000000E+00  0.00000000E+00
  0.00000000E+00  0.00000000E+00  0.00000000E+00
  0.00000000E+00  0.00000000E+00  0.00000000E+00
  0.00000000E+00  0.00000000E+00  0.00000000E+00
  0.00000000E+00  0.00000000E+00  0.00000000E+00
  0.00000000E+00  0.00000000E+00  0.00000000E+00
  0.00000000E+00  0.00000000E+00  0.00000000E+00
  0.00000000E+00  0.00000000E+00  0.00000000E+00
  0.00000000E+00  0.00000000E+00  0.00000000E+00
  0.00000000E+00  0.00000000E+00  0.00000000E+00
  0.00000000E+00  0.00000000E+00  0.00000000E+00
  0.00000000E+00  0.00000000E+00  0.00000000E+00
  0.00000000E+00  0.00000000E+00  0.00000000E+00
  0.00000000E+00  0.00000000E+00  0.00000000E+00
  0.00000000E+00  0.00000000E+00  0.00000000E+00
  0.00000000E+00  0.00000000E+00  0.00000000E+00
  0.00000000E+00  0.00000000E+00  0.00000000E+00
  0.00000000E+00  0.00000000E+00  0.00000000E+00
  0.00000000E+00  0.00000000E+00  0.00000000E+00
  0.00000000E+00  0.00000000E+00  0.00000000E+00
  0.00000000E+00  0.00000000E+00  0.00000000E+00
  0.00000000E+00  0.00000000E+00  0.00000000E+00
  0.00000000E+00  0.00000000E+00  0.00000000E+00
  0.00000000E+00  0.00000000E+00  0.00000000E+00
  0.00000000E+00  0.00000000E+00  0.00000000E+00
  0.00000000E+00  0.00000000E+00  0.00000000E+00
  0.00000000E+00  0.00000000E+00  0.00000000E+00
  0.00000000E+00  0.00000000E+00  0.00000000E+00
  0.00000000E+00  0.00000000E+00  0.00000000E+00
  0.00000000E+00  0.00000000E+00  0.00000000E+00
  0.00000000E+00  0.00000000E+00  0.00000000E+00
  0.00000000E+00  0.00000000E+00  0.00000000E+00
  0.00000000E+00  0.00000000E+00  0.00000000E+00
  0.00000000E+00  0.00000000E+00  0.00000000E+00
  0.00000000E+00  0.00000000E+00  0.00000000E+00
  0.00000000E+00  0.00000000E+00  0.00000000E+00
  0.00000000E+00  0.00000000E+00  0.00000000E+00
  0.00000000E+00  0.00000000E+00  0.00000000E+00
  0.00000000E+00  0.00000000E+00  0.00000000E+00
  0.00000000E+00  0.00000000E+00  0.00000000E+00
  0.00000000E+00  0.00000000E+00  0.00000000E+00
  0.00000000E+00  0.00000000E+00  0.00000000E+00
  0.00000000E+00  0.00000000E+00  0.00000000E+00
  0.00000000E+00  0.00000000E+00  0.00000000E+00
  0.00000000E+00  0.00000000E+00  0.00000000E+00
  0.00000000E+00  0.00000000E+00  0.00000000E+00
  0.00000000E+00  0.00000000E+00  0.00000000E+00
  0.00000000E+00  0.00000000E+00  0.00000000E+00
  0.00000000E+00  0.00000000E+00  0.00000000E+00
  0.00000000E+00  0.00000000E+00  0.00000000E+00
  0.00000000E+00  0.00000000E+00  0.00000000E+00
  0.00000000E+00  0.00000000E+00  0.00000000E+00
  0.00000000E+00  0.00000000E+00  0.00000000E+00
  0.00000000E+00  0.00000000E+00  0.00000000E+00
  0.00000000E+00  0.00000000E+00  0.00000000E+00
  0.00000000E+00  0.00000000E+00  0.00000000E+00
  0.00000000E+00  0.00000000E+00  0.00000000E+00
  0.00000000E+00  0.00000000E+00  0.00000000E+00
  0.00000000E+00  0.00000000E+00  0.00000000E+00
  0.00000000E+00  0.00000000E+00  0.00000000E+00
  0.00000000E+00  0.00000000E+00  0.00000000E+00
  0.00000000E+00  0.00000000E+00  0.00000000E+00
  0.00000000E+00  0.00000000E+00  0.00000000E+00
  0.00000000E+00  0.00000000E+00  0.00000000E+00
  0.00000000E+00  0.00000000E+00  0.00000000E+00
  0.00000000E+00  0.00000000E+00  0.00000000E+00
  0.00000000E+00  0.00000000E+00  0.00000000E+00
  0.00000000E+00  0.00000000E+00  0.00000000E+00
  0.00000000E+00  0.00000000E+00  0.00000000E+00
  0.00000000E+00  0.00000000E+00  0.00000000E+00
  0.00000000E+00  0.00000000E+00  0.00000000E+00
  0.00000000E+00  0.00000000E+00  0.00000000E+00
  0.00000000E+00  0.00000000E+00  0.00000000E+00
  0.00000000E+00  0.00000000E+00  0.00000000E+00
  0.00000000E+00  0.00000000E+00  0.00000000E+00
  0.00000000E+00  0.00000000E+00  0.00000000E+00
  0.00000000E+00  0.00000000E+00  0.00000000E+00
  0.00000000E+00  0.00000000E+00  0.00000000E+00
  0.00000000E+00  0.00000000E+00  0.00000000E+00
  0.00000000E+00  0.00000000E+00  0.00000000E+00
  0.00000000E+00  0.00000000E+00  0.00000000E+00
  0.00000000E+00  0.00000000E+00  0.00000000E+00
  0.00000000E+00  0.00000000E+00  0.00000000E+00
  0.00000000E+00  0.00000000E+00  0.00000000E+00
  0.00000000E+00  0.00000000E+00  0.00000000E+00
  0.00000000E+00  0.00000000E+00  0.00000000E+00
  0.00000000E+00  0.00000000E+00  0.00000000E+00
  0.00000000E+00  0.00000000E+00  0.00000000E+00
  0.00000000E+00  0.00000000E+00  0.00000000E+00
  0.00000000E+00  0.00000000E+00  0.00000000E+00
  0.00000000E+00  0.00000000E+00  0.00000000E+00
