Be2 B4 Cl16                             
   1.00000000000000     
    10.0805972984962970    0.6539699719977586   -1.0939183516152806
    -0.6555596030900041    6.6690436013534597   -0.4537940937596721
    -5.7407827722765017   -4.6814073639856106   13.1580442746767972
   B    Cl   Be
     4    16     2
Direct
  0.8415561331355903  0.0984662246254260  0.2381898031660370
  0.4299632629175250  0.5656780359876379  0.3155793221744148
  0.5700358862466643  0.4341948622397709  0.6843752683572930
  0.1585094043143727  0.9017061566073039  0.7618586471771991
  0.6624339911009329  0.9272607719692587  0.1860194636538850
  0.8650750411492893  0.0948271716897509  0.1138678582406385
  0.4149732912886961  0.3963736422065196  0.1939808623104540
  0.1617794713084351  0.8295809959710070  0.1294387768793470
  0.8889620287243218  0.3689752384789813  0.3334777249878940
  0.0164457301237135  0.9528570385361590  0.3015569196040317
  0.5802003566494349  0.7969205438522522  0.4066479774012350
  0.2952217658118030  0.5033688218193575  0.3486174931066444
  0.7048038771601810  0.4965135046914995  0.6513404014952400
  0.4198841346675763  0.2028075178190889  0.5933504737446427
  0.9837005146700122  0.0474826569660962  0.6984949492548793
  0.1111037392992102  0.6313090510978228  0.6665364670629472
  0.8381490243709280  0.1704677526818017  0.8705089400034041
  0.5849215955684315  0.6036449338512426  0.8059214381921294
  0.1348762096390459  0.9052269395495642  0.8861237082428559
  0.3377257971651701  0.0729318670883359  0.8141404756555986
  0.0351563819314009  0.9481460675159710  0.1761606642696592
  0.9648223627572676  0.0519602047551828  0.8238123650195561
 
  0.00000000E+00  0.00000000E+00  0.00000000E+00
  0.00000000E+00  0.00000000E+00  0.00000000E+00
  0.00000000E+00  0.00000000E+00  0.00000000E+00
  0.00000000E+00  0.00000000E+00  0.00000000E+00
  0.00000000E+00  0.00000000E+00  0.00000000E+00
  0.00000000E+00  0.00000000E+00  0.00000000E+00
  0.00000000E+00  0.00000000E+00  0.00000000E+00
  0.00000000E+00  0.00000000E+00  0.00000000E+00
  0.00000000E+00  0.00000000E+00  0.00000000E+00
  0.00000000E+00  0.00000000E+00  0.00000000E+00
  0.00000000E+00  0.00000000E+00  0.00000000E+00
  0.00000000E+00  0.00000000E+00  0.00000000E+00
  0.00000000E+00  0.00000000E+00  0.00000000E+00
  0.00000000E+00  0.00000000E+00  0.00000000E+00
  0.00000000E+00  0.00000000E+00  0.00000000E+00
  0.00000000E+00  0.00000000E+00  0.00000000E+00
  0.00000000E+00  0.00000000E+00  0.00000000E+00
  0.00000000E+00  0.00000000E+00  0.00000000E+00
  0.00000000E+00  0.00000000E+00  0.00000000E+00
  0.00000000E+00  0.00000000E+00  0.00000000E+00
  0.00000000E+00  0.00000000E+00  0.00000000E+00
  0.00000000E+00  0.00000000E+00  0.00000000E+00
