Tl3F2                                   
   1.0000000000000000     
    -6.3571987029134851    0.1094175131697804    0.0595736091786570
     3.2735060427119453   -5.4400266382965059   -0.0542560040603348
    -3.2729231966113290    1.8792132234204304    6.8833092709602424
   F    Tl
     4     6
Direct
  0.3241418784180468  0.7048732336244754  0.0331870556288649
  0.2057603743787340  0.8249046009706404  0.4664179771474011
  0.7944033905534837  0.1753550031708428  0.5334046393631908
  0.6756826857335909  0.2950092324156941  0.9666660837514769
  0.2553040090490626  0.1175156103580335  0.2599080426714835
  0.9051318881924573  0.4059037402092045  0.2504332908002525
  0.6178486317148639  0.7556157823306506  0.2397591798791439
  0.3822201966778351  0.2443563268272300  0.7602706601202414
  0.0949088149714115  0.5940546974909537  0.7492935126578786
  0.7445981303105143  0.8824117726022749  0.7402595579800746

  0.00000000E+00  0.00000000E+00  0.00000000E+00
  0.00000000E+00  0.00000000E+00  0.00000000E+00
  0.00000000E+00  0.00000000E+00  0.00000000E+00
  0.00000000E+00  0.00000000E+00  0.00000000E+00
  0.00000000E+00  0.00000000E+00  0.00000000E+00
  0.00000000E+00  0.00000000E+00  0.00000000E+00
  0.00000000E+00  0.00000000E+00  0.00000000E+00
  0.00000000E+00  0.00000000E+00  0.00000000E+00
  0.00000000E+00  0.00000000E+00  0.00000000E+00
  0.00000000E+00  0.00000000E+00  0.00000000E+00
