Be4 Al2 I10                             
   1.00000000000000     
    -4.4411928714738682    4.4411928714738682    7.5731197913978479
     4.4411928714738682   -4.4411928714738682    7.5731197913978479
     4.4411928714738682    4.4411928714738682   -7.5731197913978479
   Be   Al   I 
     4     2    10
Direct
  0.6966959590813602  0.1966959590813602  0.8933919181627346
  0.1966959590813602  0.3033040409186398  0.5000000000000000
  0.3033040409186398  0.8033040409186398  0.1066080818372654
  0.8033040409186398  0.6966959590813602  0.5000000000000000
  0.2500000000000000  0.2500000000000000  0.0000000000000000
  0.7500000000000000  0.7500000000000000  0.0000000000000000
  0.5000000000000000  0.5000000000000000  0.0000000000000000
  0.0000000000000000  0.0000000000000000  0.0000000000000000
  0.5203055798268323  0.0203055798268323  0.8314742948952798
  0.0203055798268323  0.1888312849315454  0.5000000000000000
  0.6888312849315454  0.5203055798268323  0.5000000000000000
  0.9796944201731677  0.8111687150684546  0.5000000000000000
  0.3111687150684546  0.4796944201731677  0.5000000000000000
  0.8111687150684546  0.3111687150684546  0.8314742948952798
  0.4796944201731677  0.9796944201731677  0.1685257051047202
  0.1888312849315454  0.6888312849315454  0.1685257051047202
 
  0.00000000E+00  0.00000000E+00  0.00000000E+00
  0.00000000E+00  0.00000000E+00  0.00000000E+00
  0.00000000E+00  0.00000000E+00  0.00000000E+00
  0.00000000E+00  0.00000000E+00  0.00000000E+00
  0.00000000E+00  0.00000000E+00  0.00000000E+00
  0.00000000E+00  0.00000000E+00  0.00000000E+00
  0.00000000E+00  0.00000000E+00  0.00000000E+00
  0.00000000E+00  0.00000000E+00  0.00000000E+00
  0.00000000E+00  0.00000000E+00  0.00000000E+00
  0.00000000E+00  0.00000000E+00  0.00000000E+00
  0.00000000E+00  0.00000000E+00  0.00000000E+00
  0.00000000E+00  0.00000000E+00  0.00000000E+00
  0.00000000E+00  0.00000000E+00  0.00000000E+00
  0.00000000E+00  0.00000000E+00  0.00000000E+00
  0.00000000E+00  0.00000000E+00  0.00000000E+00
  0.00000000E+00  0.00000000E+00  0.00000000E+00
