Ba6 Tl33                                
   1.0000000000000000     
    10.9999104385223525    0.0000000000000000    0.0000000000000000
    -0.0000000000000000   10.9999104385223525    0.0000000000000000
    -0.0000000000000000    0.0000000000000000   10.9999104385223525
   Ba   Tl
     6    33
Direct
  0.2140234482387271  0.5000000000000000  0.0000000000000000
  0.7859765517612729  0.5000000000000000  0.0000000000000000
  0.5000000000000000  0.0000000000000000  0.2140234482387271
  0.0000000000000000  0.2140234482387271  0.5000000000000000
  0.0000000000000000  0.7859765517612729  0.5000000000000000
  0.5000000000000000  0.0000000000000000  0.7859765517612729
  0.0000000000000000  0.0000000000000000  0.0000000000000000
  0.2645647686917343  0.1485032529209107  0.0000000000000000
  0.7354352313082657  0.1485032529209107  0.0000000000000000
  0.5000000000000000  0.3165209429062230  0.0000000000000000
  0.5000000000000000  0.6834790570937770  0.0000000000000000
  0.2645647686917343  0.8514967470790893  0.0000000000000000
  0.7354352313082657  0.8514967470790893  0.0000000000000000
  0.0000000000000000  0.2645647686917343  0.1485032529209107
  0.0000000000000000  0.7354352313082657  0.1485032529209107
  0.5000000000000000  0.5000000000000000  0.2548898577179202
  0.1485032529209107  0.0000000000000000  0.2645647686917343
  0.8514967470790893  0.0000000000000000  0.2645647686917343
  0.2860738786485868  0.2860738786485868  0.2860738786485868
  0.7139261213514132  0.2860738786485868  0.2860738786485868
  0.2860738786485868  0.7139261213514132  0.2860738786485868
  0.7139261213514132  0.7139261213514132  0.2860738786485868
  0.0000000000000000  0.5000000000000000  0.3165209429062230
  0.3165209429062230  0.0000000000000000  0.5000000000000000
  0.6834790570937770  0.0000000000000000  0.5000000000000000
  0.5000000000000000  0.2548898577179202  0.5000000000000000
  0.2548898577179202  0.5000000000000000  0.5000000000000000
  0.7451101422820798  0.5000000000000000  0.5000000000000000
  0.5000000000000000  0.7451101422820798  0.5000000000000000
  0.0000000000000000  0.5000000000000000  0.6834790570937770
  0.2860738786485868  0.2860738786485868  0.7139261213514132
  0.7139261213514132  0.2860738786485868  0.7139261213514132
  0.2860738786485868  0.7139261213514132  0.7139261213514132
  0.7139261213514132  0.7139261213514132  0.7139261213514132
  0.1485032529209107  0.0000000000000000  0.7354352313082657
  0.8514967470790893  0.0000000000000000  0.7354352313082657
  0.5000000000000000  0.5000000000000000  0.7451101422820798
  0.0000000000000000  0.2645647686917343  0.8514967470790893
  0.0000000000000000  0.7354352313082657  0.8514967470790893

  0.00000000E+00  0.00000000E+00  0.00000000E+00
  0.00000000E+00  0.00000000E+00  0.00000000E+00
  0.00000000E+00  0.00000000E+00  0.00000000E+00
  0.00000000E+00  0.00000000E+00  0.00000000E+00
  0.00000000E+00  0.00000000E+00  0.00000000E+00
  0.00000000E+00  0.00000000E+00  0.00000000E+00
  0.00000000E+00  0.00000000E+00  0.00000000E+00
  0.00000000E+00  0.00000000E+00  0.00000000E+00
  0.00000000E+00  0.00000000E+00  0.00000000E+00
  0.00000000E+00  0.00000000E+00  0.00000000E+00
  0.00000000E+00  0.00000000E+00  0.00000000E+00
  0.00000000E+00  0.00000000E+00  0.00000000E+00
  0.00000000E+00  0.00000000E+00  0.00000000E+00
  0.00000000E+00  0.00000000E+00  0.00000000E+00
  0.00000000E+00  0.00000000E+00  0.00000000E+00
  0.00000000E+00  0.00000000E+00  0.00000000E+00
  0.00000000E+00  0.00000000E+00  0.00000000E+00
  0.00000000E+00  0.00000000E+00  0.00000000E+00
  0.00000000E+00  0.00000000E+00  0.00000000E+00
  0.00000000E+00  0.00000000E+00  0.00000000E+00
  0.00000000E+00  0.00000000E+00  0.00000000E+00
  0.00000000E+00  0.00000000E+00  0.00000000E+00
  0.00000000E+00  0.00000000E+00  0.00000000E+00
  0.00000000E+00  0.00000000E+00  0.00000000E+00
  0.00000000E+00  0.00000000E+00  0.00000000E+00
  0.00000000E+00  0.00000000E+00  0.00000000E+00
  0.00000000E+00  0.00000000E+00  0.00000000E+00
  0.00000000E+00  0.00000000E+00  0.00000000E+00
  0.00000000E+00  0.00000000E+00  0.00000000E+00
  0.00000000E+00  0.00000000E+00  0.00000000E+00
  0.00000000E+00  0.00000000E+00  0.00000000E+00
  0.00000000E+00  0.00000000E+00  0.00000000E+00
  0.00000000E+00  0.00000000E+00  0.00000000E+00
  0.00000000E+00  0.00000000E+00  0.00000000E+00
  0.00000000E+00  0.00000000E+00  0.00000000E+00
  0.00000000E+00  0.00000000E+00  0.00000000E+00
  0.00000000E+00  0.00000000E+00  0.00000000E+00
  0.00000000E+00  0.00000000E+00  0.00000000E+00
  0.00000000E+00  0.00000000E+00  0.00000000E+00
