Be17 Al11 F1                            
   1.00000000000000     
     6.1040477455558824   -5.0591334529873144    2.2268444941203152
    -1.6520858431242611    7.4488675178278720    1.9319153065753611
    -5.6751808878511110   -3.2050091690084743    4.1650344823953978
   Al   F    Be
    11     1    17
Direct
  0.6931355412192488  0.6894320419258051  0.9995082679785128
  0.4281766201303014  0.3120120494003160  0.2389069650821511
  0.1409855693627264  0.8394875219577074  0.1814948674500059
  0.6454449609659605  0.0464511099657940  0.1794878887209208
  0.2101300722451782  0.4261328266951523  0.4408124158288445
  0.5788146428230476  0.4300097932657536  0.5938293407972353
  0.9227937506610999  0.7959480626984785  0.4583557156650926
  0.7856901908557816  0.0370827013520341  0.5282574165113303
  0.5161820984508694  0.9145190029440471  0.7841663893550503
  0.0670095349813451  0.7600063745347256  0.7925434926194512
  0.1838926664987781  0.1992875111403762  0.7710262788088329
  0.6140588910911120  0.4087312468879745  0.0463749153483590
  0.0408984805630368  0.4975404816676274  0.9717982454607537
  0.1700936572567997  0.3522785682311067  0.1223939607977300
  0.3650251985917095  0.6266487353347969  0.9797575294823844
  0.6932393188525907  0.2829186135685404  0.9696475711206176
  0.0641672087051433  0.0145795545779492  0.0067862926223654
  0.5824148973288388  0.7165812879303459  0.2534378423310244
  0.9753103199682585  0.4476354714387725  0.2244351902312829
  0.4926551480861150  0.0796551678620929  0.4361703981061709
  0.9587238015992909  0.0221615874042342  0.2506481353810486
  0.3232172230794959  0.7076406503011441  0.2516745831102583
  0.8597636509672810  0.3862290826962465  0.4664422638435823
  0.3712600533707189  0.0685543543224156  0.6750561893733007
  0.1240253310663206  0.4879735926391291  0.7118115988714422
  0.8034189918664367  0.8358391555808780  0.7395462678861762
  0.1836962055025353  0.7316487358612704  0.4821816337823392
  0.7608937921965264  0.2996664665484019  0.7096788819229687
  0.4452961817134380  0.5815042512668924  0.7337694615107466
 
  0.00000000E+00  0.00000000E+00  0.00000000E+00
  0.00000000E+00  0.00000000E+00  0.00000000E+00
  0.00000000E+00  0.00000000E+00  0.00000000E+00
  0.00000000E+00  0.00000000E+00  0.00000000E+00
  0.00000000E+00  0.00000000E+00  0.00000000E+00
  0.00000000E+00  0.00000000E+00  0.00000000E+00
  0.00000000E+00  0.00000000E+00  0.00000000E+00
  0.00000000E+00  0.00000000E+00  0.00000000E+00
  0.00000000E+00  0.00000000E+00  0.00000000E+00
  0.00000000E+00  0.00000000E+00  0.00000000E+00
  0.00000000E+00  0.00000000E+00  0.00000000E+00
  0.00000000E+00  0.00000000E+00  0.00000000E+00
  0.00000000E+00  0.00000000E+00  0.00000000E+00
  0.00000000E+00  0.00000000E+00  0.00000000E+00
  0.00000000E+00  0.00000000E+00  0.00000000E+00
  0.00000000E+00  0.00000000E+00  0.00000000E+00
  0.00000000E+00  0.00000000E+00  0.00000000E+00
  0.00000000E+00  0.00000000E+00  0.00000000E+00
  0.00000000E+00  0.00000000E+00  0.00000000E+00
  0.00000000E+00  0.00000000E+00  0.00000000E+00
  0.00000000E+00  0.00000000E+00  0.00000000E+00
  0.00000000E+00  0.00000000E+00  0.00000000E+00
  0.00000000E+00  0.00000000E+00  0.00000000E+00
  0.00000000E+00  0.00000000E+00  0.00000000E+00
  0.00000000E+00  0.00000000E+00  0.00000000E+00
  0.00000000E+00  0.00000000E+00  0.00000000E+00
  0.00000000E+00  0.00000000E+00  0.00000000E+00
  0.00000000E+00  0.00000000E+00  0.00000000E+00
  0.00000000E+00  0.00000000E+00  0.00000000E+00
