Ca1 In3 F6                              
   1.00000000000000     
    -3.1338917468814547    4.4243358799090080    3.1243318861874769
     3.1346758176595060   -4.4310957818731476    3.1346758176595060
     3.1243318861874769    4.4243358799090071   -3.1338917468814547
   F    Ca   In
     6     1     3
Direct
  0.2520495677932075  0.5037828030061746  0.2520495677932075
  0.7479729790090985  0.0000000000000000  0.2520270209909015
  0.2525123163645659  0.0009697437185068  0.2525123163645659
  0.7474876836354341  0.9990302562814932  0.7474876836354341
  0.7479504322067925  0.4962171969938254  0.7479504322067925
  0.2520270209909015  0.0000000000000000  0.7479729790090985
  0.0000000000000000  0.0000000000000000  0.0000000000000000
  0.7507186684883393  0.5000000000000000  0.2492813315116535
  0.5000000000000000  0.0000000000000000  0.5000000000000000
  0.2492813315116535  0.5000000000000000  0.7507186684883393
 
  0.00000000E+00  0.00000000E+00  0.00000000E+00
  0.00000000E+00  0.00000000E+00  0.00000000E+00
  0.00000000E+00  0.00000000E+00  0.00000000E+00
  0.00000000E+00  0.00000000E+00  0.00000000E+00
  0.00000000E+00  0.00000000E+00  0.00000000E+00
  0.00000000E+00  0.00000000E+00  0.00000000E+00
  0.00000000E+00  0.00000000E+00  0.00000000E+00
  0.00000000E+00  0.00000000E+00  0.00000000E+00
  0.00000000E+00  0.00000000E+00  0.00000000E+00
  0.00000000E+00  0.00000000E+00  0.00000000E+00
