Sr28 In11                               
   1.0000000000000000     
     5.8376797442922888   -0.0000000130070683   -0.5020997050382495
    -0.0857595879492675    8.2120461837664038   -0.9970802363551484
    -0.0058479659710781   -0.0244441669344925   34.1189953439572875
   Sr   In
    28    11
Direct
  0.8178227982004600  0.9150816838821427  0.6356455964009200
  0.5595887011522294  0.2323628539887395  0.1191784023049678
  0.7243456915492601  0.2522113416663458  0.4486903831001570
  0.6371678823922622  0.1726118471867863  0.2743357647840554
  0.3238635653849400  0.2384941009310069  0.6477271307699439
  0.8532615565448936  0.5676498294873724  0.7065231130899718
  0.5436516480616831  0.6706496553188188  0.0873022961250811
  0.0000000000001208  0.5608453564860838  0.0000000000000000
  0.6169763185862038  0.5901105170100891  0.2339516371720478
  0.9169706625399883  0.5339709205014458  0.8339423250780840
  0.2623946579007068  0.2570550520976624  0.5247893158024439
  0.2756543084507967  0.8035209585662173  0.5513096168998501
  0.9036883997132463  0.9932430792599618  0.8073757994275255
  0.3628321176077307  0.8982770824027426  0.7256642352159446
  0.4563483519382885  0.5833473591937377  0.9126977038749189
  0.6761364346134684  0.5907669701610416  0.3522728692300561
  0.4404112988474438  0.1131844516837859  0.8808215976950322
  0.1467384434564849  0.8611277163974052  0.2934778869100185
  0.0963116002872795  0.1858672798324577  0.1926242005724745
  0.7935884057848099  0.4696180137013641  0.5871768115672893
  0.3830236814132988  0.3561588798380484  0.7660483628279522
  0.5000000000008669  0.2453236058460675  0.0000000000000000
  0.7376053420994566  0.7322667362952160  0.4752106841975561
  0.9700107552026367  0.9296436470950269  0.9400215104043781
  0.0830293374599407  0.7000285954233618  0.1660576749219160
  0.2064115942160214  0.8824412021340748  0.4128231884327107
  0.1821772017993766  0.2794360874812298  0.3643544035990800
  0.0299892447962691  0.9896231366906250  0.0599784895956219
  0.6801900337027718  0.0020773524066584  0.3603800674053161
  0.1394411125998829  0.4485134523621923  0.2788822252009169
  0.7729906436788312  0.0635450044568557  0.5459822873587115
  0.9566369185521779  0.3148239689526591  0.9132738371039721
  0.3198099662970364  0.6416982850013326  0.6396199325946839
  0.8605588873999963  0.1696302271612780  0.7211177747990831
  0.0433630814481276  0.4015511318486631  0.0867261628960350
  0.5909361907063015  0.9321899841009724  0.1818713814138633
  0.4090638092937766  0.7503186026871020  0.8181286185861367
  0.2270093563209201  0.5175627170981514  0.4540177126412885
  0.5000000000000497  0.8371703133653625  0.0000000000000000

  0.00000000E+00  0.00000000E+00  0.00000000E+00
  0.00000000E+00  0.00000000E+00  0.00000000E+00
  0.00000000E+00  0.00000000E+00  0.00000000E+00
  0.00000000E+00  0.00000000E+00  0.00000000E+00
  0.00000000E+00  0.00000000E+00  0.00000000E+00
  0.00000000E+00  0.00000000E+00  0.00000000E+00
  0.00000000E+00  0.00000000E+00  0.00000000E+00
  0.00000000E+00  0.00000000E+00  0.00000000E+00
  0.00000000E+00  0.00000000E+00  0.00000000E+00
  0.00000000E+00  0.00000000E+00  0.00000000E+00
  0.00000000E+00  0.00000000E+00  0.00000000E+00
  0.00000000E+00  0.00000000E+00  0.00000000E+00
  0.00000000E+00  0.00000000E+00  0.00000000E+00
  0.00000000E+00  0.00000000E+00  0.00000000E+00
  0.00000000E+00  0.00000000E+00  0.00000000E+00
  0.00000000E+00  0.00000000E+00  0.00000000E+00
  0.00000000E+00  0.00000000E+00  0.00000000E+00
  0.00000000E+00  0.00000000E+00  0.00000000E+00
  0.00000000E+00  0.00000000E+00  0.00000000E+00
  0.00000000E+00  0.00000000E+00  0.00000000E+00
  0.00000000E+00  0.00000000E+00  0.00000000E+00
  0.00000000E+00  0.00000000E+00  0.00000000E+00
  0.00000000E+00  0.00000000E+00  0.00000000E+00
  0.00000000E+00  0.00000000E+00  0.00000000E+00
  0.00000000E+00  0.00000000E+00  0.00000000E+00
  0.00000000E+00  0.00000000E+00  0.00000000E+00
  0.00000000E+00  0.00000000E+00  0.00000000E+00
  0.00000000E+00  0.00000000E+00  0.00000000E+00
  0.00000000E+00  0.00000000E+00  0.00000000E+00
  0.00000000E+00  0.00000000E+00  0.00000000E+00
  0.00000000E+00  0.00000000E+00  0.00000000E+00
  0.00000000E+00  0.00000000E+00  0.00000000E+00
  0.00000000E+00  0.00000000E+00  0.00000000E+00
  0.00000000E+00  0.00000000E+00  0.00000000E+00
  0.00000000E+00  0.00000000E+00  0.00000000E+00
  0.00000000E+00  0.00000000E+00  0.00000000E+00
  0.00000000E+00  0.00000000E+00  0.00000000E+00
  0.00000000E+00  0.00000000E+00  0.00000000E+00
  0.00000000E+00  0.00000000E+00  0.00000000E+00
