Sr4 B2 Br10                             
   1.00000000000000     
     8.8492654886142095   -0.0069991399567112   -0.4033255936142573
    -0.0213061367732545    8.9563375557729685   -0.5080905127127625
     4.0933083769307936    4.0700377931107896    7.7584189138436725
   Br   Sr   B 
    10     4     2
Direct
  0.0000464206955897  0.0330829821750243  0.9544665790631299
  0.4929250194839838  0.5113552931891192  0.9629929789484066
  0.5523913270733871  0.0535552001691997  0.1728480186453822
  0.0447929000972209  0.3123152752371894  0.1800867985663146
  0.7398172230689397  0.5644935716372572  0.2379377353533698
  0.2346607094136033  0.7590839624839987  0.2402956272498216
  0.8252852870479828  0.3782947053577814  0.6703523319832954
  0.3092520733618400  0.3957558701505590  0.6820820352067045
  0.9633427647070647  0.7093589030413057  0.7775609258764717
  0.4630147801405613  0.9838982743312883  0.7772275804855298
  0.2962527994651367  0.1342316922451090  0.0301666611613882
  0.7957002106850197  0.3573284809299082  0.0288389221278962
  0.1416048322283245  0.6943892544319681  0.0028812913914749
  0.6367547836231253  0.8109890972823237  0.0025454018276818
  0.2403104313063551  0.1986960477121187  0.6480658179636549
  0.7635484376018695  0.6028713896258466  0.6316512941494992
 
  0.00000000E+00  0.00000000E+00  0.00000000E+00
  0.00000000E+00  0.00000000E+00  0.00000000E+00
  0.00000000E+00  0.00000000E+00  0.00000000E+00
  0.00000000E+00  0.00000000E+00  0.00000000E+00
  0.00000000E+00  0.00000000E+00  0.00000000E+00
  0.00000000E+00  0.00000000E+00  0.00000000E+00
  0.00000000E+00  0.00000000E+00  0.00000000E+00
  0.00000000E+00  0.00000000E+00  0.00000000E+00
  0.00000000E+00  0.00000000E+00  0.00000000E+00
  0.00000000E+00  0.00000000E+00  0.00000000E+00
  0.00000000E+00  0.00000000E+00  0.00000000E+00
  0.00000000E+00  0.00000000E+00  0.00000000E+00
  0.00000000E+00  0.00000000E+00  0.00000000E+00
  0.00000000E+00  0.00000000E+00  0.00000000E+00
  0.00000000E+00  0.00000000E+00  0.00000000E+00
  0.00000000E+00  0.00000000E+00  0.00000000E+00
