Ba2 Al7                                 
   1.00000000000000     
     6.2448376809204085   -0.0023444237780268    0.0000301380359945
    -3.1249111435690931    5.4067618028397924   -0.0000291094825186
     0.0001940850551806   -0.0001102722369400    6.3583505197060726
   Al   Ba
     7     2
Direct
  0.1728688434320276  0.3452344589255816  0.1529579124697165
  0.1723532663256151  0.8276487242403832  0.1527159314256323
  0.6547642540555856  0.8271315004293882  0.1529592129647739
  0.0000000000000000  0.0000000000000000  0.5000000000000000
  0.3452357459444144  0.1728684995706118  0.8470407870352261
  0.8276467336743849  0.1723512757596168  0.8472840685743677
  0.8271311565679724  0.6547655410744184  0.8470420875302835
  0.6667261239154385  0.3332748172330113  0.3658810338794893
  0.3332738760845615  0.6667251827669887  0.6341189661205107
 
  0.00000000E+00  0.00000000E+00  0.00000000E+00
  0.00000000E+00  0.00000000E+00  0.00000000E+00
  0.00000000E+00  0.00000000E+00  0.00000000E+00
  0.00000000E+00  0.00000000E+00  0.00000000E+00
  0.00000000E+00  0.00000000E+00  0.00000000E+00
  0.00000000E+00  0.00000000E+00  0.00000000E+00
  0.00000000E+00  0.00000000E+00  0.00000000E+00
  0.00000000E+00  0.00000000E+00  0.00000000E+00
  0.00000000E+00  0.00000000E+00  0.00000000E+00
