Mg10 B38                                
   1.00000000000000     
     4.5687727312628459   -0.0003150305400889    0.8971412904441780
    -2.2808424376551439    3.8908172286558367   -0.9325296154103431
     5.0136388425117975   -3.0948039810578449   28.7194809475929169
   Mg   B 
    10    38
Direct
  0.1304217574754745  0.7959652664060854  0.0753991703097796
  0.4343423185191071  0.7178196718230154  0.1485309959720809
  0.1111281621565396  0.8327375972674389  0.3193751952557875
  0.3291455770847591  0.6342847269405709  0.3832897373294557
  0.3000860639477807  0.6816694578640607  0.4778100595871848
  0.5315947416036622  0.4959946223122671  0.5385998660731985
  0.7656506505868563  0.2860748835328053  0.6306476587828627
  0.7614788467023530  0.2076271355424524  0.7331956094851222
  0.7552597148543327  0.3240829086674637  0.8523665308009072
  0.8539555315354264  0.1265729920228367  0.9561053470099097
  0.9806091192112447  0.8704146090259925  0.0052303202474917
  0.5938755389511883  0.3259756931502551  0.0549602482201266
  0.2377364299916280  0.3015514689676806  0.0516136915656560
  0.6059233418905947  0.6802193397569454  0.0536326486341920
  0.8089450416771982  0.1151241141668393  0.0504056709146781
  0.7493451780758278  0.4938727443687938  0.1840260826957731
  0.9218456513201900  0.2617753439106636  0.1930302034842839
  0.9825970296343627  0.8825726225418080  0.1652710574346372
  0.3047651822941262  0.2672579179393963  0.1918751635748919
  0.9022309471181345  0.9845051377827119  0.2269244580571197
  0.5601379485951554  0.3883320879004728  0.2406005692939814
  0.0831212158369894  0.2269282067506069  0.2840012061646462
  0.7124747014094197  0.2239453928271118  0.2839042733193082
  0.7078441340951258  0.8544182313033701  0.2841482712596815
  0.4783497531069116  0.4510138228162290  0.3008033955852198
  0.0170759525177644  0.9665300722254955  0.4190532471559720
  0.7960061296028300  0.5744519794195639  0.4440622656742192
  0.7968658219748264  0.1793924831112079  0.4281758649837855
  0.4096035357953198  0.1853314293138268  0.4434720697895784
  0.9996663820965139  0.9933691959512601  0.4823433886582720
  0.4042206987629555  0.9849566692213969  0.5612948375769236
  0.0438526017986618  0.6253565664474081  0.5616017999053540
  0.0507268805619887  0.9789524901596423  0.5600229465639259
  0.8494028415907877  0.1737014454012424  0.5469478028675994
  0.4702426069214454  0.5280481385793152  0.7042437576839831
  0.8987926395879313  0.7217685477832347  0.7040893437214706
  0.2594882211369907  0.7123069474166215  0.6970281254987327
  0.2750769695151618  0.0928458666072487  0.6998378068342674
  0.0452170316981011  0.9865771437194013  0.7615357797092841
  0.2800454888929167  0.4222928702003088  0.7658925486412116
  0.2767404868033481  0.8046973166527422  0.8118294774195007
  0.2808636974552599  0.1738303397933336  0.8104685134547580
  0.9050570536069245  0.8115535705089982  0.8143477457916504
  0.4766550195100479  0.6187563666894889  0.8214789003810381
  0.2177832606978782  0.7623536325515943  0.9498397810032699
  0.4261558940624610  0.1811210560992791  0.9413093922900657
  0.4324670146787213  0.5342127673369816  0.9405988735988942
  0.7851291930567328  0.5558571092225009  0.9438782997383086
 
  0.00000000E+00  0.00000000E+00  0.00000000E+00
  0.00000000E+00  0.00000000E+00  0.00000000E+00
  0.00000000E+00  0.00000000E+00  0.00000000E+00
  0.00000000E+00  0.00000000E+00  0.00000000E+00
  0.00000000E+00  0.00000000E+00  0.00000000E+00
  0.00000000E+00  0.00000000E+00  0.00000000E+00
  0.00000000E+00  0.00000000E+00  0.00000000E+00
  0.00000000E+00  0.00000000E+00  0.00000000E+00
  0.00000000E+00  0.00000000E+00  0.00000000E+00
  0.00000000E+00  0.00000000E+00  0.00000000E+00
  0.00000000E+00  0.00000000E+00  0.00000000E+00
  0.00000000E+00  0.00000000E+00  0.00000000E+00
  0.00000000E+00  0.00000000E+00  0.00000000E+00
  0.00000000E+00  0.00000000E+00  0.00000000E+00
  0.00000000E+00  0.00000000E+00  0.00000000E+00
  0.00000000E+00  0.00000000E+00  0.00000000E+00
  0.00000000E+00  0.00000000E+00  0.00000000E+00
  0.00000000E+00  0.00000000E+00  0.00000000E+00
  0.00000000E+00  0.00000000E+00  0.00000000E+00
  0.00000000E+00  0.00000000E+00  0.00000000E+00
  0.00000000E+00  0.00000000E+00  0.00000000E+00
  0.00000000E+00  0.00000000E+00  0.00000000E+00
  0.00000000E+00  0.00000000E+00  0.00000000E+00
  0.00000000E+00  0.00000000E+00  0.00000000E+00
  0.00000000E+00  0.00000000E+00  0.00000000E+00
  0.00000000E+00  0.00000000E+00  0.00000000E+00
  0.00000000E+00  0.00000000E+00  0.00000000E+00
  0.00000000E+00  0.00000000E+00  0.00000000E+00
  0.00000000E+00  0.00000000E+00  0.00000000E+00
  0.00000000E+00  0.00000000E+00  0.00000000E+00
  0.00000000E+00  0.00000000E+00  0.00000000E+00
  0.00000000E+00  0.00000000E+00  0.00000000E+00
  0.00000000E+00  0.00000000E+00  0.00000000E+00
  0.00000000E+00  0.00000000E+00  0.00000000E+00
  0.00000000E+00  0.00000000E+00  0.00000000E+00
  0.00000000E+00  0.00000000E+00  0.00000000E+00
  0.00000000E+00  0.00000000E+00  0.00000000E+00
  0.00000000E+00  0.00000000E+00  0.00000000E+00
  0.00000000E+00  0.00000000E+00  0.00000000E+00
  0.00000000E+00  0.00000000E+00  0.00000000E+00
  0.00000000E+00  0.00000000E+00  0.00000000E+00
  0.00000000E+00  0.00000000E+00  0.00000000E+00
  0.00000000E+00  0.00000000E+00  0.00000000E+00
  0.00000000E+00  0.00000000E+00  0.00000000E+00
  0.00000000E+00  0.00000000E+00  0.00000000E+00
  0.00000000E+00  0.00000000E+00  0.00000000E+00
  0.00000000E+00  0.00000000E+00  0.00000000E+00
  0.00000000E+00  0.00000000E+00  0.00000000E+00
