Ca6 Al4 Br24                            
   1.00000000000000     
    12.4787259773023802   -0.0104772566941902    0.0000000000000000
     0.0123049090274055   14.5756773271538105    0.0000000000000000
     0.0000000000000000    0.0000000000000000    7.4112508975809304
   Br   Al   Ca
    24     4     6
Direct
  0.5698788704614088  0.2482845696895311  0.0000000000000000
  0.0482809764002781  0.1870335586712599  0.0000000000000000
  0.9300066300144394  0.7481742442305972  0.0000000000000000
  0.4517125446830832  0.6874900543303610  0.0000000000000000
  0.5436591163128028  0.0338747727933253  0.2539131348497818
  0.9564810972900517  0.5338708131807266  0.2540197105692812
  0.2220900006202271  0.0153542540227036  0.2316477697065125
  0.8224772711793662  0.3013226549131858  0.2366596685469844
  0.3107083696541295  0.2419581834689239  0.2355156616456284
  0.6197899900591679  0.4673311686970862  0.2288180229973378
  0.2781033137913766  0.5155673297345800  0.2316012987591662
  0.6774249109322170  0.8012035866746672  0.2367266545386144
  0.1890508928547590  0.7420082493854636  0.2354591246527988
  0.8800470084060734  0.9671923656931227  0.2288603683928088
  0.2220900006202271  0.0153542540227036  0.7683522302934875
  0.8224772711793662  0.3013226549131858  0.7633403314530156
  0.3107083696541295  0.2419581834689239  0.7644843383543716
  0.6197899900591679  0.4673311686970862  0.7711819770026622
  0.2781033137913766  0.5155673297345800  0.7683987012408409
  0.6774249109322170  0.8012035866746672  0.7632733454613856
  0.1890508928547590  0.7420082493854636  0.7645408753472012
  0.8800470084060734  0.9671923656931227  0.7711396316071912
  0.5436591163128028  0.0338747727933253  0.7460868651502182
  0.9564810972900517  0.5338708131807266  0.7459802894307330
  0.2230347325725006  0.1442643939296744  0.0000000000000000
  0.7075092935137235  0.3581426784930954  0.0000000000000000
  0.2771131998154743  0.6445005458775270  0.0000000000000000
  0.7923723505164801  0.8580364290218725  0.0000000000000000
  0.0731907605819373  0.9003054172007410  0.0000000000000000
  0.4266801242594411  0.4003357443927413  0.0000000000000000
  0.3911877580503358  0.0912086379978163  0.5000000000000000
  0.8108356637163894  0.4506102331644044  0.5000000000000000
  0.1089274656646708  0.5913086271804460  0.5000000000000000
  0.6892056875495314  0.9505381086923492  0.5000000000000000
 
  0.00000000E+00  0.00000000E+00  0.00000000E+00
  0.00000000E+00  0.00000000E+00  0.00000000E+00
  0.00000000E+00  0.00000000E+00  0.00000000E+00
  0.00000000E+00  0.00000000E+00  0.00000000E+00
  0.00000000E+00  0.00000000E+00  0.00000000E+00
  0.00000000E+00  0.00000000E+00  0.00000000E+00
  0.00000000E+00  0.00000000E+00  0.00000000E+00
  0.00000000E+00  0.00000000E+00  0.00000000E+00
  0.00000000E+00  0.00000000E+00  0.00000000E+00
  0.00000000E+00  0.00000000E+00  0.00000000E+00
  0.00000000E+00  0.00000000E+00  0.00000000E+00
  0.00000000E+00  0.00000000E+00  0.00000000E+00
  0.00000000E+00  0.00000000E+00  0.00000000E+00
  0.00000000E+00  0.00000000E+00  0.00000000E+00
  0.00000000E+00  0.00000000E+00  0.00000000E+00
  0.00000000E+00  0.00000000E+00  0.00000000E+00
  0.00000000E+00  0.00000000E+00  0.00000000E+00
  0.00000000E+00  0.00000000E+00  0.00000000E+00
  0.00000000E+00  0.00000000E+00  0.00000000E+00
  0.00000000E+00  0.00000000E+00  0.00000000E+00
  0.00000000E+00  0.00000000E+00  0.00000000E+00
  0.00000000E+00  0.00000000E+00  0.00000000E+00
  0.00000000E+00  0.00000000E+00  0.00000000E+00
  0.00000000E+00  0.00000000E+00  0.00000000E+00
  0.00000000E+00  0.00000000E+00  0.00000000E+00
  0.00000000E+00  0.00000000E+00  0.00000000E+00
  0.00000000E+00  0.00000000E+00  0.00000000E+00
  0.00000000E+00  0.00000000E+00  0.00000000E+00
  0.00000000E+00  0.00000000E+00  0.00000000E+00
  0.00000000E+00  0.00000000E+00  0.00000000E+00
  0.00000000E+00  0.00000000E+00  0.00000000E+00
  0.00000000E+00  0.00000000E+00  0.00000000E+00
  0.00000000E+00  0.00000000E+00  0.00000000E+00
  0.00000000E+00  0.00000000E+00  0.00000000E+00
