Mg17 B11 Br1                            
   1.00000000000000     
     7.8898205702826161   -3.5502731875099780    3.2797862028992539
     0.2811151415870117    6.8213588277148318    3.1658432015436855
    -7.8951900138670412   -3.3555804708237362    2.9303690241092224
   B    Br   Mg
    11     1    17
Direct
  0.7167022078060299  0.0524612812647689  0.0434385903216352
  0.3103053206207420  0.2964416829821488  0.2674584732096150
  0.3406066573029705  0.8840308908639116  0.2367899007002947
  0.9164008367101673  0.1816764338353352  0.1286968950177823
  0.1249566791864893  0.2971368429375545  0.2663317650513406
  0.3878664803890857  0.1133257889442234  0.2849499995381279
  0.0152076937254293  0.7929583732314853  0.7309943213853742
  0.8483477122866319  0.0419030533129288  0.7671331324639468
  0.7651139233734199  0.0471841397177073  0.8896465184778322
  0.9089196872085594  0.5669725532342085  0.6082592739650607
  0.0316933539962179  0.0193711747866416  0.7791191757458478
  0.8362324167625914  0.6240293255921969  0.0523671172604381
  0.9966096584116713  0.3760840102193796  0.9929532854661218
  0.2114667563443362  0.6560594614592006  0.9255096364046125
  0.2983351823609937  0.3029101239774548  0.9911409794433936
  0.5833087791283447  0.2757778453891220  0.9344849831398037
  0.0944312422177518  0.9889627030223238  0.0544238570644353
  0.7901703066433043  0.8153249062281844  0.4657109394579066
  0.0585559853446043  0.5328508895184640  0.4529644858912150
  0.5621808093601643  0.9750389282992060  0.1753575723717447
  0.9516425030461733  0.0190767150328455  0.3149102365269343
  0.3622844533637632  0.6289533884169245  0.3408342440608791
  0.6169833388096251  0.3897065285160082  0.3633439348982250
  0.2071840142340022  0.9933381458136594  0.6572692428559890
  0.9404887418285242  0.2591631408422685  0.6330094397926231
  0.7293235655227051  0.6736794881299772  0.7186860812061013
  0.4714309912725057  0.7904281832950915  0.7906913604327244
  0.5585892330139188  0.0517743814828933  0.5633619541952868
  0.3650754697293195  0.3515356196538946  0.5701626036547083
 
  0.00000000E+00  0.00000000E+00  0.00000000E+00
  0.00000000E+00  0.00000000E+00  0.00000000E+00
  0.00000000E+00  0.00000000E+00  0.00000000E+00
  0.00000000E+00  0.00000000E+00  0.00000000E+00
  0.00000000E+00  0.00000000E+00  0.00000000E+00
  0.00000000E+00  0.00000000E+00  0.00000000E+00
  0.00000000E+00  0.00000000E+00  0.00000000E+00
  0.00000000E+00  0.00000000E+00  0.00000000E+00
  0.00000000E+00  0.00000000E+00  0.00000000E+00
  0.00000000E+00  0.00000000E+00  0.00000000E+00
  0.00000000E+00  0.00000000E+00  0.00000000E+00
  0.00000000E+00  0.00000000E+00  0.00000000E+00
  0.00000000E+00  0.00000000E+00  0.00000000E+00
  0.00000000E+00  0.00000000E+00  0.00000000E+00
  0.00000000E+00  0.00000000E+00  0.00000000E+00
  0.00000000E+00  0.00000000E+00  0.00000000E+00
  0.00000000E+00  0.00000000E+00  0.00000000E+00
  0.00000000E+00  0.00000000E+00  0.00000000E+00
  0.00000000E+00  0.00000000E+00  0.00000000E+00
  0.00000000E+00  0.00000000E+00  0.00000000E+00
  0.00000000E+00  0.00000000E+00  0.00000000E+00
  0.00000000E+00  0.00000000E+00  0.00000000E+00
  0.00000000E+00  0.00000000E+00  0.00000000E+00
  0.00000000E+00  0.00000000E+00  0.00000000E+00
  0.00000000E+00  0.00000000E+00  0.00000000E+00
  0.00000000E+00  0.00000000E+00  0.00000000E+00
  0.00000000E+00  0.00000000E+00  0.00000000E+00
  0.00000000E+00  0.00000000E+00  0.00000000E+00
  0.00000000E+00  0.00000000E+00  0.00000000E+00
