Be16 Al12 Br1                           
   1.00000000000000     
     6.4567085973392535   -3.8542411928958837    2.9290833758356691
     0.5712948841750795    8.1365912258409363    2.1757415652917289
    -6.4799971419141631   -4.5527345481091297    2.0955006644104421
   Al   Br   Be
    12     1    16
Direct
  0.8032961237015925  0.6570126131022747  0.9174034843585446
  0.7566716742694766  0.0195549344981742  0.2144982643707749
  0.4665333858357386  0.4490257591469557  0.1699232055960564
  0.1754589109791311  0.7495717355964970  0.2026372864807584
  0.8617654997375794  0.4457922951767017  0.4545655610836619
  0.4780076636109527  0.1928193222095160  0.4467383432265279
  0.2573151235333526  0.3547852364855615  0.3480233048497539
  0.7884746403956626  0.9238119138487804  0.6381893106913807
  0.8897984135558161  0.7130993440440250  0.3262132343539932
  0.7540262810780973  0.2088719995711728  0.0081069733974815
  0.8960826635196284  0.3426681148292161  0.7498811373429604
  0.1506296025529323  0.1546364818342525  0.6919937337174247
  0.2709753940352613  0.9296039056937033  0.9205011108794849
  0.5316812021300663  0.3183615620488212  0.8477137353714070
  0.2721245381239186  0.5359825708111998  0.9543224584700312
  0.9435027118733572  0.0177094898883468  0.0059211080038750
  0.0980074474283228  0.3284421905753092  0.0365161022782843
  0.5960482803511482  0.6553623178088372  0.0781629415952239
  0.5243515275837893  0.8486997573442636  0.3035326865730568
  0.0857755332650143  0.5580760485517473  0.3376711962653900
  0.0894862784474668  0.0393744082401142  0.3051531445637607
  0.4100677873911991  0.7283857617317580  0.4799071707994997
  0.6391269611125097  0.5537994390233862  0.5388082779346419
  0.2960277407139600  0.9351690350942263  0.6457568384382384
  0.0890467843635463  0.3378499449943888  0.5641838012706017
  0.6130976261680630  0.7960179134430376  0.7930238757862682
  0.5690739795210646  0.0658299404435994  0.6299419421156998
  0.2781495041717861  0.6572316217167540  0.6636122697609252
  0.4145967205495182  0.4824553422474054  0.7270995004242664
 
  0.00000000E+00  0.00000000E+00  0.00000000E+00
  0.00000000E+00  0.00000000E+00  0.00000000E+00
  0.00000000E+00  0.00000000E+00  0.00000000E+00
  0.00000000E+00  0.00000000E+00  0.00000000E+00
  0.00000000E+00  0.00000000E+00  0.00000000E+00
  0.00000000E+00  0.00000000E+00  0.00000000E+00
  0.00000000E+00  0.00000000E+00  0.00000000E+00
  0.00000000E+00  0.00000000E+00  0.00000000E+00
  0.00000000E+00  0.00000000E+00  0.00000000E+00
  0.00000000E+00  0.00000000E+00  0.00000000E+00
  0.00000000E+00  0.00000000E+00  0.00000000E+00
  0.00000000E+00  0.00000000E+00  0.00000000E+00
  0.00000000E+00  0.00000000E+00  0.00000000E+00
  0.00000000E+00  0.00000000E+00  0.00000000E+00
  0.00000000E+00  0.00000000E+00  0.00000000E+00
  0.00000000E+00  0.00000000E+00  0.00000000E+00
  0.00000000E+00  0.00000000E+00  0.00000000E+00
  0.00000000E+00  0.00000000E+00  0.00000000E+00
  0.00000000E+00  0.00000000E+00  0.00000000E+00
  0.00000000E+00  0.00000000E+00  0.00000000E+00
  0.00000000E+00  0.00000000E+00  0.00000000E+00
  0.00000000E+00  0.00000000E+00  0.00000000E+00
  0.00000000E+00  0.00000000E+00  0.00000000E+00
  0.00000000E+00  0.00000000E+00  0.00000000E+00
  0.00000000E+00  0.00000000E+00  0.00000000E+00
  0.00000000E+00  0.00000000E+00  0.00000000E+00
  0.00000000E+00  0.00000000E+00  0.00000000E+00
  0.00000000E+00  0.00000000E+00  0.00000000E+00
  0.00000000E+00  0.00000000E+00  0.00000000E+00
