Sr4 In4 Cl20                            
   1.0000000000000000     
     6.6071394577954567   -0.0000000000000001    0.0000000000000005
    -0.0000000000000005    7.3832000917584821    0.0000000000000005
     0.0000000000000003    0.0000000000000001   17.1336374955402206
   Sr   In   Cl
     4     4    20
Direct
  0.7574274729416430  0.3550697096739057  0.3782244861897794
  0.2574274729416430  0.1449302903260943  0.6217755138102206
  0.2425725270583499  0.8550697096739057  0.1217755138102206
  0.7425725270583499  0.6449302903260943  0.8782244861897794
  0.2627385844283410  0.8560022662171889  0.3995902361769765
  0.7627385844283410  0.6439977337828111  0.6004097638230093
  0.7372614155716590  0.3560022662171889  0.1004097638230164
  0.2372614155716590  0.1439977337828111  0.8995902361769765
  0.9105315560317635  0.6810834932945014  0.4589887002924229
  0.4105315560317564  0.8189165067054986  0.5410112997075771
  0.0894684439682365  0.1810834932945014  0.0410112997075771
  0.5894684439682365  0.3189165067054986  0.9589887002924229
  0.0652323722969541  0.8952884077915897  0.2765041818268301
  0.5652323722969541  0.6047115922084103  0.7234958181731699
  0.9347676277030459  0.3952884077915897  0.2234958181731699
  0.4347676277030459  0.1047115922084103  0.7765041818268301
  0.8982834322759601  0.6447925244299242  0.0446441573566929
  0.3982834322759601  0.8552074755700758  0.9553558426433071
  0.1017165677240399  0.1447925244299242  0.4553558426433142
  0.6017165677240399  0.3552074755700758  0.5446441573566858
  0.4323088538161173  0.5126263846396810  0.1496926397173155
  0.9323088538161173  0.9873736153603190  0.8503073602826845
  0.5676911461838827  0.0126263846396810  0.3503073602826845
  0.0676911461838827  0.4873736153603190  0.6496926397173155
  0.1335275099133426  0.4558016511040819  0.8639096883901161
  0.6335275099133426  0.0441983488959181  0.1360903116098839
  0.8664724900866574  0.9558016511040819  0.6360903116098839
  0.3664724900866574  0.5441983488959181  0.3639096883901161

  0.00000000E+00  0.00000000E+00  0.00000000E+00
  0.00000000E+00  0.00000000E+00  0.00000000E+00
  0.00000000E+00  0.00000000E+00  0.00000000E+00
  0.00000000E+00  0.00000000E+00  0.00000000E+00
  0.00000000E+00  0.00000000E+00  0.00000000E+00
  0.00000000E+00  0.00000000E+00  0.00000000E+00
  0.00000000E+00  0.00000000E+00  0.00000000E+00
  0.00000000E+00  0.00000000E+00  0.00000000E+00
  0.00000000E+00  0.00000000E+00  0.00000000E+00
  0.00000000E+00  0.00000000E+00  0.00000000E+00
  0.00000000E+00  0.00000000E+00  0.00000000E+00
  0.00000000E+00  0.00000000E+00  0.00000000E+00
  0.00000000E+00  0.00000000E+00  0.00000000E+00
  0.00000000E+00  0.00000000E+00  0.00000000E+00
  0.00000000E+00  0.00000000E+00  0.00000000E+00
  0.00000000E+00  0.00000000E+00  0.00000000E+00
  0.00000000E+00  0.00000000E+00  0.00000000E+00
  0.00000000E+00  0.00000000E+00  0.00000000E+00
  0.00000000E+00  0.00000000E+00  0.00000000E+00
  0.00000000E+00  0.00000000E+00  0.00000000E+00
  0.00000000E+00  0.00000000E+00  0.00000000E+00
  0.00000000E+00  0.00000000E+00  0.00000000E+00
  0.00000000E+00  0.00000000E+00  0.00000000E+00
  0.00000000E+00  0.00000000E+00  0.00000000E+00
  0.00000000E+00  0.00000000E+00  0.00000000E+00
  0.00000000E+00  0.00000000E+00  0.00000000E+00
  0.00000000E+00  0.00000000E+00  0.00000000E+00
  0.00000000E+00  0.00000000E+00  0.00000000E+00
