SrB2Cl8                                 
   1.00000000000000     
     7.8094750563723316   -0.1124537317994127    0.5795765100853060
    -1.6707446436415174    7.4169120409719191    0.5218621510187137
    -2.0497807350312303   -2.5212314279172401   10.1494538623834902
   B    Cl   Sr
     4    16     2
Direct
  0.8699997159572703  0.0963731785956625  0.2013327318194769
  0.3851017798398360  0.6132013932427185  0.2800852021742557
  0.6142712589848003  0.3870845620741363  0.7198542269995301
  0.1305393586593198  0.9033849036114603  0.7985641837859916
  0.6690979458361852  0.9419826274182199  0.0894290411461043
  0.0235217327477386  0.2136877675509936  0.1010952926964919
  0.5220511438677207  0.4983818392649653  0.1820986499731205
  0.2178932632738153  0.6822182467656077  0.1701625622525569
  0.7844944795563933  0.2560575235591287  0.3075234618728402
  0.9868912305794382  0.9612526083811090  0.2986594040154316
  0.5222564621764931  0.8280089533505191  0.3839796129276323
  0.2832138832120350  0.4515227322376063  0.3835073276013432
  0.7161846471502429  0.5490451138774191  0.6165762741336422
  0.4774248655993745  0.1723728285312944  0.6157995211570366
  0.0135994440254947  0.0397492022227439  0.7024480221641198
  0.2155942499316481  0.7445635493148544  0.6913550468748753
  0.7815069853791314  0.3180543684861163  0.8297743542310201
  0.4772737436432379  0.5016968489355591  0.8179609436475914
  0.9774040341835502  0.7851109548984709  0.8985408131033452
  0.3319575044104397  0.0568404676368601  0.9107001374050014
  0.3635918679631871  0.1038624255481579  0.2250994570937266
  0.6364304030226648  0.8962479044963985  0.7754537329248663
 
  0.00000000E+00  0.00000000E+00  0.00000000E+00
  0.00000000E+00  0.00000000E+00  0.00000000E+00
  0.00000000E+00  0.00000000E+00  0.00000000E+00
  0.00000000E+00  0.00000000E+00  0.00000000E+00
  0.00000000E+00  0.00000000E+00  0.00000000E+00
  0.00000000E+00  0.00000000E+00  0.00000000E+00
  0.00000000E+00  0.00000000E+00  0.00000000E+00
  0.00000000E+00  0.00000000E+00  0.00000000E+00
  0.00000000E+00  0.00000000E+00  0.00000000E+00
  0.00000000E+00  0.00000000E+00  0.00000000E+00
  0.00000000E+00  0.00000000E+00  0.00000000E+00
  0.00000000E+00  0.00000000E+00  0.00000000E+00
  0.00000000E+00  0.00000000E+00  0.00000000E+00
  0.00000000E+00  0.00000000E+00  0.00000000E+00
  0.00000000E+00  0.00000000E+00  0.00000000E+00
  0.00000000E+00  0.00000000E+00  0.00000000E+00
  0.00000000E+00  0.00000000E+00  0.00000000E+00
  0.00000000E+00  0.00000000E+00  0.00000000E+00
  0.00000000E+00  0.00000000E+00  0.00000000E+00
  0.00000000E+00  0.00000000E+00  0.00000000E+00
  0.00000000E+00  0.00000000E+00  0.00000000E+00
  0.00000000E+00  0.00000000E+00  0.00000000E+00
