Ca1 Tl2 I10                             
   1.0000000000000000     
     4.8907174801676812    6.9744864941092244   -0.1586224713704973
    -4.8907174801676812    6.9744864941092244   -0.1586224713704973
     0.0000000000000000    4.7242492664514328    9.9853150262748684
   Ca   Tl   I 
     1     2    10
Direct
  0.5769479829839668  0.4230520170160332  0.0000000000000000
  0.9997724101251961  0.8467924825475350  0.7985002671976531
  0.1532075174524650  0.0002275898748039  0.2014997328023469
  0.1076661640315848  0.3535850403690617  0.6136527249256076
  0.6464149596309383  0.8923338359684152  0.3863472750743924
  0.8202754104446512  0.6054729168285036  0.0322077513605663
  0.3945270831714964  0.1797245895553488  0.9677922486394337
  0.9114529828739606  0.0885470171260394  0.0000000000000000
  0.0433928647943844  0.9566071352056156  0.5000000000000000
  0.7589378443259491  0.5191279314688089  0.6809514202525691
  0.4808720685311911  0.2410621556740509  0.3190485797474309
  0.3926936257615026  0.7421619141272799  0.7966003092109020
  0.2578380858727201  0.6073063742384974  0.2033996907890980

  0.00000000E+00  0.00000000E+00  0.00000000E+00
  0.00000000E+00  0.00000000E+00  0.00000000E+00
  0.00000000E+00  0.00000000E+00  0.00000000E+00
  0.00000000E+00  0.00000000E+00  0.00000000E+00
  0.00000000E+00  0.00000000E+00  0.00000000E+00
  0.00000000E+00  0.00000000E+00  0.00000000E+00
  0.00000000E+00  0.00000000E+00  0.00000000E+00
  0.00000000E+00  0.00000000E+00  0.00000000E+00
  0.00000000E+00  0.00000000E+00  0.00000000E+00
  0.00000000E+00  0.00000000E+00  0.00000000E+00
  0.00000000E+00  0.00000000E+00  0.00000000E+00
  0.00000000E+00  0.00000000E+00  0.00000000E+00
  0.00000000E+00  0.00000000E+00  0.00000000E+00
