I4                                      
   1.00000000000000     
    -0.0000002874426940   -4.6110344942874990    0.0000000000000001
    -4.5697610615092055    2.3055159504104226    0.0000000000000000
     0.0000000000000000   -0.0000000000000001   -9.8347445362361992
   I 
     4
Direct
  0.8411195912965184  0.0000000000035101  0.3781302670738782
  0.1588804087034816  0.9999999999964899  0.6218697329261218
  0.6588804087034816  0.9999999999964899  0.8781302670738782
  0.3411195912965184  0.0000000000035101  0.1218697329261218
 
  0.00000000E+00  0.00000000E+00  0.00000000E+00
  0.00000000E+00  0.00000000E+00  0.00000000E+00
  0.00000000E+00  0.00000000E+00  0.00000000E+00
  0.00000000E+00  0.00000000E+00  0.00000000E+00
