Ba1 Tl2 I8                              
   1.0000000000000000     
     4.5363873978454787   10.7820933697364367    2.0424193986465387
    -4.5363873978454787   10.7820933697364367    2.0424193986465387
     0.0000000000000000    4.5690739347887064    7.0275612018459706
   Ba   Tl   I 
     1     2     8
Direct
  0.0000000000000000  0.0000000000000000  0.0000000000000000
  0.3311381160893347  0.3311381160893347  0.6831479063021959
  0.6688618839106653  0.6688618839106653  0.3168520936978112
  0.6202184008968814  0.1005869204991043  0.4430340263693822
  0.8513710598386197  0.8513710598386197  0.9584438099610608
  0.1005869204991043  0.6202184008968814  0.4430340263693822
  0.3959081952611925  0.3959081952611925  0.8718173182487874
  0.8994130795008957  0.3797815991031186  0.5569659736306178
  0.3797815991031186  0.8994130795008957  0.5569659736306178
  0.1486289401613803  0.1486289401613803  0.0415561900389321
  0.6040918047388075  0.6040918047388075  0.1281826817512126

  0.00000000E+00  0.00000000E+00  0.00000000E+00
  0.00000000E+00  0.00000000E+00  0.00000000E+00
  0.00000000E+00  0.00000000E+00  0.00000000E+00
  0.00000000E+00  0.00000000E+00  0.00000000E+00
  0.00000000E+00  0.00000000E+00  0.00000000E+00
  0.00000000E+00  0.00000000E+00  0.00000000E+00
  0.00000000E+00  0.00000000E+00  0.00000000E+00
  0.00000000E+00  0.00000000E+00  0.00000000E+00
  0.00000000E+00  0.00000000E+00  0.00000000E+00
  0.00000000E+00  0.00000000E+00  0.00000000E+00
  0.00000000E+00  0.00000000E+00  0.00000000E+00
