Be2 Al2 F10                             
   1.00000000000000     
     4.4525313164217701   -0.6408058561759079    1.7699864404713059
     0.3505076183205484    4.4847308305388500    1.7699863455430009
     0.0470835892991703    0.0376828948687720    6.9536437515523515
   Be   Al   F 
     2     2    10
Direct
  0.6000661518495605  0.3999338486918163  0.2500000000203002
  0.3999338481504395  0.6000661513081837  0.7499999999796998
  0.0000000000000000  0.0000000000000000  0.5000000000000000
  0.0000000000000000  0.0000000000000000  0.0000000000000000
  0.7389635386033859  0.6762066940827580  0.6580684161051735
  0.3237933063490033  0.2610354611626065  0.8419315839536665
  0.2610354613966166  0.3237933059172420  0.3419325838948311
  0.6762066936509967  0.7389635388373961  0.1580684160463335
  0.9257226185455565  0.0742773814281890  0.7500000000146869
  0.0742773814544435  0.9257226185718110  0.2499999999853131
  0.7615023089324282  0.2896532533476233  0.0545722857381605
  0.7103467466089626  0.2384976908771037  0.4454277149620651
  0.2384976910675718  0.7103467466523767  0.9454277142618324
  0.2896532533910303  0.7615023091228963  0.5545722850379349
 
  0.00000000E+00  0.00000000E+00  0.00000000E+00
  0.00000000E+00  0.00000000E+00  0.00000000E+00
  0.00000000E+00  0.00000000E+00  0.00000000E+00
  0.00000000E+00  0.00000000E+00  0.00000000E+00
  0.00000000E+00  0.00000000E+00  0.00000000E+00
  0.00000000E+00  0.00000000E+00  0.00000000E+00
  0.00000000E+00  0.00000000E+00  0.00000000E+00
  0.00000000E+00  0.00000000E+00  0.00000000E+00
  0.00000000E+00  0.00000000E+00  0.00000000E+00
  0.00000000E+00  0.00000000E+00  0.00000000E+00
  0.00000000E+00  0.00000000E+00  0.00000000E+00
  0.00000000E+00  0.00000000E+00  0.00000000E+00
  0.00000000E+00  0.00000000E+00  0.00000000E+00
  0.00000000E+00  0.00000000E+00  0.00000000E+00
