Mg8 In4 F28                             
   1.00000000000000     
     6.0530113529540621    0.0002345909703924    0.5109053138211179
    -0.0002458975371305   11.0088686372129185    0.0001902188429907
     0.7352030089142655    0.0003593260863588    6.9626670473177121
   Mg   F    In
     8    28     4
Direct
  0.3743877373452378  0.7188351467189875  0.1094465024771551
  0.3464712187320629  0.0384144887596065  0.1866910273923494
  0.6535705906648275  0.5384193730201190  0.3133292697494241
  0.6256493198554978  0.2188305998808957  0.3905727116999742
  0.3743799701554096  0.7811495052021158  0.6094385635531410
  0.3464632322743668  0.4615598889349215  0.6866812834302678
  0.6535573888809267  0.9615655354969377  0.8133172220993359
  0.6256409993317931  0.2811456927221840  0.8905663079931330
  0.7072674001405446  0.6627182880119378  0.0896892481186882
  0.8471867066098824  0.9009782651383276  0.9889724179315138
  0.4106773482844872  0.8919288766727007  0.0167508946559281
  0.8833676033477431  0.4496001925064377  0.1474515312998932
  0.5140439199761744  0.3047553277105806  0.1717457316234601
  0.9379300535742985  0.2335321731927351  0.2970600248798476
  0.3641375073796382  0.5366599287236653  0.1788765646666022
  0.6359075176724502  0.0366596775440797  0.3211371861193442
  0.0621047184672108  0.7335319789721311  0.2029492034520928
  0.4860081702228243  0.8047557301471997  0.3282605434164765
  0.1166821975839127  0.9495817326711204  0.3525744237709816
  0.5893600543055229  0.3919255952397052  0.4832607603788475
  0.1528530919003401  0.4009634806316953  0.5110332481204267
  0.2927669827517292  0.1627103185647556  0.4103145936321155
  0.7072620561586618  0.8372682391100810  0.5896940940834696
  0.8471827694622860  0.5990132862501838  0.4889780582490033
  0.4106776155753593  0.6080549474800634  0.5167505967046893
  0.8833479711849179  0.0503968341588319  0.6474319730572660
  0.5140169794397025  0.1952263976357003  0.6717506750045956
  0.9379223269235553  0.2664474612958116  0.7970607100943568
  0.3641233800461521  0.9633206600097637  0.6788701852637828
  0.6358917987243728  0.4633198851774480  0.8211353020258230
  0.0620985521382380  0.7664490852507058  0.7029498624201480
  0.4859863684929806  0.6952267177485609  0.8282671382224294
  0.1166667755979631  0.5503816858432771  0.8525545705182083
  0.5893518894379568  0.1080522111372915  0.9832579219319157
  0.1528391305591867  0.0989992804934232  0.0110356679359782
  0.2927606675746475  0.3372608211295329  0.9103234696392661
  0.1666915747308835  0.3737569337601627  0.2166182712350206
  0.8333573621423724  0.8737592454561351  0.2833899564893514
  0.1666706799083286  0.1262207597442071  0.7166188532599875
  0.8333383724455246  0.6262237518560170  0.7833934334037238
 
  0.00000000E+00  0.00000000E+00  0.00000000E+00
  0.00000000E+00  0.00000000E+00  0.00000000E+00
  0.00000000E+00  0.00000000E+00  0.00000000E+00
  0.00000000E+00  0.00000000E+00  0.00000000E+00
  0.00000000E+00  0.00000000E+00  0.00000000E+00
  0.00000000E+00  0.00000000E+00  0.00000000E+00
  0.00000000E+00  0.00000000E+00  0.00000000E+00
  0.00000000E+00  0.00000000E+00  0.00000000E+00
  0.00000000E+00  0.00000000E+00  0.00000000E+00
  0.00000000E+00  0.00000000E+00  0.00000000E+00
  0.00000000E+00  0.00000000E+00  0.00000000E+00
  0.00000000E+00  0.00000000E+00  0.00000000E+00
  0.00000000E+00  0.00000000E+00  0.00000000E+00
  0.00000000E+00  0.00000000E+00  0.00000000E+00
  0.00000000E+00  0.00000000E+00  0.00000000E+00
  0.00000000E+00  0.00000000E+00  0.00000000E+00
  0.00000000E+00  0.00000000E+00  0.00000000E+00
  0.00000000E+00  0.00000000E+00  0.00000000E+00
  0.00000000E+00  0.00000000E+00  0.00000000E+00
  0.00000000E+00  0.00000000E+00  0.00000000E+00
  0.00000000E+00  0.00000000E+00  0.00000000E+00
  0.00000000E+00  0.00000000E+00  0.00000000E+00
  0.00000000E+00  0.00000000E+00  0.00000000E+00
  0.00000000E+00  0.00000000E+00  0.00000000E+00
  0.00000000E+00  0.00000000E+00  0.00000000E+00
  0.00000000E+00  0.00000000E+00  0.00000000E+00
  0.00000000E+00  0.00000000E+00  0.00000000E+00
  0.00000000E+00  0.00000000E+00  0.00000000E+00
  0.00000000E+00  0.00000000E+00  0.00000000E+00
  0.00000000E+00  0.00000000E+00  0.00000000E+00
  0.00000000E+00  0.00000000E+00  0.00000000E+00
  0.00000000E+00  0.00000000E+00  0.00000000E+00
  0.00000000E+00  0.00000000E+00  0.00000000E+00
  0.00000000E+00  0.00000000E+00  0.00000000E+00
  0.00000000E+00  0.00000000E+00  0.00000000E+00
  0.00000000E+00  0.00000000E+00  0.00000000E+00
  0.00000000E+00  0.00000000E+00  0.00000000E+00
  0.00000000E+00  0.00000000E+00  0.00000000E+00
  0.00000000E+00  0.00000000E+00  0.00000000E+00
  0.00000000E+00  0.00000000E+00  0.00000000E+00
