Ca1 B2 Cl6                              
   1.00000000000000     
     5.1285724971890883    5.7319327814808547    9.1964923638270335
    -5.1285724971890883    5.7319327814808547    9.1964923638270335
     0.0000000000000000   -0.5546170480509710    5.3489241627510813
   Ca   Cl   B 
     1     6     2
Direct
  0.0000000000000000  0.0000000000000000  0.0000000000000000
  0.6735092763494492  0.6735092763494492  0.2072834469308020
  0.7748554055831036  0.2297368954522696  0.2472845580293139
  0.2297368954522696  0.7748554055831036  0.2472845580293139
  0.3264907236505508  0.3264907236505508  0.7927165530691980
  0.7702631045477304  0.2251445944168964  0.7527154419706861
  0.2251445944168964  0.7702631045477304  0.7527154419706861
  0.2053137378150609  0.2053137378150609  0.2606282795617645
  0.7946862621849391  0.7946862621849391  0.7393717204382355
 
  0.00000000E+00  0.00000000E+00  0.00000000E+00
  0.00000000E+00  0.00000000E+00  0.00000000E+00
  0.00000000E+00  0.00000000E+00  0.00000000E+00
  0.00000000E+00  0.00000000E+00  0.00000000E+00
  0.00000000E+00  0.00000000E+00  0.00000000E+00
  0.00000000E+00  0.00000000E+00  0.00000000E+00
  0.00000000E+00  0.00000000E+00  0.00000000E+00
  0.00000000E+00  0.00000000E+00  0.00000000E+00
  0.00000000E+00  0.00000000E+00  0.00000000E+00
