Sr2 Ga2 Cl10                            
   1.00000000000000     
     5.3887004067751043   -4.5941229543985953   -0.5801008340062406
     5.3297708687710132    4.5254509344761500   -0.5772167630942293
    -4.7723685205488691    0.0325917798457000   10.0752630423206373
   Ga   Sr   Cl
     2     2    10
Direct
  0.9544560878883530  0.0585081656836124  0.0704799987253253
  0.0603480879062701  0.9582930199330235  0.5754499617013522
  0.4635545435659836  0.5082609370775941  0.2011882539696401
  0.5139620011998787  0.4632736605841075  0.7025998321424325
  0.2446248544126419  0.9090803571212547  0.1655405287125902
  0.0410816733230774  0.3283979588099584  0.0478456303561359
  0.7731433464164112  0.1546151668338496  0.2062058810160110
  0.8494552248950242  0.7667256130193820  0.3652634394744680
  0.4439838239423466  0.4821869081453087  0.4404457372152137
  0.9122424816896171  0.2496530065701990  0.6716793089211563
  0.3143801604768868  0.0470584045396478  0.5408996074709052
  0.1733903758378617  0.7826548750200288  0.7170872532197166
  0.7726198178742081  0.8508668912703641  0.8558640062988232
  0.4829575205714605  0.4406250353916832  0.9397505607762184
 
  0.00000000E+00  0.00000000E+00  0.00000000E+00
  0.00000000E+00  0.00000000E+00  0.00000000E+00
  0.00000000E+00  0.00000000E+00  0.00000000E+00
  0.00000000E+00  0.00000000E+00  0.00000000E+00
  0.00000000E+00  0.00000000E+00  0.00000000E+00
  0.00000000E+00  0.00000000E+00  0.00000000E+00
  0.00000000E+00  0.00000000E+00  0.00000000E+00
  0.00000000E+00  0.00000000E+00  0.00000000E+00
  0.00000000E+00  0.00000000E+00  0.00000000E+00
  0.00000000E+00  0.00000000E+00  0.00000000E+00
  0.00000000E+00  0.00000000E+00  0.00000000E+00
  0.00000000E+00  0.00000000E+00  0.00000000E+00
  0.00000000E+00  0.00000000E+00  0.00000000E+00
  0.00000000E+00  0.00000000E+00  0.00000000E+00
