Sr28 In11                               
   1.0000000000000000     
     5.8377713679555967    0.0000000005865096   -0.5047386685812735
    -0.0870550025925691    8.2074891470433613   -1.0068698762810435
     0.0047723506087616    0.0133444888812179   34.0671884520668584
   Sr   In
    28    11
Direct
  0.8238342592477252  0.6544087789476762  0.6476685184955073
  0.2376196836270950  0.9879350168951575  0.4752403672542158
  0.2242570520749609  0.4412028586068999  0.4485141041499219
  0.8629958155523241  0.0732742251712679  0.7259916311045984
  0.1370041844477115  0.3472825940667761  0.2740083688953874
  0.5961522431371478  0.2540371290684220  0.1923054862741580
  0.3532829263876209  0.3848791792409116  0.7065658527752419
  0.2935955978213798  0.3620145134905997  0.5871911956427596
  0.7623803163728624  0.5126946496409204  0.5247596327457700
  0.9563691936401710  0.5762230919805944  0.9127383872803563
  0.7757429479250462  0.9926887544570278  0.5514858958500781
  0.5830312656045749  0.7138085818892748  0.1660625312093487
  0.7064044021786202  0.7748233178478898  0.4128088043572333
  0.6819803752351987  0.3298193519723895  0.3639597504703431
  0.9404324418875376  0.0140928665461786  0.8808648837750042
  0.3180196247648297  0.9658596015020109  0.6360402495296640
  0.1169796416651110  0.8893102172166323  0.2339602833302195
  0.0595675581125334  0.1332279827711176  0.1191351162249958
  0.5000000000000711  0.6859089508706617  0.0000000000000071
  0.0000000000000071  0.0014934958150832  0.0000000000000000
  0.0436308063598432  0.6634847047002168  0.0872616127196437
  0.4699888188067547  0.2573909540058139  0.9399776376135094
  0.5300111811932098  0.3174133163922619  0.0600213623864931
  0.1761657407522179  0.0067402604521831  0.3523314815044927
  0.6467170736123435  0.6783133264657124  0.2934341472247723
  0.8830203583348961  0.6553499338864128  0.7660397166697805
  0.4038477568629801  0.0617326427941904  0.8076945137258491
  0.4169687343952262  0.5477460506799829  0.8339374687906442
  0.0908452376303330  0.4964958793772922  0.1816904752606945
  0.9999999999999716  0.4097802716079144  0.9999999999999929
  0.2731290093042702  0.7276901931481135  0.5462580186084622
  0.3608170567464484  0.7974859340152349  0.7216341134928683
  0.6391829432535516  0.0758518205223879  0.2783658865071175
  0.9091547623696528  0.3148054041166048  0.8183095247393126
  0.7268709906958009  0.1814321745396583  0.4537419813915236
  0.1800869485726437  0.6033713151124260  0.3601738971453941
  0.5433857843274765  0.9323009054369891  0.0867705686549414
  0.4566142156725590  0.8455303367819980  0.9132294313450728
  0.8199130514272710  0.2431974179670249  0.6398261028546202

  0.00000000E+00  0.00000000E+00  0.00000000E+00
  0.00000000E+00  0.00000000E+00  0.00000000E+00
  0.00000000E+00  0.00000000E+00  0.00000000E+00
  0.00000000E+00  0.00000000E+00  0.00000000E+00
  0.00000000E+00  0.00000000E+00  0.00000000E+00
  0.00000000E+00  0.00000000E+00  0.00000000E+00
  0.00000000E+00  0.00000000E+00  0.00000000E+00
  0.00000000E+00  0.00000000E+00  0.00000000E+00
  0.00000000E+00  0.00000000E+00  0.00000000E+00
  0.00000000E+00  0.00000000E+00  0.00000000E+00
  0.00000000E+00  0.00000000E+00  0.00000000E+00
  0.00000000E+00  0.00000000E+00  0.00000000E+00
  0.00000000E+00  0.00000000E+00  0.00000000E+00
  0.00000000E+00  0.00000000E+00  0.00000000E+00
  0.00000000E+00  0.00000000E+00  0.00000000E+00
  0.00000000E+00  0.00000000E+00  0.00000000E+00
  0.00000000E+00  0.00000000E+00  0.00000000E+00
  0.00000000E+00  0.00000000E+00  0.00000000E+00
  0.00000000E+00  0.00000000E+00  0.00000000E+00
  0.00000000E+00  0.00000000E+00  0.00000000E+00
  0.00000000E+00  0.00000000E+00  0.00000000E+00
  0.00000000E+00  0.00000000E+00  0.00000000E+00
  0.00000000E+00  0.00000000E+00  0.00000000E+00
  0.00000000E+00  0.00000000E+00  0.00000000E+00
  0.00000000E+00  0.00000000E+00  0.00000000E+00
  0.00000000E+00  0.00000000E+00  0.00000000E+00
  0.00000000E+00  0.00000000E+00  0.00000000E+00
  0.00000000E+00  0.00000000E+00  0.00000000E+00
  0.00000000E+00  0.00000000E+00  0.00000000E+00
  0.00000000E+00  0.00000000E+00  0.00000000E+00
  0.00000000E+00  0.00000000E+00  0.00000000E+00
  0.00000000E+00  0.00000000E+00  0.00000000E+00
  0.00000000E+00  0.00000000E+00  0.00000000E+00
  0.00000000E+00  0.00000000E+00  0.00000000E+00
  0.00000000E+00  0.00000000E+00  0.00000000E+00
  0.00000000E+00  0.00000000E+00  0.00000000E+00
  0.00000000E+00  0.00000000E+00  0.00000000E+00
  0.00000000E+00  0.00000000E+00  0.00000000E+00
  0.00000000E+00  0.00000000E+00  0.00000000E+00
