Mg3 In33                                
   1.00000000000000     
    10.0980900592163252    0.0000000000000000    0.0000000000000000
     0.0000000000000000   10.0980900592163252    0.0000000000000000
     0.0000000000000000    0.0000000000000000   10.0980900592163252
   Mg   In
     3    33
Direct
  0.5000000000000000  0.0000000000000000  0.0000000000000000
  0.0000000000000000  0.5000000000000000  0.0000000000000000
  0.0000000000000000  0.0000000000000000  0.5000000000000000
  0.3447944134388976  0.3447944134388976  0.0000000000000000
  0.6552055865611024  0.3447944134388976  0.0000000000000000
  0.3447944134388976  0.6552055865611024  0.0000000000000000
  0.6552055865611024  0.6552055865611024  0.0000000000000000
  0.1562429479460690  0.1562429479460690  0.1562429479460690
  0.8437570520539310  0.1562429479460690  0.1562429479460690
  0.1562429479460690  0.8437570520539310  0.1562429479460690
  0.8437570520539310  0.8437570520539310  0.1562429479460690
  0.5000000000000000  0.2618203959935173  0.2618203959935173
  0.2618203959935173  0.5000000000000000  0.2618203959935173
  0.7381796040064827  0.5000000000000000  0.2618203959935173
  0.5000000000000000  0.7381796040064827  0.2618203959935173
  0.3447944134388976  0.0000000000000000  0.3447944134388976
  0.6552055865611024  0.0000000000000000  0.3447944134388976
  0.0000000000000000  0.3447944134388976  0.3447944134388976
  0.0000000000000000  0.6552055865611024  0.3447944134388976
  0.2618203959935173  0.2618203959935173  0.5000000000000000
  0.7381796040064827  0.2618203959935173  0.5000000000000000
  0.5000000000000000  0.5000000000000000  0.5000000000000000
  0.2618203959935173  0.7381796040064827  0.5000000000000000
  0.7381796040064827  0.7381796040064827  0.5000000000000000
  0.3447944134388976  0.0000000000000000  0.6552055865611024
  0.6552055865611024  0.0000000000000000  0.6552055865611024
  0.0000000000000000  0.3447944134388976  0.6552055865611024
  0.0000000000000000  0.6552055865611024  0.6552055865611024
  0.5000000000000000  0.2618203959935173  0.7381796040064827
  0.2618203959935173  0.5000000000000000  0.7381796040064827
  0.7381796040064827  0.5000000000000000  0.7381796040064827
  0.5000000000000000  0.7381796040064827  0.7381796040064827
  0.1562429479460690  0.1562429479460690  0.8437570520539310
  0.8437570520539310  0.1562429479460690  0.8437570520539310
  0.1562429479460690  0.8437570520539310  0.8437570520539310
  0.8437570520539310  0.8437570520539310  0.8437570520539310
 
  0.00000000E+00  0.00000000E+00  0.00000000E+00
  0.00000000E+00  0.00000000E+00  0.00000000E+00
  0.00000000E+00  0.00000000E+00  0.00000000E+00
  0.00000000E+00  0.00000000E+00  0.00000000E+00
  0.00000000E+00  0.00000000E+00  0.00000000E+00
  0.00000000E+00  0.00000000E+00  0.00000000E+00
  0.00000000E+00  0.00000000E+00  0.00000000E+00
  0.00000000E+00  0.00000000E+00  0.00000000E+00
  0.00000000E+00  0.00000000E+00  0.00000000E+00
  0.00000000E+00  0.00000000E+00  0.00000000E+00
  0.00000000E+00  0.00000000E+00  0.00000000E+00
  0.00000000E+00  0.00000000E+00  0.00000000E+00
  0.00000000E+00  0.00000000E+00  0.00000000E+00
  0.00000000E+00  0.00000000E+00  0.00000000E+00
  0.00000000E+00  0.00000000E+00  0.00000000E+00
  0.00000000E+00  0.00000000E+00  0.00000000E+00
  0.00000000E+00  0.00000000E+00  0.00000000E+00
  0.00000000E+00  0.00000000E+00  0.00000000E+00
  0.00000000E+00  0.00000000E+00  0.00000000E+00
  0.00000000E+00  0.00000000E+00  0.00000000E+00
  0.00000000E+00  0.00000000E+00  0.00000000E+00
  0.00000000E+00  0.00000000E+00  0.00000000E+00
  0.00000000E+00  0.00000000E+00  0.00000000E+00
  0.00000000E+00  0.00000000E+00  0.00000000E+00
  0.00000000E+00  0.00000000E+00  0.00000000E+00
  0.00000000E+00  0.00000000E+00  0.00000000E+00
  0.00000000E+00  0.00000000E+00  0.00000000E+00
  0.00000000E+00  0.00000000E+00  0.00000000E+00
  0.00000000E+00  0.00000000E+00  0.00000000E+00
  0.00000000E+00  0.00000000E+00  0.00000000E+00
  0.00000000E+00  0.00000000E+00  0.00000000E+00
  0.00000000E+00  0.00000000E+00  0.00000000E+00
  0.00000000E+00  0.00000000E+00  0.00000000E+00
  0.00000000E+00  0.00000000E+00  0.00000000E+00
  0.00000000E+00  0.00000000E+00  0.00000000E+00
  0.00000000E+00  0.00000000E+00  0.00000000E+00
