B20 F4                                  
   1.00000000000000     
     5.6642936086018221    3.1302345552128346    0.0915301558552691
    -5.6642936086018221    3.1302345552128346    0.0915301558552691
     0.0000000000000000    2.3126654687005375    8.8393722849189658
   B    F 
    20     4
Direct
  0.6946138353096529  0.5601381563254151  0.7480349804245421
  0.4398618436745849  0.3053861646903471  0.7519650195754579
  0.3053861646903471  0.4398618436745849  0.2519650195754579
  0.5601381563254151  0.6946138353096529  0.2480349804245421
  0.0059780025308314  0.4707413658402047  0.7370177558954509
  0.5292586341597953  0.9940219974691686  0.7629822441045491
  0.9940219974691686  0.5292586341597953  0.2629822441045491
  0.4707413658402047  0.0059780025308314  0.2370177558954509
  0.0182134294611274  0.4230328376956791  0.5695279566969376
  0.5769671623043209  0.9817865705388726  0.9304720433030624
  0.9817865705388726  0.5769671623043209  0.4304720433030695
  0.4230328376956791  0.0182134294611274  0.0695279566969305
  0.9524572548827450  0.6347252512564694  0.6020601948437445
  0.3652747487435306  0.0475427451172550  0.8979398051562555
  0.0475427451172550  0.3652747487435306  0.3979398051562555
  0.6347252512564694  0.9524572548827450  0.1020601948437445
  0.9684808525008464  0.7937236958323837  0.7315742322159196
  0.2062763041676163  0.0315191474991536  0.7684257677840804
  0.0315191474991536  0.2062763041676163  0.2684257677840804
  0.7937236958323837  0.9684808525008464  0.2315742322159196
  0.5512532561892982  0.9258225198763341  0.6349634752155353
  0.0741774801236659  0.4487467438107018  0.8650365247844647
  0.4487467438107018  0.0741774801236659  0.3650365247844647
  0.9258225198763341  0.5512532561892982  0.1349634752155353
 
  0.00000000E+00  0.00000000E+00  0.00000000E+00
  0.00000000E+00  0.00000000E+00  0.00000000E+00
  0.00000000E+00  0.00000000E+00  0.00000000E+00
  0.00000000E+00  0.00000000E+00  0.00000000E+00
  0.00000000E+00  0.00000000E+00  0.00000000E+00
  0.00000000E+00  0.00000000E+00  0.00000000E+00
  0.00000000E+00  0.00000000E+00  0.00000000E+00
  0.00000000E+00  0.00000000E+00  0.00000000E+00
  0.00000000E+00  0.00000000E+00  0.00000000E+00
  0.00000000E+00  0.00000000E+00  0.00000000E+00
  0.00000000E+00  0.00000000E+00  0.00000000E+00
  0.00000000E+00  0.00000000E+00  0.00000000E+00
  0.00000000E+00  0.00000000E+00  0.00000000E+00
  0.00000000E+00  0.00000000E+00  0.00000000E+00
  0.00000000E+00  0.00000000E+00  0.00000000E+00
  0.00000000E+00  0.00000000E+00  0.00000000E+00
  0.00000000E+00  0.00000000E+00  0.00000000E+00
  0.00000000E+00  0.00000000E+00  0.00000000E+00
  0.00000000E+00  0.00000000E+00  0.00000000E+00
  0.00000000E+00  0.00000000E+00  0.00000000E+00
  0.00000000E+00  0.00000000E+00  0.00000000E+00
  0.00000000E+00  0.00000000E+00  0.00000000E+00
  0.00000000E+00  0.00000000E+00  0.00000000E+00
  0.00000000E+00  0.00000000E+00  0.00000000E+00
