Sr10 Tl4 Cl32                           
   1.0000000000000000     
     4.7319201324540829   -7.7904034311114172    0.0000000000000000
     4.7319201324540829    7.7904034311114172    0.0000000000000000
     0.0000000000000000    0.0000000000000000   18.1156344267470963
   Sr   Tl   Cl
    10     4    32
Direct
  0.0000000000000000  0.0000000000000000  0.7190047800900317
  0.0000000000000000  0.0000000000000000  0.2809952199099683
  0.5000000000000000  0.5000000000000000  0.7809952199099683
  0.5000000000000000  0.5000000000000000  0.2190047800900317
  0.5000000000000000  0.5000000000000000  0.5000000000000000
  0.0000000000000000  0.0000000000000000  0.0000000000000000
  0.0000000000000000  0.5000000000000000  0.6434934371022152
  0.5000000000000000  0.0000000000000000  0.3565065628977848
  0.5000000000000000  0.0000000000000000  0.8565065628977848
  0.0000000000000000  0.5000000000000000  0.1434934371022152
  0.5000000000000000  0.0000000000000000  0.6104349477723687
  0.0000000000000000  0.5000000000000000  0.3895650522276313
  0.0000000000000000  0.5000000000000000  0.8895650522276313
  0.5000000000000000  0.0000000000000000  0.1104349477723687
  0.5508530348262113  0.2094827977176053  0.7164642340651568
  0.4491469651737887  0.7905172022823947  0.7164642340651568
  0.2094827977176053  0.5508530348262113  0.2835357659348432
  0.7905172022823947  0.4491469651737887  0.2835357659348432
  0.9491469651737887  0.2905172022823947  0.7835357659348432
  0.0508530348262113  0.7094827977176053  0.7835357659348432
  0.2905172022823947  0.9491469651737887  0.2164642340651568
  0.7094827977176053  0.0508530348262113  0.2164642340651568
  0.1674958700171771  0.8692175790624361  0.6111308536414413
  0.8325041299828229  0.1307824209375639  0.6111308536414413
  0.8692175790624361  0.1674958700171771  0.3888691463585587
  0.1307824209375639  0.8325041299828229  0.3888691463585587
  0.3325041299828229  0.6307824209375639  0.8888691463585587
  0.6674958700171771  0.3692175790624361  0.8888691463585587
  0.6680147459523695  0.9695810637266220  0.0008631572804632
  0.3319852540476305  0.0304189362733780  0.0008631572804632
  0.9695810637266220  0.6680147459523695  0.9991368427195368
  0.0304189362733780  0.3319852540476305  0.9991368427195368
  0.8319852540476305  0.5304189362733780  0.4991368427195368
  0.1680147459523695  0.4695810637266220  0.4991368427195368
  0.5304189362733780  0.8319852540476305  0.5008631572804632
  0.4695810637266220  0.1680147459523695  0.5008631572804632
  0.8609848917622784  0.7648828737589994  0.1564046971497035
  0.1390151082377216  0.2351171262410006  0.1564046971497035
  0.7648828737589994  0.8609848917622784  0.8435953028502965
  0.2351171262410006  0.1390151082377216  0.8435953028502965
  0.6390151082377216  0.7351171262410006  0.3435953028502965
  0.3609848917622784  0.2648828737589994  0.3435953028502965
  0.7351171262410006  0.6390151082377216  0.6564046971497035
  0.2648828737589994  0.3609848917622784  0.6564046971497035
  0.3692175790624361  0.6674958700171771  0.1111308536414413
  0.6307824209375639  0.3325041299828229  0.1111308536414413

  0.00000000E+00  0.00000000E+00  0.00000000E+00
  0.00000000E+00  0.00000000E+00  0.00000000E+00
  0.00000000E+00  0.00000000E+00  0.00000000E+00
  0.00000000E+00  0.00000000E+00  0.00000000E+00
  0.00000000E+00  0.00000000E+00  0.00000000E+00
  0.00000000E+00  0.00000000E+00  0.00000000E+00
  0.00000000E+00  0.00000000E+00  0.00000000E+00
  0.00000000E+00  0.00000000E+00  0.00000000E+00
  0.00000000E+00  0.00000000E+00  0.00000000E+00
  0.00000000E+00  0.00000000E+00  0.00000000E+00
  0.00000000E+00  0.00000000E+00  0.00000000E+00
  0.00000000E+00  0.00000000E+00  0.00000000E+00
  0.00000000E+00  0.00000000E+00  0.00000000E+00
  0.00000000E+00  0.00000000E+00  0.00000000E+00
  0.00000000E+00  0.00000000E+00  0.00000000E+00
  0.00000000E+00  0.00000000E+00  0.00000000E+00
  0.00000000E+00  0.00000000E+00  0.00000000E+00
  0.00000000E+00  0.00000000E+00  0.00000000E+00
  0.00000000E+00  0.00000000E+00  0.00000000E+00
  0.00000000E+00  0.00000000E+00  0.00000000E+00
  0.00000000E+00  0.00000000E+00  0.00000000E+00
  0.00000000E+00  0.00000000E+00  0.00000000E+00
  0.00000000E+00  0.00000000E+00  0.00000000E+00
  0.00000000E+00  0.00000000E+00  0.00000000E+00
  0.00000000E+00  0.00000000E+00  0.00000000E+00
  0.00000000E+00  0.00000000E+00  0.00000000E+00
  0.00000000E+00  0.00000000E+00  0.00000000E+00
  0.00000000E+00  0.00000000E+00  0.00000000E+00
  0.00000000E+00  0.00000000E+00  0.00000000E+00
  0.00000000E+00  0.00000000E+00  0.00000000E+00
  0.00000000E+00  0.00000000E+00  0.00000000E+00
  0.00000000E+00  0.00000000E+00  0.00000000E+00
  0.00000000E+00  0.00000000E+00  0.00000000E+00
  0.00000000E+00  0.00000000E+00  0.00000000E+00
  0.00000000E+00  0.00000000E+00  0.00000000E+00
  0.00000000E+00  0.00000000E+00  0.00000000E+00
  0.00000000E+00  0.00000000E+00  0.00000000E+00
  0.00000000E+00  0.00000000E+00  0.00000000E+00
  0.00000000E+00  0.00000000E+00  0.00000000E+00
  0.00000000E+00  0.00000000E+00  0.00000000E+00
  0.00000000E+00  0.00000000E+00  0.00000000E+00
  0.00000000E+00  0.00000000E+00  0.00000000E+00
  0.00000000E+00  0.00000000E+00  0.00000000E+00
  0.00000000E+00  0.00000000E+00  0.00000000E+00
  0.00000000E+00  0.00000000E+00  0.00000000E+00
  0.00000000E+00  0.00000000E+00  0.00000000E+00
