Sr10 In4                                
   1.0000000000000000     
    -0.0003018195867190    0.0019332021109119    7.7849642940135961
    -0.0001205629913923    8.4965311235204481    0.0018983950093648
    -8.6747669834755321   -4.2497447546087317   -3.8934109093388409
   In   Sr
     4    10
Direct
  0.1221475360792894  0.3688353609562114  0.2439059884711483
  0.6219844552646592  0.8754730697689936  0.2443648028356549
  0.3779476387749199  0.1244893955469308  0.7556193046078477
  0.8778203263341595  0.6311573862282529  0.7560966190630438
  0.2499826852092113  0.4999938171157154  0.0000092445466109
  0.7500298236941276  0.4999607988356871  0.0000088988738298
  0.5826821848675365  0.2296579026448455  0.1654250306860163
  0.0827387853682779  0.9359570479424590  0.1657379101520533
  0.4813769001542099  0.7317377204150901  0.4632413025661890
  0.9813960224469014  0.7312744937707976  0.4630359601186385
  0.0186292298684521  0.2687761106922650  0.5369579124566357
  0.5186597929255825  0.2681678588877361  0.5367767062183759
  0.9173214137353796  0.0640290441482207  0.8342319973842720
  0.4173832052772752  0.7702899930467879  0.8345883220196910

 -0.00000000E+00  0.00000000E+00  0.00000000E+00
 -0.00000000E+00  0.00000000E+00  0.00000000E+00
 -0.00000000E+00  0.00000000E+00  0.00000000E+00
 -0.00000000E+00  0.00000000E+00  0.00000000E+00
 -0.00000000E+00  0.00000000E+00  0.00000000E+00
 -0.00000000E+00  0.00000000E+00  0.00000000E+00
 -0.00000000E+00  0.00000000E+00  0.00000000E+00
 -0.00000000E+00  0.00000000E+00  0.00000000E+00
 -0.00000000E+00  0.00000000E+00  0.00000000E+00
 -0.00000000E+00  0.00000000E+00  0.00000000E+00
 -0.00000000E+00  0.00000000E+00  0.00000000E+00
 -0.00000000E+00  0.00000000E+00  0.00000000E+00
 -0.00000000E+00  0.00000000E+00  0.00000000E+00
 -0.00000000E+00  0.00000000E+00  0.00000000E+00
