Sr4 In4 F20                             
   1.0000000000000000     
     4.2406123975307457   -0.0000000000000000    0.0000000000000003
    -0.0000000000000003    5.4241715491663474    0.0000000000000003
    -0.0000000000000001   -0.0000000000000000   15.2328407267137500
   Sr   In   F 
     4     4    20
Direct
  0.7521675089876609  0.5016200026605588  0.6756654247310863
  0.2521675089876680  0.9983799973394412  0.3243345752689137
  0.2478324910123391  0.0016200026605588  0.8243345752689137
  0.7478324910123391  0.4983799973394412  0.1756654247310792
  0.2545828762108329  0.9994290590981620  0.5741817086790135
  0.7545828762108329  0.5005709409018380  0.4258182913209865
  0.7454171237891671  0.4994290590981620  0.9258182913209865
  0.2454171237891671  0.0005709409018380  0.0741817086790135
  0.0066520096705034  0.6467694057355615  0.5349876270022307
  0.5066520096705034  0.8532305942644385  0.4650123729977693
  0.9933479903294966  0.1467694057355615  0.9650123729977693
  0.4933479903294966  0.3532305942644385  0.0349876270022307
  0.7625853739542237  0.7493042568337600  0.3141338427846279
  0.2625853739542237  0.7506957431662400  0.6858661572153650
  0.2374146260457763  0.2493042568337600  0.1858661572153650
  0.7374146260457763  0.2506957431662400  0.8141338427846279
  0.2402094798482963  0.2505738898335750  0.6845791140189732
  0.7402094798482963  0.2494261101664250  0.3154208859810268
  0.7597905201517037  0.7505738898335750  0.8154208859810268
  0.2597905201517037  0.7494261101664250  0.1845791140189732
  0.7519471076798254  0.9976651490154467  0.6291813598966485
  0.2519471076798254  0.5023348509845533  0.3708186401033515
  0.2480528923201746  0.4976651490154467  0.8708186401033515
  0.7480528923201746  0.0023348509845533  0.1291813598966485
  0.5067459041777553  0.3529365649710456  0.5348756203930023
  0.0067459041777553  0.1470634350289544  0.4651243796069977
  0.4932540958222447  0.8529365649710456  0.9651243796069977
  0.9932540958222447  0.6470634350289544  0.0348756203930023

  0.00000000E+00  0.00000000E+00  0.00000000E+00
  0.00000000E+00  0.00000000E+00  0.00000000E+00
  0.00000000E+00  0.00000000E+00  0.00000000E+00
  0.00000000E+00  0.00000000E+00  0.00000000E+00
  0.00000000E+00  0.00000000E+00  0.00000000E+00
  0.00000000E+00  0.00000000E+00  0.00000000E+00
  0.00000000E+00  0.00000000E+00  0.00000000E+00
  0.00000000E+00  0.00000000E+00  0.00000000E+00
  0.00000000E+00  0.00000000E+00  0.00000000E+00
  0.00000000E+00  0.00000000E+00  0.00000000E+00
  0.00000000E+00  0.00000000E+00  0.00000000E+00
  0.00000000E+00  0.00000000E+00  0.00000000E+00
  0.00000000E+00  0.00000000E+00  0.00000000E+00
  0.00000000E+00  0.00000000E+00  0.00000000E+00
  0.00000000E+00  0.00000000E+00  0.00000000E+00
  0.00000000E+00  0.00000000E+00  0.00000000E+00
  0.00000000E+00  0.00000000E+00  0.00000000E+00
  0.00000000E+00  0.00000000E+00  0.00000000E+00
  0.00000000E+00  0.00000000E+00  0.00000000E+00
  0.00000000E+00  0.00000000E+00  0.00000000E+00
  0.00000000E+00  0.00000000E+00  0.00000000E+00
  0.00000000E+00  0.00000000E+00  0.00000000E+00
  0.00000000E+00  0.00000000E+00  0.00000000E+00
  0.00000000E+00  0.00000000E+00  0.00000000E+00
  0.00000000E+00  0.00000000E+00  0.00000000E+00
  0.00000000E+00  0.00000000E+00  0.00000000E+00
  0.00000000E+00  0.00000000E+00  0.00000000E+00
  0.00000000E+00  0.00000000E+00  0.00000000E+00
