Mg1 B2 Cl10                             
   1.00000000000000     
     5.7815001868680200    4.7247296235788525    0.6000661827862973
    -5.7815001868680200    4.7247296235788525    0.6000661827862974
     0.0000000000000003    4.3857418809664974    8.8128396691797235
   Mg   B    Cl
     1     2    10
Direct
  0.5199436062956266  0.4800563937043734  0.0000000000000000
  0.0224079294871586  0.8139883534627259  0.7128107958396939
  0.1860116465372741  0.9775920705128414  0.2871892041603061
  0.2474755020270507  0.9651430604686837  0.7264561339134943
  0.0348569395313234  0.7525244979729564  0.2735438660865057
  0.8444124538240985  0.9373532092525068  0.7084737946815594
  0.0626467907474932  0.1555875461759015  0.2915262053184406
  0.1362857714094190  0.8637142285905881  0.0000000000000000
  0.1871566544887884  0.8128433455112116  0.5000000000000000
  0.4199112074763178  0.4912597893131121  0.8080942544906264
  0.5087402106868879  0.5800887925236822  0.1919057455093736
  0.9190041774035649  0.5448538899150037  0.8611956412539712
  0.4551461100849963  0.0809958225964351  0.1388043587460288
 
  0.00000000E+00  0.00000000E+00  0.00000000E+00
  0.00000000E+00  0.00000000E+00  0.00000000E+00
  0.00000000E+00  0.00000000E+00  0.00000000E+00
  0.00000000E+00  0.00000000E+00  0.00000000E+00
  0.00000000E+00  0.00000000E+00  0.00000000E+00
  0.00000000E+00  0.00000000E+00  0.00000000E+00
  0.00000000E+00  0.00000000E+00  0.00000000E+00
  0.00000000E+00  0.00000000E+00  0.00000000E+00
  0.00000000E+00  0.00000000E+00  0.00000000E+00
  0.00000000E+00  0.00000000E+00  0.00000000E+00
  0.00000000E+00  0.00000000E+00  0.00000000E+00
  0.00000000E+00  0.00000000E+00  0.00000000E+00
  0.00000000E+00  0.00000000E+00  0.00000000E+00
