Ca15 Al1                                
   1.00000000000000     
     3.8551804517271755   -6.6773692093565096    0.0000000000000000
     3.8551804517271755    6.6773692093565105    0.0000000000000000
     0.0000000000000000    0.0000000000000000   12.3849950020097364
   Ca   Al
    15     1
Direct
  0.3333330000000032  0.6666669999999968  0.5000000000000000
  0.8306697225587172  0.6613394451132422  0.0000000000000000
  0.8342769634932239  0.6685529269897756  0.5000000000000000
  0.8306697225545179  0.1693302774454821  0.0000000000000000
  0.8342769634965492  0.1657230365034508  0.5000000000000000
  0.3386605548867578  0.1693302774412828  0.0000000000000000
  0.3314470730102244  0.1657230365067761  0.5000000000000000
  0.6559902801603670  0.8279956400720749  0.2359283768492659
  0.6559902801603670  0.8279956400720749  0.7640716231507341
  0.1720043599117176  0.8279956400882824  0.2359283768492659
  0.1720043599117176  0.8279956400882824  0.7640716231507341
  0.1720043599279251  0.3440097198396330  0.2359283768492659
  0.1720043599279251  0.3440097198396330  0.7640716231507341
  0.6666669999999968  0.3333330000000032  0.2560609854738232
  0.6666669999999968  0.3333330000000032  0.7439390145261768
  0.3333330000000032  0.6666669999999968  0.0000000000000000
 
  0.00000000E+00  0.00000000E+00  0.00000000E+00
  0.00000000E+00  0.00000000E+00  0.00000000E+00
  0.00000000E+00  0.00000000E+00  0.00000000E+00
  0.00000000E+00  0.00000000E+00  0.00000000E+00
  0.00000000E+00  0.00000000E+00  0.00000000E+00
  0.00000000E+00  0.00000000E+00  0.00000000E+00
  0.00000000E+00  0.00000000E+00  0.00000000E+00
  0.00000000E+00  0.00000000E+00  0.00000000E+00
  0.00000000E+00  0.00000000E+00  0.00000000E+00
  0.00000000E+00  0.00000000E+00  0.00000000E+00
  0.00000000E+00  0.00000000E+00  0.00000000E+00
  0.00000000E+00  0.00000000E+00  0.00000000E+00
  0.00000000E+00  0.00000000E+00  0.00000000E+00
  0.00000000E+00  0.00000000E+00  0.00000000E+00
  0.00000000E+00  0.00000000E+00  0.00000000E+00
  0.00000000E+00  0.00000000E+00  0.00000000E+00
