Mg2 In2 I6                              
   1.00000000000000     
     2.1514217228373509   -7.5459288124069399    0.0000000000000000
     2.1514217228373509    7.5459288124069399    0.0000000000000000
     0.0000000000000000    0.0000000000000000   11.4101075772236751
   Mg   In   I 
     2     2     6
Direct
  0.0000000000000000  0.0000000000000000  0.0000000000000000
  0.0000000000000000  0.0000000000000000  0.5000000000000000
  0.2721327079875095  0.7278672920124905  0.2500000000000000
  0.7278672920124905  0.2721327079875095  0.7500000000000000
  0.6296057808356252  0.3703942191643748  0.0436245624266647
  0.3703942191643748  0.6296057808356252  0.9563754375733282
  0.3703942191643748  0.6296057808356252  0.5436245624266718
  0.6296057808356252  0.3703942191643748  0.4563754375733282
  0.9419121033842686  0.0580878966157314  0.2500000000000000
  0.0580878966157314  0.9419121033842686  0.7500000000000000
 
  0.00000000E+00  0.00000000E+00  0.00000000E+00
  0.00000000E+00  0.00000000E+00  0.00000000E+00
  0.00000000E+00  0.00000000E+00  0.00000000E+00
  0.00000000E+00  0.00000000E+00  0.00000000E+00
  0.00000000E+00  0.00000000E+00  0.00000000E+00
  0.00000000E+00  0.00000000E+00  0.00000000E+00
  0.00000000E+00  0.00000000E+00  0.00000000E+00
  0.00000000E+00  0.00000000E+00  0.00000000E+00
  0.00000000E+00  0.00000000E+00  0.00000000E+00
  0.00000000E+00  0.00000000E+00  0.00000000E+00
