Be10 Tl4 Br32                           
   1.0000000000000000     
     3.1093637503444387   -6.6686192547373597    0.0000000000000000
     3.1093637503444387    6.6686192547373597    0.0000000000000000
     0.0000000000000000    0.0000000000000000   41.6073240667869513
   Be   Tl   Br
    10     4    32
Direct
  0.0000000000000000  0.0000000000000000  0.7500804901226843
  0.0000000000000000  0.0000000000000000  0.2499195098773157
  0.5000000000000000  0.5000000000000000  0.7499195098773157
  0.5000000000000000  0.5000000000000000  0.2500804901226772
  0.5000000000000000  0.5000000000000000  0.5000000000000000
  0.0000000000000000  0.0000000000000000  0.0000000000000000
  0.0000000000000000  0.5000000000000000  0.6148261387922531
  0.5000000000000000  0.0000000000000000  0.3851738612077398
  0.5000000000000000  0.0000000000000000  0.8851738612077469
  0.0000000000000000  0.5000000000000000  0.1148261387922602
  0.5000000000000000  0.0000000000000000  0.5794488670056097
  0.0000000000000000  0.5000000000000000  0.4205511329943974
  0.0000000000000000  0.5000000000000000  0.9205511329943903
  0.5000000000000000  0.0000000000000000  0.0794488670056097
  0.3368644157476908  0.1643924254456337  0.7776574127194991
  0.6631355842523021  0.8356075745543663  0.7776574127194991
  0.1643924254456337  0.3368644157476908  0.2223425872805080
  0.8356075745543663  0.6631355842523021  0.2223425872805080
  0.1631355842523092  0.3356075745543663  0.7223425872805009
  0.8368644157476979  0.6643924254456337  0.7223425872805009
  0.3356075745543663  0.1631355842523092  0.2776574127194991
  0.6643924254456337  0.8368644157476979  0.2776574127194991
  0.0269556192991587  0.7594357229470745  0.5838063593444929
  0.9730443807008413  0.2405642770529184  0.5838063593444929
  0.7594357229470745  0.0269556192991587  0.4161936406555071
  0.2405642770529184  0.9730443807008413  0.4161936406555071
  0.4730443807008413  0.7405642770529255  0.9161936406555071
  0.5269556192991587  0.2594357229470745  0.9161936406555071
  0.6881655304128813  0.8766498091088195  0.0282397612596270
  0.3118344695871187  0.1233501908911805  0.0282397612596270
  0.8766498091088195  0.6881655304128813  0.9717602387403659
  0.1233501908911805  0.3118344695871187  0.9717602387403659
  0.8118344695871187  0.6233501908911805  0.4717602387403659
  0.1881655304128813  0.3766498091088195  0.4717602387403659
  0.6233501908911805  0.8118344695871187  0.5282397612596341
  0.3766498091088195  0.1881655304128813  0.5282397612596341
  0.1790258302881540  0.8444614015711522  0.1363517208124634
  0.8209741697118460  0.1555385984288264  0.1363517208124634
  0.8444614015711522  0.1790258302881540  0.8636482791875366
  0.1555385984288264  0.8209741697118460  0.8636482791875366
  0.3209741697118460  0.6555385984288478  0.3636482791875437
  0.6790258302881540  0.3444614015711664  0.3636482791875437
  0.6555385984288478  0.3209741697118460  0.6363517208124634
  0.3444614015711664  0.6790258302881540  0.6363517208124634
  0.2594357229470745  0.5269556192991587  0.0838063593444929
  0.7405642770529255  0.4730443807008413  0.0838063593444929

  0.00000000E+00  0.00000000E+00  0.00000000E+00
  0.00000000E+00  0.00000000E+00  0.00000000E+00
  0.00000000E+00  0.00000000E+00  0.00000000E+00
  0.00000000E+00  0.00000000E+00  0.00000000E+00
  0.00000000E+00  0.00000000E+00  0.00000000E+00
  0.00000000E+00  0.00000000E+00  0.00000000E+00
  0.00000000E+00  0.00000000E+00  0.00000000E+00
  0.00000000E+00  0.00000000E+00  0.00000000E+00
  0.00000000E+00  0.00000000E+00  0.00000000E+00
  0.00000000E+00  0.00000000E+00  0.00000000E+00
  0.00000000E+00  0.00000000E+00  0.00000000E+00
  0.00000000E+00  0.00000000E+00  0.00000000E+00
  0.00000000E+00  0.00000000E+00  0.00000000E+00
  0.00000000E+00  0.00000000E+00  0.00000000E+00
  0.00000000E+00  0.00000000E+00  0.00000000E+00
  0.00000000E+00  0.00000000E+00  0.00000000E+00
  0.00000000E+00  0.00000000E+00  0.00000000E+00
  0.00000000E+00  0.00000000E+00  0.00000000E+00
  0.00000000E+00  0.00000000E+00  0.00000000E+00
  0.00000000E+00  0.00000000E+00  0.00000000E+00
  0.00000000E+00  0.00000000E+00  0.00000000E+00
  0.00000000E+00  0.00000000E+00  0.00000000E+00
  0.00000000E+00  0.00000000E+00  0.00000000E+00
  0.00000000E+00  0.00000000E+00  0.00000000E+00
  0.00000000E+00  0.00000000E+00  0.00000000E+00
  0.00000000E+00  0.00000000E+00  0.00000000E+00
  0.00000000E+00  0.00000000E+00  0.00000000E+00
  0.00000000E+00  0.00000000E+00  0.00000000E+00
  0.00000000E+00  0.00000000E+00  0.00000000E+00
  0.00000000E+00  0.00000000E+00  0.00000000E+00
  0.00000000E+00  0.00000000E+00  0.00000000E+00
  0.00000000E+00  0.00000000E+00  0.00000000E+00
  0.00000000E+00  0.00000000E+00  0.00000000E+00
  0.00000000E+00  0.00000000E+00  0.00000000E+00
  0.00000000E+00  0.00000000E+00  0.00000000E+00
  0.00000000E+00  0.00000000E+00  0.00000000E+00
  0.00000000E+00  0.00000000E+00  0.00000000E+00
  0.00000000E+00  0.00000000E+00  0.00000000E+00
  0.00000000E+00  0.00000000E+00  0.00000000E+00
  0.00000000E+00  0.00000000E+00  0.00000000E+00
  0.00000000E+00  0.00000000E+00  0.00000000E+00
  0.00000000E+00  0.00000000E+00  0.00000000E+00
  0.00000000E+00  0.00000000E+00  0.00000000E+00
  0.00000000E+00  0.00000000E+00  0.00000000E+00
  0.00000000E+00  0.00000000E+00  0.00000000E+00
  0.00000000E+00  0.00000000E+00  0.00000000E+00
