Sr2 In2 F10                             
   1.00000000000000     
     4.8552209393580759   -0.0705174260874340    1.5787094125213916
     0.9951801278494991    4.7526576151594115    1.5787096654732578
    -0.7800252590454257   -0.6242610798066395    8.2993655045060031
   Sr   In   F 
     2     2    10
Direct
  0.4950672370296871  0.5049327629785765  0.2499999999323563
  0.5049327629703129  0.4950672370214235  0.7500000000676437
  0.0000000000000000  0.0000000000000000  0.5000000000000000
  0.0000000000000000  0.0000000000000000  0.0000000000000000
  0.9444715441636617  0.6255234375182965  0.6380722969128030
  0.3744765644260539  0.0555274542609041  0.8619277030148425
  0.0555274558363408  0.3744765624817035  0.3619287030872016
  0.6255234355739461  0.9444715457390984  0.1380722969851575
  0.9198978957892407  0.0801021032836573  0.7500000007937189
  0.0801021042107593  0.9198978967163427  0.2499999992062811
  0.7843212236820918  0.4132459025995416  0.9847972506886933
  0.5867540958628581  0.2156787747160109  0.5152027513341011
  0.2156787763179082  0.5867540974004584  0.0152027493113067
  0.4132459041371419  0.7843212252839820  0.4847972486658918
 
  0.00000000E+00  0.00000000E+00  0.00000000E+00
  0.00000000E+00  0.00000000E+00  0.00000000E+00
  0.00000000E+00  0.00000000E+00  0.00000000E+00
  0.00000000E+00  0.00000000E+00  0.00000000E+00
  0.00000000E+00  0.00000000E+00  0.00000000E+00
  0.00000000E+00  0.00000000E+00  0.00000000E+00
  0.00000000E+00  0.00000000E+00  0.00000000E+00
  0.00000000E+00  0.00000000E+00  0.00000000E+00
  0.00000000E+00  0.00000000E+00  0.00000000E+00
  0.00000000E+00  0.00000000E+00  0.00000000E+00
  0.00000000E+00  0.00000000E+00  0.00000000E+00
  0.00000000E+00  0.00000000E+00  0.00000000E+00
  0.00000000E+00  0.00000000E+00  0.00000000E+00
  0.00000000E+00  0.00000000E+00  0.00000000E+00
