Be1 Tl8                                 
   1.0000000000000000     
    10.9133569637931469   -0.0072718181401038    0.0000000000000000
    -5.4624061239676012    9.4479322611103189    0.0000000000000000
     0.0000000000000000    0.0000000000000000    3.1828124218426583
   Tl   Be
     8     1
Direct
  0.3227592056420079  0.1615713715905684  0.0000000000000000
  0.8385798177810173  0.1614202420262743  0.0000000000000000
  0.6667593925369886  0.3332407757907347  0.0000000000000000
  0.1615714130364907  0.3227593049021849  0.0000000000000000
  0.8384285869635022  0.6772406950978151  0.0000000000000000
  0.3332406074630114  0.6667592242092582  0.0000000000000000
  0.1614201822189827  0.8385797579737257  0.0000000000000000
  0.6772407943579921  0.8384286284094316  0.0000000000000000
  0.0000000000000000  0.0000000000000000  0.5000000000000000

  0.00000000E+00  0.00000000E+00  0.00000000E+00
  0.00000000E+00  0.00000000E+00  0.00000000E+00
  0.00000000E+00  0.00000000E+00  0.00000000E+00
  0.00000000E+00  0.00000000E+00  0.00000000E+00
  0.00000000E+00  0.00000000E+00  0.00000000E+00
  0.00000000E+00  0.00000000E+00  0.00000000E+00
  0.00000000E+00  0.00000000E+00  0.00000000E+00
  0.00000000E+00  0.00000000E+00  0.00000000E+00
  0.00000000E+00  0.00000000E+00  0.00000000E+00
