Ba4 Al4 Cl20                            
   1.0000000000000000     
     0.0000000000000000    7.4910638053428169   -0.0865472810051712
    11.4253193246454412    0.0000000000000000    0.0000000000000000
     0.0000000000000000   -0.0369600857312905  -10.4559833663967812
   Ba   Al   Cl
     4     4    20
Direct
  0.6698378425553884  0.2902457313938172  0.4596313561074084
  0.3301621574446116  0.7902457313938172  0.5403686438925916
  0.8398985919723359  0.9351746505937086  0.1480694308919865
  0.1601014080276713  0.4351746505937086  0.8519305691080135
  0.4018814000188584  0.7365712403583728  0.0391903064408439
  0.5981185999811416  0.2365712403583728  0.9608096935591561
  0.8264599406084798  0.6412265145244760  0.4596437270219553
  0.1735400593915202  0.1412265145244760  0.5403562729780447
  0.4228533040153124  0.0534913053024866  0.4464022557307956
  0.0380747517943618  0.5784326784561102  0.5921729345431643
  0.9619252482056382  0.0784326784561102  0.4078270654568286
  0.6748055776434683  0.7511812423673305  0.9596077276415969
  0.8175398912741656  0.5077448016171289  0.3049120468250948
  0.2359205307365286  0.8969414374143057  0.0441142688770242
  0.9715518718401128  0.2505578696004918  0.6678332541168501
  0.5174246467077381  0.7833475159735386  0.2486335960876076
  0.1824601087258344  0.0077448016171289  0.6950879531749052
  0.7426169248784831  0.8116071630904926  0.5488709763081943
  0.7640794692634714  0.3969414374143128  0.9558857311229758
  0.5771466959846876  0.5534913053024937  0.5535977442692044
  0.6999707366416388  0.0677385832031163  0.8945296242983929
  0.7079540240980364  0.1933382461046307  0.1720166728294075
  0.2573830751215169  0.3116071630904926  0.4511290236918057
  0.0284481281598872  0.7505578696004918  0.3321667458831570
  0.3251944223565246  0.2511812423673305  0.0403922723583960
  0.2920459759019636  0.6933382461046165  0.8279833271705925
  0.4825753532922619  0.2833475159735386  0.7513664039123995
  0.3000292633583612  0.5677385832031234  0.1054703757016071

  0.00000000E+00  0.00000000E+00  0.00000000E+00
  0.00000000E+00  0.00000000E+00  0.00000000E+00
  0.00000000E+00  0.00000000E+00  0.00000000E+00
  0.00000000E+00  0.00000000E+00  0.00000000E+00
  0.00000000E+00  0.00000000E+00  0.00000000E+00
  0.00000000E+00  0.00000000E+00  0.00000000E+00
  0.00000000E+00  0.00000000E+00  0.00000000E+00
  0.00000000E+00  0.00000000E+00  0.00000000E+00
  0.00000000E+00  0.00000000E+00  0.00000000E+00
  0.00000000E+00  0.00000000E+00  0.00000000E+00
  0.00000000E+00  0.00000000E+00  0.00000000E+00
  0.00000000E+00  0.00000000E+00  0.00000000E+00
  0.00000000E+00  0.00000000E+00  0.00000000E+00
  0.00000000E+00  0.00000000E+00  0.00000000E+00
  0.00000000E+00  0.00000000E+00  0.00000000E+00
  0.00000000E+00  0.00000000E+00  0.00000000E+00
  0.00000000E+00  0.00000000E+00  0.00000000E+00
  0.00000000E+00  0.00000000E+00  0.00000000E+00
  0.00000000E+00  0.00000000E+00  0.00000000E+00
  0.00000000E+00  0.00000000E+00  0.00000000E+00
  0.00000000E+00  0.00000000E+00  0.00000000E+00
  0.00000000E+00  0.00000000E+00  0.00000000E+00
  0.00000000E+00  0.00000000E+00  0.00000000E+00
  0.00000000E+00  0.00000000E+00  0.00000000E+00
  0.00000000E+00  0.00000000E+00  0.00000000E+00
  0.00000000E+00  0.00000000E+00  0.00000000E+00
  0.00000000E+00  0.00000000E+00  0.00000000E+00
  0.00000000E+00  0.00000000E+00  0.00000000E+00
