Sr1 In3 I6                              
   1.0000000000000000     
     9.0340703386309773    0.0394036219064683    0.1953125207025882
     0.0394036219064682    9.0340703386309773    0.1953125207025881
     4.7039904150174836    4.7039904150174836    6.6198199237149060
   I    Sr   In
     6     1     3
Direct
  0.7450218963493711  0.2549781036506289  0.0000000000000000
  0.2250061945635125  0.2250061945635125  0.0591983616065761
  0.2549781036506289  0.7450218963493711  0.0000000000000000
  0.7749938054364875  0.7749938054364875  0.9408016383934239
  0.7746838072759630  0.7746838072759630  0.5085461015379238
  0.2253161927240370  0.2253161927240370  0.4914538984620833
  0.0000000000000000  0.0000000000000000  0.0000000000000000
  0.5000000000000000  0.5000000000000000  0.0000000000000000
  0.1583046311812026  0.8416953688187903  0.5000000000000000
  0.8416953688187903  0.1583046311812026  0.5000000000000000

  0.00000000E+00  0.00000000E+00  0.00000000E+00
  0.00000000E+00  0.00000000E+00  0.00000000E+00
  0.00000000E+00  0.00000000E+00  0.00000000E+00
  0.00000000E+00  0.00000000E+00  0.00000000E+00
  0.00000000E+00  0.00000000E+00  0.00000000E+00
  0.00000000E+00  0.00000000E+00  0.00000000E+00
  0.00000000E+00  0.00000000E+00  0.00000000E+00
  0.00000000E+00  0.00000000E+00  0.00000000E+00
  0.00000000E+00  0.00000000E+00  0.00000000E+00
  0.00000000E+00  0.00000000E+00  0.00000000E+00
