Sr1 B2 Br8                              
   1.00000000000000     
    11.2686041660565923   -3.5269548330078142    0.3299928262574606
    11.2686041660565923    3.5269548330078138    0.3299928262574607
    -4.0356658773662346   -0.0000000000000006    5.7208795117061539
   B    Br   Sr
     2     8     1
Direct
  0.3582674922545195  0.3582674922545195  0.4277396542281551
  0.6906866651980579  0.6906866651980579  0.7006088841507392
  0.4084500585294535  0.4084500585294535  0.2695533262915646
  0.2495834780782005  0.2495834780782005  0.1978986430290064
  0.6197679350047096  0.1516879880673230  0.6366508281867596
  0.1516879880673230  0.6197679350047096  0.6366508281867596
  0.9051086113182478  0.4395856039441952  0.5045485611290772
  0.4395856039441952  0.9051086113182478  0.5045485611290772
  0.7951115946032772  0.7951115946032772  0.9696153983612632
  0.6261421256397099  0.6261421256397099  0.8189748593599830
  0.7556084473623272  0.7556084473623272  0.3328104559476301
 
  0.00000000E+00  0.00000000E+00  0.00000000E+00
  0.00000000E+00  0.00000000E+00  0.00000000E+00
  0.00000000E+00  0.00000000E+00  0.00000000E+00
  0.00000000E+00  0.00000000E+00  0.00000000E+00
  0.00000000E+00  0.00000000E+00  0.00000000E+00
  0.00000000E+00  0.00000000E+00  0.00000000E+00
  0.00000000E+00  0.00000000E+00  0.00000000E+00
  0.00000000E+00  0.00000000E+00  0.00000000E+00
  0.00000000E+00  0.00000000E+00  0.00000000E+00
  0.00000000E+00  0.00000000E+00  0.00000000E+00
  0.00000000E+00  0.00000000E+00  0.00000000E+00
