Mg4 Ga4 Br20                            
   1.0000000000000000     
    13.0313242095917019    0.0000000000000000    0.0000000000000000
     0.0000000000000000    7.4999396569323036    1.8790088728606442
     0.0000000000000000    5.8645868679091251   12.9773967017555965
   Mg   Ga   Br
     4     4    20
Direct
  0.8935458475711968  0.5692288992834520  0.4042780446342960
  0.3935458475711968  0.4307711007165480  0.0957219553656969
  0.1064541524288032  0.4307711007165480  0.5957219553657040
  0.6064541524288032  0.5692288992834520  0.9042780446342960
  0.6855020950952238  0.0993408903870048  0.6487464969693733
  0.1855020950952309  0.9006591096129952  0.8512535030306267
  0.3144979049047762  0.9006591096129952  0.3512535030306196
  0.8144979049047762  0.0993408903870048  0.1487464969693875
  0.6231982029362584  0.3858288548601791  0.6417324829076563
  0.1231982029362584  0.6141711451398280  0.8582675170923437
  0.3768017970637416  0.6141711451398280  0.3582675170923366
  0.8768017970637416  0.3858288548601791  0.1417324829076634
  0.7787438985812898  0.2224512966074030  0.4712051187636845
  0.2787438985812827  0.7775487033926041  0.0287948812363155
  0.2212561014187173  0.7775487033926041  0.5287948812363155
  0.7212561014187102  0.2224512966074030  0.9712051187636845
  0.2830102042415206  0.1669122037195550  0.6773196871851468
  0.7830102042415277  0.8330877962804522  0.8226803128148532
  0.7169897957584723  0.8330877962804522  0.3226803128148532
  0.2169897957584794  0.1669122037195550  0.1773196871851468
  0.5515811609890662  0.8580200191115495  0.6741276430162912
  0.0515811609890662  0.1419799808884576  0.8258723569837088
  0.4484188390109338  0.1419799808884576  0.3258723569837159
  0.9484188390109338  0.8580200191115495  0.1741276430162912
  0.4348685303118458  0.3572254531769516  0.9499934190575203
  0.9348685303118600  0.6427745468230484  0.5500065809424797
  0.5651314696881400  0.6427745468230484  0.0500065809424797
  0.0651314696881471  0.3572254531769516  0.4499934190575203

  0.00000000E+00  0.00000000E+00  0.00000000E+00
  0.00000000E+00  0.00000000E+00  0.00000000E+00
  0.00000000E+00  0.00000000E+00  0.00000000E+00
  0.00000000E+00  0.00000000E+00  0.00000000E+00
  0.00000000E+00  0.00000000E+00  0.00000000E+00
  0.00000000E+00  0.00000000E+00  0.00000000E+00
  0.00000000E+00  0.00000000E+00  0.00000000E+00
  0.00000000E+00  0.00000000E+00  0.00000000E+00
  0.00000000E+00  0.00000000E+00  0.00000000E+00
  0.00000000E+00  0.00000000E+00  0.00000000E+00
  0.00000000E+00  0.00000000E+00  0.00000000E+00
  0.00000000E+00  0.00000000E+00  0.00000000E+00
  0.00000000E+00  0.00000000E+00  0.00000000E+00
  0.00000000E+00  0.00000000E+00  0.00000000E+00
  0.00000000E+00  0.00000000E+00  0.00000000E+00
  0.00000000E+00  0.00000000E+00  0.00000000E+00
  0.00000000E+00  0.00000000E+00  0.00000000E+00
  0.00000000E+00  0.00000000E+00  0.00000000E+00
  0.00000000E+00  0.00000000E+00  0.00000000E+00
  0.00000000E+00  0.00000000E+00  0.00000000E+00
  0.00000000E+00  0.00000000E+00  0.00000000E+00
  0.00000000E+00  0.00000000E+00  0.00000000E+00
  0.00000000E+00  0.00000000E+00  0.00000000E+00
  0.00000000E+00  0.00000000E+00  0.00000000E+00
  0.00000000E+00  0.00000000E+00  0.00000000E+00
  0.00000000E+00  0.00000000E+00  0.00000000E+00
  0.00000000E+00  0.00000000E+00  0.00000000E+00
  0.00000000E+00  0.00000000E+00  0.00000000E+00
