Be4 Tl4 Br20                            
   1.0000000000000000     
    14.1286167160068068    0.0000000000000000    0.0000000000000000
     0.0000000000000000   15.0054551470534925    1.9085903580675458
     0.0000000000000000    9.5428690347161691    6.6659054059649776
   Be   Tl   Br
     4     4    20
Direct
  0.9459193967305453  0.2900122185332776  0.4720392608190096
  0.4459193967305453  0.7099877814667366  0.0279607391809904
  0.0540806032694476  0.7099877814667295  0.5279607391810046
  0.5540806032694547  0.2900122185332776  0.9720392608189954
  0.7447078447542310  0.0396237013148024  0.6151103787799883
  0.2447078447542381  0.9603762986851976  0.8848896212200117
  0.2552921552457619  0.9603762986851976  0.3848896212200117
  0.7552921552457690  0.0396237013148024  0.1151103787799883
  0.4018364781999040  0.7572684488115158  0.4222426711289060
  0.9018364781999040  0.2427315511884771  0.0777573288711011
  0.5981635218000960  0.2427315511884771  0.5777573288710940
  0.0981635218000960  0.7572684488115158  0.9222426711289060
  0.8805922409510103  0.9154737693206414  0.5216975445820111
  0.3805922409510103  0.0845262306793586  0.9783024554179889
  0.1194077590489897  0.0845262306793586  0.4783024554179818
  0.6194077590489897  0.9154737693206414  0.0216975445820182
  0.6380967882115414  0.4442922437432486  0.6823323692718404
  0.1380967882115414  0.5557077562567443  0.8176676307281596
  0.3619032117884657  0.5557077562567443  0.3176676307281596
  0.8619032117884586  0.4442922437432486  0.1823323692718475
  0.4271201233144026  0.3935917600494889  0.9261196588849003
  0.9271201233144097  0.6064082399505111  0.5738803411150997
  0.5728798766855903  0.6064082399505111  0.0738803411150926
  0.0728798766855974  0.3935917600494889  0.4261196588849003
  0.5954644436341852  0.0200473739789473  0.3364543607289576
  0.0954644436341852  0.9799526260210598  0.1635456392710424
  0.4045355563658148  0.9799526260210598  0.6635456392710424
  0.9045355563658148  0.0200473739789473  0.8364543607289576

  0.00000000E+00  0.00000000E+00  0.00000000E+00
  0.00000000E+00  0.00000000E+00  0.00000000E+00
  0.00000000E+00  0.00000000E+00  0.00000000E+00
  0.00000000E+00  0.00000000E+00  0.00000000E+00
  0.00000000E+00  0.00000000E+00  0.00000000E+00
  0.00000000E+00  0.00000000E+00  0.00000000E+00
  0.00000000E+00  0.00000000E+00  0.00000000E+00
  0.00000000E+00  0.00000000E+00  0.00000000E+00
  0.00000000E+00  0.00000000E+00  0.00000000E+00
  0.00000000E+00  0.00000000E+00  0.00000000E+00
  0.00000000E+00  0.00000000E+00  0.00000000E+00
  0.00000000E+00  0.00000000E+00  0.00000000E+00
  0.00000000E+00  0.00000000E+00  0.00000000E+00
  0.00000000E+00  0.00000000E+00  0.00000000E+00
  0.00000000E+00  0.00000000E+00  0.00000000E+00
  0.00000000E+00  0.00000000E+00  0.00000000E+00
  0.00000000E+00  0.00000000E+00  0.00000000E+00
  0.00000000E+00  0.00000000E+00  0.00000000E+00
  0.00000000E+00  0.00000000E+00  0.00000000E+00
  0.00000000E+00  0.00000000E+00  0.00000000E+00
  0.00000000E+00  0.00000000E+00  0.00000000E+00
  0.00000000E+00  0.00000000E+00  0.00000000E+00
  0.00000000E+00  0.00000000E+00  0.00000000E+00
  0.00000000E+00  0.00000000E+00  0.00000000E+00
  0.00000000E+00  0.00000000E+00  0.00000000E+00
  0.00000000E+00  0.00000000E+00  0.00000000E+00
  0.00000000E+00  0.00000000E+00  0.00000000E+00
  0.00000000E+00  0.00000000E+00  0.00000000E+00
