Ca3Br                                   
   1.00000000000000     
    -2.4592616107558154    2.4592616107558154    6.2609232030768034
     2.4592616107558154   -2.4592616107558154    6.2609232030768034
     2.4592616107558154    2.4592616107558154   -6.2609232030768034
   Br   Ca
     1     3
Direct
  0.0000000000000000  0.0000000000000000  0.0000000000000000
  0.7500000000000000  0.2500000000000000  0.5000000000000000
  0.2500000000000000  0.7500000000000000  0.5000000000000000
  0.5000000000000000  0.5000000000000000  0.0000000000000000
 
  0.00000000E+00  0.00000000E+00  0.00000000E+00
  0.00000000E+00  0.00000000E+00  0.00000000E+00
  0.00000000E+00  0.00000000E+00  0.00000000E+00
  0.00000000E+00  0.00000000E+00  0.00000000E+00
