Mg1 In3 I6                              
   1.00000000000000     
     8.4128198350816614   -0.0009296717503285   -0.0057338083718826
    -0.0009296717503285    8.4128198350816596   -0.0057338083718826
     4.2018802827946340    4.2018802827946340    5.9564161660185704
   I    Mg   In
     6     1     3
Direct
  0.7561214133175227  0.2438785866824773  0.0000000000000000
  0.2443866613167103  0.2443866613167103  0.9987655501445047
  0.2438785866824773  0.7561214133175227  0.0000000000000000
  0.7556133386832897  0.7556133386832897  0.0012344498554953
  0.7565648898679527  0.7565648898679527  0.4880157419755022
  0.2434351101320473  0.2434351101320473  0.5119842580244978
  0.0000000000000000  0.0000000000000000  0.0000000000000000
  0.5000000000000000  0.5000000000000000  0.0000000000000000
  0.2499760927138510  0.7500239072861490  0.5000000000000000
  0.7500239072861490  0.2499760927138510  0.5000000000000000
 
  0.00000000E+00  0.00000000E+00  0.00000000E+00
  0.00000000E+00  0.00000000E+00  0.00000000E+00
  0.00000000E+00  0.00000000E+00  0.00000000E+00
  0.00000000E+00  0.00000000E+00  0.00000000E+00
  0.00000000E+00  0.00000000E+00  0.00000000E+00
  0.00000000E+00  0.00000000E+00  0.00000000E+00
  0.00000000E+00  0.00000000E+00  0.00000000E+00
  0.00000000E+00  0.00000000E+00  0.00000000E+00
  0.00000000E+00  0.00000000E+00  0.00000000E+00
  0.00000000E+00  0.00000000E+00  0.00000000E+00
