Be8 Al10                                
   1.00000000000000     
     4.4514169175481104    0.0885575665464925    0.4263039078689514
    -2.1418220954560248    3.9573574615962186   -0.4999312960929816
     1.1742314770015672   -0.9319275612890690   13.7813569474649356
   Al   Be
    10     8
Direct
  0.6332404339844402  0.3507775286945147  0.0499095865478765
  0.0841497512402754  0.3999684440658839  0.1796977293440634
  0.7527803406318512  0.7668674981462829  0.2874386373603954
  0.3948787934971350  0.1111034202524053  0.2809121621315782
  0.6721641479685800  0.1916463269374873  0.4494302774719188
  0.3097851998330157  0.5521569629174650  0.5237135211031472
  0.3630541362852497  0.0289810881199841  0.8189957635949767
  0.7492205458894432  0.6180949843380432  0.6749252039098081
  0.0860150036040963  0.3506818158325729  0.7433212675443954
  0.3212712988529773  0.6326713346229056  0.9590498163656349
  0.6061479412024298  0.8793927180274324  0.1199296514499721
  0.1063946250175434  0.8812021515962059  0.1226982764585216
  0.0014349393426372  0.8648120748640551  0.4614275301961683
  0.1772987466300009  0.5506124634200233  0.3551551011036835
  0.2820711203917909  0.0773677763872485  0.5999129852698815
  0.7824502938691325  0.0735297469935645  0.5962805899805019
  0.8479634600613366  0.0911740933709524  0.8939640074232287
  0.8301792216980601  0.5794595714129684  0.8837378927442714
 
  0.00000000E+00  0.00000000E+00  0.00000000E+00
  0.00000000E+00  0.00000000E+00  0.00000000E+00
  0.00000000E+00  0.00000000E+00  0.00000000E+00
  0.00000000E+00  0.00000000E+00  0.00000000E+00
  0.00000000E+00  0.00000000E+00  0.00000000E+00
  0.00000000E+00  0.00000000E+00  0.00000000E+00
  0.00000000E+00  0.00000000E+00  0.00000000E+00
  0.00000000E+00  0.00000000E+00  0.00000000E+00
  0.00000000E+00  0.00000000E+00  0.00000000E+00
  0.00000000E+00  0.00000000E+00  0.00000000E+00
  0.00000000E+00  0.00000000E+00  0.00000000E+00
  0.00000000E+00  0.00000000E+00  0.00000000E+00
  0.00000000E+00  0.00000000E+00  0.00000000E+00
  0.00000000E+00  0.00000000E+00  0.00000000E+00
  0.00000000E+00  0.00000000E+00  0.00000000E+00
  0.00000000E+00  0.00000000E+00  0.00000000E+00
  0.00000000E+00  0.00000000E+00  0.00000000E+00
  0.00000000E+00  0.00000000E+00  0.00000000E+00
