Be1 Al1 I5                              
   1.00000000000000     
    -2.4617448315518273    6.5178366975831858    6.5563158915594810
     2.4617448315518273   -6.5178366975831858    6.5563158915594810
     2.4617448315518273    6.5178366975831858   -6.5563158915594810
   Be   Al   I 
     1     1     5
Direct
  0.5000000000000000  0.5000000000000000  0.0000000000000000
  0.0000000000000000  0.5000000000000000  0.5000000000000000
  0.3632966005770868  0.0000000000000000  0.3632966005770868
  0.6367033994229132  0.0000000000000000  0.6367033994229132
  0.1980429660545511  0.6980429660545511  0.5000000000000000
  0.8019570339454489  0.3019570339454489  0.5000000000000000
  0.0000000000000000  0.0000000000000000  0.0000000000000000
 
  0.00000000E+00  0.00000000E+00  0.00000000E+00
  0.00000000E+00  0.00000000E+00  0.00000000E+00
  0.00000000E+00  0.00000000E+00  0.00000000E+00
  0.00000000E+00  0.00000000E+00  0.00000000E+00
  0.00000000E+00  0.00000000E+00  0.00000000E+00
  0.00000000E+00  0.00000000E+00  0.00000000E+00
  0.00000000E+00  0.00000000E+00  0.00000000E+00
