Ca3 Ga1 Br1                             
   1.00000000000000     
     5.4916650432602623    0.0000000000000000    0.0000000000000000
     0.0000000000000000    5.4916650432602632    0.0000000000000000
     0.0000000000000000    0.0000000000000000    5.4916650432602632
   Ca   Br   Ga
     3     1     1
Direct
  0.5000000000000000  0.5000000000000000  0.0000000000000000
  0.5000000000000000  0.0000000000000000  0.5000000000000000
  0.0000000000000000  0.5000000000000000  0.5000000000000000
  0.5000000000000000  0.5000000000000000  0.5000000000000000
  0.0000000000000000  0.0000000000000000  0.0000000000000000
 
  0.00000000E+00  0.00000000E+00  0.00000000E+00
  0.00000000E+00  0.00000000E+00  0.00000000E+00
  0.00000000E+00  0.00000000E+00  0.00000000E+00
  0.00000000E+00  0.00000000E+00  0.00000000E+00
  0.00000000E+00  0.00000000E+00  0.00000000E+00
