Ca3Ga8                                  
   1.00000000000000     
    -4.2714516469439783    0.0009219542168766    0.0005333988892547
     0.0007851447155730   -4.3498605727601394    0.0002813668388982
     2.1336770497868738    2.1730846932371168   12.9543812877017395
   Ca   Ga
     3     8
Direct
  0.0000126651508978  0.9999568729893440  0.9999708273114649
  0.1450932760719397  0.6453626180048886  0.2917549815464255
  0.8549003499951553  0.3545562457794773  0.7081578592075957
  0.5415259236081624  0.5474909736073457  0.0958483632193889
  0.5983118012255915  0.0943200129630881  0.1893608121992330
  0.6885409570628269  0.1904209695655510  0.3816408284002364
  0.7509553423781341  0.7486207484099410  0.4976202462192276
  0.2490422912148205  0.2513629893896123  0.5023584230314881
  0.3114570889409833  0.8095483049054266  0.6183248762609850
  0.4017052714646852  0.9055764812678149  0.8105455392694907
  0.4584550328868033  0.4523837831174973  0.9040172433344509
 
  0.00000000E+00  0.00000000E+00  0.00000000E+00
  0.00000000E+00  0.00000000E+00  0.00000000E+00
  0.00000000E+00  0.00000000E+00  0.00000000E+00
  0.00000000E+00  0.00000000E+00  0.00000000E+00
  0.00000000E+00  0.00000000E+00  0.00000000E+00
  0.00000000E+00  0.00000000E+00  0.00000000E+00
  0.00000000E+00  0.00000000E+00  0.00000000E+00
  0.00000000E+00  0.00000000E+00  0.00000000E+00
  0.00000000E+00  0.00000000E+00  0.00000000E+00
  0.00000000E+00  0.00000000E+00  0.00000000E+00
  0.00000000E+00  0.00000000E+00  0.00000000E+00
