Sr3Ga2                                  
   1.00000000000000     
     8.4291677533783034    0.0000000000000000    0.0000000000000000
     0.0000000000000000    8.4291677533783034    0.0000000000000000
     0.0000000000000001    0.0000000000000001    4.9273667191956463
   Ga   Sr
     4     6
Direct
  0.6066465142961235  0.1066465142961235  0.0000000000000000
  0.1066465142961235  0.3933534857038765  0.0000000000000000
  0.8933534857038765  0.6066465142961235  0.0000000000000000
  0.3933534857038765  0.8933534857038765  0.0000000000000000
  0.0000000000000000  0.0000000000000000  0.0000000000000000
  0.5000000000000000  0.5000000000000000  0.0000000000000000
  0.3276088756547892  0.1723911243452108  0.5000000000000000
  0.8276088756547892  0.3276088756547892  0.5000000000000000
  0.1723911243452108  0.6723911243452108  0.5000000000000000
  0.6723911243452108  0.8276088756547892  0.5000000000000000
 
  0.00000000E+00  0.00000000E+00  0.00000000E+00
  0.00000000E+00  0.00000000E+00  0.00000000E+00
  0.00000000E+00  0.00000000E+00  0.00000000E+00
  0.00000000E+00  0.00000000E+00  0.00000000E+00
  0.00000000E+00  0.00000000E+00  0.00000000E+00
  0.00000000E+00  0.00000000E+00  0.00000000E+00
  0.00000000E+00  0.00000000E+00  0.00000000E+00
  0.00000000E+00  0.00000000E+00  0.00000000E+00
  0.00000000E+00  0.00000000E+00  0.00000000E+00
  0.00000000E+00  0.00000000E+00  0.00000000E+00
