Ca3Tl5                                  
   1.0000000000000000     
    -5.2186005318119086   -4.2492514015163625   -0.0002448305178834
    -5.2186031160376176    4.2492583838715854    0.0002399362389159
    -0.0000137308501219   -0.0006136643403735  -10.6899091230586833
   Ca   Tl
     6    10
Direct
  0.2830429312772651  0.2830724639829114  0.0000053866319760
  0.7169349533216405  0.7169756438131500  0.0000076685985420
  0.0733155089089976  0.9267000379036432  0.2500379890453317
  0.2830109943869346  0.2830141795111984  0.5000096226561439
  0.7169912426144478  0.7170025960642121  0.5000085120371551
  0.9267268470781005  0.0732868187988487  0.7500069392439599
  0.7900808362240070  0.2099373909198547  0.0310242173087829
  0.5417771705962622  0.0257776480281251  0.2500482998624989
  0.9742364954679772  0.4582372101279049  0.2500461054662253
  0.4719616277655803  0.5280521419765662  0.2499957363104741
  0.7900182476436086  0.2100000598869229  0.4690444086171013
  0.2100245675718426  0.7899893635709745  0.5309968543023302
  0.5280598950811921  0.4719478032950803  0.7499666237204679
  0.0257616783602330  0.5417800778503334  0.7499983203729528
  0.4582276347285799  0.9742491500509871  0.7499987955399234
  0.2099293689733273  0.7900774142193185  0.9690045202861270

 -0.00000000E+00  0.00000000E+00  0.00000000E+00
 -0.00000000E+00  0.00000000E+00  0.00000000E+00
 -0.00000000E+00  0.00000000E+00  0.00000000E+00
 -0.00000000E+00  0.00000000E+00  0.00000000E+00
 -0.00000000E+00  0.00000000E+00  0.00000000E+00
 -0.00000000E+00  0.00000000E+00  0.00000000E+00
 -0.00000000E+00  0.00000000E+00  0.00000000E+00
 -0.00000000E+00  0.00000000E+00  0.00000000E+00
 -0.00000000E+00  0.00000000E+00  0.00000000E+00
 -0.00000000E+00  0.00000000E+00  0.00000000E+00
 -0.00000000E+00  0.00000000E+00  0.00000000E+00
 -0.00000000E+00  0.00000000E+00  0.00000000E+00
 -0.00000000E+00  0.00000000E+00  0.00000000E+00
 -0.00000000E+00  0.00000000E+00  0.00000000E+00
 -0.00000000E+00  0.00000000E+00  0.00000000E+00
 -0.00000000E+00  0.00000000E+00  0.00000000E+00
