Ca2B                                    
   1.00000000000000     
     0.0000000000000000    3.3253178630911511    3.3253178630911511
     3.3253178630911511    0.0000000000000000    3.3253178630911511
     3.3253178630911511    3.3253178630911511    0.0000000000000000
   B    Ca
     1     2
Direct
  0.0000000000000000  0.0000000000000000  0.0000000000000000
  0.2500000000000000  0.2500000000000000  0.2500000000000000
  0.7500000000000000  0.7500000000000000  0.7500000000000000
 
  0.00000000E+00  0.00000000E+00  0.00000000E+00
  0.00000000E+00  0.00000000E+00  0.00000000E+00
  0.00000000E+00  0.00000000E+00  0.00000000E+00
