Sr8 Tl8 Cl40                            
   1.0000000000000000     
    -9.0705845114783337    9.0705882376758389    5.9524603478642168
     9.0705845114783337   -9.0705882376758389    5.9524603478642168
     9.0705882376758389    9.0705845114783354   -5.9524603478642168
   Sr   Tl   Cl
     8     8    40
Direct
  0.9144487873989746  0.1422411968493336  0.2382277957862016
  0.9040144010631153  0.6762209916127659  0.7617722042137984
  0.1422411968493336  0.9040144010631153  0.2277934094503635
  0.6762209916127659  0.9144487873989746  0.7722065905496365
  0.8567696565257421  0.5133685936460992  0.2144057734149243
  0.2989618202311775  0.6423638831108249  0.7855942265850757
  0.5133685936460992  0.2989618202311775  0.6565979371203525
  0.6423638831108249  0.8567696565257421  0.3434020628796475
  0.6571441408070910  0.6571441408070910  0.0000000000000000
  0.6570445175264865  0.2136274040122004  0.8661033190475464
  0.3475240849646468  0.7909411984789330  0.1338966809524536
  0.2136274040122004  0.3475240849646468  0.5565828864857210
  0.7909411984789330  0.6570445175264865  0.4434171135142861
  0.0954331364510566  0.0954331364510566  0.0000000000000000
  0.0360414626382095  0.5360414626382095  0.5000000000000000
  0.5360414626382095  0.0360414626382095  0.5000000000000000
  0.4993236365288709  0.9304263414961511  0.8304416373153529
  0.0999847041807982  0.6688819992135180  0.1695583626846471
  0.9304263414961511  0.0999847041807982  0.4311037049672706
  0.6688819992135180  0.4993236365288709  0.5688962950327294
  0.7376821333908694  0.2376821333908694  0.5000000000000000
  0.2376821333908694  0.7376821333908694  0.5000000000000000
  0.4530618123495387  0.4530618123495387  0.0000000000000000
  0.4946731914225850  0.2353636635261012  0.8555218231033876
  0.3798418404227064  0.6391523683192020  0.1444781768966052
  0.2353636635261012  0.3798418404227064  0.7406894721035115
  0.6391523683192020  0.4946731914225850  0.2593105278964885
  0.7165110808619914  0.2559894878386046  0.0598351115663718
  0.1961543762722329  0.6566759692956339  0.9401648884336282
  0.2559894878386046  0.1961543762722329  0.5394784069766061
  0.6566759692956339  0.7165110808619914  0.4605215930233939
  0.6357059902013589  0.9970769566296624  0.2137514600117427
  0.7833254966179268  0.4219545301896019  0.7862485399882573
  0.9970769566296624  0.7833254966179268  0.3613709664283036
  0.4219545301896019  0.6357059902013589  0.6386290335716964
  0.8798005931066371  0.8798005931066371  0.0000000000000000
  0.9589992039742938  0.3853509144720348  0.3019183373795329
  0.0834335770924994  0.6570808665947538  0.6980816626204671
  0.3853509144720348  0.0834335770924994  0.4263527104977456
  0.6570808665947538  0.9589992039742938  0.5736472895022544
  0.2398739345807925  0.1413936205294917  0.1750023381759434
  0.9663912823535767  0.0648725964048467  0.8249976618240566
  0.1413936205294917  0.9663912823535767  0.9015196859487205
  0.0648725964048467  0.2398739345807925  0.0984803140512653
  0.4743993801451154  0.0607599600035371  0.6531393559456973
  0.4076216040578373  0.8212600241994252  0.3468606440543027
  0.0607599600035371  0.4076216040578373  0.5863605798584430
  0.8212600241994252  0.4743993801451154  0.4136394201415641
  0.5683700458287291  0.7631601630656917  0.9237394144626379
  0.8394207486030467  0.6446306313660983  0.0762605855373621
  0.7631601630656917  0.8394207486030467  0.1947901172369413
  0.6446306313660983  0.5683700458287291  0.8052098827630587
  0.3613231474333674  0.9771288663331532  0.1530893120072605
  0.8240395543258927  0.2082348354261185  0.8469106879927395
  0.9771288663331532  0.8240395543258927  0.6158057188997574
  0.2082348354261185  0.3613231474333674  0.3841942811002426

  0.00000000E+00  0.00000000E+00  0.00000000E+00
  0.00000000E+00  0.00000000E+00  0.00000000E+00
  0.00000000E+00  0.00000000E+00  0.00000000E+00
  0.00000000E+00  0.00000000E+00  0.00000000E+00
  0.00000000E+00  0.00000000E+00  0.00000000E+00
  0.00000000E+00  0.00000000E+00  0.00000000E+00
  0.00000000E+00  0.00000000E+00  0.00000000E+00
  0.00000000E+00  0.00000000E+00  0.00000000E+00
  0.00000000E+00  0.00000000E+00  0.00000000E+00
  0.00000000E+00  0.00000000E+00  0.00000000E+00
  0.00000000E+00  0.00000000E+00  0.00000000E+00
  0.00000000E+00  0.00000000E+00  0.00000000E+00
  0.00000000E+00  0.00000000E+00  0.00000000E+00
  0.00000000E+00  0.00000000E+00  0.00000000E+00
  0.00000000E+00  0.00000000E+00  0.00000000E+00
  0.00000000E+00  0.00000000E+00  0.00000000E+00
  0.00000000E+00  0.00000000E+00  0.00000000E+00
  0.00000000E+00  0.00000000E+00  0.00000000E+00
  0.00000000E+00  0.00000000E+00  0.00000000E+00
  0.00000000E+00  0.00000000E+00  0.00000000E+00
  0.00000000E+00  0.00000000E+00  0.00000000E+00
  0.00000000E+00  0.00000000E+00  0.00000000E+00
  0.00000000E+00  0.00000000E+00  0.00000000E+00
  0.00000000E+00  0.00000000E+00  0.00000000E+00
  0.00000000E+00  0.00000000E+00  0.00000000E+00
  0.00000000E+00  0.00000000E+00  0.00000000E+00
  0.00000000E+00  0.00000000E+00  0.00000000E+00
  0.00000000E+00  0.00000000E+00  0.00000000E+00
  0.00000000E+00  0.00000000E+00  0.00000000E+00
  0.00000000E+00  0.00000000E+00  0.00000000E+00
  0.00000000E+00  0.00000000E+00  0.00000000E+00
  0.00000000E+00  0.00000000E+00  0.00000000E+00
  0.00000000E+00  0.00000000E+00  0.00000000E+00
  0.00000000E+00  0.00000000E+00  0.00000000E+00
  0.00000000E+00  0.00000000E+00  0.00000000E+00
  0.00000000E+00  0.00000000E+00  0.00000000E+00
  0.00000000E+00  0.00000000E+00  0.00000000E+00
  0.00000000E+00  0.00000000E+00  0.00000000E+00
  0.00000000E+00  0.00000000E+00  0.00000000E+00
  0.00000000E+00  0.00000000E+00  0.00000000E+00
  0.00000000E+00  0.00000000E+00  0.00000000E+00
  0.00000000E+00  0.00000000E+00  0.00000000E+00
  0.00000000E+00  0.00000000E+00  0.00000000E+00
  0.00000000E+00  0.00000000E+00  0.00000000E+00
  0.00000000E+00  0.00000000E+00  0.00000000E+00
  0.00000000E+00  0.00000000E+00  0.00000000E+00
  0.00000000E+00  0.00000000E+00  0.00000000E+00
  0.00000000E+00  0.00000000E+00  0.00000000E+00
  0.00000000E+00  0.00000000E+00  0.00000000E+00
  0.00000000E+00  0.00000000E+00  0.00000000E+00
  0.00000000E+00  0.00000000E+00  0.00000000E+00
  0.00000000E+00  0.00000000E+00  0.00000000E+00
  0.00000000E+00  0.00000000E+00  0.00000000E+00
  0.00000000E+00  0.00000000E+00  0.00000000E+00
  0.00000000E+00  0.00000000E+00  0.00000000E+00
  0.00000000E+00  0.00000000E+00  0.00000000E+00
