Ca6 Tl4 I24                             
   1.0000000000000000     
     0.0000000000000000    0.0000000000000000    6.6848419114982036
    14.6536979384426846    0.0222836333008612    0.0000000000000000
    -0.0140577863399492   18.3251579385684913    0.0000000000000000
   Ca   I    Tl
     6    24     4
Direct
  0.0000000000000000  0.0753108333624084  0.0987833298192271
  0.5000000000000000  0.3099995431474412  0.0365815436618959
  0.5000000000000000  0.8100364063330829  0.4624058651693304
  0.0000000000000000  0.5739014734658170  0.4028066086583308
  0.5000000000000000  0.0579821503681970  0.6547906308337232
  0.5000000000000000  0.5575480952613106  0.8435773845788859
  0.2464998524366351  0.4640413302791728  0.9668142744858912
  0.7535001475633649  0.4640413302791728  0.9668142744858912
  0.2498322330166189  0.8923442013116727  0.0570254629600413
  0.7501677669833740  0.8923442013116727  0.0570254629600413
  0.0000000000000000  0.2940745749756317  0.1336834928133399
  0.2529974975177609  0.0591570491720148  0.2454525882273089
  0.7470025024822391  0.0591570491720148  0.2454525882273089
  0.2530211985218003  0.5551002364987525  0.2564046021434763
  0.7469788014781997  0.5551002364987525  0.2564046021434763
  0.0000000000000000  0.7923917766575244  0.3650061432296141
  0.2497708889159966  0.3916306918427424  0.4466719566283430
  0.7502291110839963  0.3916306918427424  0.4466719566283430
  0.2464455421605010  0.9641770537481804  0.5317016979131139
  0.7535544578394919  0.9641770537481804  0.5317016979131139
  0.2520002969784016  0.6570259858395033  0.5372414925430604
  0.7479997030215984  0.6570259858395033  0.5372414925430604
  0.0000000000000000  0.1743225105692758  0.6581265860779766
  0.2541775252230423  0.4576021633484757  0.7218020860316443
  0.7458224747769577  0.4576021633484757  0.7218020860316443
  0.2539755479115513  0.9591721676662814  0.7771700438140527
  0.7460244520884487  0.9591721676662814  0.7771700438140527
  0.0000000000000000  0.6737742094443036  0.8394991817167750
  0.2519429075531292  0.1560835622171837  0.9631476921985964
  0.7480570924468637  0.1560835622171837  0.9631476921985964
  0.0000000000000000  0.7428879064744862  0.1865650337429443
  0.0000000000000000  0.2481103348275724  0.3129311462590891
  0.0000000000000000  0.7895152987226624  0.6857385180147944
  0.0000000000000000  0.2876760025424261  0.8128407415330088

  0.00000000E+00  0.00000000E+00  0.00000000E+00
  0.00000000E+00  0.00000000E+00  0.00000000E+00
  0.00000000E+00  0.00000000E+00  0.00000000E+00
  0.00000000E+00  0.00000000E+00  0.00000000E+00
  0.00000000E+00  0.00000000E+00  0.00000000E+00
  0.00000000E+00  0.00000000E+00  0.00000000E+00
  0.00000000E+00  0.00000000E+00  0.00000000E+00
  0.00000000E+00  0.00000000E+00  0.00000000E+00
  0.00000000E+00  0.00000000E+00  0.00000000E+00
  0.00000000E+00  0.00000000E+00  0.00000000E+00
  0.00000000E+00  0.00000000E+00  0.00000000E+00
  0.00000000E+00  0.00000000E+00  0.00000000E+00
  0.00000000E+00  0.00000000E+00  0.00000000E+00
  0.00000000E+00  0.00000000E+00  0.00000000E+00
  0.00000000E+00  0.00000000E+00  0.00000000E+00
  0.00000000E+00  0.00000000E+00  0.00000000E+00
  0.00000000E+00  0.00000000E+00  0.00000000E+00
  0.00000000E+00  0.00000000E+00  0.00000000E+00
  0.00000000E+00  0.00000000E+00  0.00000000E+00
  0.00000000E+00  0.00000000E+00  0.00000000E+00
  0.00000000E+00  0.00000000E+00  0.00000000E+00
  0.00000000E+00  0.00000000E+00  0.00000000E+00
  0.00000000E+00  0.00000000E+00  0.00000000E+00
  0.00000000E+00  0.00000000E+00  0.00000000E+00
  0.00000000E+00  0.00000000E+00  0.00000000E+00
  0.00000000E+00  0.00000000E+00  0.00000000E+00
  0.00000000E+00  0.00000000E+00  0.00000000E+00
  0.00000000E+00  0.00000000E+00  0.00000000E+00
  0.00000000E+00  0.00000000E+00  0.00000000E+00
  0.00000000E+00  0.00000000E+00  0.00000000E+00
  0.00000000E+00  0.00000000E+00  0.00000000E+00
  0.00000000E+00  0.00000000E+00  0.00000000E+00
  0.00000000E+00  0.00000000E+00  0.00000000E+00
  0.00000000E+00  0.00000000E+00  0.00000000E+00
