Ba10 Tl4 Cl32                           
   1.0000000000000000     
     4.8348658931358139   -8.2683832869907548    0.0000000000000000
     4.8348658931358139    8.2683832869907548    0.0000000000000000
     0.0000000000000000    0.0000000000000000   18.4869462010819205
   Ba   Tl   Cl
    10     4    32
Direct
  0.0000000000000000  0.0000000000000000  0.7161059130810870
  0.0000000000000000  0.0000000000000000  0.2838940869189130
  0.5000000000000000  0.5000000000000000  0.7838940869189130
  0.5000000000000000  0.5000000000000000  0.2161059130810870
  0.5000000000000000  0.5000000000000000  0.5000000000000000
  0.0000000000000000  0.0000000000000000  0.0000000000000000
  0.0000000000000000  0.5000000000000000  0.6440613112787688
  0.5000000000000000  0.0000000000000000  0.3559386887212241
  0.5000000000000000  0.0000000000000000  0.8559386887212312
  0.0000000000000000  0.5000000000000000  0.1440613112787759
  0.5000000000000000  0.0000000000000000  0.6100752411522805
  0.0000000000000000  0.5000000000000000  0.3899247588477266
  0.0000000000000000  0.5000000000000000  0.8899247588477195
  0.5000000000000000  0.0000000000000000  0.1100752411522805
  0.5516401706439353  0.2107349694772367  0.7111479840627268
  0.4483598293560647  0.7892650305227633  0.7111479840627268
  0.2107349694772367  0.5516401706439353  0.2888520159372732
  0.7892650305227633  0.4483598293560647  0.2888520159372732
  0.9483598293560647  0.2892650305227633  0.7888520159372732
  0.0516401706439353  0.7107349694772367  0.7888520159372732
  0.2892650305227633  0.9483598293560647  0.2111479840627268
  0.7107349694772367  0.0516401706439353  0.2111479840627268
  0.1802679796013322  0.8740436069377608  0.6121289500124973
  0.8197320203986678  0.1259563930622392  0.6121289500124973
  0.8740436069377608  0.1802679796013322  0.3878710499875027
  0.1259563930622392  0.8197320203986678  0.3878710499875027
  0.3197320203986678  0.6259563930622392  0.8878710499875027
  0.6802679796013322  0.3740436069377608  0.8878710499875027
  0.6653756544717098  0.9764748547415181  0.0040093778094032
  0.3346243455282902  0.0235251452584819  0.0040093778094032
  0.9764748547415181  0.6653756544717098  0.9959906221905968
  0.0235251452584819  0.3346243455282902  0.9959906221905968
  0.8346243455282902  0.5235251452584819  0.4959906221905968
  0.1653756544717098  0.4764748547415181  0.4959906221905968
  0.5235251452584819  0.8346243455282902  0.5040093778094032
  0.4764748547415181  0.1653756544717098  0.5040093778094032
  0.8569361573937258  0.7604845372560050  0.1530914503051477
  0.1430638426062742  0.2395154627439950  0.1530914503051477
  0.7604845372560050  0.8569361573937258  0.8469085496948523
  0.2395154627439950  0.1430638426062742  0.8469085496948523
  0.6430638426062742  0.7395154627439950  0.3469085496948523
  0.3569361573937258  0.2604845372560050  0.3469085496948523
  0.7395154627439950  0.6430638426062742  0.6530914503051477
  0.2604845372560050  0.3569361573937258  0.6530914503051477
  0.3740436069377608  0.6802679796013322  0.1121289500124973
  0.6259563930622392  0.3197320203986678  0.1121289500124973

  0.00000000E+00  0.00000000E+00  0.00000000E+00
  0.00000000E+00  0.00000000E+00  0.00000000E+00
  0.00000000E+00  0.00000000E+00  0.00000000E+00
  0.00000000E+00  0.00000000E+00  0.00000000E+00
  0.00000000E+00  0.00000000E+00  0.00000000E+00
  0.00000000E+00  0.00000000E+00  0.00000000E+00
  0.00000000E+00  0.00000000E+00  0.00000000E+00
  0.00000000E+00  0.00000000E+00  0.00000000E+00
  0.00000000E+00  0.00000000E+00  0.00000000E+00
  0.00000000E+00  0.00000000E+00  0.00000000E+00
  0.00000000E+00  0.00000000E+00  0.00000000E+00
  0.00000000E+00  0.00000000E+00  0.00000000E+00
  0.00000000E+00  0.00000000E+00  0.00000000E+00
  0.00000000E+00  0.00000000E+00  0.00000000E+00
  0.00000000E+00  0.00000000E+00  0.00000000E+00
  0.00000000E+00  0.00000000E+00  0.00000000E+00
  0.00000000E+00  0.00000000E+00  0.00000000E+00
  0.00000000E+00  0.00000000E+00  0.00000000E+00
  0.00000000E+00  0.00000000E+00  0.00000000E+00
  0.00000000E+00  0.00000000E+00  0.00000000E+00
  0.00000000E+00  0.00000000E+00  0.00000000E+00
  0.00000000E+00  0.00000000E+00  0.00000000E+00
  0.00000000E+00  0.00000000E+00  0.00000000E+00
  0.00000000E+00  0.00000000E+00  0.00000000E+00
  0.00000000E+00  0.00000000E+00  0.00000000E+00
  0.00000000E+00  0.00000000E+00  0.00000000E+00
  0.00000000E+00  0.00000000E+00  0.00000000E+00
  0.00000000E+00  0.00000000E+00  0.00000000E+00
  0.00000000E+00  0.00000000E+00  0.00000000E+00
  0.00000000E+00  0.00000000E+00  0.00000000E+00
  0.00000000E+00  0.00000000E+00  0.00000000E+00
  0.00000000E+00  0.00000000E+00  0.00000000E+00
  0.00000000E+00  0.00000000E+00  0.00000000E+00
  0.00000000E+00  0.00000000E+00  0.00000000E+00
  0.00000000E+00  0.00000000E+00  0.00000000E+00
  0.00000000E+00  0.00000000E+00  0.00000000E+00
  0.00000000E+00  0.00000000E+00  0.00000000E+00
  0.00000000E+00  0.00000000E+00  0.00000000E+00
  0.00000000E+00  0.00000000E+00  0.00000000E+00
  0.00000000E+00  0.00000000E+00  0.00000000E+00
  0.00000000E+00  0.00000000E+00  0.00000000E+00
  0.00000000E+00  0.00000000E+00  0.00000000E+00
  0.00000000E+00  0.00000000E+00  0.00000000E+00
  0.00000000E+00  0.00000000E+00  0.00000000E+00
  0.00000000E+00  0.00000000E+00  0.00000000E+00
  0.00000000E+00  0.00000000E+00  0.00000000E+00
