MgCl                                    
   1.00000000000000     
     1.7530816207348474   -3.0371418965028871   -0.0004089977758694
     1.7530816207348474    3.0371418965028871    0.0004089977758694
     0.0000000000000000    0.0017356887862039   11.8135781859859144
   Cl   Mg
     2     2
Direct
  0.9998300581059283  0.0001699418940717  0.0010052770741282
  0.3332345662840410  0.6667654337159519  0.5014566367979185
  0.9999096132503453  0.0000903867496547  0.3738841060633007
  0.3330257623596822  0.6669742376403178  0.8734539800646601
 
  0.00000000E+00  0.00000000E+00  0.00000000E+00
  0.00000000E+00  0.00000000E+00  0.00000000E+00
  0.00000000E+00  0.00000000E+00  0.00000000E+00
  0.00000000E+00  0.00000000E+00  0.00000000E+00
