Ca10 Tl4 Cl32                           
   1.0000000000000000     
     4.9541123162134255   -6.8647278340561213    0.0000000000000000
     4.9541123162134255    6.8647278340561213    0.0000000000000000
     0.0000000000000000    0.0000000000000000   19.2311891409235152
   Ca   Tl   Cl
    10     4    32
Direct
  0.0000000000000000  0.0000000000000000  0.7498694810194806
  0.0000000000000000  0.0000000000000000  0.2501305189805194
  0.5000000000000000  0.5000000000000000  0.7501305189805194
  0.5000000000000000  0.5000000000000000  0.2498694810194806
  0.5000000000000000  0.5000000000000000  0.5000000000000000
  0.0000000000000000  0.0000000000000000  0.0000000000000000
  0.0000000000000000  0.5000000000000000  0.5989348603288249
  0.5000000000000000  0.0000000000000000  0.4010651396711751
  0.5000000000000000  0.0000000000000000  0.9010651396711751
  0.0000000000000000  0.5000000000000000  0.0989348603288249
  0.5000000000000000  0.0000000000000000  0.6291892506607581
  0.0000000000000000  0.5000000000000000  0.3708107493392419
  0.0000000000000000  0.5000000000000000  0.8708107493392419
  0.5000000000000000  0.0000000000000000  0.1291892506607581
  0.3982513551181697  0.1578106604007772  0.7259153880851628
  0.6017486448818303  0.8421893395992228  0.7259153880851628
  0.1578106604007772  0.3982513551181697  0.2740846119148372
  0.8421893395992228  0.6017486448818303  0.2740846119148372
  0.1017486448818303  0.3421893395992228  0.7740846119148372
  0.8982513551181697  0.6578106604007772  0.7740846119148372
  0.3421893395992228  0.1017486448818303  0.2259153880851628
  0.6578106604007772  0.8982513551181697  0.2259153880851628
  0.1522620885136519  0.8383753617070937  0.6337699753651904
  0.8477379114863481  0.1616246382929063  0.6337699753651904
  0.8383753617070937  0.1522620885136519  0.3662300246348096
  0.1616246382929063  0.8477379114863481  0.3662300246348096
  0.3477379114863481  0.6616246382929063  0.8662300246348096
  0.6522620885136519  0.3383753617070937  0.8662300246348096
  0.6564069803295212  0.9211461015689935  0.0249989321610045
  0.3435930196704788  0.0788538984310065  0.0249989321610045
  0.9211461015689935  0.6564069803295212  0.9750010678389955
  0.0788538984310065  0.3435930196704788  0.9750010678389955
  0.8435930196704788  0.5788538984310065  0.4750010678389955
  0.1564069803295212  0.4211461015689935  0.4750010678389955
  0.5788538984310065  0.8435930196704788  0.5249989321610045
  0.4211461015689935  0.1564069803295212  0.5249989321610045
  0.9922949312153477  0.8089332412615065  0.1294154612433616
  0.0077050687846523  0.1910667587384935  0.1294154612433616
  0.8089332412615065  0.9922949312153477  0.8705845387566384
  0.1910667587384935  0.0077050687846523  0.8705845387566384
  0.5077050687846594  0.6910667587384935  0.3705845387566384
  0.4922949312153477  0.3089332412615065  0.3705845387566384
  0.6910667587384935  0.5077050687846594  0.6294154612433616
  0.3089332412615065  0.4922949312153477  0.6294154612433616
  0.3383753617070937  0.6522620885136519  0.1337699753651904
  0.6616246382929063  0.3477379114863481  0.1337699753651904

  0.00000000E+00  0.00000000E+00  0.00000000E+00
  0.00000000E+00  0.00000000E+00  0.00000000E+00
  0.00000000E+00  0.00000000E+00  0.00000000E+00
  0.00000000E+00  0.00000000E+00  0.00000000E+00
  0.00000000E+00  0.00000000E+00  0.00000000E+00
  0.00000000E+00  0.00000000E+00  0.00000000E+00
  0.00000000E+00  0.00000000E+00  0.00000000E+00
  0.00000000E+00  0.00000000E+00  0.00000000E+00
  0.00000000E+00  0.00000000E+00  0.00000000E+00
  0.00000000E+00  0.00000000E+00  0.00000000E+00
  0.00000000E+00  0.00000000E+00  0.00000000E+00
  0.00000000E+00  0.00000000E+00  0.00000000E+00
  0.00000000E+00  0.00000000E+00  0.00000000E+00
  0.00000000E+00  0.00000000E+00  0.00000000E+00
  0.00000000E+00  0.00000000E+00  0.00000000E+00
  0.00000000E+00  0.00000000E+00  0.00000000E+00
  0.00000000E+00  0.00000000E+00  0.00000000E+00
  0.00000000E+00  0.00000000E+00  0.00000000E+00
  0.00000000E+00  0.00000000E+00  0.00000000E+00
  0.00000000E+00  0.00000000E+00  0.00000000E+00
  0.00000000E+00  0.00000000E+00  0.00000000E+00
  0.00000000E+00  0.00000000E+00  0.00000000E+00
  0.00000000E+00  0.00000000E+00  0.00000000E+00
  0.00000000E+00  0.00000000E+00  0.00000000E+00
  0.00000000E+00  0.00000000E+00  0.00000000E+00
  0.00000000E+00  0.00000000E+00  0.00000000E+00
  0.00000000E+00  0.00000000E+00  0.00000000E+00
  0.00000000E+00  0.00000000E+00  0.00000000E+00
  0.00000000E+00  0.00000000E+00  0.00000000E+00
  0.00000000E+00  0.00000000E+00  0.00000000E+00
  0.00000000E+00  0.00000000E+00  0.00000000E+00
  0.00000000E+00  0.00000000E+00  0.00000000E+00
  0.00000000E+00  0.00000000E+00  0.00000000E+00
  0.00000000E+00  0.00000000E+00  0.00000000E+00
  0.00000000E+00  0.00000000E+00  0.00000000E+00
  0.00000000E+00  0.00000000E+00  0.00000000E+00
  0.00000000E+00  0.00000000E+00  0.00000000E+00
  0.00000000E+00  0.00000000E+00  0.00000000E+00
  0.00000000E+00  0.00000000E+00  0.00000000E+00
  0.00000000E+00  0.00000000E+00  0.00000000E+00
  0.00000000E+00  0.00000000E+00  0.00000000E+00
  0.00000000E+00  0.00000000E+00  0.00000000E+00
  0.00000000E+00  0.00000000E+00  0.00000000E+00
  0.00000000E+00  0.00000000E+00  0.00000000E+00
  0.00000000E+00  0.00000000E+00  0.00000000E+00
  0.00000000E+00  0.00000000E+00  0.00000000E+00
