CaAl4                                   
   1.00000000000000     
    -4.3323266471985864    0.0098955093011254   -0.0025836293249227
     0.0098955093011254   -4.3323266471985873   -0.0025836293249227
     2.1645883761635472    2.1645883761635467    5.6384885895144885
   Al   Ca
     4     1
Direct
  0.6136725167798787  0.6136725167798787  0.2274220145549464
  0.7495957109316151  0.2504042890683849  0.5000000000000000
  0.2504042890683849  0.7495957109316151  0.5000000000000000
  0.3863274832201213  0.3863274832201213  0.7725779854450536
  0.0000000000000000  0.0000000000000000  0.0000000000000000
 
  0.00000000E+00  0.00000000E+00  0.00000000E+00
  0.00000000E+00  0.00000000E+00  0.00000000E+00
  0.00000000E+00  0.00000000E+00  0.00000000E+00
  0.00000000E+00  0.00000000E+00  0.00000000E+00
  0.00000000E+00  0.00000000E+00  0.00000000E+00
