Ba3 In8                                 
   1.0000000000000000     
    -4.8959181586691267   -0.0035726397952360   -0.0070719737257272
    -0.0041879797075776   -5.0586546362893401   -0.0023708754191099
     2.4718373359310197    2.5375165240553876   15.0364185164137023
   Ba   In
     3     8
Direct
  0.0003294982805855  0.9999577329260703  0.0000275856558218
  0.1506363293059110  0.6490882715113599  0.2984816389717153
  0.8491298895421195  0.3508506492361505  0.7014148127795963
  0.5091934664815199  0.5491231074196108  0.0975085144362566
  0.6415452823349810  0.0955461806439573  0.1905781279217962
  0.6872513156693572  0.1912173149066589  0.3837094728527433
  0.7533559788213537  0.7492754543603013  0.4988854479389886
  0.2461650609998216  0.2507391524749494  0.5010336663445898
  0.3122592521610770  0.8087421031099211  0.6161943737859801
  0.3585614936940615  0.9043358552787097  0.8093734086106252
  0.4915724327092263  0.4507241781322833  0.9023929507018877

  0.00000000E+00  0.00000000E+00  0.00000000E+00
  0.00000000E+00  0.00000000E+00  0.00000000E+00
  0.00000000E+00  0.00000000E+00  0.00000000E+00
  0.00000000E+00  0.00000000E+00  0.00000000E+00
  0.00000000E+00  0.00000000E+00  0.00000000E+00
  0.00000000E+00  0.00000000E+00  0.00000000E+00
  0.00000000E+00  0.00000000E+00  0.00000000E+00
  0.00000000E+00  0.00000000E+00  0.00000000E+00
  0.00000000E+00  0.00000000E+00  0.00000000E+00
  0.00000000E+00  0.00000000E+00  0.00000000E+00
  0.00000000E+00  0.00000000E+00  0.00000000E+00
