Ca4 Al2 I10                             
   1.00000000000000     
     6.2863156647298801   -6.4761570229690033   -0.5357335509290411
     6.2863156647298801    6.4761570229690033   -0.5357335509290411
    -6.9042781625388416    0.0000000000000000    8.8498216595506634
   I    Ca   Al
    10     4     2
Direct
  0.4991918982111088  0.0004514363161690  0.9999153826055291
  0.0004514363161690  0.4991918982111088  0.9999153826055291
  0.9899505869891456  0.9899505869891456  0.3083103712585142
  0.7901470694704855  0.5004653147093379  0.2498285375993490
  0.5004653147093379  0.7901470694704855  0.2498285375993490
  0.2393966369303939  0.2393966369303939  0.2011103580090321
  0.7604684081730397  0.7604684081730397  0.7994331092113569
  0.5003708861538811  0.2103515192418541  0.7505945707406312
  0.2103515192418541  0.5003708861538811  0.7505945707406312
  0.0096758560555941  0.0096758560555941  0.6901042966540416
  0.8248706883548707  0.1749315239884197  0.0005395101706327
  0.3424811852942682  0.3424811852942682  0.0027010482930763
  0.6565654218104342  0.6565654218104342  0.9972621439944689
  0.1749315239884197  0.8248706883548707  0.0005395101706327
  0.8268200456096650  0.1737615226913150  0.4996613351736201
  0.1737615226913150  0.8268200456096650  0.4996613351736201
 
  0.00000000E+00  0.00000000E+00  0.00000000E+00
  0.00000000E+00  0.00000000E+00  0.00000000E+00
  0.00000000E+00  0.00000000E+00  0.00000000E+00
  0.00000000E+00  0.00000000E+00  0.00000000E+00
  0.00000000E+00  0.00000000E+00  0.00000000E+00
  0.00000000E+00  0.00000000E+00  0.00000000E+00
  0.00000000E+00  0.00000000E+00  0.00000000E+00
  0.00000000E+00  0.00000000E+00  0.00000000E+00
  0.00000000E+00  0.00000000E+00  0.00000000E+00
  0.00000000E+00  0.00000000E+00  0.00000000E+00
  0.00000000E+00  0.00000000E+00  0.00000000E+00
  0.00000000E+00  0.00000000E+00  0.00000000E+00
  0.00000000E+00  0.00000000E+00  0.00000000E+00
  0.00000000E+00  0.00000000E+00  0.00000000E+00
  0.00000000E+00  0.00000000E+00  0.00000000E+00
  0.00000000E+00  0.00000000E+00  0.00000000E+00
