Be1 B3 F6                               
   1.00000000000000     
    -2.1388691039437697    2.4383912594121941    2.2986875575912293
     4.4454508104011516   -2.6951341031531628    4.4454508104011499
     2.2986875575912289    2.4383912594121950   -2.1388691039437719
   F    Be   B 
     6     1     3
Direct
  0.1760471883783623  0.8281618680602989  0.1760471883783623
  0.7321739709877875  0.0000000000000000  0.2678260290122125
  0.3414060538785080  0.1987079878691631  0.3414060538785080
  0.6585939461214849  0.8012920121308369  0.6585939461214849
  0.8239528116216377  0.1718381319397082  0.8239528116216377
  0.2678260290122125  0.0000000000000000  0.7321739709877875
  0.0000000000000000  0.0000000000000000  0.0000000000000000
  0.6373724203949109  0.5000000000000000  0.3626275796050891
  0.5000000000000000  0.0000000000000000  0.5000000000000000
  0.3626275796050891  0.5000000000000000  0.6373724203949109
 
  0.00000000E+00  0.00000000E+00  0.00000000E+00
  0.00000000E+00  0.00000000E+00  0.00000000E+00
  0.00000000E+00  0.00000000E+00  0.00000000E+00
  0.00000000E+00  0.00000000E+00  0.00000000E+00
  0.00000000E+00  0.00000000E+00  0.00000000E+00
  0.00000000E+00  0.00000000E+00  0.00000000E+00
  0.00000000E+00  0.00000000E+00  0.00000000E+00
  0.00000000E+00  0.00000000E+00  0.00000000E+00
  0.00000000E+00  0.00000000E+00  0.00000000E+00
  0.00000000E+00  0.00000000E+00  0.00000000E+00
