Mg6 Al4 I24                             
   1.00000000000000     
    16.2190423367217242    0.0028235745602720    0.0000000000000000
     0.0009680705839811   14.4277975450373432    0.0000000000000000
     0.0000000000000000    0.0000000000000000    7.8817555866882794
   I    Al   Mg
    24     4     6
Direct
  0.6400034913788701  0.1866496713643286  0.0000000000000000
  0.1649165985421064  0.2887403522476859  0.0000000000000000
  0.8599957429483638  0.6864957434095231  0.0000000000000000
  0.3350289475531127  0.7887351589768770  0.0000000000000000
  0.4648463814299078  0.0009723266623070  0.2626396380266200
  0.0351583488998912  0.5011471973021813  0.2626498592413284
  0.2231960428550934  0.0512802851039922  0.2438365922116361
  0.8590892595790720  0.1913303022621022  0.2375882548230237
  0.3861998590202802  0.2633615004672691  0.2417099869128378
  0.7442300907972523  0.4225317271028430  0.2391994986157115
  0.2767626728621693  0.5513477298652987  0.2438656224521552
  0.6409104241911692  0.6914449884874116  0.2375929257889240
  0.1136821801631740  0.7635243081734444  0.2416975443250422
  0.7558047348632257  0.9225083356658814  0.2391919291416045
  0.2231960428550934  0.0512802851039922  0.7561634077883710
  0.8590892595790720  0.1913303022621022  0.7624117451769763
  0.3861998590202802  0.2633615004672691  0.7582900130871622
  0.7442300907972523  0.4225317271028430  0.7608005013842885
  0.2767626728621693  0.5513477298652987  0.7561343775478448
  0.6409104241911692  0.6914449884874116  0.7624070742110760
  0.1136821801631740  0.7635243081734444  0.7583024556749578
  0.7558047348632257  0.9225083356658814  0.7608080708583955
  0.4648463814299078  0.0009723266623070  0.7373603619733800
  0.0351583488998912  0.5011471973021813  0.7373501407586716
  0.2835527193570826  0.1745619748175713  0.0000000000000000
  0.7738131203413232  0.2909118131966224  0.0000000000000000
  0.2163445620194793  0.6746506209106187  0.0000000000000000
  0.7261906811964423  0.7909299573280748  0.0000000000000000
  0.7828406499173468  0.0660028223095566  0.0000000000000000
  0.7171439855543440  0.5660277191531335  0.0000000000000000
  0.4534272655903351  0.1481519828176374  0.5000000000000000
  0.1667224604793702  0.4852909411796631  0.5000000000000000
  0.0465793999977038  0.6483160480744843  0.5000000000000000
  0.3332803858016362  0.9852377920287765  0.5000000000000000
 
  0.00000000E+00  0.00000000E+00  0.00000000E+00
  0.00000000E+00  0.00000000E+00  0.00000000E+00
  0.00000000E+00  0.00000000E+00  0.00000000E+00
  0.00000000E+00  0.00000000E+00  0.00000000E+00
  0.00000000E+00  0.00000000E+00  0.00000000E+00
  0.00000000E+00  0.00000000E+00  0.00000000E+00
  0.00000000E+00  0.00000000E+00  0.00000000E+00
  0.00000000E+00  0.00000000E+00  0.00000000E+00
  0.00000000E+00  0.00000000E+00  0.00000000E+00
  0.00000000E+00  0.00000000E+00  0.00000000E+00
  0.00000000E+00  0.00000000E+00  0.00000000E+00
  0.00000000E+00  0.00000000E+00  0.00000000E+00
  0.00000000E+00  0.00000000E+00  0.00000000E+00
  0.00000000E+00  0.00000000E+00  0.00000000E+00
  0.00000000E+00  0.00000000E+00  0.00000000E+00
  0.00000000E+00  0.00000000E+00  0.00000000E+00
  0.00000000E+00  0.00000000E+00  0.00000000E+00
  0.00000000E+00  0.00000000E+00  0.00000000E+00
  0.00000000E+00  0.00000000E+00  0.00000000E+00
  0.00000000E+00  0.00000000E+00  0.00000000E+00
  0.00000000E+00  0.00000000E+00  0.00000000E+00
  0.00000000E+00  0.00000000E+00  0.00000000E+00
  0.00000000E+00  0.00000000E+00  0.00000000E+00
  0.00000000E+00  0.00000000E+00  0.00000000E+00
  0.00000000E+00  0.00000000E+00  0.00000000E+00
  0.00000000E+00  0.00000000E+00  0.00000000E+00
  0.00000000E+00  0.00000000E+00  0.00000000E+00
  0.00000000E+00  0.00000000E+00  0.00000000E+00
  0.00000000E+00  0.00000000E+00  0.00000000E+00
  0.00000000E+00  0.00000000E+00  0.00000000E+00
  0.00000000E+00  0.00000000E+00  0.00000000E+00
  0.00000000E+00  0.00000000E+00  0.00000000E+00
  0.00000000E+00  0.00000000E+00  0.00000000E+00
  0.00000000E+00  0.00000000E+00  0.00000000E+00
