Mg10 In4 I32                            
   1.00000000000000     
     6.6341483816824116   -6.7303706302421240    0.0000000000000000
     6.6341483816824116    6.7303706302421240    0.0000000000000000
     0.0000000000000000    0.0000000000000000   22.5647127477722371
   Mg   In   I 
    10     4    32
Direct
  0.0000000000000000  0.0000000000000000  0.7530206935182449
  0.0000000000000000  0.0000000000000000  0.2469793064817551
  0.5000000000000000  0.5000000000000000  0.7469793064817551
  0.5000000000000000  0.5000000000000000  0.2530206935182449
  0.5000000000000000  0.5000000000000000  0.5000000000000000
  0.0000000000000000  0.0000000000000000  0.0000000000000000
  0.0000000000000000  0.5000000000000000  0.6760001516714169
  0.5000000000000000  0.0000000000000000  0.3239998483285831
  0.5000000000000000  0.0000000000000000  0.8239998483285831
  0.0000000000000000  0.5000000000000000  0.1760001516714169
  0.5000000000000000  0.0000000000000000  0.6280009616677162
  0.0000000000000000  0.5000000000000000  0.3719990383322838
  0.0000000000000000  0.5000000000000000  0.8719990383322838
  0.5000000000000000  0.0000000000000000  0.1280009616677162
  0.5269426447607728  0.2075373364548980  0.7365837757823854
  0.4730573552392272  0.7924626635451020  0.7365837757823854
  0.2075373364548980  0.5269426447607728  0.2634162242176146
  0.7924626635451020  0.4730573552392272  0.2634162242176146
  0.9730573552392272  0.2924626635451020  0.7634162242176146
  0.0269426447607728  0.7075373364548980  0.7634162242176146
  0.2924626635451020  0.9730573552392272  0.2365837757823854
  0.7075373364548980  0.0269426447607728  0.2365837757823854
  0.1920175507632891  0.0126341485257768  0.6418906502506800
  0.8079824492367109  0.9873658514742232  0.6418906502506800
  0.0126341485257768  0.1920175507632891  0.3581093497493200
  0.9873658514742232  0.8079824492367109  0.3581093497493200
  0.3079824492367109  0.4873658514742232  0.8581093497493200
  0.6920175507632891  0.5126341485257768  0.8581093497493200
  0.7049604770849953  0.0063991105868553  0.0297493124885193
  0.2950395229150047  0.9936008894131447  0.0297493124885193
  0.0063991105868553  0.7049604770849953  0.9702506875114807
  0.9936008894131447  0.2950395229150047  0.9702506875114807
  0.7950395229150047  0.4936008894131447  0.4702506875114807
  0.2049604770849953  0.5063991105868553  0.4702506875114807
  0.4936008894131447  0.7950395229150047  0.5297493124885193
  0.5063991105868553  0.2049604770849953  0.5297493124885193
  0.9817647104435849  0.7793176857657542  0.1443411430895765
  0.0182352895564151  0.2206823142342458  0.1443411430895765
  0.7793176857657542  0.9817647104435849  0.8556588569104235
  0.2206823142342458  0.0182352895564151  0.8556588569104235
  0.5182352895564151  0.7206823142342458  0.3556588569104235
  0.4817647104435849  0.2793176857657542  0.3556588569104235
  0.7206823142342458  0.5182352895564151  0.6443411430895765
  0.2793176857657542  0.4817647104435849  0.6443411430895765
  0.5126341485257768  0.6920175507632891  0.1418906502506800
  0.4873658514742232  0.3079824492367109  0.1418906502506800
 
  0.00000000E+00  0.00000000E+00  0.00000000E+00
  0.00000000E+00  0.00000000E+00  0.00000000E+00
  0.00000000E+00  0.00000000E+00  0.00000000E+00
  0.00000000E+00  0.00000000E+00  0.00000000E+00
  0.00000000E+00  0.00000000E+00  0.00000000E+00
  0.00000000E+00  0.00000000E+00  0.00000000E+00
  0.00000000E+00  0.00000000E+00  0.00000000E+00
  0.00000000E+00  0.00000000E+00  0.00000000E+00
  0.00000000E+00  0.00000000E+00  0.00000000E+00
  0.00000000E+00  0.00000000E+00  0.00000000E+00
  0.00000000E+00  0.00000000E+00  0.00000000E+00
  0.00000000E+00  0.00000000E+00  0.00000000E+00
  0.00000000E+00  0.00000000E+00  0.00000000E+00
  0.00000000E+00  0.00000000E+00  0.00000000E+00
  0.00000000E+00  0.00000000E+00  0.00000000E+00
  0.00000000E+00  0.00000000E+00  0.00000000E+00
  0.00000000E+00  0.00000000E+00  0.00000000E+00
  0.00000000E+00  0.00000000E+00  0.00000000E+00
  0.00000000E+00  0.00000000E+00  0.00000000E+00
  0.00000000E+00  0.00000000E+00  0.00000000E+00
  0.00000000E+00  0.00000000E+00  0.00000000E+00
  0.00000000E+00  0.00000000E+00  0.00000000E+00
  0.00000000E+00  0.00000000E+00  0.00000000E+00
  0.00000000E+00  0.00000000E+00  0.00000000E+00
  0.00000000E+00  0.00000000E+00  0.00000000E+00
  0.00000000E+00  0.00000000E+00  0.00000000E+00
  0.00000000E+00  0.00000000E+00  0.00000000E+00
  0.00000000E+00  0.00000000E+00  0.00000000E+00
  0.00000000E+00  0.00000000E+00  0.00000000E+00
  0.00000000E+00  0.00000000E+00  0.00000000E+00
  0.00000000E+00  0.00000000E+00  0.00000000E+00
  0.00000000E+00  0.00000000E+00  0.00000000E+00
  0.00000000E+00  0.00000000E+00  0.00000000E+00
  0.00000000E+00  0.00000000E+00  0.00000000E+00
  0.00000000E+00  0.00000000E+00  0.00000000E+00
  0.00000000E+00  0.00000000E+00  0.00000000E+00
  0.00000000E+00  0.00000000E+00  0.00000000E+00
  0.00000000E+00  0.00000000E+00  0.00000000E+00
  0.00000000E+00  0.00000000E+00  0.00000000E+00
  0.00000000E+00  0.00000000E+00  0.00000000E+00
  0.00000000E+00  0.00000000E+00  0.00000000E+00
  0.00000000E+00  0.00000000E+00  0.00000000E+00
  0.00000000E+00  0.00000000E+00  0.00000000E+00
  0.00000000E+00  0.00000000E+00  0.00000000E+00
  0.00000000E+00  0.00000000E+00  0.00000000E+00
  0.00000000E+00  0.00000000E+00  0.00000000E+00
