Be16 Tl6                                
   1.0000000000000000     
     5.4016050885531595    0.1572774386629837    0.1741876113449878
    -3.0297406503291233    9.2020027281405827   -3.2707733872377962
    -0.3464861365544606   -5.1744979775217033    8.6198621548706793
   Tl   Be
     6    16
Direct
  0.1407176874047664  0.5294308664011851  0.1323530684462995
  0.6886958356782671  0.6048627880510082  0.9617733044980739
  0.8571605697857905  0.9356487302255374  0.5142718621598519
  0.3701818300529354  0.9722065299386742  0.2698806563060003
  0.0816804228806376  0.3684211284731731  0.6176055563238663
  0.4373138195339195  0.0852888349353691  0.7783374461108750
  0.0449496207729254  0.2337046614580132  0.1194969054720616
  0.7086430358366087  0.3534412024712452  0.1880323060243754
  0.2874127108584901  0.0576939864139803  0.0432387978201874
  0.4858537296242815  0.5488670782784979  0.3450103346879843
  0.7167238841044252  0.2429959920910534  0.2928794240220114
  0.9752329352283766  0.0756413236554891  0.1864901075143379
  0.3867187484097769  0.3420838372061752  0.3508604724149720
  0.1195789579418047  0.4981169512881607  0.4259314320202634
  0.8024737290039923  0.5808574927908552  0.5275790363855819
  0.5098230774036665  0.6734613586700746  0.6476215028768593
  0.9284082953881594  0.9241435996749772  0.7983286269027587
  0.2034536011854442  0.7742428945230557  0.7421296462630451
  0.6222249321264286  0.4306181179829451  0.6003706407736615
  0.6266062404491066  0.9777907477017820  0.9627901022111303
  0.6421958986080298  0.5156261476453494  0.1303164160316825
  0.8643504377221802  0.7745557301233887  0.8651023547341055

  0.00000000E+00  0.00000000E+00  0.00000000E+00
  0.00000000E+00  0.00000000E+00  0.00000000E+00
  0.00000000E+00  0.00000000E+00  0.00000000E+00
  0.00000000E+00  0.00000000E+00  0.00000000E+00
  0.00000000E+00  0.00000000E+00  0.00000000E+00
  0.00000000E+00  0.00000000E+00  0.00000000E+00
  0.00000000E+00  0.00000000E+00  0.00000000E+00
  0.00000000E+00  0.00000000E+00  0.00000000E+00
  0.00000000E+00  0.00000000E+00  0.00000000E+00
  0.00000000E+00  0.00000000E+00  0.00000000E+00
  0.00000000E+00  0.00000000E+00  0.00000000E+00
  0.00000000E+00  0.00000000E+00  0.00000000E+00
  0.00000000E+00  0.00000000E+00  0.00000000E+00
  0.00000000E+00  0.00000000E+00  0.00000000E+00
  0.00000000E+00  0.00000000E+00  0.00000000E+00
  0.00000000E+00  0.00000000E+00  0.00000000E+00
  0.00000000E+00  0.00000000E+00  0.00000000E+00
  0.00000000E+00  0.00000000E+00  0.00000000E+00
  0.00000000E+00  0.00000000E+00  0.00000000E+00
  0.00000000E+00  0.00000000E+00  0.00000000E+00
  0.00000000E+00  0.00000000E+00  0.00000000E+00
  0.00000000E+00  0.00000000E+00  0.00000000E+00
