Sr9Ga4                                  
   1.00000000000000     
    -6.4749817709332431    6.5672535855430434    2.7294295428631425
     6.4820989488561853   -6.5684698495904010    2.7489788260695973
     6.7363089775145877    6.8301633534210229   -2.7317567144678980
   Ga   Sr
     4     9
Direct
  0.4141597814304419  0.7418562302433358  0.1588721124095329
  0.7370949123916830  0.6006043344598311  0.3345893549344936
  0.2628984695375394  0.3993876561077130  0.6654866807511652
  0.5858419672335700  0.2581511766503866  0.8412250267904327
  0.5000232983179345  0.5000181871579130  0.0000486631725778
  0.1882705857103915  0.8777863965646375  0.0669952350675658
  0.8845373796390703  0.3962594956547463  0.2804365276571801
  0.1088995082878910  0.1871908184143933  0.2952063876210360
  0.6164507138522239  0.8793538960803318  0.4965830453678208
  0.3835467688575918  0.1206523980022141  0.5034346409487682
  0.8910639702218575  0.8127462796681684  0.7048294396358372
  0.1154700124480001  0.6037555801801631  0.7196125770397614
  0.8117426320718195  0.1222375508161662  0.9330803086038344
 
  0.00000000E+00  0.00000000E+00  0.00000000E+00
  0.00000000E+00  0.00000000E+00  0.00000000E+00
  0.00000000E+00  0.00000000E+00  0.00000000E+00
  0.00000000E+00  0.00000000E+00  0.00000000E+00
  0.00000000E+00  0.00000000E+00  0.00000000E+00
  0.00000000E+00  0.00000000E+00  0.00000000E+00
  0.00000000E+00  0.00000000E+00  0.00000000E+00
  0.00000000E+00  0.00000000E+00  0.00000000E+00
  0.00000000E+00  0.00000000E+00  0.00000000E+00
  0.00000000E+00  0.00000000E+00  0.00000000E+00
  0.00000000E+00  0.00000000E+00  0.00000000E+00
  0.00000000E+00  0.00000000E+00  0.00000000E+00
  0.00000000E+00  0.00000000E+00  0.00000000E+00
