Ba4 Ga4 Br20                            
   1.0000000000000000     
     8.9992541768265060   -0.0000000000000001    0.0000000000000006
    -0.0000000000000008    8.5785225814466521    0.0000000000000004
     0.0000000000000006    0.0000000000000003   14.4068174117340604
   Ba   Ga   Br
     4     4    20
Direct
  0.5039108693559626  0.6203703451784079  0.6516833655039349
  0.0039108693559626  0.8796296548215921  0.3483166344960651
  0.4960891306440374  0.1203703451784151  0.8483166344960651
  0.9960891306440374  0.3796296548215849  0.1516833655039349
  0.2682634365359249  0.0226339815000642  0.6121123845918177
  0.7682634365359249  0.4773660184999358  0.3878876154081823
  0.7317365634640751  0.5226339815000642  0.8878876154081823
  0.2317365634640751  0.9773660184999358  0.1121123845918177
  0.7777623826917974  0.7146005623339704  0.4999219810729727
  0.2777623826917974  0.7853994376660296  0.5000780189270273
  0.2222376173082026  0.2146005623339704  0.0000780189270273
  0.7222376173082026  0.2853994376660296  0.9999219810729727
  0.7256465573509274  0.6255215713206894  0.2469640015429491
  0.2256465573509345  0.8744784286793106  0.7530359984570438
  0.2743534426490655  0.1255215713206894  0.2530359984570438
  0.7743534426490726  0.3744784286793106  0.7469640015429491
  0.2820150417671812  0.3018281191391310  0.6976364023357178
  0.7820150417671812  0.1981718808608690  0.3023635976642822
  0.7179849582328188  0.8018281191391310  0.8023635976642822
  0.2179849582328259  0.6981718808608690  0.1976364023357178
  0.5392737187992651  0.0255240898449784  0.6124368218193439
  0.0392737187992651  0.4744759101550216  0.3875631781806490
  0.4607262812007349  0.5255240898449713  0.8875631781806561
  0.9607262812007349  0.9744759101550287  0.1124368218193510
  0.5517092598741229  0.3830441936155680  0.4658444767127037
  0.0517092598741229  0.1169558063844320  0.5341555232873034
  0.4482907401258771  0.8830441936155751  0.0341555232872963
  0.9482907401258771  0.6169558063844249  0.9658444767126966

  0.00000000E+00  0.00000000E+00  0.00000000E+00
  0.00000000E+00  0.00000000E+00  0.00000000E+00
  0.00000000E+00  0.00000000E+00  0.00000000E+00
  0.00000000E+00  0.00000000E+00  0.00000000E+00
  0.00000000E+00  0.00000000E+00  0.00000000E+00
  0.00000000E+00  0.00000000E+00  0.00000000E+00
  0.00000000E+00  0.00000000E+00  0.00000000E+00
  0.00000000E+00  0.00000000E+00  0.00000000E+00
  0.00000000E+00  0.00000000E+00  0.00000000E+00
  0.00000000E+00  0.00000000E+00  0.00000000E+00
  0.00000000E+00  0.00000000E+00  0.00000000E+00
  0.00000000E+00  0.00000000E+00  0.00000000E+00
  0.00000000E+00  0.00000000E+00  0.00000000E+00
  0.00000000E+00  0.00000000E+00  0.00000000E+00
  0.00000000E+00  0.00000000E+00  0.00000000E+00
  0.00000000E+00  0.00000000E+00  0.00000000E+00
  0.00000000E+00  0.00000000E+00  0.00000000E+00
  0.00000000E+00  0.00000000E+00  0.00000000E+00
  0.00000000E+00  0.00000000E+00  0.00000000E+00
  0.00000000E+00  0.00000000E+00  0.00000000E+00
  0.00000000E+00  0.00000000E+00  0.00000000E+00
  0.00000000E+00  0.00000000E+00  0.00000000E+00
  0.00000000E+00  0.00000000E+00  0.00000000E+00
  0.00000000E+00  0.00000000E+00  0.00000000E+00
  0.00000000E+00  0.00000000E+00  0.00000000E+00
  0.00000000E+00  0.00000000E+00  0.00000000E+00
  0.00000000E+00  0.00000000E+00  0.00000000E+00
  0.00000000E+00  0.00000000E+00  0.00000000E+00
