Ca4 Ga2 Br10                            
   1.00000000000000     
     8.7759921401006480   -0.0844660716482153    0.5667835940087732
    -0.0515291741866583    8.0598091274028700   -0.0321026431450663
     4.8659462760654328    3.9024474893086136    7.8776103297848570
   Br   Ca   Ga
    10     4     2
Direct
  0.9878987617732378  0.9920638469780414  0.0204077027487131
  0.5100157902337870  0.5090830307733896  0.9836083727019798
  0.5377222970434943  0.0245059706332427  0.2846074470115596
  0.0449834106250648  0.2094830434355330  0.2823690066987581
  0.7506950684414946  0.5002997764339483  0.2196151352046058
  0.2569890177955187  0.7809323291196932  0.2136231140765048
  0.7458867092375243  0.2069268669978541  0.7873986887809608
  0.2486283785499097  0.4866936926671173  0.7818677484799963
  0.9711966142375843  0.7942299677377278  0.7220595311142617
  0.4445514271430966  0.9865805323310397  0.7172637376100042
  0.3341799030931654  0.1728790815735906  0.9705609457337516
  0.8349330011695173  0.3655783701871016  0.9608835229692190
  0.1662973512335171  0.6327002013170784  0.0344281663404544
  0.6672505197570402  0.8190279387350472  0.0330882116719806
  0.2522571242578948  0.1332578647811857  0.5399668109674209
  0.7462146254081645  0.8854574862983853  0.4482518578898151
 
  0.00000000E+00  0.00000000E+00  0.00000000E+00
  0.00000000E+00  0.00000000E+00  0.00000000E+00
  0.00000000E+00  0.00000000E+00  0.00000000E+00
  0.00000000E+00  0.00000000E+00  0.00000000E+00
  0.00000000E+00  0.00000000E+00  0.00000000E+00
  0.00000000E+00  0.00000000E+00  0.00000000E+00
  0.00000000E+00  0.00000000E+00  0.00000000E+00
  0.00000000E+00  0.00000000E+00  0.00000000E+00
  0.00000000E+00  0.00000000E+00  0.00000000E+00
  0.00000000E+00  0.00000000E+00  0.00000000E+00
  0.00000000E+00  0.00000000E+00  0.00000000E+00
  0.00000000E+00  0.00000000E+00  0.00000000E+00
  0.00000000E+00  0.00000000E+00  0.00000000E+00
  0.00000000E+00  0.00000000E+00  0.00000000E+00
  0.00000000E+00  0.00000000E+00  0.00000000E+00
  0.00000000E+00  0.00000000E+00  0.00000000E+00
