Al12 Br28                               
   1.00000000000000     
    13.5872281744390371    0.0010144038372463    0.0032280675929422
     0.0015673701847323    9.6339841160277029   -0.0018491216580735
     0.0027415704291652   -0.0022330155542311   12.3588459516224667
   Br   Al
    28    12
Direct
  0.1248474253878555  0.6270604999449318  0.1154152534328929
  0.6252085597721759  0.8727161972558761  0.1153633616263505
  0.7450417981625392  0.2323938204889657  0.1114632331058161
  0.2454370740726972  0.2677034298944747  0.1114511672677523
  0.4319198162936928  0.5638942202439026  0.1471034056241649
  0.9320256205493251  0.9367211734926499  0.1463913031190671
  0.4704979085363448  0.2078501906947281  0.2741761054041518
  0.9704661261722549  0.2924301976203694  0.2737080451003138
  0.7226249958381530  0.4999059225013767  0.3646351574982134
  0.2228933029427651  0.9999231031264131  0.3645415801865255
  0.7680160722927383  0.0518966757215011  0.3872307827210548
  0.2678040867096669  0.4481819988745670  0.3875838643336920
  0.9652745087034589  0.6601534855848996  0.4219058935614441
  0.4655178253669519  0.8400877530061948  0.4222215775998777
  0.3747958126873954  0.1274104591965539  0.6156291532617928
  0.8751523405147807  0.3729214553521771  0.6154740777851870
  0.7547100275404546  0.7321961401666144  0.6116087356874615
  0.2549666863066449  0.7676751401370652  0.6116059127526015
  0.0679780760513466  0.0633065893611402  0.6470223576619318
  0.5681600930074282  0.4359900288811289  0.6475199851319715
  0.0295605955685119  0.7075257688621761  0.7740571075667475
  0.5295373629494691  0.7921141399873477  0.7742703855597313
  0.7769934081155654  0.0002569703481754  0.8642152460553945
  0.2773855166085966  0.4998404108171286  0.8645133829677860
  0.7322963318307600  0.5520488427315655  0.8877632440114382
  0.2320322092126759  0.9478004472792136  0.8876383176827858
  0.5344338368215276  0.1601868512082021  0.9222691478853378
  0.0347466755396226  0.3396632289836177  0.9220289443139293
  0.8909507797366487  0.5752107348054238  0.2125172364347350
  0.3915279167817118  0.9246116060895488  0.2125786232609599
  0.8584785159119193  0.1132856068687360  0.2403231469569107
  0.3584892267457391  0.3870162450923971  0.2407580619214187
  0.8308280665459762  0.5506408711829778  0.5034875786652862
  0.3308547909337634  0.9494460388254140  0.5036557356293017
  0.6084024487878494  0.0752821345426540  0.7125264924684487
  0.1091144014707268  0.4248227838505017  0.7126419757630416
  0.6416306705881283  0.6129979636021901  0.7409389699224533
  0.1415389641810094  0.8866873691741048  0.7407706873674513
  0.6690754424626775  0.0507824914812929  0.0034855752642358
  0.1692046822984494  0.4491610127217811  0.0035091874403506
 
  0.00000000E+00  0.00000000E+00  0.00000000E+00
  0.00000000E+00  0.00000000E+00  0.00000000E+00
  0.00000000E+00  0.00000000E+00  0.00000000E+00
  0.00000000E+00  0.00000000E+00  0.00000000E+00
  0.00000000E+00  0.00000000E+00  0.00000000E+00
  0.00000000E+00  0.00000000E+00  0.00000000E+00
  0.00000000E+00  0.00000000E+00  0.00000000E+00
  0.00000000E+00  0.00000000E+00  0.00000000E+00
  0.00000000E+00  0.00000000E+00  0.00000000E+00
  0.00000000E+00  0.00000000E+00  0.00000000E+00
  0.00000000E+00  0.00000000E+00  0.00000000E+00
  0.00000000E+00  0.00000000E+00  0.00000000E+00
  0.00000000E+00  0.00000000E+00  0.00000000E+00
  0.00000000E+00  0.00000000E+00  0.00000000E+00
  0.00000000E+00  0.00000000E+00  0.00000000E+00
  0.00000000E+00  0.00000000E+00  0.00000000E+00
  0.00000000E+00  0.00000000E+00  0.00000000E+00
  0.00000000E+00  0.00000000E+00  0.00000000E+00
  0.00000000E+00  0.00000000E+00  0.00000000E+00
  0.00000000E+00  0.00000000E+00  0.00000000E+00
  0.00000000E+00  0.00000000E+00  0.00000000E+00
  0.00000000E+00  0.00000000E+00  0.00000000E+00
  0.00000000E+00  0.00000000E+00  0.00000000E+00
  0.00000000E+00  0.00000000E+00  0.00000000E+00
  0.00000000E+00  0.00000000E+00  0.00000000E+00
  0.00000000E+00  0.00000000E+00  0.00000000E+00
  0.00000000E+00  0.00000000E+00  0.00000000E+00
  0.00000000E+00  0.00000000E+00  0.00000000E+00
  0.00000000E+00  0.00000000E+00  0.00000000E+00
  0.00000000E+00  0.00000000E+00  0.00000000E+00
  0.00000000E+00  0.00000000E+00  0.00000000E+00
  0.00000000E+00  0.00000000E+00  0.00000000E+00
  0.00000000E+00  0.00000000E+00  0.00000000E+00
  0.00000000E+00  0.00000000E+00  0.00000000E+00
  0.00000000E+00  0.00000000E+00  0.00000000E+00
  0.00000000E+00  0.00000000E+00  0.00000000E+00
  0.00000000E+00  0.00000000E+00  0.00000000E+00
  0.00000000E+00  0.00000000E+00  0.00000000E+00
  0.00000000E+00  0.00000000E+00  0.00000000E+00
  0.00000000E+00  0.00000000E+00  0.00000000E+00
