Ca8 Tl4 Br28                            
   1.0000000000000000     
    10.6260413095812876    0.0019467247380516   -0.0030588299492999
     0.0017191242933129    9.4099027801851705    0.0375292365095235
     0.0043508870213951    0.0514271900704512   13.8045123921667940
   Tl   Ca   Br
     4     8    28
Direct
  0.3052587347585813  0.2504039749057156  0.0541093529540149
  0.8049524856170365  0.2490462475348849  0.4458902070790245
  0.1950860265901326  0.7515887961380088  0.5541487522572126
  0.6952943228476656  0.7492605930704457  0.9457282438379480
  0.8164516969064266  0.2492311351809136  0.0514107073746288
  0.3554877085993056  0.7492542771654911  0.2386244555802008
  0.8555078803643923  0.7505334084380166  0.2612394231526025
  0.3161255128189850  0.2510468722185522  0.4488307552583635
  0.6837477571020756  0.7495699056460410  0.5507225903122759
  0.1444925977055078  0.2497520540340616  0.7386187400845614
  0.6445796285836920  0.2506858977771884  0.7614670932130849
  0.1839869804791192  0.7507283166586802  0.9491054916794681
  0.4354713256202416  0.7467548493142289  0.0291118752525676
  0.7596030886441483  0.5541804104384838  0.0946022828798760
  0.7589281719008056  0.9442028762133745  0.0937151221293391
  0.1037993852880987  0.7507176745404038  0.1509351794938212
  0.0644131562341244  0.2473431962430794  0.1273348990783845
  0.3873878038807277  0.0558944539623596  0.1909080586648528
  0.3809096771830696  0.4405618343934918  0.1942795598047411
  0.8819796542429827  0.0585048797285950  0.3064407282199753
  0.8856766878075746  0.4430545199188600  0.3081887258876534
  0.5640468780946506  0.2490747554902839  0.3728368663457431
  0.6037252505893917  0.7493501915017688  0.3489167999914429
  0.2592364805328771  0.5562791625168586  0.4065387576109742
  0.2587828813689441  0.9464408042831280  0.4049354117170836
  0.9353359970594255  0.7511312843500662  0.4707818667842929
  0.0644934019512178  0.2492413959361102  0.5288856606604426
  0.7412940196217761  0.0539623172922603  0.5950682292667935
  0.7403855352300397  0.4442670691865800  0.5934273579678049
  0.3961535261399192  0.2505852102696409  0.6508173518878593
  0.4359706561205883  0.7506127848127235  0.6272213007654202
  0.1141563608445679  0.5570669338334469  0.6914715683387200
  0.1171254115854907  0.9418944651721830  0.6932608613832443
  0.6183217517065316  0.5590874869072522  0.8060958623623762
  0.6129761455160718  0.9438793694026657  0.8091305176235082
  0.9361592587588135  0.7512369559221455  0.8726687296702451
  0.8962328676291804  0.2493640296441129  0.8492975350760474
  0.2415664284307084  0.0555365102780598  0.9060048646031404
  0.2405418811411053  0.4457362836372241  0.9054078718410850
  0.5648549845039810  0.2527368160425709  0.9712203419091381

  0.00000000E+00  0.00000000E+00  0.00000000E+00
  0.00000000E+00  0.00000000E+00  0.00000000E+00
  0.00000000E+00  0.00000000E+00  0.00000000E+00
  0.00000000E+00  0.00000000E+00  0.00000000E+00
  0.00000000E+00  0.00000000E+00  0.00000000E+00
  0.00000000E+00  0.00000000E+00  0.00000000E+00
  0.00000000E+00  0.00000000E+00  0.00000000E+00
  0.00000000E+00  0.00000000E+00  0.00000000E+00
  0.00000000E+00  0.00000000E+00  0.00000000E+00
  0.00000000E+00  0.00000000E+00  0.00000000E+00
  0.00000000E+00  0.00000000E+00  0.00000000E+00
  0.00000000E+00  0.00000000E+00  0.00000000E+00
  0.00000000E+00  0.00000000E+00  0.00000000E+00
  0.00000000E+00  0.00000000E+00  0.00000000E+00
  0.00000000E+00  0.00000000E+00  0.00000000E+00
  0.00000000E+00  0.00000000E+00  0.00000000E+00
  0.00000000E+00  0.00000000E+00  0.00000000E+00
  0.00000000E+00  0.00000000E+00  0.00000000E+00
  0.00000000E+00  0.00000000E+00  0.00000000E+00
  0.00000000E+00  0.00000000E+00  0.00000000E+00
  0.00000000E+00  0.00000000E+00  0.00000000E+00
  0.00000000E+00  0.00000000E+00  0.00000000E+00
  0.00000000E+00  0.00000000E+00  0.00000000E+00
  0.00000000E+00  0.00000000E+00  0.00000000E+00
  0.00000000E+00  0.00000000E+00  0.00000000E+00
  0.00000000E+00  0.00000000E+00  0.00000000E+00
  0.00000000E+00  0.00000000E+00  0.00000000E+00
  0.00000000E+00  0.00000000E+00  0.00000000E+00
  0.00000000E+00  0.00000000E+00  0.00000000E+00
  0.00000000E+00  0.00000000E+00  0.00000000E+00
  0.00000000E+00  0.00000000E+00  0.00000000E+00
  0.00000000E+00  0.00000000E+00  0.00000000E+00
  0.00000000E+00  0.00000000E+00  0.00000000E+00
  0.00000000E+00  0.00000000E+00  0.00000000E+00
  0.00000000E+00  0.00000000E+00  0.00000000E+00
  0.00000000E+00  0.00000000E+00  0.00000000E+00
  0.00000000E+00  0.00000000E+00  0.00000000E+00
  0.00000000E+00  0.00000000E+00  0.00000000E+00
  0.00000000E+00  0.00000000E+00  0.00000000E+00
  0.00000000E+00  0.00000000E+00  0.00000000E+00
