InF3                                    
   1.00000000000000     
    -2.5420200983081247    4.3972734335016694   -0.0023278587237186
    -5.0606744631249976    0.0134629887938999    0.0062525897147414
     0.0020138485757068   -2.9332861880740366    4.9168716278765094
   F    In
     6     2
Direct
  0.8324257889148754  0.2503948913256195  0.2496970924005524
  0.1675673629996624  0.5821316066657758  0.2507336590472917
  0.4988738384959106  0.9185270667521479  0.2495718106841309
  0.5011243076373475  0.0814050455833097  0.7504260078236058
  0.8323954471485493  0.4178017275356893  0.7492310346737980
  0.1676112976274453  0.7495002856102957  0.7503401577676883
  0.9999981923221952  0.9999701601679973  0.0000005556149603
  0.0000003548540164  0.4999692163591689  0.4999996819880010
 
  0.00000000E+00  0.00000000E+00  0.00000000E+00
  0.00000000E+00  0.00000000E+00  0.00000000E+00
  0.00000000E+00  0.00000000E+00  0.00000000E+00
  0.00000000E+00  0.00000000E+00  0.00000000E+00
  0.00000000E+00  0.00000000E+00  0.00000000E+00
  0.00000000E+00  0.00000000E+00  0.00000000E+00
  0.00000000E+00  0.00000000E+00  0.00000000E+00
  0.00000000E+00  0.00000000E+00  0.00000000E+00
