Be1 B2 Cl6                              
   1.00000000000000     
     3.1704512037538302    1.8303303648308109    5.1767642152824171
    -3.1704512037538306    1.8303303648308109    5.1767642152824171
     0.0000000000000000   -3.6593707034281429    5.1763078576310608
   Be   Cl   B 
     1     6     2
Direct
  0.0000000000000000  0.0000000000000000  0.0000000000000000
  0.7560513107151010  0.7560513107151010  0.2439554436996261
  0.7560578240521991  0.2439354143186563  0.2439491292972207
  0.2439354143186563  0.7560578240521991  0.2439491292972207
  0.2439486892848990  0.2439486892848990  0.7560445563003739
  0.7560645856813437  0.2439421759478009  0.7560508707027793
  0.2439421759478009  0.7560645856813437  0.7560508707027793
  0.2499964246216919  0.2499964246216919  0.2500116284127714
  0.7500035753783081  0.7500035753783081  0.7499883715872286
 
  0.00000000E+00  0.00000000E+00  0.00000000E+00
  0.00000000E+00  0.00000000E+00  0.00000000E+00
  0.00000000E+00  0.00000000E+00  0.00000000E+00
  0.00000000E+00  0.00000000E+00  0.00000000E+00
  0.00000000E+00  0.00000000E+00  0.00000000E+00
  0.00000000E+00  0.00000000E+00  0.00000000E+00
  0.00000000E+00  0.00000000E+00  0.00000000E+00
  0.00000000E+00  0.00000000E+00  0.00000000E+00
  0.00000000E+00  0.00000000E+00  0.00000000E+00
