Ca10 Tl4 I32                            
   1.0000000000000000     
     6.1414255987485555   -7.9068905261883851    0.0000000000000000
     6.1414255987485555    7.9068905261883851    0.0000000000000000
     0.0000000000000000    0.0000000000000000   20.3712807913926994
   Ca   Tl   I 
    10     4    32
Direct
  0.0000000000000000  0.0000000000000000  0.7275777462266433
  0.0000000000000000  0.0000000000000000  0.2724222537733567
  0.5000000000000000  0.5000000000000000  0.7724222537733567
  0.5000000000000000  0.5000000000000000  0.2275777462266433
  0.5000000000000000  0.5000000000000000  0.5000000000000000
  0.0000000000000000  0.0000000000000000  0.0000000000000000
  0.0000000000000000  0.5000000000000000  0.6295871617245083
  0.5000000000000000  0.0000000000000000  0.3704128382754917
  0.5000000000000000  0.0000000000000000  0.8704128382754917
  0.0000000000000000  0.5000000000000000  0.1295871617245083
  0.5000000000000000  0.0000000000000000  0.6256937095827837
  0.0000000000000000  0.5000000000000000  0.3743062904172163
  0.0000000000000000  0.5000000000000000  0.8743062904172163
  0.5000000000000000  0.0000000000000000  0.1256937095827837
  0.5445759505413648  0.1975269417983299  0.7383094904805461
  0.4554240494586352  0.8024730582016701  0.7383094904805461
  0.1975269417983299  0.5445759505413648  0.2616905095194610
  0.8024730582016701  0.4554240494586352  0.2616905095194610
  0.9554240494586352  0.3024730582016701  0.7616905095194539
  0.0445759505413648  0.6975269417983299  0.7616905095194539
  0.3024730582016701  0.9554240494586352  0.2383094904805461
  0.6975269417983299  0.0445759505413648  0.2383094904805461
  0.1356080456071638  0.8612754736061987  0.6115641387949609
  0.8643919543928362  0.1387245263938013  0.6115641387949609
  0.8612754736061987  0.1356080456071638  0.3884358612050391
  0.1387245263938013  0.8643919543928362  0.3884358612050391
  0.3643919543928362  0.6387245263938013  0.8884358612050391
  0.6356080456071638  0.3612754736061987  0.8884358612050391
  0.6763800825928854  0.9556316683404589  0.0120810804119671
  0.3236199174071146  0.0443683316595411  0.0120810804119671
  0.9556316683404589  0.6763800825928854  0.9879189195880329
  0.0443683316595411  0.3236199174071146  0.9879189195880329
  0.8236199174071146  0.5443683316595411  0.4879189195880329
  0.1763800825928854  0.4556316683404589  0.4879189195880329
  0.5443683316595411  0.8236199174071146  0.5120810804119671
  0.4556316683404589  0.1763800825928854  0.5120810804119671
  0.9263398419184909  0.7944896036726163  0.1517131442425281
  0.0736601580815091  0.2055103963273837  0.1517131442425281
  0.7944896036726163  0.9263398419184909  0.8482868557574719
  0.2055103963273837  0.0736601580815091  0.8482868557574719
  0.5736601580815091  0.7055103963273837  0.3482868557574719
  0.4263398419184909  0.2944896036726163  0.3482868557574719
  0.7055103963273837  0.5736601580815091  0.6517131442425281
  0.2944896036726163  0.4263398419184909  0.6517131442425281
  0.3612754736061987  0.6356080456071638  0.1115641387949609
  0.6387245263938013  0.3643919543928362  0.1115641387949609

  0.00000000E+00  0.00000000E+00  0.00000000E+00
  0.00000000E+00  0.00000000E+00  0.00000000E+00
  0.00000000E+00  0.00000000E+00  0.00000000E+00
  0.00000000E+00  0.00000000E+00  0.00000000E+00
  0.00000000E+00  0.00000000E+00  0.00000000E+00
  0.00000000E+00  0.00000000E+00  0.00000000E+00
  0.00000000E+00  0.00000000E+00  0.00000000E+00
  0.00000000E+00  0.00000000E+00  0.00000000E+00
  0.00000000E+00  0.00000000E+00  0.00000000E+00
  0.00000000E+00  0.00000000E+00  0.00000000E+00
  0.00000000E+00  0.00000000E+00  0.00000000E+00
  0.00000000E+00  0.00000000E+00  0.00000000E+00
  0.00000000E+00  0.00000000E+00  0.00000000E+00
  0.00000000E+00  0.00000000E+00  0.00000000E+00
  0.00000000E+00  0.00000000E+00  0.00000000E+00
  0.00000000E+00  0.00000000E+00  0.00000000E+00
  0.00000000E+00  0.00000000E+00  0.00000000E+00
  0.00000000E+00  0.00000000E+00  0.00000000E+00
  0.00000000E+00  0.00000000E+00  0.00000000E+00
  0.00000000E+00  0.00000000E+00  0.00000000E+00
  0.00000000E+00  0.00000000E+00  0.00000000E+00
  0.00000000E+00  0.00000000E+00  0.00000000E+00
  0.00000000E+00  0.00000000E+00  0.00000000E+00
  0.00000000E+00  0.00000000E+00  0.00000000E+00
  0.00000000E+00  0.00000000E+00  0.00000000E+00
  0.00000000E+00  0.00000000E+00  0.00000000E+00
  0.00000000E+00  0.00000000E+00  0.00000000E+00
  0.00000000E+00  0.00000000E+00  0.00000000E+00
  0.00000000E+00  0.00000000E+00  0.00000000E+00
  0.00000000E+00  0.00000000E+00  0.00000000E+00
  0.00000000E+00  0.00000000E+00  0.00000000E+00
  0.00000000E+00  0.00000000E+00  0.00000000E+00
  0.00000000E+00  0.00000000E+00  0.00000000E+00
  0.00000000E+00  0.00000000E+00  0.00000000E+00
  0.00000000E+00  0.00000000E+00  0.00000000E+00
  0.00000000E+00  0.00000000E+00  0.00000000E+00
  0.00000000E+00  0.00000000E+00  0.00000000E+00
  0.00000000E+00  0.00000000E+00  0.00000000E+00
  0.00000000E+00  0.00000000E+00  0.00000000E+00
  0.00000000E+00  0.00000000E+00  0.00000000E+00
  0.00000000E+00  0.00000000E+00  0.00000000E+00
  0.00000000E+00  0.00000000E+00  0.00000000E+00
  0.00000000E+00  0.00000000E+00  0.00000000E+00
  0.00000000E+00  0.00000000E+00  0.00000000E+00
  0.00000000E+00  0.00000000E+00  0.00000000E+00
  0.00000000E+00  0.00000000E+00  0.00000000E+00
