Ga4 F6                                  
   1.00000000000000     
     7.0527624989888578   -2.0084152312636969    0.6005623186043511
     7.0527624989888578    2.0084152312636969    0.6005623186043511
    -1.6644963849991103    0.0000000000000000    4.8171656587344600
   F    Ga
     6     4
Direct
  0.0862180928647049  0.0862180928647049  0.9916156975277559
  0.5672867927699272  0.5672867927699272  0.3137030775362675
  0.8128474615980892  0.8128474615980892  0.4894270167304384
  0.1871497746508766  0.1871497746508766  0.5106632800719169
  0.4327000369240110  0.4327000369240110  0.6863261593251835
  0.9137859489564519  0.9137859489564519  0.0084469752850538
  0.2885378690248785  0.2885378690248785  0.2288993944706235
  0.0409311595709099  0.0409311595709099  0.3197438768243188
  0.9590719368231575  0.9590719368231575  0.6803206693461519
  0.7114709268169932  0.7114709268169932  0.7712538528823103
 
  0.00000000E+00  0.00000000E+00  0.00000000E+00
  0.00000000E+00  0.00000000E+00  0.00000000E+00
  0.00000000E+00  0.00000000E+00  0.00000000E+00
  0.00000000E+00  0.00000000E+00  0.00000000E+00
  0.00000000E+00  0.00000000E+00  0.00000000E+00
  0.00000000E+00  0.00000000E+00  0.00000000E+00
  0.00000000E+00  0.00000000E+00  0.00000000E+00
  0.00000000E+00  0.00000000E+00  0.00000000E+00
  0.00000000E+00  0.00000000E+00  0.00000000E+00
  0.00000000E+00  0.00000000E+00  0.00000000E+00
