BeI3                                    
   1.00000000000000     
    11.7236856941840184    0.0081774571480482    0.0000000000000000
    -5.8542580789479688   10.1573771403352762    0.0000000000000000
     0.0000000000000000    0.0000000000000000    3.3430384031350227
   Be   I 
     2     6
Direct
  0.3330689545560617  0.6669310454438389  0.7500000000000000
  0.6669310454439383  0.3330689545561611  0.2500000000000000
  0.2281351187547074  0.4567973967052836  0.2500000000000000
  0.5432026032929969  0.7718648812446318  0.2500000000000000
  0.2278597803641631  0.7721402196373930  0.2500000000000000
  0.7718648812452926  0.5432026032947164  0.7500000000000000
  0.4567973967070031  0.2281351187553682  0.7500000000000000
  0.7721402196358369  0.2278597803626070  0.7500000000000000
 
  0.00000000E+00  0.00000000E+00  0.00000000E+00
  0.00000000E+00  0.00000000E+00  0.00000000E+00
  0.00000000E+00  0.00000000E+00  0.00000000E+00
  0.00000000E+00  0.00000000E+00  0.00000000E+00
  0.00000000E+00  0.00000000E+00  0.00000000E+00
  0.00000000E+00  0.00000000E+00  0.00000000E+00
  0.00000000E+00  0.00000000E+00  0.00000000E+00
  0.00000000E+00  0.00000000E+00  0.00000000E+00
