Sr3Al11                                 
   1.00000000000000     
    -2.2415801031821254    5.1731402927128451    6.6252345431503699
     2.2420511263523930   -5.1645862906286544    6.6187368018662021
     2.2522096347825342    5.1692373755206802   -6.6185770980984806
   Al   Sr
    11     3
Direct
  0.7107437016263560  0.5017809265106763  0.2121305643929858
  0.4157080397873116  0.1393809426319805  0.2754818437293878
  0.1363968015055335  0.8594037060411495  0.2748084533482427
  0.7053654814964503  0.3380155559275408  0.3679559035909250
  0.0300712545590471  0.6622089199495846  0.3678908251808934
  0.5000703906646251  0.0000841304926169  0.5000888891076229
  0.9699798797656953  0.3377053754497723  0.6320228944048196
  0.2947051199924786  0.6620032036269308  0.6320677242078787
  0.8637087912757409  0.1405664677802108  0.7251330459859346
  0.5843607954623806  0.8606023335906485  0.7245398438111081
  0.2892960128843498  0.4982557382533841  0.7878810988379215
  0.0000248023163323  0.0000027422273448  0.0000056683606431
  0.3115033915607839  0.3113427339681394  0.0000219629876597
  0.6885655371029102  0.6886472235500136  0.9999712820539912
 
  0.00000000E+00  0.00000000E+00  0.00000000E+00
  0.00000000E+00  0.00000000E+00  0.00000000E+00
  0.00000000E+00  0.00000000E+00  0.00000000E+00
  0.00000000E+00  0.00000000E+00  0.00000000E+00
  0.00000000E+00  0.00000000E+00  0.00000000E+00
  0.00000000E+00  0.00000000E+00  0.00000000E+00
  0.00000000E+00  0.00000000E+00  0.00000000E+00
  0.00000000E+00  0.00000000E+00  0.00000000E+00
  0.00000000E+00  0.00000000E+00  0.00000000E+00
  0.00000000E+00  0.00000000E+00  0.00000000E+00
  0.00000000E+00  0.00000000E+00  0.00000000E+00
  0.00000000E+00  0.00000000E+00  0.00000000E+00
  0.00000000E+00  0.00000000E+00  0.00000000E+00
  0.00000000E+00  0.00000000E+00  0.00000000E+00
