Sr4 Al4 Br20                            
   1.0000000000000000     
     7.4598450673985086   -0.0000000000000006    0.0000000000000004
    -0.0000000000000008   12.8732453070056732    0.0000000000000004
     0.0000000000000005    0.0000000000000007   13.7367890063247327
   Sr   Al   Br
     4     4    20
Direct
  0.7200747182529597  0.7471858688542952  0.6157444689280993
  0.2200747182529597  0.7528141311457048  0.3842555310719078
  0.2799252817470403  0.2471858688542952  0.8842555310719007
  0.7799252817470403  0.2528141311457048  0.1157444689280922
  0.2757209529793769  0.9854137062449908  0.6394813865311093
  0.7757209529793769  0.5145862937550092  0.3605186134688907
  0.7242790470206231  0.4854137062449908  0.8605186134688907
  0.2242790470206231  0.0145862937550092  0.1394813865311093
  0.8471656951391893  0.8210924117332894  0.4252975561732981
  0.3471656951391893  0.6789075882667106  0.5747024438267019
  0.1528343048608107  0.3210924117332894  0.0747024438267019
  0.6528343048608107  0.1789075882667106  0.9252975561732981
  0.5459445783832422  0.6114423576380617  0.2911596364367668
  0.0459445783832493  0.8885576423619383  0.7088403635632261
  0.4540554216167578  0.1114423576380617  0.2088403635632261
  0.9540554216167578  0.3885576423619383  0.7911596364367668
  0.2142466985545184  0.1614761400916294  0.6709459016157595
  0.7142466985545184  0.3385238599083777  0.3290540983842405
  0.7857533014454816  0.6614761400916294  0.8290540983842405
  0.2857533014454816  0.8385238599083706  0.1709459016157595
  0.5452553478589977  0.9446457944887712  0.7168013508192388
  0.0452553478589905  0.5553542055112288  0.2831986491807612
  0.4547446521410023  0.4446457944887712  0.7831986491807612
  0.9547446521410023  0.0553542055112288  0.2168013508192388
  0.8131820277333404  0.5234517586669440  0.5290653094098587
  0.3131820277333404  0.9765482413330560  0.4709346905901342
  0.1868179722666596  0.0234517586669369  0.9709346905901413
  0.6868179722666596  0.4765482413330631  0.0290653094098587

  0.00000000E+00  0.00000000E+00  0.00000000E+00
  0.00000000E+00  0.00000000E+00  0.00000000E+00
  0.00000000E+00  0.00000000E+00  0.00000000E+00
  0.00000000E+00  0.00000000E+00  0.00000000E+00
  0.00000000E+00  0.00000000E+00  0.00000000E+00
  0.00000000E+00  0.00000000E+00  0.00000000E+00
  0.00000000E+00  0.00000000E+00  0.00000000E+00
  0.00000000E+00  0.00000000E+00  0.00000000E+00
  0.00000000E+00  0.00000000E+00  0.00000000E+00
  0.00000000E+00  0.00000000E+00  0.00000000E+00
  0.00000000E+00  0.00000000E+00  0.00000000E+00
  0.00000000E+00  0.00000000E+00  0.00000000E+00
  0.00000000E+00  0.00000000E+00  0.00000000E+00
  0.00000000E+00  0.00000000E+00  0.00000000E+00
  0.00000000E+00  0.00000000E+00  0.00000000E+00
  0.00000000E+00  0.00000000E+00  0.00000000E+00
  0.00000000E+00  0.00000000E+00  0.00000000E+00
  0.00000000E+00  0.00000000E+00  0.00000000E+00
  0.00000000E+00  0.00000000E+00  0.00000000E+00
  0.00000000E+00  0.00000000E+00  0.00000000E+00
  0.00000000E+00  0.00000000E+00  0.00000000E+00
  0.00000000E+00  0.00000000E+00  0.00000000E+00
  0.00000000E+00  0.00000000E+00  0.00000000E+00
  0.00000000E+00  0.00000000E+00  0.00000000E+00
  0.00000000E+00  0.00000000E+00  0.00000000E+00
  0.00000000E+00  0.00000000E+00  0.00000000E+00
  0.00000000E+00  0.00000000E+00  0.00000000E+00
  0.00000000E+00  0.00000000E+00  0.00000000E+00
