Ba1 Ga3 Cl6                             
   1.00000000000000     
     7.8428023238243236   -0.0033719137668744    0.0039958248159859
    -0.0033719137668744    7.8428023238243236    0.0039958248159859
     3.9225267601871057    3.9225267601871057    5.5336655226179774
   Cl   Ba   Ga
     6     1     3
Direct
  0.7323918613769322  0.2676081386230678  0.0000000000000000
  0.2678115033797539  0.2678115033797539  0.9997965833559732
  0.2676081386230678  0.7323918613769322  0.0000000000000000
  0.7321884966202461  0.7321884966202461  0.0002034166440268
  0.7325766890012062  0.7325766890012062  0.5359790608639159
  0.2674233109987938  0.2674233109987938  0.4640209391360841
  0.0000000000000000  0.0000000000000000  0.0000000000000000
  0.5000000000000000  0.5000000000000000  0.0000000000000000
  0.2497754475661011  0.7502245524338989  0.5000000000000000
  0.7502245524338989  0.2497754475661011  0.5000000000000000
 
  0.00000000E+00  0.00000000E+00  0.00000000E+00
  0.00000000E+00  0.00000000E+00  0.00000000E+00
  0.00000000E+00  0.00000000E+00  0.00000000E+00
  0.00000000E+00  0.00000000E+00  0.00000000E+00
  0.00000000E+00  0.00000000E+00  0.00000000E+00
  0.00000000E+00  0.00000000E+00  0.00000000E+00
  0.00000000E+00  0.00000000E+00  0.00000000E+00
  0.00000000E+00  0.00000000E+00  0.00000000E+00
  0.00000000E+00  0.00000000E+00  0.00000000E+00
  0.00000000E+00  0.00000000E+00  0.00000000E+00
