Ca8 Tl2                                 
   1.0000000000000000     
     5.5118532528313970    0.0000000000000000    0.0000000000000000
     0.0000000000000000    5.5118532528313970    0.0000000000000000
     0.0000000000000000    0.0000000000000000   12.9012474633866798
   Ca   Tl
     8     2
Direct
  0.0000000000000000  0.0000000000000000  0.0000000000000000
  0.5000000000000000  0.5000000000000000  0.0000000000000000
  0.0000000000000000  0.0000000000000000  0.2811677802888681
  0.5000000000000000  0.5000000000000000  0.2811677802888681
  0.5000000000000000  0.0000000000000000  0.5089123840402792
  0.0000000000000000  0.5000000000000000  0.4910876159597208
  0.0000000000000000  0.0000000000000000  0.7188322197111319
  0.5000000000000000  0.5000000000000000  0.7188322197111319
  0.0000000000000000  0.5000000000000000  0.1511876097644418
  0.5000000000000000  0.0000000000000000  0.8488123902355582

  0.00000000E+00  0.00000000E+00  0.00000000E+00
  0.00000000E+00  0.00000000E+00  0.00000000E+00
  0.00000000E+00  0.00000000E+00  0.00000000E+00
  0.00000000E+00  0.00000000E+00  0.00000000E+00
  0.00000000E+00  0.00000000E+00  0.00000000E+00
  0.00000000E+00  0.00000000E+00  0.00000000E+00
  0.00000000E+00  0.00000000E+00  0.00000000E+00
  0.00000000E+00  0.00000000E+00  0.00000000E+00
  0.00000000E+00  0.00000000E+00  0.00000000E+00
  0.00000000E+00  0.00000000E+00  0.00000000E+00
