Ba4 In2 F10                             
   1.0000000000000000     
    -3.8275175176759002    3.8275175176759002    5.0844637056944126
     3.8275175176759002   -3.8275175176759002    5.0844637056944126
     3.8275175176759002    3.8275175176759002   -5.0844637056944126
   Ba   In   F 
     4     2    10
Direct
  0.8432181432250587  0.3432181432250587  0.1864362864501032
  0.3432181432250587  0.1567818567749413  0.5000000000000000
  0.1567818567749413  0.6567818567749413  0.8135637135498968
  0.6567818567749413  0.8432181432250587  0.5000000000000000
  0.2500000000000000  0.2500000000000000  0.0000000000000000
  0.7500000000000000  0.7500000000000000  0.0000000000000000
  0.5000000000000000  0.5000000000000000  0.0000000000000000
  0.0000000000000000  0.0000000000000000  0.0000000000000000
  0.5073595768859889  0.0073595768859889  0.7932573002920691
  0.0073595768859889  0.2141022765939198  0.5000000000000000
  0.7141022765939198  0.5073595768859889  0.5000000000000000
  0.9926404231140111  0.7858977234060802  0.5000000000000000
  0.2858977234060802  0.4926404231140111  0.5000000000000000
  0.7858977234060802  0.2858977234060802  0.7932573002920691
  0.4926404231140111  0.9926404231140111  0.2067426997079309
  0.2141022765939198  0.7141022765939198  0.2067426997079309

  0.00000000E+00  0.00000000E+00  0.00000000E+00
  0.00000000E+00  0.00000000E+00  0.00000000E+00
  0.00000000E+00  0.00000000E+00  0.00000000E+00
  0.00000000E+00  0.00000000E+00  0.00000000E+00
  0.00000000E+00  0.00000000E+00  0.00000000E+00
  0.00000000E+00  0.00000000E+00  0.00000000E+00
  0.00000000E+00  0.00000000E+00  0.00000000E+00
  0.00000000E+00  0.00000000E+00  0.00000000E+00
  0.00000000E+00  0.00000000E+00  0.00000000E+00
  0.00000000E+00  0.00000000E+00  0.00000000E+00
  0.00000000E+00  0.00000000E+00  0.00000000E+00
  0.00000000E+00  0.00000000E+00  0.00000000E+00
  0.00000000E+00  0.00000000E+00  0.00000000E+00
  0.00000000E+00  0.00000000E+00  0.00000000E+00
  0.00000000E+00  0.00000000E+00  0.00000000E+00
  0.00000000E+00  0.00000000E+00  0.00000000E+00
