Ca1 Tl3 Br6                             
   1.0000000000000000     
     8.1891592337492547   -0.0004754636794508   -0.0019124907714300
    -0.0004754636794508    8.1891592337492547   -0.0019124907714300
     4.0929912186971054    4.0929912186971045    5.7881855266880144
   Br   Ca   Tl
     6     1     3
Direct
  0.7537945895769980  0.2462054104230020  0.0000000000000000
  0.2463232417924743  0.2463232417924743  0.9998843591658613
  0.2462054104230020  0.7537945895769980  0.0000000000000000
  0.7536767582075328  0.7536767582075328  0.0001156408341387
  0.7541808101644136  0.7541808101644136  0.4927312461195754
  0.2458191898355864  0.2458191898355864  0.5072687538804246
  0.0000000000000000  0.0000000000000000  0.0000000000000000
  0.5000000000000000  0.5000000000000000  0.0000000000000000
  0.2499446047154521  0.7500553952845479  0.5000000000000000
  0.7500553952845479  0.2499446047154521  0.5000000000000000

  0.00000000E+00  0.00000000E+00  0.00000000E+00
  0.00000000E+00  0.00000000E+00  0.00000000E+00
  0.00000000E+00  0.00000000E+00  0.00000000E+00
  0.00000000E+00  0.00000000E+00  0.00000000E+00
  0.00000000E+00  0.00000000E+00  0.00000000E+00
  0.00000000E+00  0.00000000E+00  0.00000000E+00
  0.00000000E+00  0.00000000E+00  0.00000000E+00
  0.00000000E+00  0.00000000E+00  0.00000000E+00
  0.00000000E+00  0.00000000E+00  0.00000000E+00
  0.00000000E+00  0.00000000E+00  0.00000000E+00
