Ca1 Ga2 F10                             
   1.00000000000000     
     3.1469461052775949    4.2128540639848753    0.2632213652655336
    -3.1469461052775949    4.2128540639848753    0.2632213652655336
     0.0000000000000000    3.3663850352376046    6.4765360675369195
   Ca   Ga   F 
     1     2    10
Direct
  0.5350084430237914  0.4649915569762086  0.0000000000000000
  0.0355219851012691  0.0293113746840419  0.7285095291925572
  0.9706886253159581  0.9644780148987380  0.2714904708074357
  0.2214458831981929  0.3482410173870818  0.5583344116967979
  0.6517589826129182  0.7785541168018142  0.4416655883031879
  0.8919103869566811  0.6890341074582977  0.8994914934160860
  0.3109658925417023  0.1080896130433189  0.1005085065839140
  0.9012619563621982  0.0987380436378089  0.0000000000000000
  0.0875245803224232  0.9124754196775839  0.5000000000000000
  0.7034496780196591  0.2880869855055650  0.7063785613014204
  0.7119130144944279  0.2965503219803409  0.2936214386985796
  0.3821669735860524  0.8596174015352815  0.7741723700565828
  0.1403825984647185  0.6178330264139476  0.2258276299434172
 
  0.00000000E+00  0.00000000E+00  0.00000000E+00
  0.00000000E+00  0.00000000E+00  0.00000000E+00
  0.00000000E+00  0.00000000E+00  0.00000000E+00
  0.00000000E+00  0.00000000E+00  0.00000000E+00
  0.00000000E+00  0.00000000E+00  0.00000000E+00
  0.00000000E+00  0.00000000E+00  0.00000000E+00
  0.00000000E+00  0.00000000E+00  0.00000000E+00
  0.00000000E+00  0.00000000E+00  0.00000000E+00
  0.00000000E+00  0.00000000E+00  0.00000000E+00
  0.00000000E+00  0.00000000E+00  0.00000000E+00
  0.00000000E+00  0.00000000E+00  0.00000000E+00
  0.00000000E+00  0.00000000E+00  0.00000000E+00
  0.00000000E+00  0.00000000E+00  0.00000000E+00
