Ca1 Tl2 Br10                            
   1.0000000000000000     
     4.5564602948066648    6.4682816115212605    0.0754421626617245
    -4.5564602948066648    6.4682816115212605    0.0754421626617245
     0.0000000000000000    4.7149272779210767    9.5060522069712903
   Ca   Tl   Br
     1     2    10
Direct
  0.5806262028482791  0.4193737971517209  0.0000000000000000
  0.0200649702371649  0.8615990401374205  0.7911230415699819
  0.1384009598625724  0.9799350297628351  0.2088769584300181
  0.0340393589191876  0.3351178212205923  0.5942167896134833
  0.6648821787794077  0.9659606410808124  0.4057832103865167
  0.8357783616245555  0.5949957405928146  0.0165448100992904
  0.4050042594071854  0.1642216383754445  0.9834551899007096
  0.9217710885021404  0.0782289114978596  0.0000000000000000
  0.0888514987792277  0.9111485012207723  0.5000000000000000
  0.7324212444858134  0.5295810701371266  0.6800330255154350
  0.4704189298628734  0.2675787555141866  0.3199669744845650
  0.4104513982546933  0.7587114515631157  0.8031855338401641
  0.2412885484368843  0.5895486017452995  0.1968144661598359

  0.00000000E+00  0.00000000E+00  0.00000000E+00
  0.00000000E+00  0.00000000E+00  0.00000000E+00
  0.00000000E+00  0.00000000E+00  0.00000000E+00
  0.00000000E+00  0.00000000E+00  0.00000000E+00
  0.00000000E+00  0.00000000E+00  0.00000000E+00
  0.00000000E+00  0.00000000E+00  0.00000000E+00
  0.00000000E+00  0.00000000E+00  0.00000000E+00
  0.00000000E+00  0.00000000E+00  0.00000000E+00
  0.00000000E+00  0.00000000E+00  0.00000000E+00
  0.00000000E+00  0.00000000E+00  0.00000000E+00
  0.00000000E+00  0.00000000E+00  0.00000000E+00
  0.00000000E+00  0.00000000E+00  0.00000000E+00
  0.00000000E+00  0.00000000E+00  0.00000000E+00
