Ga2I                                    
   1.00000000000000     
     8.1301018499147322    0.0000000000000000    0.0000000000000000
     0.0000000000000000    8.1301018499147304    0.0000000000000000
     0.0000000000000000    0.0000000000000000    3.8382493375689459
   Ga   I 
     4     2
Direct
  0.2806367329113897  0.2806367329113897  0.0000000000000000
  0.7193632670886103  0.7193632670886103  0.0000000000000000
  0.7806367329113897  0.2193632670886103  0.5000000000000000
  0.2193632670886103  0.7806367329113897  0.5000000000000000
  0.0000000000000000  0.0000000000000000  0.0000000000000000
  0.5000000000000000  0.5000000000000000  0.5000000000000000
 
  0.00000000E+00  0.00000000E+00  0.00000000E+00
  0.00000000E+00  0.00000000E+00  0.00000000E+00
  0.00000000E+00  0.00000000E+00  0.00000000E+00
  0.00000000E+00  0.00000000E+00  0.00000000E+00
  0.00000000E+00  0.00000000E+00  0.00000000E+00
  0.00000000E+00  0.00000000E+00  0.00000000E+00
