Ga3Br2                                  
   1.00000000000000     
    -6.8120116476901362    1.1512659323475423   -0.2217434044467192
     4.4112233863982979   -5.3173874492609707    0.2172933196571083
    -3.3731862132339261    1.9294049095522747    9.1374101351257231
   Br   Ga
     4     6
Direct
  0.4674831544628262  0.7155644712271751  0.0640412808229769
  0.2148944241019635  0.9675693419443760  0.4374245342587315
  0.9148212921211112  0.2798150988631178  0.5302004883163889
  0.7811599941888474  0.4150042218509427  0.9672599113264155
  0.0779096320818766  0.1031273950564824  0.2954895621663525
  0.8373412978898003  0.3395194969978448  0.2513676778513911
  0.6048574920704652  0.5763737684758823  0.2030850999208340
  0.1556140937289072  0.0728903766243292  0.7406117660844060
  0.3735705302288963  0.8739758679309020  0.7502815024529212
  0.5723480891253132  0.6561599610289406  0.7605381767995922
 
  0.00000000E+00  0.00000000E+00  0.00000000E+00
  0.00000000E+00  0.00000000E+00  0.00000000E+00
  0.00000000E+00  0.00000000E+00  0.00000000E+00
  0.00000000E+00  0.00000000E+00  0.00000000E+00
  0.00000000E+00  0.00000000E+00  0.00000000E+00
  0.00000000E+00  0.00000000E+00  0.00000000E+00
  0.00000000E+00  0.00000000E+00  0.00000000E+00
  0.00000000E+00  0.00000000E+00  0.00000000E+00
  0.00000000E+00  0.00000000E+00  0.00000000E+00
  0.00000000E+00  0.00000000E+00  0.00000000E+00
