Sr15 Al1                                
   1.00000000000000     
     4.2044546617089438   -7.2823289505401290    0.0000000000000000
     4.2044546617089438    7.2823289505401290    0.0000000000000000
     0.0000000000000000    0.0000000000000000   13.4181136760919983
   Sr   Al
    15     1
Direct
  0.3333330000000032  0.6666669999999968  0.5000000000000000
  0.8297327504701997  0.6594655009407262  0.0000000000000000
  0.8343967085672475  0.6687924171332753  0.5000000000000000
  0.8297327504705194  0.1702672495294806  0.0000000000000000
  0.8343967085660182  0.1656032914339818  0.5000000000000000
  0.3405344990592738  0.1702672495298003  0.0000000000000000
  0.3312075828667247  0.1656032914327454  0.5000000000000000
  0.6548993555205413  0.8274501777625716  0.2335680973268381
  0.6548993555205413  0.8274501777625716  0.7664319026731619
  0.1725498222420327  0.8274501777579673  0.2335680973268381
  0.1725498222420327  0.8274501777579673  0.7664319026731619
  0.1725498222374284  0.3451006444794587  0.2335680973268381
  0.1725498222374284  0.3451006444794587  0.7664319026731619
  0.6666669999999968  0.3333330000000032  0.2551305812664282
  0.6666669999999968  0.3333330000000032  0.7448694187335718
  0.3333330000000032  0.6666669999999968  0.0000000000000000
 
  0.00000000E+00  0.00000000E+00  0.00000000E+00
  0.00000000E+00  0.00000000E+00  0.00000000E+00
  0.00000000E+00  0.00000000E+00  0.00000000E+00
  0.00000000E+00  0.00000000E+00  0.00000000E+00
  0.00000000E+00  0.00000000E+00  0.00000000E+00
  0.00000000E+00  0.00000000E+00  0.00000000E+00
  0.00000000E+00  0.00000000E+00  0.00000000E+00
  0.00000000E+00  0.00000000E+00  0.00000000E+00
  0.00000000E+00  0.00000000E+00  0.00000000E+00
  0.00000000E+00  0.00000000E+00  0.00000000E+00
  0.00000000E+00  0.00000000E+00  0.00000000E+00
  0.00000000E+00  0.00000000E+00  0.00000000E+00
  0.00000000E+00  0.00000000E+00  0.00000000E+00
  0.00000000E+00  0.00000000E+00  0.00000000E+00
  0.00000000E+00  0.00000000E+00  0.00000000E+00
  0.00000000E+00  0.00000000E+00  0.00000000E+00
