Sr3 B8                                  
   1.00000000000000     
    -4.6286264363933851   -0.0010682336404377    0.2936036207651281
     0.0004524943213734   -3.1203630539421874   -0.0023250834219843
     1.5537778173806451    1.5602989520584458    9.6371425752937601
   Sr   B 
     3     8
Direct
  0.0000034859657632  0.9999732236050107  0.9999631014221606
  0.0608821839342113  0.6576752782652804  0.3168462958468083
  0.9391140961749116  0.3422449864133839  0.6830812515569491
  0.5215218528747556  0.5466958314158603  0.0950798515934466
  0.5401941129805081  0.0964850509600197  0.1921551033303643
  0.5731549409239136  0.1858285893862544  0.3725506448618745
  0.5867711992348106  0.7376862458755440  0.4757879371600779
  0.4132260135561410  0.2622402997064341  0.5241387026536799
  0.4268410206601558  0.8140971844183369  0.6273794674574660
  0.4598084450544633  0.9034391184685262  0.8077717715301418
  0.4784826486403730  0.4532341914853575  0.9048458725870319
 
  0.00000000E+00  0.00000000E+00  0.00000000E+00
  0.00000000E+00  0.00000000E+00  0.00000000E+00
  0.00000000E+00  0.00000000E+00  0.00000000E+00
  0.00000000E+00  0.00000000E+00  0.00000000E+00
  0.00000000E+00  0.00000000E+00  0.00000000E+00
  0.00000000E+00  0.00000000E+00  0.00000000E+00
  0.00000000E+00  0.00000000E+00  0.00000000E+00
  0.00000000E+00  0.00000000E+00  0.00000000E+00
  0.00000000E+00  0.00000000E+00  0.00000000E+00
  0.00000000E+00  0.00000000E+00  0.00000000E+00
  0.00000000E+00  0.00000000E+00  0.00000000E+00
