Sr40 B4                                 
   1.00000000000000     
     0.0000000000000000   10.2852985696746497   10.2852985696746497
    10.2852985696746497    0.0000000000000000   10.2852985696746497
    10.2852985696746497   10.2852985696746497    0.0000000000000000
   Sr   B 
    40     4
Direct
  0.6187260351368877  0.6187260351368877  0.8812739648631123
  0.3687260351368877  0.6312739648631123  0.6312739648631123
  0.6312739648631123  0.3687260351368877  0.3687260351368877
  0.3687260351368877  0.3687260351368877  0.6312739648631123
  0.3687260351368877  0.6312739648631123  0.3687260351368877
  0.6312739648631123  0.3687260351368877  0.6312739648631123
  0.8812739648631123  0.6187260351368877  0.8812739648631123
  0.8812739648631123  0.6187260351368877  0.6187260351368877
  0.6187260351368877  0.8812739648631123  0.8812739648631123
  0.6187260351368877  0.8812739648631123  0.6187260351368877
  0.6312739648631123  0.6312739648631123  0.3687260351368877
  0.8812739648631123  0.8812739648631123  0.6187260351368877
  0.7908963842527967  0.0702209886493037  0.3479852428451053
  0.4591036157472033  0.4591036157472033  0.1797790113506963
  0.1797790113506963  0.9020147571548947  0.4591036157472033
  0.4591036157472033  0.9020147571548947  0.4591036157472033
  0.9020147571548947  0.4591036157472033  0.1797790113506963
  0.9020147571548947  0.4591036157472033  0.4591036157472033
  0.1797790113506963  0.4591036157472033  0.4591036157472033
  0.3479852428451053  0.0702209886493037  0.7908963842527967
  0.7908963842527967  0.0702209886493037  0.7908963842527967
  0.0702209886493037  0.7908963842527967  0.3479852428451053
  0.7908963842527967  0.7908963842527967  0.3479852428451053
  0.0702209886493037  0.3479852428451053  0.7908963842527967
  0.3479852428451053  0.7908963842527967  0.0702209886493037
  0.7908963842527967  0.7908963842527967  0.0702209886493037
  0.7908963842527967  0.3479852428451053  0.7908963842527967
  0.1797790113506963  0.4591036157472033  0.9020147571548947
  0.4591036157472033  0.4591036157472033  0.9020147571548947
  0.4591036157472033  0.9020147571548947  0.1797790113506963
  0.4591036157472033  0.1797790113506963  0.9020147571548947
  0.9020147571548947  0.1797790113506963  0.4591036157472033
  0.4591036157472033  0.1797790113506963  0.4591036157472033
  0.3479852428451053  0.7908963842527967  0.7908963842527967
  0.0702209886493037  0.7908963842527967  0.7908963842527967
  0.7908963842527967  0.3479852428451053  0.0702209886493037
  0.1250000000000000  0.1250000000000000  0.1250000000000000
  0.6250000000000000  0.1250000000000000  0.1250000000000000
  0.1250000000000000  0.1250000000000000  0.6250000000000000
  0.1250000000000000  0.6250000000000000  0.1250000000000000
  0.6250000000000000  0.6250000000000000  0.6250000000000000
  0.1250000000000000  0.6250000000000000  0.6250000000000000
  0.6250000000000000  0.6250000000000000  0.1250000000000000
  0.6250000000000000  0.1250000000000000  0.6250000000000000
 
  0.00000000E+00  0.00000000E+00  0.00000000E+00
  0.00000000E+00  0.00000000E+00  0.00000000E+00
  0.00000000E+00  0.00000000E+00  0.00000000E+00
  0.00000000E+00  0.00000000E+00  0.00000000E+00
  0.00000000E+00  0.00000000E+00  0.00000000E+00
  0.00000000E+00  0.00000000E+00  0.00000000E+00
  0.00000000E+00  0.00000000E+00  0.00000000E+00
  0.00000000E+00  0.00000000E+00  0.00000000E+00
  0.00000000E+00  0.00000000E+00  0.00000000E+00
  0.00000000E+00  0.00000000E+00  0.00000000E+00
  0.00000000E+00  0.00000000E+00  0.00000000E+00
  0.00000000E+00  0.00000000E+00  0.00000000E+00
  0.00000000E+00  0.00000000E+00  0.00000000E+00
  0.00000000E+00  0.00000000E+00  0.00000000E+00
  0.00000000E+00  0.00000000E+00  0.00000000E+00
  0.00000000E+00  0.00000000E+00  0.00000000E+00
  0.00000000E+00  0.00000000E+00  0.00000000E+00
  0.00000000E+00  0.00000000E+00  0.00000000E+00
  0.00000000E+00  0.00000000E+00  0.00000000E+00
  0.00000000E+00  0.00000000E+00  0.00000000E+00
  0.00000000E+00  0.00000000E+00  0.00000000E+00
  0.00000000E+00  0.00000000E+00  0.00000000E+00
  0.00000000E+00  0.00000000E+00  0.00000000E+00
  0.00000000E+00  0.00000000E+00  0.00000000E+00
  0.00000000E+00  0.00000000E+00  0.00000000E+00
  0.00000000E+00  0.00000000E+00  0.00000000E+00
  0.00000000E+00  0.00000000E+00  0.00000000E+00
  0.00000000E+00  0.00000000E+00  0.00000000E+00
  0.00000000E+00  0.00000000E+00  0.00000000E+00
  0.00000000E+00  0.00000000E+00  0.00000000E+00
  0.00000000E+00  0.00000000E+00  0.00000000E+00
  0.00000000E+00  0.00000000E+00  0.00000000E+00
  0.00000000E+00  0.00000000E+00  0.00000000E+00
  0.00000000E+00  0.00000000E+00  0.00000000E+00
  0.00000000E+00  0.00000000E+00  0.00000000E+00
  0.00000000E+00  0.00000000E+00  0.00000000E+00
  0.00000000E+00  0.00000000E+00  0.00000000E+00
  0.00000000E+00  0.00000000E+00  0.00000000E+00
  0.00000000E+00  0.00000000E+00  0.00000000E+00
  0.00000000E+00  0.00000000E+00  0.00000000E+00
  0.00000000E+00  0.00000000E+00  0.00000000E+00
  0.00000000E+00  0.00000000E+00  0.00000000E+00
  0.00000000E+00  0.00000000E+00  0.00000000E+00
  0.00000000E+00  0.00000000E+00  0.00000000E+00
