Ba21 Tl40                               
   1.0000000000000000     
     5.8597985375407928  -10.1494683754331536   -0.0000000000000000
     5.8597985375407928   10.1494683754331536   -0.0000000000000000
     0.0000000000000000    0.0000000000000000   18.6207404538631067
   Ba   Tl
    21    40
Direct
  0.0000000000002700  0.3319819827957033  0.3849286745814311
  0.6666669999999968  0.3333330000000032  0.3184037863283251
  0.6741642787984006  0.9999999999985718  0.6767071627189623
  0.3258357212030347  0.3258357212030347  0.6767071627189623
  0.0000000000000000  0.0000000000000000  0.1252785585418366
  0.0000000000013003  0.3311118751191842  0.6080922080227324
  0.3259755039083316  0.0000000000001350  0.0053269865240537
  0.9999999999985718  0.6741642787984006  0.6767071627189623
  0.6680180172039911  0.6680180172039911  0.3849286745814311
  0.3311118751191842  0.0000000000013003  0.6080922080227324
  0.3333330000000032  0.6666669999999968  0.1114441738325027
  0.9999999999998792  0.6556832989910006  0.8851020792256961
  0.6688881248795226  0.6688881248795226  0.6080922080227324
  0.3443167010091059  0.3443167010091059  0.8851020792256961
  0.6666669999999968  0.3333330000000032  0.1114441738325027
  0.3333330000000032  0.6666669999999968  0.3184037863283251
  0.0000000000001350  0.3259755039083316  0.0053269865240537
  0.3319819827957033  0.0000000000002700  0.3849286745814311
  0.6740244960915334  0.6740244960915334  0.0053269865240537
  0.6556832989910006  0.9999999999998792  0.8851020792256961
  0.0000000000000000  0.0000000000000000  0.3242850345775423
  0.3477999250272958  0.5144270557555970  0.4981244042735185
  0.1620791042129710  0.3335898488359490  0.2079507577326822
  0.5006206217432450  0.1624134297642783  0.7844879379361700
  0.8284892553743290  0.6664101511581606  0.2079507577326822
  0.4863329401192118  0.9999999999976694  0.1963949782353041
  0.0000000000000000  0.0000000000000000  0.5667640982504238
  0.3333330000000032  0.6666669999999968  0.9216931792864500
  0.1715107446288897  0.8379208957896935  0.2079507577326822
  0.1995558391558703  0.0000000000033751  0.8205601699329179
  0.0000000000008882  0.6472744385571758  0.3372396008346996
  0.3335898488359490  0.1620791042129710  0.2079507577326822
  0.2072406800552571  0.2072406800552571  0.4771095132217340
  0.8004441608407475  0.8004441608407475  0.8205601699329179
  0.6666669999999968  0.3333330000000032  0.9216931792864500
  0.0000000000012434  0.7927593199435066  0.4771095132217340
  0.5136670598831188  0.5136670598831188  0.1963949782353041
  0.8333728692752658  0.4855729442468544  0.4981244042735185
  0.4993793782535789  0.6617928080239892  0.7844879379361700
  0.9999999999976694  0.4863329401192118  0.1963949782353041
  0.8379208957896935  0.1715107446288897  0.2079507577326822
  0.0000000000001847  0.6728589270166410  0.0716542034726686
  0.3527255614419431  0.3527255614419431  0.3372396008346996
  0.3333330000000032  0.6666669999999968  0.6459290666640669
  0.0000000000033751  0.1995558391558703  0.8205601699329179
  0.6666669999999968  0.3333330000000032  0.6459290666640669
  0.1624134297642783  0.5006206217432450  0.7844879379361700
  0.4855729442468544  0.8333728692752658  0.4981244042735185
  0.1666271307258356  0.6522000749691372  0.4981244042735185
  0.6728589270166410  0.0000000000001847  0.0716542034726686
  0.3271410729831743  0.3271410729831743  0.0716542034726686
  0.8375865702327872  0.3382071919821783  0.7844879379361700
  0.6472744385571758  0.0000000000008882  0.3372396008346996
  0.5144270557555970  0.3477999250272958  0.4981244042735185
  0.6664101511581606  0.8284892553743290  0.2079507577326822
  0.7927593199435066  0.0000000000012434  0.4771095132217340
  0.6522000749691372  0.1666271307258356  0.4981244042735185
  0.3382071919821783  0.8375865702327872  0.7844879379361700
  0.0000000000000000  0.0000000000000000  0.9384011464862922
  0.6617928080239892  0.4993793782535789  0.7844879379361700
  0.0000000000000000  0.0000000000000000  0.7213704199564290

  0.00000000E+00  0.00000000E+00  0.00000000E+00
  0.00000000E+00  0.00000000E+00  0.00000000E+00
  0.00000000E+00  0.00000000E+00  0.00000000E+00
  0.00000000E+00  0.00000000E+00  0.00000000E+00
  0.00000000E+00  0.00000000E+00  0.00000000E+00
  0.00000000E+00  0.00000000E+00  0.00000000E+00
  0.00000000E+00  0.00000000E+00  0.00000000E+00
  0.00000000E+00  0.00000000E+00  0.00000000E+00
  0.00000000E+00  0.00000000E+00  0.00000000E+00
  0.00000000E+00  0.00000000E+00  0.00000000E+00
  0.00000000E+00  0.00000000E+00  0.00000000E+00
  0.00000000E+00  0.00000000E+00  0.00000000E+00
  0.00000000E+00  0.00000000E+00  0.00000000E+00
  0.00000000E+00  0.00000000E+00  0.00000000E+00
  0.00000000E+00  0.00000000E+00  0.00000000E+00
  0.00000000E+00  0.00000000E+00  0.00000000E+00
  0.00000000E+00  0.00000000E+00  0.00000000E+00
  0.00000000E+00  0.00000000E+00  0.00000000E+00
  0.00000000E+00  0.00000000E+00  0.00000000E+00
  0.00000000E+00  0.00000000E+00  0.00000000E+00
  0.00000000E+00  0.00000000E+00  0.00000000E+00
  0.00000000E+00  0.00000000E+00  0.00000000E+00
  0.00000000E+00  0.00000000E+00  0.00000000E+00
  0.00000000E+00  0.00000000E+00  0.00000000E+00
  0.00000000E+00  0.00000000E+00  0.00000000E+00
  0.00000000E+00  0.00000000E+00  0.00000000E+00
  0.00000000E+00  0.00000000E+00  0.00000000E+00
  0.00000000E+00  0.00000000E+00  0.00000000E+00
  0.00000000E+00  0.00000000E+00  0.00000000E+00
  0.00000000E+00  0.00000000E+00  0.00000000E+00
  0.00000000E+00  0.00000000E+00  0.00000000E+00
  0.00000000E+00  0.00000000E+00  0.00000000E+00
  0.00000000E+00  0.00000000E+00  0.00000000E+00
  0.00000000E+00  0.00000000E+00  0.00000000E+00
  0.00000000E+00  0.00000000E+00  0.00000000E+00
  0.00000000E+00  0.00000000E+00  0.00000000E+00
  0.00000000E+00  0.00000000E+00  0.00000000E+00
  0.00000000E+00  0.00000000E+00  0.00000000E+00
  0.00000000E+00  0.00000000E+00  0.00000000E+00
  0.00000000E+00  0.00000000E+00  0.00000000E+00
  0.00000000E+00  0.00000000E+00  0.00000000E+00
  0.00000000E+00  0.00000000E+00  0.00000000E+00
  0.00000000E+00  0.00000000E+00  0.00000000E+00
  0.00000000E+00  0.00000000E+00  0.00000000E+00
  0.00000000E+00  0.00000000E+00  0.00000000E+00
  0.00000000E+00  0.00000000E+00  0.00000000E+00
  0.00000000E+00  0.00000000E+00  0.00000000E+00
  0.00000000E+00  0.00000000E+00  0.00000000E+00
  0.00000000E+00  0.00000000E+00  0.00000000E+00
  0.00000000E+00  0.00000000E+00  0.00000000E+00
  0.00000000E+00  0.00000000E+00  0.00000000E+00
  0.00000000E+00  0.00000000E+00  0.00000000E+00
  0.00000000E+00  0.00000000E+00  0.00000000E+00
  0.00000000E+00  0.00000000E+00  0.00000000E+00
  0.00000000E+00  0.00000000E+00  0.00000000E+00
  0.00000000E+00  0.00000000E+00  0.00000000E+00
  0.00000000E+00  0.00000000E+00  0.00000000E+00
  0.00000000E+00  0.00000000E+00  0.00000000E+00
  0.00000000E+00  0.00000000E+00  0.00000000E+00
  0.00000000E+00  0.00000000E+00  0.00000000E+00
  0.00000000E+00  0.00000000E+00  0.00000000E+00
