Ca2 Ga2 I6                              
   1.00000000000000     
     2.2596897639125140   -7.4483650301586692    0.0000000000000000
     2.2596897639125140    7.4483650301586692    0.0000000000000000
     0.0000000000000000    0.0000000000000000   11.5744409356803377
   Ca   Ga   I 
     2     2     6
Direct
  0.0000000000000000  0.0000000000000000  0.0000000000000000
  0.0000000000000000  0.0000000000000000  0.5000000000000000
  0.2573325326071085  0.7426674673928915  0.2500000000000000
  0.7426674673928915  0.2573325326071085  0.7500000000000000
  0.6381488718190340  0.3618511281809660  0.0626299277271514
  0.3618511281809660  0.6381488718190340  0.9373700722728486
  0.3618511281809660  0.6381488718190340  0.5626299277271514
  0.6381488718190340  0.3618511281809660  0.4373700722728486
  0.9120775148333138  0.0879224851666862  0.2500000000000000
  0.0879224851666862  0.9120775148333138  0.7500000000000000
 
  0.00000000E+00  0.00000000E+00  0.00000000E+00
  0.00000000E+00  0.00000000E+00  0.00000000E+00
  0.00000000E+00  0.00000000E+00  0.00000000E+00
  0.00000000E+00  0.00000000E+00  0.00000000E+00
  0.00000000E+00  0.00000000E+00  0.00000000E+00
  0.00000000E+00  0.00000000E+00  0.00000000E+00
  0.00000000E+00  0.00000000E+00  0.00000000E+00
  0.00000000E+00  0.00000000E+00  0.00000000E+00
  0.00000000E+00  0.00000000E+00  0.00000000E+00
  0.00000000E+00  0.00000000E+00  0.00000000E+00
