Sr9 B4                                  
   1.00000000000000     
     0.3794284483431247    0.2175487467615653    5.6351842059119353
    -6.0589401522007140    6.8579069169554030    2.5645998913931880
    -6.4233590822065034   -6.9545753126003040   -3.5383178507981117
   Sr   B 
     9     4
Direct
  0.5000000178532460  0.9999549030507495  0.9999725658082568
  0.8162281808636820  0.3614058119728796  0.0005122558517598
  0.5590563295667437  0.3342474662061079  0.3103506040906225
  0.2341157279439088  0.0272084198686571  0.3147924441825154
  0.8751162362257929  0.7230191604780671  0.3178318172326087
  0.1248333733411542  0.2769456396947021  0.6820983664293152
  0.7659058313436020  0.9727917100661614  0.6851899082933741
  0.4409922886401745  0.6656911489513959  0.6896149438137442
  0.1837555247672142  0.6385462329431419  0.9994427606470566
  0.6636667042065483  0.6925836113790069  0.0022644892575627
  0.8592781620406527  0.0317814102716127  0.4421203227392638
  0.1407362133377674  0.9681941934996487  0.5578361326503085
  0.3363154098695134  0.3073302916178449  0.9976733890036158
 
  0.00000000E+00  0.00000000E+00  0.00000000E+00
  0.00000000E+00  0.00000000E+00  0.00000000E+00
  0.00000000E+00  0.00000000E+00  0.00000000E+00
  0.00000000E+00  0.00000000E+00  0.00000000E+00
  0.00000000E+00  0.00000000E+00  0.00000000E+00
  0.00000000E+00  0.00000000E+00  0.00000000E+00
  0.00000000E+00  0.00000000E+00  0.00000000E+00
  0.00000000E+00  0.00000000E+00  0.00000000E+00
  0.00000000E+00  0.00000000E+00  0.00000000E+00
  0.00000000E+00  0.00000000E+00  0.00000000E+00
  0.00000000E+00  0.00000000E+00  0.00000000E+00
  0.00000000E+00  0.00000000E+00  0.00000000E+00
  0.00000000E+00  0.00000000E+00  0.00000000E+00
