Ba2 In2 Cl10                            
   1.0000000000000000     
     4.9355762618927344   -0.0000000000000001    0.0000000000000003
    -0.0000000000000009   11.3707812250677858    0.0000000000000011
     0.0000000000000002    0.0000000000000005   10.8942026585067886
   Ba   In   Cl
     2     2    10
Direct
  0.0000000000000000  0.0000000000000000  0.5000000000000000
  0.5000000000000000  0.5000000000000000  0.0000000000000000
  0.5000000000000000  0.0000000000000000  0.0000000000000000
  0.0000000000000000  0.5000000000000000  0.5000000000000000
  0.5000000000000000  0.8358256592425732  0.5000000000000000
  0.5000000000000000  0.1641743407574268  0.5000000000000000
  0.5000000000000000  0.0000000000000000  0.2163778935937799
  0.5000000000000000  0.0000000000000000  0.7836221064062201
  0.0000000000000000  0.0000000000000000  0.0000000000000000
  0.0000000000000000  0.3358256592425732  0.0000000000000000
  0.0000000000000000  0.6641743407574268  0.0000000000000000
  0.0000000000000000  0.5000000000000000  0.7163778935937799
  0.0000000000000000  0.5000000000000000  0.2836221064062201
  0.5000000000000000  0.5000000000000000  0.5000000000000000

  0.00000000E+00  0.00000000E+00  0.00000000E+00
  0.00000000E+00  0.00000000E+00  0.00000000E+00
  0.00000000E+00  0.00000000E+00  0.00000000E+00
  0.00000000E+00  0.00000000E+00  0.00000000E+00
  0.00000000E+00  0.00000000E+00  0.00000000E+00
  0.00000000E+00  0.00000000E+00  0.00000000E+00
  0.00000000E+00  0.00000000E+00  0.00000000E+00
  0.00000000E+00  0.00000000E+00  0.00000000E+00
  0.00000000E+00  0.00000000E+00  0.00000000E+00
  0.00000000E+00  0.00000000E+00  0.00000000E+00
  0.00000000E+00  0.00000000E+00  0.00000000E+00
  0.00000000E+00  0.00000000E+00  0.00000000E+00
  0.00000000E+00  0.00000000E+00  0.00000000E+00
  0.00000000E+00  0.00000000E+00  0.00000000E+00
