Mg10 Tl12                               
   1.0000000000000000     
    -2.5542207749307453   -4.4718122202693360    0.0000000000000000
    -5.3669028847828475    6.1589830898276041    0.0000000000000000
     0.0000000000000000    0.0000000000000000  -14.5499804178553127
   Mg   Tl
    10    12
Direct
  0.3390365158850699  0.6665903768886139  0.2500000000000000
  0.6655073414913417  0.3299759061537486  0.2500000000000000
  0.0015378060407159  0.0023406581569958  0.2500000000000000
  0.3276278282222052  0.6667191284515894  0.7500000000000000
  0.6650535071639680  0.3309239906062373  0.7500000000000000
  0.0012640452510126  0.0034062636910832  0.7500000000000000
  0.0067509128845060  0.0140967086284789  0.9997969133540607
  0.0067509128845060  0.0140967086284789  0.5002030866459393
  0.6598830617715734  0.3192265507391809  0.0001894323261808
  0.6598830617715734  0.3192265507391809  0.4998105676738192
  0.4942203533418734  0.9860454901226134  0.1222653835750833
  0.1735054689380675  0.3463112009448182  0.1227454972646953
  0.8374995733553376  0.6665257908687678  0.1163600018927227
  0.4942203533418734  0.9860454901226134  0.3777346164249167
  0.1735054689380675  0.3463112009448182  0.3772545027353047
  0.8374995733553376  0.6665257908687678  0.3836399981072773
  0.4931604108973815  0.9869814883040746  0.6227349200047669
  0.1724647809106230  0.3473242817482785  0.6222448363178756
  0.8292019158735044  0.6668103266696761  0.6163938163804659
  0.4931604108973815  0.9869814883040746  0.8772650799952331
  0.1724647809106230  0.3473242817482785  0.8777551636821244
  0.8292019158735044  0.6668103266696761  0.8836061836195341

  0.00000000E+00  0.00000000E+00  0.00000000E+00
  0.00000000E+00  0.00000000E+00  0.00000000E+00
  0.00000000E+00  0.00000000E+00  0.00000000E+00
  0.00000000E+00  0.00000000E+00  0.00000000E+00
  0.00000000E+00  0.00000000E+00  0.00000000E+00
  0.00000000E+00  0.00000000E+00  0.00000000E+00
  0.00000000E+00  0.00000000E+00  0.00000000E+00
  0.00000000E+00  0.00000000E+00  0.00000000E+00
  0.00000000E+00  0.00000000E+00  0.00000000E+00
  0.00000000E+00  0.00000000E+00  0.00000000E+00
  0.00000000E+00  0.00000000E+00  0.00000000E+00
  0.00000000E+00  0.00000000E+00  0.00000000E+00
  0.00000000E+00  0.00000000E+00  0.00000000E+00
  0.00000000E+00  0.00000000E+00  0.00000000E+00
  0.00000000E+00  0.00000000E+00  0.00000000E+00
  0.00000000E+00  0.00000000E+00  0.00000000E+00
  0.00000000E+00  0.00000000E+00  0.00000000E+00
  0.00000000E+00  0.00000000E+00  0.00000000E+00
  0.00000000E+00  0.00000000E+00  0.00000000E+00
  0.00000000E+00  0.00000000E+00  0.00000000E+00
  0.00000000E+00  0.00000000E+00  0.00000000E+00
  0.00000000E+00  0.00000000E+00  0.00000000E+00
