Ca4 B4 I20                              
   1.0000000000000000     
     8.2819672101850479   -0.0000000000000003    0.0000000000000006
    -0.0000000000000008   10.2096465513217591    0.0000000000000006
     0.0000000000000006    0.0000000000000006   18.6877991512834818
   Ca   B    I 
     4     4    20
Direct
  0.8112101242337104  0.8162169884375601  0.4852761133516452
  0.3112101242337104  0.6837830115624399  0.5147238866483548
  0.1887898757662896  0.3162169884375601  0.0147238866483548
  0.6887898757662896  0.1837830115624399  0.9852761133516452
  0.5290379437739148  0.3759476336815553  0.6179060970637309
  0.0290379437739290  0.1240523663184447  0.3820939029362620
  0.4709620562260781  0.8759476336815553  0.8820939029362691
  0.9709620562260852  0.6240523663184447  0.1179060970637309
  0.0410270014186054  0.6309712908938039  0.4058760210197221
  0.5410270014186054  0.8690287091061961  0.5941239789802779
  0.9589729985813946  0.1309712908938039  0.0941239789802779
  0.4589729985813946  0.3690287091061961  0.9058760210197221
  0.5329387968612878  0.7342386197294459  0.3825128338082493
  0.0329387968612878  0.7657613802705541  0.6174871661917436
  0.4670612031387122  0.2342386197294459  0.1174871661917436
  0.9670612031387122  0.2657613802705541  0.8825128338082493
  0.2928640728167835  0.4400659328170136  0.6486729136926712
  0.7928640728167835  0.0599340671829864  0.3513270863073288
  0.7071359271832165  0.9400659328170136  0.8513270863073288
  0.2071359271832165  0.5599340671829864  0.1486729136926712
  0.6834746860503174  0.2759448263763815  0.6883208825683553
  0.1834746860503174  0.2240551736236185  0.3116791174316447
  0.3165253139496826  0.7759448263763886  0.8116791174316447
  0.8165253139496826  0.7240551736236114  0.1883208825683553
  0.6018227405589869  0.4292201624032614  0.5116006024429254
  0.1018227405589869  0.0707798375967386  0.4883993975570746
  0.3981772594410131  0.9292201624032614  0.9883993975570746
  0.8981772594410131  0.5707798375967386  0.0116006024429254

  0.00000000E+00  0.00000000E+00  0.00000000E+00
  0.00000000E+00  0.00000000E+00  0.00000000E+00
  0.00000000E+00  0.00000000E+00  0.00000000E+00
  0.00000000E+00  0.00000000E+00  0.00000000E+00
  0.00000000E+00  0.00000000E+00  0.00000000E+00
  0.00000000E+00  0.00000000E+00  0.00000000E+00
  0.00000000E+00  0.00000000E+00  0.00000000E+00
  0.00000000E+00  0.00000000E+00  0.00000000E+00
  0.00000000E+00  0.00000000E+00  0.00000000E+00
  0.00000000E+00  0.00000000E+00  0.00000000E+00
  0.00000000E+00  0.00000000E+00  0.00000000E+00
  0.00000000E+00  0.00000000E+00  0.00000000E+00
  0.00000000E+00  0.00000000E+00  0.00000000E+00
  0.00000000E+00  0.00000000E+00  0.00000000E+00
  0.00000000E+00  0.00000000E+00  0.00000000E+00
  0.00000000E+00  0.00000000E+00  0.00000000E+00
  0.00000000E+00  0.00000000E+00  0.00000000E+00
  0.00000000E+00  0.00000000E+00  0.00000000E+00
  0.00000000E+00  0.00000000E+00  0.00000000E+00
  0.00000000E+00  0.00000000E+00  0.00000000E+00
  0.00000000E+00  0.00000000E+00  0.00000000E+00
  0.00000000E+00  0.00000000E+00  0.00000000E+00
  0.00000000E+00  0.00000000E+00  0.00000000E+00
  0.00000000E+00  0.00000000E+00  0.00000000E+00
  0.00000000E+00  0.00000000E+00  0.00000000E+00
  0.00000000E+00  0.00000000E+00  0.00000000E+00
  0.00000000E+00  0.00000000E+00  0.00000000E+00
  0.00000000E+00  0.00000000E+00  0.00000000E+00
