MgAl2Cl8                                
   1.00000000000000     
     0.0075976656633019    8.6892440036835676    0.0014932664063784
     6.7452936657465896    4.3529251532093012    5.8083396030331746
     7.3204972805091524   -4.3391482916124318   -5.8927013710640423
   Al   Cl   Mg
     4    16     2
Direct
  0.7123145739387482  0.1330885585561816  0.0327439541872039
  0.3131101453996621  0.3669310831964481  0.4671634451219617
  0.6868822762284239  0.6330461098881273  0.5328251359275455
  0.2876911433185896  0.8669097113102069  0.9672425783753695
  0.8246028416444133  0.2858102130530185  0.0091280911524834
  0.4588212143499746  0.2452807080782833  0.0558895619641859
  0.3252503745961803  0.9527779441862734  0.1701536009795888
  0.9288367672511129  0.9474034095440658  0.2180432619298998
  0.1588040774224737  0.5521740588847948  0.2816678586703247
  0.6085837459399670  0.5468295980247575  0.3301112149630612
  0.1495130086338747  0.2544575620141174  0.4441060560038395
  0.6022928233686216  0.2144222074574955  0.4910455947968231
  0.3976870797955740  0.7855872981414578  0.5089579310684442
  0.8505216053157554  0.7454903414753389  0.5558728729926301
  0.3914000151283759  0.4531337489833476  0.6698579417071642
  0.8411948801330098  0.4478018853093459  0.7183622838550363
  0.0711532930381793  0.0525728535798393  0.7819310312452714
  0.6747266049399201  0.0472303984588649  0.8298209668356904
  0.5411831920403074  0.7546876890436067  0.9441062286706625
  0.1754423886443774  0.7141663748365161  0.9908781239412932
  0.2606191920925838  0.7498786314197190  0.2499478699416713
  0.7393687567798750  0.2501196145582014  0.7500443956698533
 
  0.00000000E+00  0.00000000E+00  0.00000000E+00
  0.00000000E+00  0.00000000E+00  0.00000000E+00
  0.00000000E+00  0.00000000E+00  0.00000000E+00
  0.00000000E+00  0.00000000E+00  0.00000000E+00
  0.00000000E+00  0.00000000E+00  0.00000000E+00
  0.00000000E+00  0.00000000E+00  0.00000000E+00
  0.00000000E+00  0.00000000E+00  0.00000000E+00
  0.00000000E+00  0.00000000E+00  0.00000000E+00
  0.00000000E+00  0.00000000E+00  0.00000000E+00
  0.00000000E+00  0.00000000E+00  0.00000000E+00
  0.00000000E+00  0.00000000E+00  0.00000000E+00
  0.00000000E+00  0.00000000E+00  0.00000000E+00
  0.00000000E+00  0.00000000E+00  0.00000000E+00
  0.00000000E+00  0.00000000E+00  0.00000000E+00
  0.00000000E+00  0.00000000E+00  0.00000000E+00
  0.00000000E+00  0.00000000E+00  0.00000000E+00
  0.00000000E+00  0.00000000E+00  0.00000000E+00
  0.00000000E+00  0.00000000E+00  0.00000000E+00
  0.00000000E+00  0.00000000E+00  0.00000000E+00
  0.00000000E+00  0.00000000E+00  0.00000000E+00
  0.00000000E+00  0.00000000E+00  0.00000000E+00
  0.00000000E+00  0.00000000E+00  0.00000000E+00
