Be4 Al4 Br20                            
   1.0000000000000000     
     6.3998301093293648   -0.0000000000000002    0.0000000000000005
    -0.0000000000000005    8.9383150101880169    0.0000000000000006
     0.0000000000000003    0.0000000000000006   19.3533729129356473
   Be   Al   Br
     4     4    20
Direct
  0.0164819611510225  0.5632121388078346  0.5879076627913946
  0.5164819611510225  0.9367878611921654  0.4120923372086054
  0.9835180388489775  0.0632121388078346  0.9120923372086054
  0.4835180388489775  0.4367878611921654  0.0879076627913946
  0.3494694790675226  0.1789819469807554  0.5724264392388747
  0.8494694790675226  0.3210180530192375  0.4275735607611253
  0.6505305209324774  0.6789819469807554  0.9275735607611253
  0.1505305209324774  0.8210180530192446  0.0724264392388747
  0.0010375489518069  0.5607669745849009  0.4779603371664010
  0.5010375489518069  0.9392330254150991  0.5220396628335990
  0.9989624510481931  0.0607669745849009  0.0220396628335990
  0.4989624510481931  0.4392330254150991  0.9779603371664010
  0.4630781326223286  0.7502559961130331  0.3572814256762413
  0.9630781326223286  0.7497440038869669  0.6427185743237516
  0.5369218673776714  0.2502559961130331  0.1427185743237516
  0.0369218673776714  0.2497440038869669  0.8572814256762413
  0.1102361354006121  0.3616825921481279  0.6371895900893492
  0.6102361354006121  0.1383174078518721  0.3628104099106508
  0.8897638645993879  0.8616825921481279  0.8628104099106508
  0.3897638645993879  0.6383174078518721  0.1371895900893492
  0.4709103933402830  0.1035440216346117  0.6779581664503738
  0.9709103933402830  0.3964559783653954  0.3220418335496262
  0.5290896066597170  0.6035440216346117  0.8220418335496262
  0.0290896066597170  0.8964559783653883  0.1779581664503738
  0.5520908805644922  0.3733670229774617  0.5149748389838962
  0.0520908805644922  0.1266329770225383  0.4850251610161038
  0.4479091194355078  0.8733670229774617  0.9850251610161038
  0.9479091194355078  0.6266329770225383  0.0149748389838962

  0.00000000E+00  0.00000000E+00  0.00000000E+00
  0.00000000E+00  0.00000000E+00  0.00000000E+00
  0.00000000E+00  0.00000000E+00  0.00000000E+00
  0.00000000E+00  0.00000000E+00  0.00000000E+00
  0.00000000E+00  0.00000000E+00  0.00000000E+00
  0.00000000E+00  0.00000000E+00  0.00000000E+00
  0.00000000E+00  0.00000000E+00  0.00000000E+00
  0.00000000E+00  0.00000000E+00  0.00000000E+00
  0.00000000E+00  0.00000000E+00  0.00000000E+00
  0.00000000E+00  0.00000000E+00  0.00000000E+00
  0.00000000E+00  0.00000000E+00  0.00000000E+00
  0.00000000E+00  0.00000000E+00  0.00000000E+00
  0.00000000E+00  0.00000000E+00  0.00000000E+00
  0.00000000E+00  0.00000000E+00  0.00000000E+00
  0.00000000E+00  0.00000000E+00  0.00000000E+00
  0.00000000E+00  0.00000000E+00  0.00000000E+00
  0.00000000E+00  0.00000000E+00  0.00000000E+00
  0.00000000E+00  0.00000000E+00  0.00000000E+00
  0.00000000E+00  0.00000000E+00  0.00000000E+00
  0.00000000E+00  0.00000000E+00  0.00000000E+00
  0.00000000E+00  0.00000000E+00  0.00000000E+00
  0.00000000E+00  0.00000000E+00  0.00000000E+00
  0.00000000E+00  0.00000000E+00  0.00000000E+00
  0.00000000E+00  0.00000000E+00  0.00000000E+00
  0.00000000E+00  0.00000000E+00  0.00000000E+00
  0.00000000E+00  0.00000000E+00  0.00000000E+00
  0.00000000E+00  0.00000000E+00  0.00000000E+00
  0.00000000E+00  0.00000000E+00  0.00000000E+00
