Be4 In8 Cl32                            
   1.00000000000000     
    -5.8282999482972615    5.8282999482972615   10.9864358740513879
     5.8282999482972615   -5.8282999482972615   10.9864358740513879
     5.8282999482972615    5.8282999482972615  -10.9864358740513879
   Be   In   Cl
     4     8    32
Direct
  0.0000000000000000  0.0000000000000000  0.0000000000000000
  0.7500000000000000  0.2500000000000000  0.5000000000000000
  0.2500000000000000  0.7500000000000000  0.5000000000000000
  0.5000000000000000  0.5000000000000000  0.0000000000000000
  0.5533950981320288  0.8750000000000000  0.1783950981320288
  0.1250000000000000  0.8033950981320288  0.1783950981320288
  0.1250000000000000  0.3033950981320288  0.6783950981320288
  0.6966049018679712  0.3750000000000000  0.8216049018679712
  0.6250000000000000  0.9466049018679712  0.8216049018679712
  0.0533950981320288  0.8750000000000000  0.6783950981320288
  0.1966049018679712  0.3750000000000000  0.3216049018679712
  0.6250000000000000  0.4466049018679712  0.3216049018679712
  0.6525203509185005  0.2442589885391726  0.3023866768687498
  0.1001336740497578  0.9025203509185005  0.9082613623793350
  0.8081276883295843  0.8998663259502422  0.8023866768687498
  0.3253710030086694  0.2638973257141970  0.2456900385801006
  0.8253710030086694  0.5796809644285617  0.0614746772944699
  0.8296809644285617  0.5753710030086694  0.5614746772944699
  0.0974796490814995  0.0057410114608274  0.1976133231312502
  0.9942589885391726  0.1918723116704157  0.0917386376206650
  0.4418723116704157  0.7442589885391726  0.5917386376206650
  0.2361026742858030  0.1746289969913306  0.7543099614198994
  0.0182062871340918  0.0796809644285617  0.7543099614198994
  0.9246289969913306  0.6703190355714383  0.4385253227055301
  0.9203190355714383  0.6746289969913306  0.9385253227055301
  0.1498663259502422  0.5581276883295843  0.3023866768687498
  0.3081276883295843  0.5057410114608274  0.9082613623793350
  0.6001336740497578  0.6918723116704157  0.1976133231312502
  0.7317937128659082  0.1703190355714383  0.7456900385801006
  0.2557410114608274  0.8474796490814995  0.6976133231312502
  0.4942589885391726  0.4025203509185005  0.8023866768687498
  0.9418723116704157  0.3501336740497578  0.6976133231312502
  0.3296809644285617  0.7682062871340918  0.2543099614198994
  0.4203190355714383  0.4817937128659082  0.2456900385801006
  0.6498663259502422  0.3474796490814995  0.5917386376206650
  0.5974796490814995  0.3998663259502422  0.0917386376206650
  0.2317937128659082  0.4861026742858030  0.5614746772944699
  0.4246289969913306  0.9861026742858030  0.2543099614198994
  0.1525203509185005  0.8501336740497578  0.4082613623793350
  0.5138973257141970  0.0753710030086694  0.7456900385801006
  0.5182062871340918  0.7638973257141970  0.9385253227055301
  0.0138973257141970  0.2682062871340918  0.4385253227055301
  0.7557410114608274  0.0581276883295843  0.4082613623793350
  0.7361026742858030  0.9817937128659082  0.0614746772944699
 
  0.00000000E+00  0.00000000E+00  0.00000000E+00
  0.00000000E+00  0.00000000E+00  0.00000000E+00
  0.00000000E+00  0.00000000E+00  0.00000000E+00
  0.00000000E+00  0.00000000E+00  0.00000000E+00
  0.00000000E+00  0.00000000E+00  0.00000000E+00
  0.00000000E+00  0.00000000E+00  0.00000000E+00
  0.00000000E+00  0.00000000E+00  0.00000000E+00
  0.00000000E+00  0.00000000E+00  0.00000000E+00
  0.00000000E+00  0.00000000E+00  0.00000000E+00
  0.00000000E+00  0.00000000E+00  0.00000000E+00
  0.00000000E+00  0.00000000E+00  0.00000000E+00
  0.00000000E+00  0.00000000E+00  0.00000000E+00
  0.00000000E+00  0.00000000E+00  0.00000000E+00
  0.00000000E+00  0.00000000E+00  0.00000000E+00
  0.00000000E+00  0.00000000E+00  0.00000000E+00
  0.00000000E+00  0.00000000E+00  0.00000000E+00
  0.00000000E+00  0.00000000E+00  0.00000000E+00
  0.00000000E+00  0.00000000E+00  0.00000000E+00
  0.00000000E+00  0.00000000E+00  0.00000000E+00
  0.00000000E+00  0.00000000E+00  0.00000000E+00
  0.00000000E+00  0.00000000E+00  0.00000000E+00
  0.00000000E+00  0.00000000E+00  0.00000000E+00
  0.00000000E+00  0.00000000E+00  0.00000000E+00
  0.00000000E+00  0.00000000E+00  0.00000000E+00
  0.00000000E+00  0.00000000E+00  0.00000000E+00
  0.00000000E+00  0.00000000E+00  0.00000000E+00
  0.00000000E+00  0.00000000E+00  0.00000000E+00
  0.00000000E+00  0.00000000E+00  0.00000000E+00
  0.00000000E+00  0.00000000E+00  0.00000000E+00
  0.00000000E+00  0.00000000E+00  0.00000000E+00
  0.00000000E+00  0.00000000E+00  0.00000000E+00
  0.00000000E+00  0.00000000E+00  0.00000000E+00
  0.00000000E+00  0.00000000E+00  0.00000000E+00
  0.00000000E+00  0.00000000E+00  0.00000000E+00
  0.00000000E+00  0.00000000E+00  0.00000000E+00
  0.00000000E+00  0.00000000E+00  0.00000000E+00
  0.00000000E+00  0.00000000E+00  0.00000000E+00
  0.00000000E+00  0.00000000E+00  0.00000000E+00
  0.00000000E+00  0.00000000E+00  0.00000000E+00
  0.00000000E+00  0.00000000E+00  0.00000000E+00
  0.00000000E+00  0.00000000E+00  0.00000000E+00
  0.00000000E+00  0.00000000E+00  0.00000000E+00
  0.00000000E+00  0.00000000E+00  0.00000000E+00
  0.00000000E+00  0.00000000E+00  0.00000000E+00
