Sr2 Al2 I10                             
   1.00000000000000     
    10.7635339851238907    4.4825536418294867    2.6982421516395352
     6.7323375161775321    9.5195887644027408    2.6982419315235169
    -0.8978503479002062   -0.7185576601633944   15.4288199019625321
   Sr   Al   I 
     2     2    10
Direct
  0.4679412632125022  0.5320587369557828  0.2499999996630038
  0.5320587367874907  0.4679412630442172  0.7500000003369962
  0.0000000000000000  0.0000000000000000  0.5000000000000000
  0.0000000000000000  0.0000000000000000  0.0000000000000000
  0.6987838386327283  0.5829903503952139  0.6858927289301349
  0.4170096410482955  0.3012151697234629  0.8141072712113200
  0.3012151613672742  0.4170096496047861  0.3141082710698697
  0.5829903589517045  0.6987838302765397  0.1858927287886729
  0.0324809001953739  0.9675191011275146  0.7499999995362145
  0.9675190998046261  0.0324808988724854  0.2500000004637855
  0.5327084474983863  0.5760347183855927  0.0431154822622517
  0.4239652766040791  0.4672915604578876  0.4568845169349842
  0.4672915525016137  0.4239652816144073  0.9568845177377483
  0.5760347233959209  0.5327084395421124  0.5431154830650158
 
  0.00000000E+00  0.00000000E+00  0.00000000E+00
  0.00000000E+00  0.00000000E+00  0.00000000E+00
  0.00000000E+00  0.00000000E+00  0.00000000E+00
  0.00000000E+00  0.00000000E+00  0.00000000E+00
  0.00000000E+00  0.00000000E+00  0.00000000E+00
  0.00000000E+00  0.00000000E+00  0.00000000E+00
  0.00000000E+00  0.00000000E+00  0.00000000E+00
  0.00000000E+00  0.00000000E+00  0.00000000E+00
  0.00000000E+00  0.00000000E+00  0.00000000E+00
  0.00000000E+00  0.00000000E+00  0.00000000E+00
  0.00000000E+00  0.00000000E+00  0.00000000E+00
  0.00000000E+00  0.00000000E+00  0.00000000E+00
  0.00000000E+00  0.00000000E+00  0.00000000E+00
  0.00000000E+00  0.00000000E+00  0.00000000E+00
