Be4 Ga4 Br20                            
   1.0000000000000000     
    23.6834423089350992    0.0000000000000000    0.0000000000000000
     0.0000000000000000    7.0754032159924840   -1.5806230290697125
     0.0000000000000000    1.4883311990331023    7.2634887998671749
   Be   Ga   Br
     4     4    20
Direct
  0.0112862746128357  0.6133037047534842  0.3632962725884852
  0.5112862746128357  0.3866962952465158  0.1367037274115148
  0.9887137253871643  0.3866962952465158  0.6367037274115148
  0.4887137253871643  0.6133037047534842  0.8632962725884852
  0.7777985212462255  0.1816179734963228  0.4117083432625606
  0.2777985212462255  0.8183820265036772  0.0882916567374465
  0.2222014787537745  0.8183820265036772  0.5882916567374465
  0.7222014787537745  0.1816179734963228  0.9117083432625535
  0.7202582694128878  0.4329821856240912  0.4517129953123202
  0.2202582694128878  0.5670178143759088  0.0482870046876798
  0.2797417305871122  0.5670178143759088  0.5482870046876798
  0.7797417305871122  0.4329821856240912  0.9517129953123202
  0.7346336408450398  0.9728972142514323  0.1760691961555665
  0.2346336408450398  0.0271027857485677  0.3239308038444335
  0.2653663591549602  0.0271027857485677  0.8239308038444335
  0.7653663591549602  0.9728972142514323  0.6760691961555665
  0.4623575717535928  0.3314372920221587  0.8960042699806152
  0.9623575717535928  0.6685627079778413  0.6039957300193848
  0.5376424282464072  0.6685627079778413  0.1039957300193848
  0.0376424282464072  0.3314372920221587  0.3960042699806152
  0.4748312065849305  0.7797188657854761  0.6568128388061965
  0.9748312065849305  0.2202811342145239  0.8431871611938035
  0.5251687934150695  0.2202811342145239  0.3431871611938035
  0.0251687934150695  0.7797188657854761  0.1568128388061965
  0.3728665070030601  0.8084103535268667  0.1433804768353539
  0.8728665070030601  0.1915896464731404  0.3566195231646461
  0.6271334929969399  0.1915896464731404  0.8566195231646532
  0.1271334929969470  0.8084103535268667  0.6433804768353468

  0.00000000E+00  0.00000000E+00  0.00000000E+00
  0.00000000E+00  0.00000000E+00  0.00000000E+00
  0.00000000E+00  0.00000000E+00  0.00000000E+00
  0.00000000E+00  0.00000000E+00  0.00000000E+00
  0.00000000E+00  0.00000000E+00  0.00000000E+00
  0.00000000E+00  0.00000000E+00  0.00000000E+00
  0.00000000E+00  0.00000000E+00  0.00000000E+00
  0.00000000E+00  0.00000000E+00  0.00000000E+00
  0.00000000E+00  0.00000000E+00  0.00000000E+00
  0.00000000E+00  0.00000000E+00  0.00000000E+00
  0.00000000E+00  0.00000000E+00  0.00000000E+00
  0.00000000E+00  0.00000000E+00  0.00000000E+00
  0.00000000E+00  0.00000000E+00  0.00000000E+00
  0.00000000E+00  0.00000000E+00  0.00000000E+00
  0.00000000E+00  0.00000000E+00  0.00000000E+00
  0.00000000E+00  0.00000000E+00  0.00000000E+00
  0.00000000E+00  0.00000000E+00  0.00000000E+00
  0.00000000E+00  0.00000000E+00  0.00000000E+00
  0.00000000E+00  0.00000000E+00  0.00000000E+00
  0.00000000E+00  0.00000000E+00  0.00000000E+00
  0.00000000E+00  0.00000000E+00  0.00000000E+00
  0.00000000E+00  0.00000000E+00  0.00000000E+00
  0.00000000E+00  0.00000000E+00  0.00000000E+00
  0.00000000E+00  0.00000000E+00  0.00000000E+00
  0.00000000E+00  0.00000000E+00  0.00000000E+00
  0.00000000E+00  0.00000000E+00  0.00000000E+00
  0.00000000E+00  0.00000000E+00  0.00000000E+00
  0.00000000E+00  0.00000000E+00  0.00000000E+00
