Ca1 Al13                                
   1.00000000000000     
     5.7456721532154864   -3.9832153527703920   -0.0650840142128437
     5.7456721532154864    3.9832153527703897   -0.0650840142128436
    -1.1969229871801232    0.0000000000000001    5.6634477661731655
   Ca   Al
     1    13
Direct
  0.9999921045958970  0.9999921045958970  0.0000017743539189
  0.7681479486504941  0.7681479486504941  0.1291555848115351
  0.6047347528204270  0.2416551384686372  0.1773776849675954
  0.2416551384686372  0.6047347528204270  0.1773776849675954
  0.0005539826711995  0.3782784910079826  0.2916417745550675
  0.3782784910079826  0.0005539826711995  0.2916417745550675
  0.6143292236108024  0.6143292236108024  0.4338551079072275
  0.9999890566337015  0.9999890566337015  0.5000003339354251
  0.3856565784269321  0.3856565784269321  0.5661455042705512
  0.6217055920662702  0.9994320425225567  0.7083611943970638
  0.9994320425225567  0.6217055920662702  0.7083611943970638
  0.7583314178888969  0.3952479734279777  0.8226204726906090
  0.3952479734279777  0.7583314178888969  0.8226204726906090
  0.2318346972082139  0.2318346972082139  0.8708394415006921
 
  0.00000000E+00  0.00000000E+00  0.00000000E+00
  0.00000000E+00  0.00000000E+00  0.00000000E+00
  0.00000000E+00  0.00000000E+00  0.00000000E+00
  0.00000000E+00  0.00000000E+00  0.00000000E+00
  0.00000000E+00  0.00000000E+00  0.00000000E+00
  0.00000000E+00  0.00000000E+00  0.00000000E+00
  0.00000000E+00  0.00000000E+00  0.00000000E+00
  0.00000000E+00  0.00000000E+00  0.00000000E+00
  0.00000000E+00  0.00000000E+00  0.00000000E+00
  0.00000000E+00  0.00000000E+00  0.00000000E+00
  0.00000000E+00  0.00000000E+00  0.00000000E+00
  0.00000000E+00  0.00000000E+00  0.00000000E+00
  0.00000000E+00  0.00000000E+00  0.00000000E+00
  0.00000000E+00  0.00000000E+00  0.00000000E+00
