Mg41 B67                                
   1.00000000000000     
    10.7159982168365069    0.0000000000000000    0.0000000000000000
     0.0000000000000000   10.7159982168365087    0.0000000000000000
     0.0000000000000000    0.0000000000000000   10.7159982168365069
   B    Mg
    67    41
Direct
  0.3530824831489454  0.1378416643575875  0.0000000000000000
  0.6469175168510546  0.1378416643575875  0.0000000000000000
  0.5000000000000000  0.2220729894140874  0.0000000000000000
  0.1378416643575875  0.3530824831489454  0.0000000000000000
  0.8621583356424125  0.3530824831489454  0.0000000000000000
  0.2220729894140874  0.5000000000000000  0.0000000000000000
  0.7779270105859197  0.5000000000000000  0.0000000000000000
  0.1378416643575875  0.6469175168510546  0.0000000000000000
  0.8621583356424125  0.6469175168510546  0.0000000000000000
  0.5000000000000000  0.7779270105859197  0.0000000000000000
  0.3530824831489454  0.8621583356424125  0.0000000000000000
  0.6469175168510546  0.8621583356424125  0.0000000000000000
  0.5000000000000000  0.1503318444979840  0.1503318444979840
  0.1503318444979840  0.5000000000000000  0.1503318444979840
  0.8496681555020160  0.5000000000000000  0.1503318444979840
  0.5000000000000000  0.8496681555020160  0.1503318444979840
  0.5000000000000000  0.5000000000000000  0.2618394162471489
  0.3530824831489454  0.0000000000000000  0.1378416643575875
  0.6469175168510546  0.0000000000000000  0.1378416643575875
  0.0000000000000000  0.3530824831489454  0.1378416643575875
  0.0000000000000000  0.6469175168510546  0.1378416643575875
  0.5000000000000000  0.0000000000000000  0.2220729894140874
  0.0000000000000000  0.5000000000000000  0.2220729894140874
  0.5000000000000000  0.3782461218935396  0.3782461218935396
  0.3782461218935396  0.5000000000000000  0.3782461218935396
  0.6217538781064604  0.5000000000000000  0.3782461218935396
  0.5000000000000000  0.6217538781064604  0.3782461218935396
  0.1378416643575875  0.0000000000000000  0.3530824831489454
  0.8621583356424125  0.0000000000000000  0.3530824831489454
  0.0000000000000000  0.1378416643575875  0.3530824831489454
  0.0000000000000000  0.8621583356424125  0.3530824831489454
  0.2220729894140874  0.0000000000000000  0.5000000000000000
  0.7779270105859197  0.0000000000000000  0.5000000000000000
  0.1503318444979840  0.1503318444979840  0.5000000000000000
  0.8496681555020160  0.1503318444979840  0.5000000000000000
  0.5000000000000000  0.2618394162471489  0.5000000000000000
  0.0000000000000000  0.2220729894140874  0.5000000000000000
  0.3782461218935396  0.3782461218935396  0.5000000000000000
  0.6217538781064604  0.3782461218935396  0.5000000000000000
  0.2618394162471489  0.5000000000000000  0.5000000000000000
  0.5000000000000000  0.5000000000000000  0.5000000000000000
  0.7381605837528511  0.5000000000000000  0.5000000000000000
  0.3782461218935396  0.6217538781064604  0.5000000000000000
  0.6217538781064604  0.6217538781064604  0.5000000000000000
  0.0000000000000000  0.7779270105859197  0.5000000000000000
  0.5000000000000000  0.7381605837528511  0.5000000000000000
  0.1503318444979840  0.8496681555020160  0.5000000000000000
  0.8496681555020160  0.8496681555020160  0.5000000000000000
  0.1378416643575875  0.0000000000000000  0.6469175168510546
  0.8621583356424125  0.0000000000000000  0.6469175168510546
  0.0000000000000000  0.1378416643575875  0.6469175168510546
  0.0000000000000000  0.8621583356424125  0.6469175168510546
  0.5000000000000000  0.3782461218935396  0.6217538781064604
  0.3782461218935396  0.5000000000000000  0.6217538781064604
  0.6217538781064604  0.5000000000000000  0.6217538781064604
  0.5000000000000000  0.6217538781064604  0.6217538781064604
  0.5000000000000000  0.0000000000000000  0.7779270105859197
  0.0000000000000000  0.5000000000000000  0.7779270105859197
  0.3530824831489454  0.0000000000000000  0.8621583356424125
  0.6469175168510546  0.0000000000000000  0.8621583356424125
  0.0000000000000000  0.3530824831489454  0.8621583356424125
  0.0000000000000000  0.6469175168510546  0.8621583356424125
  0.5000000000000000  0.5000000000000000  0.7381605837528511
  0.5000000000000000  0.1503318444979840  0.8496681555020160
  0.1503318444979840  0.5000000000000000  0.8496681555020160
  0.8496681555020160  0.5000000000000000  0.8496681555020160
  0.5000000000000000  0.8496681555020160  0.8496681555020160
  0.1878913101776902  0.0000000000000000  0.0000000000000000
  0.5000000000000000  0.0000000000000000  0.0000000000000000
  0.8121086898223098  0.0000000000000000  0.0000000000000000
  0.0000000000000000  0.1878913101776902  0.0000000000000000
  0.0000000000000000  0.5000000000000000  0.0000000000000000
  0.0000000000000000  0.8121086898223098  0.0000000000000000
  0.3618475630677480  0.3618475630677480  0.1369595425185963
  0.6381524369322520  0.3618475630677480  0.1369595425185963
  0.3618475630677480  0.6381524369322520  0.1369595425185963
  0.6381524369322520  0.6381524369322520  0.1369595425185963
  0.1799424089281345  0.1799424089281345  0.1799424089281345
  0.8200575910718655  0.1799424089281345  0.1799424089281345
  0.1799424089281345  0.8200575910718655  0.1799424089281345
  0.8200575910718655  0.8200575910718655  0.1799424089281345
  0.0000000000000000  0.0000000000000000  0.1878913101776902
  0.3618475630677480  0.1369595425185963  0.3618475630677480
  0.6381524369322520  0.1369595425185963  0.3618475630677480
  0.1369595425185963  0.3618475630677480  0.3618475630677480
  0.8630404574814037  0.3618475630677480  0.3618475630677480
  0.1369595425185963  0.6381524369322520  0.3618475630677480
  0.8630404574814037  0.6381524369322520  0.3618475630677480
  0.3618475630677480  0.8630404574814037  0.3618475630677480
  0.6381524369322520  0.8630404574814037  0.3618475630677480
  0.0000000000000000  0.0000000000000000  0.5000000000000000
  0.3618475630677480  0.1369595425185963  0.6381524369322520
  0.6381524369322520  0.1369595425185963  0.6381524369322520
  0.1369595425185963  0.3618475630677480  0.6381524369322520
  0.8630404574814037  0.3618475630677480  0.6381524369322520
  0.1369595425185963  0.6381524369322520  0.6381524369322520
  0.8630404574814037  0.6381524369322520  0.6381524369322520
  0.3618475630677480  0.8630404574814037  0.6381524369322520
  0.6381524369322520  0.8630404574814037  0.6381524369322520
  0.0000000000000000  0.0000000000000000  0.8121086898223098
  0.1799424089281345  0.1799424089281345  0.8200575910718655
  0.8200575910718655  0.1799424089281345  0.8200575910718655
  0.1799424089281345  0.8200575910718655  0.8200575910718655
  0.8200575910718655  0.8200575910718655  0.8200575910718655
  0.3618475630677480  0.3618475630677480  0.8630404574814037
  0.6381524369322520  0.3618475630677480  0.8630404574814037
  0.3618475630677480  0.6381524369322520  0.8630404574814037
  0.6381524369322520  0.6381524369322520  0.8630404574814037
 
  0.00000000E+00  0.00000000E+00  0.00000000E+00
  0.00000000E+00  0.00000000E+00  0.00000000E+00
  0.00000000E+00  0.00000000E+00  0.00000000E+00
  0.00000000E+00  0.00000000E+00  0.00000000E+00
  0.00000000E+00  0.00000000E+00  0.00000000E+00
  0.00000000E+00  0.00000000E+00  0.00000000E+00
  0.00000000E+00  0.00000000E+00  0.00000000E+00
  0.00000000E+00  0.00000000E+00  0.00000000E+00
  0.00000000E+00  0.00000000E+00  0.00000000E+00
  0.00000000E+00  0.00000000E+00  0.00000000E+00
  0.00000000E+00  0.00000000E+00  0.00000000E+00
  0.00000000E+00  0.00000000E+00  0.00000000E+00
  0.00000000E+00  0.00000000E+00  0.00000000E+00
  0.00000000E+00  0.00000000E+00  0.00000000E+00
  0.00000000E+00  0.00000000E+00  0.00000000E+00
  0.00000000E+00  0.00000000E+00  0.00000000E+00
  0.00000000E+00  0.00000000E+00  0.00000000E+00
  0.00000000E+00  0.00000000E+00  0.00000000E+00
  0.00000000E+00  0.00000000E+00  0.00000000E+00
  0.00000000E+00  0.00000000E+00  0.00000000E+00
  0.00000000E+00  0.00000000E+00  0.00000000E+00
  0.00000000E+00  0.00000000E+00  0.00000000E+00
  0.00000000E+00  0.00000000E+00  0.00000000E+00
  0.00000000E+00  0.00000000E+00  0.00000000E+00
  0.00000000E+00  0.00000000E+00  0.00000000E+00
  0.00000000E+00  0.00000000E+00  0.00000000E+00
  0.00000000E+00  0.00000000E+00  0.00000000E+00
  0.00000000E+00  0.00000000E+00  0.00000000E+00
  0.00000000E+00  0.00000000E+00  0.00000000E+00
  0.00000000E+00  0.00000000E+00  0.00000000E+00
  0.00000000E+00  0.00000000E+00  0.00000000E+00
  0.00000000E+00  0.00000000E+00  0.00000000E+00
  0.00000000E+00  0.00000000E+00  0.00000000E+00
  0.00000000E+00  0.00000000E+00  0.00000000E+00
  0.00000000E+00  0.00000000E+00  0.00000000E+00
  0.00000000E+00  0.00000000E+00  0.00000000E+00
  0.00000000E+00  0.00000000E+00  0.00000000E+00
  0.00000000E+00  0.00000000E+00  0.00000000E+00
  0.00000000E+00  0.00000000E+00  0.00000000E+00
  0.00000000E+00  0.00000000E+00  0.00000000E+00
  0.00000000E+00  0.00000000E+00  0.00000000E+00
  0.00000000E+00  0.00000000E+00  0.00000000E+00
  0.00000000E+00  0.00000000E+00  0.00000000E+00
  0.00000000E+00  0.00000000E+00  0.00000000E+00
  0.00000000E+00  0.00000000E+00  0.00000000E+00
  0.00000000E+00  0.00000000E+00  0.00000000E+00
  0.00000000E+00  0.00000000E+00  0.00000000E+00
  0.00000000E+00  0.00000000E+00  0.00000000E+00
  0.00000000E+00  0.00000000E+00  0.00000000E+00
  0.00000000E+00  0.00000000E+00  0.00000000E+00
  0.00000000E+00  0.00000000E+00  0.00000000E+00
  0.00000000E+00  0.00000000E+00  0.00000000E+00
  0.00000000E+00  0.00000000E+00  0.00000000E+00
  0.00000000E+00  0.00000000E+00  0.00000000E+00
  0.00000000E+00  0.00000000E+00  0.00000000E+00
  0.00000000E+00  0.00000000E+00  0.00000000E+00
  0.00000000E+00  0.00000000E+00  0.00000000E+00
  0.00000000E+00  0.00000000E+00  0.00000000E+00
  0.00000000E+00  0.00000000E+00  0.00000000E+00
  0.00000000E+00  0.00000000E+00  0.00000000E+00
  0.00000000E+00  0.00000000E+00  0.00000000E+00
  0.00000000E+00  0.00000000E+00  0.00000000E+00
  0.00000000E+00  0.00000000E+00  0.00000000E+00
  0.00000000E+00  0.00000000E+00  0.00000000E+00
  0.00000000E+00  0.00000000E+00  0.00000000E+00
  0.00000000E+00  0.00000000E+00  0.00000000E+00
  0.00000000E+00  0.00000000E+00  0.00000000E+00
  0.00000000E+00  0.00000000E+00  0.00000000E+00
  0.00000000E+00  0.00000000E+00  0.00000000E+00
  0.00000000E+00  0.00000000E+00  0.00000000E+00
  0.00000000E+00  0.00000000E+00  0.00000000E+00
  0.00000000E+00  0.00000000E+00  0.00000000E+00
  0.00000000E+00  0.00000000E+00  0.00000000E+00
  0.00000000E+00  0.00000000E+00  0.00000000E+00
  0.00000000E+00  0.00000000E+00  0.00000000E+00
  0.00000000E+00  0.00000000E+00  0.00000000E+00
  0.00000000E+00  0.00000000E+00  0.00000000E+00
  0.00000000E+00  0.00000000E+00  0.00000000E+00
  0.00000000E+00  0.00000000E+00  0.00000000E+00
  0.00000000E+00  0.00000000E+00  0.00000000E+00
  0.00000000E+00  0.00000000E+00  0.00000000E+00
  0.00000000E+00  0.00000000E+00  0.00000000E+00
  0.00000000E+00  0.00000000E+00  0.00000000E+00
  0.00000000E+00  0.00000000E+00  0.00000000E+00
  0.00000000E+00  0.00000000E+00  0.00000000E+00
  0.00000000E+00  0.00000000E+00  0.00000000E+00
  0.00000000E+00  0.00000000E+00  0.00000000E+00
  0.00000000E+00  0.00000000E+00  0.00000000E+00
  0.00000000E+00  0.00000000E+00  0.00000000E+00
  0.00000000E+00  0.00000000E+00  0.00000000E+00
  0.00000000E+00  0.00000000E+00  0.00000000E+00
  0.00000000E+00  0.00000000E+00  0.00000000E+00
  0.00000000E+00  0.00000000E+00  0.00000000E+00
  0.00000000E+00  0.00000000E+00  0.00000000E+00
  0.00000000E+00  0.00000000E+00  0.00000000E+00
  0.00000000E+00  0.00000000E+00  0.00000000E+00
  0.00000000E+00  0.00000000E+00  0.00000000E+00
  0.00000000E+00  0.00000000E+00  0.00000000E+00
  0.00000000E+00  0.00000000E+00  0.00000000E+00
  0.00000000E+00  0.00000000E+00  0.00000000E+00
  0.00000000E+00  0.00000000E+00  0.00000000E+00
  0.00000000E+00  0.00000000E+00  0.00000000E+00
  0.00000000E+00  0.00000000E+00  0.00000000E+00
  0.00000000E+00  0.00000000E+00  0.00000000E+00
  0.00000000E+00  0.00000000E+00  0.00000000E+00
  0.00000000E+00  0.00000000E+00  0.00000000E+00
  0.00000000E+00  0.00000000E+00  0.00000000E+00
  0.00000000E+00  0.00000000E+00  0.00000000E+00
