Ca4 Ga4 F20                             
   1.0000000000000000     
    10.0795667036635344    0.0000000000000000    0.0000000000000000
     0.0000000000000000    5.1144556199386058    0.0310076426838064
     0.0000000000000000    2.4217343904966908    7.0829788285551665
   Ca   Ga   F 
     4     4    20
Direct
  0.9834121419367889  0.4709122887502346  0.2568860577070140
  0.4834121419367889  0.5290877112497725  0.2431139422929860
  0.0165878580632111  0.5290877112497725  0.7431139422929860
  0.5165878580632111  0.4709122887502346  0.7568860577070140
  0.7585381605091541  0.1137674387218084  0.5983385789245332
  0.2585381605091541  0.8862325612781987  0.9016614210754668
  0.2414618394908459  0.8862325612781987  0.4016614210754668
  0.7414618394908459  0.1137674387218084  0.0983385789245332
  0.6081977494603450  0.3392430931028656  0.5018008352654846
  0.1081977494603450  0.6607569068971273  0.9981991647345154
  0.3918022505396550  0.6607569068971273  0.4981991647345083
  0.8918022505396550  0.3392430931028656  0.0018008352654917
  0.8052136388562516  0.1437281137186872  0.3381961670397544
  0.3052136388562516  0.8562718862813128  0.1618038329602527
  0.1947863611437484  0.8562718862813128  0.6618038329602527
  0.6947863611437484  0.1437281137186872  0.8381961670397473
  0.4151395768640143  0.0657791300428556  0.7999660826152848
  0.9151395768640143  0.9342208699571373  0.7000339173847152
  0.5848604231359857  0.9342208699571373  0.2000339173847152
  0.0848604231359857  0.0657791300428556  0.2999660826152848
  0.6646849775802224  0.7932967863259037  0.6342586611529768
  0.1646849775802224  0.2067032136741034  0.8657413388470232
  0.3353150224197776  0.2067032136741034  0.3657413388470161
  0.8353150224197776  0.7932967863259037  0.1342586611529768
  0.3665880376225914  0.5549905963150152  0.9589926037908398
  0.8665880376225914  0.4450094036849919  0.5410073962091602
  0.6334119623774086  0.4450094036849919  0.0410073962091602
  0.1334119623774086  0.5549905963150152  0.4589926037908398

  0.00000000E+00  0.00000000E+00  0.00000000E+00
  0.00000000E+00  0.00000000E+00  0.00000000E+00
  0.00000000E+00  0.00000000E+00  0.00000000E+00
  0.00000000E+00  0.00000000E+00  0.00000000E+00
  0.00000000E+00  0.00000000E+00  0.00000000E+00
  0.00000000E+00  0.00000000E+00  0.00000000E+00
  0.00000000E+00  0.00000000E+00  0.00000000E+00
  0.00000000E+00  0.00000000E+00  0.00000000E+00
  0.00000000E+00  0.00000000E+00  0.00000000E+00
  0.00000000E+00  0.00000000E+00  0.00000000E+00
  0.00000000E+00  0.00000000E+00  0.00000000E+00
  0.00000000E+00  0.00000000E+00  0.00000000E+00
  0.00000000E+00  0.00000000E+00  0.00000000E+00
  0.00000000E+00  0.00000000E+00  0.00000000E+00
  0.00000000E+00  0.00000000E+00  0.00000000E+00
  0.00000000E+00  0.00000000E+00  0.00000000E+00
  0.00000000E+00  0.00000000E+00  0.00000000E+00
  0.00000000E+00  0.00000000E+00  0.00000000E+00
  0.00000000E+00  0.00000000E+00  0.00000000E+00
  0.00000000E+00  0.00000000E+00  0.00000000E+00
  0.00000000E+00  0.00000000E+00  0.00000000E+00
  0.00000000E+00  0.00000000E+00  0.00000000E+00
  0.00000000E+00  0.00000000E+00  0.00000000E+00
  0.00000000E+00  0.00000000E+00  0.00000000E+00
  0.00000000E+00  0.00000000E+00  0.00000000E+00
  0.00000000E+00  0.00000000E+00  0.00000000E+00
  0.00000000E+00  0.00000000E+00  0.00000000E+00
  0.00000000E+00  0.00000000E+00  0.00000000E+00
