InBr3                                   
   1.00000000000000     
     3.4726287266258673    1.9951468697228922    7.1195948793055344
    -3.4595909297801404    1.9947086006501473    7.1133380162832509
     0.0061379059173625   -4.0060730838418710    7.1207496191650810
   Br   In
     6     2
Direct
  0.7842344436489839  0.4260098779228940  0.0686770875042626
  0.5733395043125142  0.9317553090281336  0.2156534077191736
  0.0684267215749870  0.7837746265184649  0.4266882282789624
  0.9315499527924729  0.2161117490826854  0.5732058312807311
  0.4266066596587095  0.0682248685555109  0.7842743335487512
  0.2156413051339356  0.5739092735588827  0.9311924674140499
  0.1666349680065409  0.1666252194869529  0.1666549051046928
  0.8332664448718390  0.8332890758464728  0.8333537391493735
 
  0.00000000E+00  0.00000000E+00  0.00000000E+00
  0.00000000E+00  0.00000000E+00  0.00000000E+00
  0.00000000E+00  0.00000000E+00  0.00000000E+00
  0.00000000E+00  0.00000000E+00  0.00000000E+00
  0.00000000E+00  0.00000000E+00  0.00000000E+00
  0.00000000E+00  0.00000000E+00  0.00000000E+00
  0.00000000E+00  0.00000000E+00  0.00000000E+00
  0.00000000E+00  0.00000000E+00  0.00000000E+00
