Ba4 Ga4 F20                             
   1.0000000000000000     
     8.9139123041856223    0.0000000000000000    0.0000000000000000
     0.0000000000000000    5.6965522119050647    0.0924395084793121
     0.0000000000000000    2.7925834112178327    7.6893591540032675
   Ba   Ga   F 
     4     4    20
Direct
  0.0228328367760966  0.4558055084182868  0.2720782782861448
  0.5228328367761037  0.5441944915817132  0.2279217217138552
  0.9771671632238963  0.5441944915817132  0.7279217217138552
  0.4771671632239034  0.4558055084182868  0.7720782782861448
  0.7446592641029213  0.1300393472565418  0.5882616111002363
  0.2446592641029213  0.8699606527434582  0.9117383888997637
  0.2553407358970787  0.8699606527434582  0.4117383888997637
  0.7553407358970787  0.1300393472565418  0.0882616111002363
  0.5416837570680784  0.2176263462473500  0.5539087991025937
  0.0416837570680784  0.7823736537526500  0.9460912008974063
  0.4583162429319287  0.7823736537526500  0.4460912008974063
  0.9583162429319216  0.2176263462473500  0.0539087991025937
  0.7609986793974031  0.1662513567165433  0.3262273045254460
  0.2609986793974031  0.8337486432834567  0.1737726954745540
  0.2390013206025898  0.8337486432834567  0.6737726954745540
  0.7390013206025969  0.1662513567165433  0.8262273045254460
  0.4537081091425748  0.8948267365582510  0.8868221658866062
  0.9537081091425819  0.1051732634417490  0.6131778341133938
  0.5462918908574181  0.1051732634417490  0.1131778341133938
  0.0462918908574252  0.8948267365582510  0.3868221658866062
  0.7136052003546638  0.7912809377701606  0.6632098570005667
  0.2136052003546780  0.2087190622298394  0.8367901429994333
  0.2863947996453291  0.2087190622298394  0.3367901429994333
  0.7863947996453362  0.7912809377701606  0.1632098570005667
  0.2842719066525206  0.5182814730717240  0.0095994973250626
  0.7842719066525206  0.4817185269282760  0.4904005026749374
  0.7157280933474794  0.4817185269282760  0.9904005026749374
  0.2157280933474794  0.5182814730717240  0.5095994973250626

  0.00000000E+00  0.00000000E+00  0.00000000E+00
  0.00000000E+00  0.00000000E+00  0.00000000E+00
  0.00000000E+00  0.00000000E+00  0.00000000E+00
  0.00000000E+00  0.00000000E+00  0.00000000E+00
  0.00000000E+00  0.00000000E+00  0.00000000E+00
  0.00000000E+00  0.00000000E+00  0.00000000E+00
  0.00000000E+00  0.00000000E+00  0.00000000E+00
  0.00000000E+00  0.00000000E+00  0.00000000E+00
  0.00000000E+00  0.00000000E+00  0.00000000E+00
  0.00000000E+00  0.00000000E+00  0.00000000E+00
  0.00000000E+00  0.00000000E+00  0.00000000E+00
  0.00000000E+00  0.00000000E+00  0.00000000E+00
  0.00000000E+00  0.00000000E+00  0.00000000E+00
  0.00000000E+00  0.00000000E+00  0.00000000E+00
  0.00000000E+00  0.00000000E+00  0.00000000E+00
  0.00000000E+00  0.00000000E+00  0.00000000E+00
  0.00000000E+00  0.00000000E+00  0.00000000E+00
  0.00000000E+00  0.00000000E+00  0.00000000E+00
  0.00000000E+00  0.00000000E+00  0.00000000E+00
  0.00000000E+00  0.00000000E+00  0.00000000E+00
  0.00000000E+00  0.00000000E+00  0.00000000E+00
  0.00000000E+00  0.00000000E+00  0.00000000E+00
  0.00000000E+00  0.00000000E+00  0.00000000E+00
  0.00000000E+00  0.00000000E+00  0.00000000E+00
  0.00000000E+00  0.00000000E+00  0.00000000E+00
  0.00000000E+00  0.00000000E+00  0.00000000E+00
  0.00000000E+00  0.00000000E+00  0.00000000E+00
  0.00000000E+00  0.00000000E+00  0.00000000E+00
