Mg9 In4                                 
   1.0000000000000000     
    -5.7977475982831397    5.7402083311527843    2.3021971121557074
     5.7584509613312207   -5.7584275534382696    2.2592793525495449
     5.7143295081238499    5.6764179904857404   -2.3505812644155961
   In   Mg
     4     9
Direct
  0.3595428044838158  0.7316744667201931  0.0897405840743062
  0.7338286617447451  0.6415375325031434  0.3742745383614690
  0.2661733251140319  0.3584634011159622  0.6257898242519246
  0.6404529853015575  0.2683247357298768  0.9103168556950223
  0.5000020360328321  0.5000027165461844  0.0000340503685479
  0.1911755485804818  0.9503198383411728  0.1411455257682661
  0.8873452125801080  0.4166034109356929  0.3038488990952501
  0.0513083051308527  0.1904363411226200  0.2395982458354453
  0.5813842167196697  0.8863186089873665  0.4697389341439120
  0.4186152058764847  0.1136794896722932  0.5303198996065888
  0.9486933434035549  0.8095662477758410  0.7604651109974583
  0.1126532868553625  0.5833933431330394  0.6962105207100890
  0.8088250681764890  0.0496798674165220  0.8589170110917195

  0.00000000E+00  0.00000000E+00  0.00000000E+00
  0.00000000E+00  0.00000000E+00  0.00000000E+00
  0.00000000E+00  0.00000000E+00  0.00000000E+00
  0.00000000E+00  0.00000000E+00  0.00000000E+00
  0.00000000E+00  0.00000000E+00  0.00000000E+00
  0.00000000E+00  0.00000000E+00  0.00000000E+00
  0.00000000E+00  0.00000000E+00  0.00000000E+00
  0.00000000E+00  0.00000000E+00  0.00000000E+00
  0.00000000E+00  0.00000000E+00  0.00000000E+00
  0.00000000E+00  0.00000000E+00  0.00000000E+00
  0.00000000E+00  0.00000000E+00  0.00000000E+00
  0.00000000E+00  0.00000000E+00  0.00000000E+00
  0.00000000E+00  0.00000000E+00  0.00000000E+00
