Mg3Al4                                  
   1.00000000000000     
     2.3269309581569941    1.3421096919767859    7.3886730903097266
    -2.3269309581569941    1.3421096919767859    7.3886730903097266
     0.0000000000000000   -2.6863594069288834    7.3889663473848177
   Al   Mg
     4     3
Direct
  0.1718487811891265  0.1718487811891265  0.1717923443784031
  0.2971048642387686  0.2971048642387686  0.2968641353942232
  0.6988951357612336  0.6988951357612336  0.6991358646057790
  0.8241512188108757  0.8241512188108757  0.8242076556215991
  0.4282089631277515  0.4282089631277515  0.4285635306028368
  0.5677910368722507  0.5677910368722507  0.5674364693971654
  0.9979999999999976  0.9979999999999976  0.9979999999999976
 
  0.00000000E+00  0.00000000E+00  0.00000000E+00
  0.00000000E+00  0.00000000E+00  0.00000000E+00
  0.00000000E+00  0.00000000E+00  0.00000000E+00
  0.00000000E+00  0.00000000E+00  0.00000000E+00
  0.00000000E+00  0.00000000E+00  0.00000000E+00
  0.00000000E+00  0.00000000E+00  0.00000000E+00
  0.00000000E+00  0.00000000E+00  0.00000000E+00
