Sr1 Al5                                 
   1.00000000000000     
     5.8076487358591056   -0.0001317269790979    0.0000000000000000
    -2.9044554922043231    5.0292161080128022    0.0000000000000000
     0.0000000000000000    0.0000000000000000    4.3404744128943999
   Al   Sr
     5     1
Direct
  0.6668230036281884  0.3331784355548209  0.0000000000000000
  0.3331769963718116  0.6668215644451791  0.0000000000000000
  0.5000000000000000  0.0000000000000000  0.5000000000000000
  0.0000000000000000  0.5000000000000000  0.5000000000000000
  0.5000000000000000  0.5000000000000000  0.5000000000000000
  0.0000000000000000  0.0000000000000000  0.0000000000000000
 
  0.00000000E+00  0.00000000E+00  0.00000000E+00
  0.00000000E+00  0.00000000E+00  0.00000000E+00
  0.00000000E+00  0.00000000E+00  0.00000000E+00
  0.00000000E+00  0.00000000E+00  0.00000000E+00
  0.00000000E+00  0.00000000E+00  0.00000000E+00
  0.00000000E+00  0.00000000E+00  0.00000000E+00
