Ca8 Al50                                
   1.00000000000000     
    13.1504965053218719    0.0000000000000000    0.0000000000000000
     0.0000000000000000    7.5877946982039735    0.4869774299292821
     0.0000000000000000    8.3838905791042251   13.1881651026894033
   Ca   Al
     8    50
Direct
  0.6508641429305726  0.2175842702535959  0.3550549753065084
  0.3491358570694274  0.2175842702535959  0.8550549753065084
  0.1645832381117529  0.3142785171882920  0.6572268361482898
  0.8354167618882471  0.3142785171882920  0.1572268361482898
  0.3491358570694274  0.7824157297464041  0.6449450246934916
  0.6508641429305726  0.7824157297464041  0.1449450246934916
  0.8354167618882471  0.6857214828117080  0.3427731638517102
  0.1645832381117529  0.6857214828117080  0.8427731638517102
  0.6939148435269544  0.6717757085331399  0.5313284023907130
  0.3060851564730456  0.6717757085331399  0.0313284023907130
  0.1500610477582995  0.3181066321164039  0.3520985189263044
  0.8499389522416934  0.3181066321164039  0.8520985189263044
  0.3060851564730456  0.3282242914668601  0.4686715976092870
  0.6939148435269544  0.3282242914668601  0.9686715976092870
  0.8499389522416934  0.6818933678835961  0.6479014810736956
  0.1500610477582995  0.6818933678835961  0.1479014810736956
  0.0383804860570720  0.9558606972325663  0.1816453390241932
  0.7580991773935253  0.7503792937658247  0.7917809195015408
  0.9616195139429280  0.9558606972325663  0.6816453390241932
  0.2419008226064747  0.7503792937658247  0.2917809195015408
  0.9616195139429280  0.0441393027674266  0.8183546609758068
  0.2419008226064747  0.2496207062341753  0.2082190804984592
  0.0383804860570720  0.0441393027674266  0.3183546609758068
  0.7580991773935253  0.2496207062341753  0.7082190804984592
  0.5987438945607835  0.7872054418320289  0.3450718595722080
  0.4012561054392165  0.7872054418320289  0.8450718595722080
  0.1519890369644870  0.0533359287436781  0.5703250081071261
  0.8480109630355130  0.0533359287436781  0.0703250081071261
  0.4012561054392165  0.2127945581679711  0.6549281404277920
  0.5987438945607835  0.2127945581679711  0.1549281404277920
  0.8480109630355130  0.9466640712563219  0.4296749918928739
  0.1519890369644870  0.9466640712563219  0.9296749918928739
  0.5531400862413065  0.4310870578512223  0.6865054073482781
  0.4468599137586935  0.4310870578512223  0.1865054073482781
  0.9370719600516182  0.3201134919748014  0.3410583079730571
  0.0629280399483818  0.3201134919748014  0.8410583079730571
  0.4468599137586935  0.5689129421487777  0.3134945926517219
  0.5531400862413065  0.5689129421487777  0.8134945926517219
  0.0629280399483818  0.6798865080251986  0.6589416920269429
  0.9370719600516182  0.6798865080251986  0.1589416920269429
  0.1746514729311599  0.1430733255614598  0.0270351266826552
  0.6595743950976214  0.6558968784125270  0.9803801602539650
  0.8253485270688401  0.1430733255614598  0.5270351266826552
  0.3404256049023786  0.6558968784125270  0.4803801602539650
  0.8253485270688401  0.8569266744385402  0.9729648733173448
  0.3404256049023786  0.3441031215874730  0.0196198397460350
  0.1746514729311599  0.8569266744385402  0.4729648733173448
  0.6595743950976214  0.3441031215874730  0.5196198397460350
  0.5064908204030303  0.8326128549480245  0.4893158144222056
  0.4935091795969697  0.8326128549480245  0.9893158144222056
  0.0073054617185733  0.3424728309102392  0.4910849049636283
  0.9926945382814267  0.3424728309102392  0.9910849049636283
  0.4935091795969697  0.1673871450519755  0.5106841855777944
  0.5064908204030303  0.1673871450519755  0.0106841855777944
  0.9926945382814267  0.6575271690897608  0.5089150950363717
  0.0073054617185733  0.6575271690897608  0.0089150950363717
  0.4156014358508955  0.0000000000000000  0.2500000000000000
  0.5843985641491045  0.0000000000000000  0.7500000000000000
 
  0.00000000E+00  0.00000000E+00  0.00000000E+00
  0.00000000E+00  0.00000000E+00  0.00000000E+00
  0.00000000E+00  0.00000000E+00  0.00000000E+00
  0.00000000E+00  0.00000000E+00  0.00000000E+00
  0.00000000E+00  0.00000000E+00  0.00000000E+00
  0.00000000E+00  0.00000000E+00  0.00000000E+00
  0.00000000E+00  0.00000000E+00  0.00000000E+00
  0.00000000E+00  0.00000000E+00  0.00000000E+00
  0.00000000E+00  0.00000000E+00  0.00000000E+00
  0.00000000E+00  0.00000000E+00  0.00000000E+00
  0.00000000E+00  0.00000000E+00  0.00000000E+00
  0.00000000E+00  0.00000000E+00  0.00000000E+00
  0.00000000E+00  0.00000000E+00  0.00000000E+00
  0.00000000E+00  0.00000000E+00  0.00000000E+00
  0.00000000E+00  0.00000000E+00  0.00000000E+00
  0.00000000E+00  0.00000000E+00  0.00000000E+00
  0.00000000E+00  0.00000000E+00  0.00000000E+00
  0.00000000E+00  0.00000000E+00  0.00000000E+00
  0.00000000E+00  0.00000000E+00  0.00000000E+00
  0.00000000E+00  0.00000000E+00  0.00000000E+00
  0.00000000E+00  0.00000000E+00  0.00000000E+00
  0.00000000E+00  0.00000000E+00  0.00000000E+00
  0.00000000E+00  0.00000000E+00  0.00000000E+00
  0.00000000E+00  0.00000000E+00  0.00000000E+00
  0.00000000E+00  0.00000000E+00  0.00000000E+00
  0.00000000E+00  0.00000000E+00  0.00000000E+00
  0.00000000E+00  0.00000000E+00  0.00000000E+00
  0.00000000E+00  0.00000000E+00  0.00000000E+00
  0.00000000E+00  0.00000000E+00  0.00000000E+00
  0.00000000E+00  0.00000000E+00  0.00000000E+00
  0.00000000E+00  0.00000000E+00  0.00000000E+00
  0.00000000E+00  0.00000000E+00  0.00000000E+00
  0.00000000E+00  0.00000000E+00  0.00000000E+00
  0.00000000E+00  0.00000000E+00  0.00000000E+00
  0.00000000E+00  0.00000000E+00  0.00000000E+00
  0.00000000E+00  0.00000000E+00  0.00000000E+00
  0.00000000E+00  0.00000000E+00  0.00000000E+00
  0.00000000E+00  0.00000000E+00  0.00000000E+00
  0.00000000E+00  0.00000000E+00  0.00000000E+00
  0.00000000E+00  0.00000000E+00  0.00000000E+00
  0.00000000E+00  0.00000000E+00  0.00000000E+00
  0.00000000E+00  0.00000000E+00  0.00000000E+00
  0.00000000E+00  0.00000000E+00  0.00000000E+00
  0.00000000E+00  0.00000000E+00  0.00000000E+00
  0.00000000E+00  0.00000000E+00  0.00000000E+00
  0.00000000E+00  0.00000000E+00  0.00000000E+00
  0.00000000E+00  0.00000000E+00  0.00000000E+00
  0.00000000E+00  0.00000000E+00  0.00000000E+00
  0.00000000E+00  0.00000000E+00  0.00000000E+00
  0.00000000E+00  0.00000000E+00  0.00000000E+00
  0.00000000E+00  0.00000000E+00  0.00000000E+00
  0.00000000E+00  0.00000000E+00  0.00000000E+00
  0.00000000E+00  0.00000000E+00  0.00000000E+00
  0.00000000E+00  0.00000000E+00  0.00000000E+00
  0.00000000E+00  0.00000000E+00  0.00000000E+00
  0.00000000E+00  0.00000000E+00  0.00000000E+00
  0.00000000E+00  0.00000000E+00  0.00000000E+00
  0.00000000E+00  0.00000000E+00  0.00000000E+00
