Ca4 Al4 Cl20                            
   1.0000000000000000     
     7.8054785172330492   -0.0000000000000001    0.0000000000000004
    -0.0000000000000005    7.0098843554969292    0.0000000000000004
     0.0000000000000005    0.0000000000000002   15.9460256642745826
   Ca   Al   Cl
     4     4    20
Direct
  0.6195186760177265  0.4635010080875404  0.3944365567079018
  0.1195186760177265  0.0364989919124596  0.6055634432920982
  0.3804813239822664  0.9635010080875404  0.1055634432920982
  0.8804813239822664  0.5364989919124596  0.8944365567079018
  0.3086688915542766  0.9440238736177804  0.3873698934418428
  0.8086688915542766  0.5559761263822196  0.6126301065581501
  0.6913311084457234  0.4440238736177804  0.1126301065581501
  0.1913311084457234  0.0559761263822196  0.8873698934418499
  0.8804123999430615  0.6341411357546676  0.4733685866533577
  0.3804123999430544  0.8658588642453324  0.5266314133466494
  0.1195876000569385  0.1341411357546676  0.0266314133466423
  0.6195876000569385  0.3658588642453324  0.9733685866533506
  0.2149639799956731  0.0171250227937492  0.2520747860900556
  0.7149639799956731  0.4828749772062508  0.7479252139099444
  0.7850360200043269  0.5171250227937492  0.2479252139099444
  0.2850360200043269  0.9828749772062508  0.7520747860900556
  0.9072104480020116  0.6215690831534246  0.0639842166079845
  0.4072104480020116  0.8784309168465754  0.9360157833920155
  0.0927895519979884  0.1215690831534317  0.4360157833920155
  0.5927895519979884  0.3784309168465683  0.5639842166079845
  0.4360482308400435  0.5806111776948555  0.1323910173235987
  0.9360482308400435  0.9193888223051445  0.8676089826764013
  0.5639517691599494  0.0806111776948555  0.3676089826764013
  0.0639517691599565  0.4193888223051445  0.6323910173235987
  0.1846834289151076  0.3672735083549199  0.8551510943059810
  0.6846834289151005  0.1327264916450801  0.1448489056940048
  0.8153165710848995  0.8672735083549199  0.6448489056940190
  0.3153165710848924  0.6327264916450801  0.3551510943059952

  0.00000000E+00  0.00000000E+00  0.00000000E+00
  0.00000000E+00  0.00000000E+00  0.00000000E+00
  0.00000000E+00  0.00000000E+00  0.00000000E+00
  0.00000000E+00  0.00000000E+00  0.00000000E+00
  0.00000000E+00  0.00000000E+00  0.00000000E+00
  0.00000000E+00  0.00000000E+00  0.00000000E+00
  0.00000000E+00  0.00000000E+00  0.00000000E+00
  0.00000000E+00  0.00000000E+00  0.00000000E+00
  0.00000000E+00  0.00000000E+00  0.00000000E+00
  0.00000000E+00  0.00000000E+00  0.00000000E+00
  0.00000000E+00  0.00000000E+00  0.00000000E+00
  0.00000000E+00  0.00000000E+00  0.00000000E+00
  0.00000000E+00  0.00000000E+00  0.00000000E+00
  0.00000000E+00  0.00000000E+00  0.00000000E+00
  0.00000000E+00  0.00000000E+00  0.00000000E+00
  0.00000000E+00  0.00000000E+00  0.00000000E+00
  0.00000000E+00  0.00000000E+00  0.00000000E+00
  0.00000000E+00  0.00000000E+00  0.00000000E+00
  0.00000000E+00  0.00000000E+00  0.00000000E+00
  0.00000000E+00  0.00000000E+00  0.00000000E+00
  0.00000000E+00  0.00000000E+00  0.00000000E+00
  0.00000000E+00  0.00000000E+00  0.00000000E+00
  0.00000000E+00  0.00000000E+00  0.00000000E+00
  0.00000000E+00  0.00000000E+00  0.00000000E+00
  0.00000000E+00  0.00000000E+00  0.00000000E+00
  0.00000000E+00  0.00000000E+00  0.00000000E+00
  0.00000000E+00  0.00000000E+00  0.00000000E+00
  0.00000000E+00  0.00000000E+00  0.00000000E+00
