Be10 Tl4 F32                            
   1.0000000000000000     
     3.0968346988270348   -4.6414960850529257    0.0000000000000000
     3.0968346988270348    4.6414960850529257    0.0000000000000000
     0.0000000000000000    0.0000000000000000   18.9807172251645753
   Be   Tl   F 
    10     4    32
Direct
  0.0000000000000000  0.0000000000000000  0.8099775113600032
  0.0000000000000000  0.0000000000000000  0.1900224886399968
  0.5000000000000000  0.5000000000000000  0.6900224886399968
  0.5000000000000000  0.5000000000000000  0.3099775113600032
  0.5000000000000000  0.5000000000000000  0.5000000000000000
  0.0000000000000000  0.0000000000000000  0.0000000000000000
  0.0000000000000000  0.5000000000000000  0.6124715395984097
  0.5000000000000000  0.0000000000000000  0.3875284604015832
  0.5000000000000000  0.0000000000000000  0.8875284604015903
  0.0000000000000000  0.5000000000000000  0.1124715395984168
  0.5000000000000000  0.0000000000000000  0.6203871638028176
  0.0000000000000000  0.5000000000000000  0.3796128361971824
  0.0000000000000000  0.5000000000000000  0.8796128361971824
  0.5000000000000000  0.0000000000000000  0.1203871638028176
  0.4119507663771387  0.2015438926485658  0.7125177523588775
  0.5880492336228613  0.7984561073514342  0.7125177523588775
  0.2015438926485658  0.4119507663771387  0.2874822476411225
  0.7984561073514342  0.5880492336228613  0.2874822476411225
  0.0880492336228613  0.2984561073514342  0.7874822476411225
  0.9119507663771387  0.7015438926485658  0.7874822476411225
  0.2984561073514342  0.0880492336228613  0.2125177523588775
  0.7015438926485658  0.9119507663771387  0.2125177523588775
  0.1130300621024176  0.7659023290590881  0.5760868317167080
  0.8869699378975824  0.2340976709409119  0.5760868317167080
  0.7659023290590881  0.1130300621024176  0.4239131682832920
  0.2340976709409119  0.8869699378975824  0.4239131682832920
  0.3869699378975824  0.7340976709409119  0.9239131682832920
  0.6130300621024176  0.2659023290590881  0.9239131682832920
  0.7569511276403631  0.9242064122623077  0.0472319054404124
  0.2430488723596369  0.0757935877376923  0.0472319054404124
  0.9242064122623077  0.7569511276403631  0.9527680945595876
  0.0757935877376923  0.2430488723596369  0.9527680945595876
  0.7430488723596369  0.5757935877376923  0.4527680945595876
  0.2569511276403631  0.4242064122623077  0.4527680945595876
  0.5757935877376923  0.7430488723596369  0.5472319054404124
  0.4242064122623077  0.2569511276403631  0.5472319054404124
  0.9845178417974338  0.7340243273567921  0.1558639827086878
  0.0154821582025662  0.2659756726432079  0.1558639827086878
  0.7340243273567921  0.9845178417974338  0.8441360172913122
  0.2659756726432079  0.0154821582025662  0.8441360172913122
  0.5154821582025662  0.7659756726432079  0.3441360172913122
  0.4845178417974338  0.2340243273567921  0.3441360172913122
  0.7659756726432079  0.5154821582025662  0.6558639827086878
  0.2340243273567921  0.4845178417974338  0.6558639827086878
  0.2659023290590881  0.6130300621024176  0.0760868317167080
  0.7340976709409119  0.3869699378975824  0.0760868317167080

  0.00000000E+00  0.00000000E+00  0.00000000E+00
  0.00000000E+00  0.00000000E+00  0.00000000E+00
  0.00000000E+00  0.00000000E+00  0.00000000E+00
  0.00000000E+00  0.00000000E+00  0.00000000E+00
  0.00000000E+00  0.00000000E+00  0.00000000E+00
  0.00000000E+00  0.00000000E+00  0.00000000E+00
  0.00000000E+00  0.00000000E+00  0.00000000E+00
  0.00000000E+00  0.00000000E+00  0.00000000E+00
  0.00000000E+00  0.00000000E+00  0.00000000E+00
  0.00000000E+00  0.00000000E+00  0.00000000E+00
  0.00000000E+00  0.00000000E+00  0.00000000E+00
  0.00000000E+00  0.00000000E+00  0.00000000E+00
  0.00000000E+00  0.00000000E+00  0.00000000E+00
  0.00000000E+00  0.00000000E+00  0.00000000E+00
  0.00000000E+00  0.00000000E+00  0.00000000E+00
  0.00000000E+00  0.00000000E+00  0.00000000E+00
  0.00000000E+00  0.00000000E+00  0.00000000E+00
  0.00000000E+00  0.00000000E+00  0.00000000E+00
  0.00000000E+00  0.00000000E+00  0.00000000E+00
  0.00000000E+00  0.00000000E+00  0.00000000E+00
  0.00000000E+00  0.00000000E+00  0.00000000E+00
  0.00000000E+00  0.00000000E+00  0.00000000E+00
  0.00000000E+00  0.00000000E+00  0.00000000E+00
  0.00000000E+00  0.00000000E+00  0.00000000E+00
  0.00000000E+00  0.00000000E+00  0.00000000E+00
  0.00000000E+00  0.00000000E+00  0.00000000E+00
  0.00000000E+00  0.00000000E+00  0.00000000E+00
  0.00000000E+00  0.00000000E+00  0.00000000E+00
  0.00000000E+00  0.00000000E+00  0.00000000E+00
  0.00000000E+00  0.00000000E+00  0.00000000E+00
  0.00000000E+00  0.00000000E+00  0.00000000E+00
  0.00000000E+00  0.00000000E+00  0.00000000E+00
  0.00000000E+00  0.00000000E+00  0.00000000E+00
  0.00000000E+00  0.00000000E+00  0.00000000E+00
  0.00000000E+00  0.00000000E+00  0.00000000E+00
  0.00000000E+00  0.00000000E+00  0.00000000E+00
  0.00000000E+00  0.00000000E+00  0.00000000E+00
  0.00000000E+00  0.00000000E+00  0.00000000E+00
  0.00000000E+00  0.00000000E+00  0.00000000E+00
  0.00000000E+00  0.00000000E+00  0.00000000E+00
  0.00000000E+00  0.00000000E+00  0.00000000E+00
  0.00000000E+00  0.00000000E+00  0.00000000E+00
  0.00000000E+00  0.00000000E+00  0.00000000E+00
  0.00000000E+00  0.00000000E+00  0.00000000E+00
  0.00000000E+00  0.00000000E+00  0.00000000E+00
  0.00000000E+00  0.00000000E+00  0.00000000E+00
