Ba2 Tl2 Br6                             
   1.0000000000000000     
     9.0521394796262911   -0.0964515358986901    0.0000000000000000
    -4.6349270751577558    7.2803761948653820    0.0000000000000000
     0.0000000000000000    0.0000000000000000    8.5861964770570296
   Br   Ba   Tl
     6     2     2
Direct
  0.1686039772547545  0.3421357807773759  0.2500000000000000
  0.0971171917863529  0.7883066501995657  0.2500000000000000
  0.6892624299285046  0.9007781046290546  0.2500000000000000
  0.3107375700714954  0.0992218953709454  0.7500000000000000
  0.9028828082136471  0.2116933498004343  0.7500000000000000
  0.8313960227452455  0.6578642192226170  0.7500000000000000
  0.0000000000000000  0.0000000000000000  0.0000000000000000
  0.0000000000000000  0.0000000000000000  0.5000000000000000
  0.8187876406176571  0.3269593649062159  0.2500000000000000
  0.1812123593823429  0.6730406350937841  0.7500000000000000

  0.00000000E+00  0.00000000E+00  0.00000000E+00
  0.00000000E+00  0.00000000E+00  0.00000000E+00
  0.00000000E+00  0.00000000E+00  0.00000000E+00
  0.00000000E+00  0.00000000E+00  0.00000000E+00
  0.00000000E+00  0.00000000E+00  0.00000000E+00
  0.00000000E+00  0.00000000E+00  0.00000000E+00
  0.00000000E+00  0.00000000E+00  0.00000000E+00
  0.00000000E+00  0.00000000E+00  0.00000000E+00
  0.00000000E+00  0.00000000E+00  0.00000000E+00
  0.00000000E+00  0.00000000E+00  0.00000000E+00
