Mg4 In4 Br20                            
   1.0000000000000000     
     0.0000000000000000   13.8031834120511938   -2.6091735263723983
    10.9148586401119303    0.0000000000000000    0.0000000000000000
     0.0000000000000000    3.6983933204448904   -9.1703894201192853
   Mg   In   Br
     4     4    20
Direct
  0.2596806374263778  0.3725915185579893  0.2819560692476202
  0.7403193625736222  0.8725915185579822  0.7180439307523727
  0.7929493417697984  0.0495874029560781  0.2941985727244187
  0.2070506582301874  0.5495874029560852  0.7058014272755813
  0.5865293106084764  0.7444739173494668  0.2715021493111820
  0.4134706893915308  0.2444739173494739  0.7284978506888109
  0.0587160560488016  0.6721137023797041  0.4624808278539732
  0.9412839439512055  0.1721137023797041  0.5375191721460268
  0.4293887801545040  0.9910940828789450  0.3955682074727846
  0.3367708144812411  0.5188535485493517  0.3992539464598934
  0.6632291855187660  0.0188535485493375  0.6007460535400924
  0.0077331341387108  0.5698152699596051  0.7283245172413828
  0.1790531180500281  0.3575220520156677  0.8557538656879657
  0.5956301485313489  0.1288412492390734  0.2890243559137531
  0.8111834152768509  0.3493036081200245  0.6238194546859290
  0.8667754303936519  0.7183994521214530  0.4899315305465777
  0.8209468819499719  0.8575220520156677  0.1442461343120200
  0.8749649794941519  0.0047755977196360  0.7595067281209964
  0.4043698514686582  0.6288412492390734  0.7109756440862398
  0.5706112198454960  0.4910940828789521  0.6044317925272225
  0.5965868952717273  0.7623456985324211  0.9561661416073619
  0.7875372365376094  0.2578818796206050  0.1867744207282769
  0.1250350205058623  0.5047755977196431  0.2404932718789965
  0.1888165847231562  0.8493036081200174  0.3761805453140710
  0.9922668658612821  0.0698152699596051  0.2716754827586101
  0.2124627634623906  0.7578818796206050  0.8132255792717160
  0.1332245696063481  0.2183994521214530  0.5100684694534223
  0.4034131047282727  0.2623456985324211  0.0438338583926310

  0.00000000E+00  0.00000000E+00  0.00000000E+00
  0.00000000E+00  0.00000000E+00  0.00000000E+00
  0.00000000E+00  0.00000000E+00  0.00000000E+00
  0.00000000E+00  0.00000000E+00  0.00000000E+00
  0.00000000E+00  0.00000000E+00  0.00000000E+00
  0.00000000E+00  0.00000000E+00  0.00000000E+00
  0.00000000E+00  0.00000000E+00  0.00000000E+00
  0.00000000E+00  0.00000000E+00  0.00000000E+00
  0.00000000E+00  0.00000000E+00  0.00000000E+00
  0.00000000E+00  0.00000000E+00  0.00000000E+00
  0.00000000E+00  0.00000000E+00  0.00000000E+00
  0.00000000E+00  0.00000000E+00  0.00000000E+00
  0.00000000E+00  0.00000000E+00  0.00000000E+00
  0.00000000E+00  0.00000000E+00  0.00000000E+00
  0.00000000E+00  0.00000000E+00  0.00000000E+00
  0.00000000E+00  0.00000000E+00  0.00000000E+00
  0.00000000E+00  0.00000000E+00  0.00000000E+00
  0.00000000E+00  0.00000000E+00  0.00000000E+00
  0.00000000E+00  0.00000000E+00  0.00000000E+00
  0.00000000E+00  0.00000000E+00  0.00000000E+00
  0.00000000E+00  0.00000000E+00  0.00000000E+00
  0.00000000E+00  0.00000000E+00  0.00000000E+00
  0.00000000E+00  0.00000000E+00  0.00000000E+00
  0.00000000E+00  0.00000000E+00  0.00000000E+00
  0.00000000E+00  0.00000000E+00  0.00000000E+00
  0.00000000E+00  0.00000000E+00  0.00000000E+00
  0.00000000E+00  0.00000000E+00  0.00000000E+00
  0.00000000E+00  0.00000000E+00  0.00000000E+00
