Ca1 Tl3 F6                              
   1.0000000000000000     
    -3.2607178344771057    4.4381135278651787    3.2591055211227378
     3.1368233765173250   -4.4379801256283269    3.1368233765173268
     3.2591055211227387    4.4381135278651813   -3.2607178344771071
   F    Ca   Tl
     6     1     3
Direct
  0.1717692553948780  0.4838081156904934  0.1717692553948780
  0.7579831628030647  0.0000000000000000  0.2420168371969353
  0.3120692548652997  0.1402798999812163  0.3120692548652997
  0.6879307451347003  0.8597201000187837  0.6879307451347003
  0.8282307446051220  0.5161918843095066  0.8282307446051220
  0.2420168371969353  0.0000000000000000  0.7579831628030647
  0.0000000000000000  0.0000000000000000  0.0000000000000000
  0.7497845646171513  0.5000000000000000  0.2502154353828487
  0.5000000000000000  0.0000000000000000  0.5000000000000000
  0.2502154353828487  0.5000000000000000  0.7497845646171513

  0.00000000E+00  0.00000000E+00  0.00000000E+00
  0.00000000E+00  0.00000000E+00  0.00000000E+00
  0.00000000E+00  0.00000000E+00  0.00000000E+00
  0.00000000E+00  0.00000000E+00  0.00000000E+00
  0.00000000E+00  0.00000000E+00  0.00000000E+00
  0.00000000E+00  0.00000000E+00  0.00000000E+00
  0.00000000E+00  0.00000000E+00  0.00000000E+00
  0.00000000E+00  0.00000000E+00  0.00000000E+00
  0.00000000E+00  0.00000000E+00  0.00000000E+00
  0.00000000E+00  0.00000000E+00  0.00000000E+00
