Mg4 Al4 F20                             
   1.0000000000000000     
     4.5812789927148749    0.0000000000000000    0.0000000000000002
    -0.0000000000000003    5.2455682190432649    0.0000000000000002
    -0.0000000000000000   -0.0000000000000000   12.0349718942290576
   Mg   Al   F 
     4     4    20
Direct
  0.7315573892895628  0.6568202827937384  0.6155507663233166
  0.2315573892895628  0.8431797172062616  0.3844492336766834
  0.2684426107104372  0.1568202827937384  0.8844492336766834
  0.7684426107104372  0.3431797172062616  0.1155507663233166
  0.2350104308602283  0.1515707845788086  0.6058281958468257
  0.7350104308602283  0.3484292154211914  0.3941718041531743
  0.7649895691397717  0.6515707845788157  0.8941718041531743
  0.2649895691397717  0.8484292154211843  0.1058281958468257
  0.8980681719274131  0.6398130322307054  0.4517225681505082
  0.3980681719274131  0.8601869677692946  0.5482774318494918
  0.1019318280725869  0.1398130322307054  0.0482774318494918
  0.6019318280725869  0.3601869677692946  0.9517225681505082
  0.4265826915078321  0.5280450359596003  0.3588937594979527
  0.9265826915078392  0.9719549640403997  0.6411062405020402
  0.5734173084921608  0.0280450359595932  0.1411062405020402
  0.0734173084921608  0.4719549640404139  0.8588937594979527
  0.0781216460894143  0.4464894522232825  0.6373524013143381
  0.5781216460894143  0.0535105477767175  0.3626475986856619
  0.9218783539105857  0.9464894522232825  0.8626475986856619
  0.4218783539105928  0.5535105477767175  0.1373524013143381
  0.4098092421972623  0.1158056094140392  0.7347285735511306
  0.9098092421972623  0.3841943905859608  0.2652714264488765
  0.5901907578027377  0.6158056094140392  0.7652714264488694
  0.0901907578027377  0.8841943905859608  0.2347285735511306
  0.5549890887394966  0.3316804656458743  0.5437224520207877
  0.0549890887394966  0.1683195343541257  0.4562775479792052
  0.4450109112605034  0.8316804656458743  0.9562775479792123
  0.9450109112605034  0.6683195343541257  0.0437224520207948

  0.00000000E+00  0.00000000E+00  0.00000000E+00
  0.00000000E+00  0.00000000E+00  0.00000000E+00
  0.00000000E+00  0.00000000E+00  0.00000000E+00
  0.00000000E+00  0.00000000E+00  0.00000000E+00
  0.00000000E+00  0.00000000E+00  0.00000000E+00
  0.00000000E+00  0.00000000E+00  0.00000000E+00
  0.00000000E+00  0.00000000E+00  0.00000000E+00
  0.00000000E+00  0.00000000E+00  0.00000000E+00
  0.00000000E+00  0.00000000E+00  0.00000000E+00
  0.00000000E+00  0.00000000E+00  0.00000000E+00
  0.00000000E+00  0.00000000E+00  0.00000000E+00
  0.00000000E+00  0.00000000E+00  0.00000000E+00
  0.00000000E+00  0.00000000E+00  0.00000000E+00
  0.00000000E+00  0.00000000E+00  0.00000000E+00
  0.00000000E+00  0.00000000E+00  0.00000000E+00
  0.00000000E+00  0.00000000E+00  0.00000000E+00
  0.00000000E+00  0.00000000E+00  0.00000000E+00
  0.00000000E+00  0.00000000E+00  0.00000000E+00
  0.00000000E+00  0.00000000E+00  0.00000000E+00
  0.00000000E+00  0.00000000E+00  0.00000000E+00
  0.00000000E+00  0.00000000E+00  0.00000000E+00
  0.00000000E+00  0.00000000E+00  0.00000000E+00
  0.00000000E+00  0.00000000E+00  0.00000000E+00
  0.00000000E+00  0.00000000E+00  0.00000000E+00
  0.00000000E+00  0.00000000E+00  0.00000000E+00
  0.00000000E+00  0.00000000E+00  0.00000000E+00
  0.00000000E+00  0.00000000E+00  0.00000000E+00
  0.00000000E+00  0.00000000E+00  0.00000000E+00
