Ca1 B2 I8                               
   1.00000000000000     
     6.4917926360945897   -3.8751093852482108    1.3065869173412292
     6.4917926360945897    3.8751093852482108    1.3065869173412292
    -1.1777562214114190    0.0000000000000000   10.2745449088789336
   B    Ca   I 
     2     1     8
Direct
  0.2919715533666221  0.2919715533666221  0.2565922926312538
  0.7080284466333779  0.7080284466333779  0.7434077073687462
  0.0000000000000000  0.0000000000000000  0.0000000000000000
  0.6578323882567432  0.6578323882567432  0.5483664556985985
  0.5890114731581804  0.0963511250897611  0.1461446014663963
  0.0963511250897611  0.5890114731581804  0.1461446014663963
  0.1185135383993199  0.1185135383993199  0.2633016907488965
  0.8814864616006801  0.8814864616006801  0.7366983092511035
  0.9036488749102389  0.4109885268418196  0.8538553985336037
  0.4109885268418196  0.9036488749102389  0.8538553985336037
  0.3421676117432568  0.3421676117432568  0.4516335443014015
 
  0.00000000E+00  0.00000000E+00  0.00000000E+00
  0.00000000E+00  0.00000000E+00  0.00000000E+00
  0.00000000E+00  0.00000000E+00  0.00000000E+00
  0.00000000E+00  0.00000000E+00  0.00000000E+00
  0.00000000E+00  0.00000000E+00  0.00000000E+00
  0.00000000E+00  0.00000000E+00  0.00000000E+00
  0.00000000E+00  0.00000000E+00  0.00000000E+00
  0.00000000E+00  0.00000000E+00  0.00000000E+00
  0.00000000E+00  0.00000000E+00  0.00000000E+00
  0.00000000E+00  0.00000000E+00  0.00000000E+00
  0.00000000E+00  0.00000000E+00  0.00000000E+00
