Sr4 Ga4 Cl20                            
   1.0000000000000000     
     6.3253954579065033   -0.0000000000000001    0.0000000000000004
    -0.0000000000000005    6.8783932114335409    0.0000000000000004
     0.0000000000000003    0.0000000000000001   17.5166929035974022
   Sr   Ga   Cl
     4     4    20
Direct
  0.7728734534944408  0.4214547808457993  0.3424406599486929
  0.2728734534944408  0.0785452191542007  0.6575593400513071
  0.2271265465055521  0.9214547808458065  0.1575593400513071
  0.7271265465055521  0.5785452191541935  0.8424406599486929
  0.2262940174635943  0.8850577757303242  0.3934337179245588
  0.7262940174635943  0.6149422242696758  0.6065662820754341
  0.7737059825364057  0.3850577757303242  0.1065662820754412
  0.2737059825364057  0.1149422242696758  0.8934337179245588
  0.9002515212461191  0.5961485858172821  0.4906478330907547
  0.4002515212461120  0.9038514141827179  0.5093521669092453
  0.0997484787538809  0.0961485858172821  0.0093521669092453
  0.5997484787538809  0.4038514141827179  0.9906478330907547
  0.9710101711571681  0.7971002515131786  0.2916393971779598
  0.4710101711571681  0.7028997484868214  0.7083606028220402
  0.0289898288428319  0.2971002515131786  0.2083606028220402
  0.5289898288428319  0.2028997484868214  0.7916393971779598
  0.0130942541362842  0.6129987232554583  0.0680627229476087
  0.5130942541362842  0.8870012767445417  0.9319372770523913
  0.9869057458637158  0.1129987232554583  0.4319372770523913
  0.4869057458637158  0.3870012767445417  0.5680627229476087
  0.5536478170678834  0.5467978400721947  0.1881904199140223
  0.0536478170678834  0.9532021599278053  0.8118095800859777
  0.4463521829321166  0.0467978400721947  0.3118095800859777
  0.9463521829321166  0.4532021599278053  0.6881904199140223
  0.1594369358125860  0.4343059129219569  0.8777289544008937
  0.6594369358125860  0.0656940870780431  0.1222710455991063
  0.8405630641874140  0.9343059129219569  0.6222710455991063
  0.3405630641874140  0.5656940870780431  0.3777289544008937

  0.00000000E+00  0.00000000E+00  0.00000000E+00
  0.00000000E+00  0.00000000E+00  0.00000000E+00
  0.00000000E+00  0.00000000E+00  0.00000000E+00
  0.00000000E+00  0.00000000E+00  0.00000000E+00
  0.00000000E+00  0.00000000E+00  0.00000000E+00
  0.00000000E+00  0.00000000E+00  0.00000000E+00
  0.00000000E+00  0.00000000E+00  0.00000000E+00
  0.00000000E+00  0.00000000E+00  0.00000000E+00
  0.00000000E+00  0.00000000E+00  0.00000000E+00
  0.00000000E+00  0.00000000E+00  0.00000000E+00
  0.00000000E+00  0.00000000E+00  0.00000000E+00
  0.00000000E+00  0.00000000E+00  0.00000000E+00
  0.00000000E+00  0.00000000E+00  0.00000000E+00
  0.00000000E+00  0.00000000E+00  0.00000000E+00
  0.00000000E+00  0.00000000E+00  0.00000000E+00
  0.00000000E+00  0.00000000E+00  0.00000000E+00
  0.00000000E+00  0.00000000E+00  0.00000000E+00
  0.00000000E+00  0.00000000E+00  0.00000000E+00
  0.00000000E+00  0.00000000E+00  0.00000000E+00
  0.00000000E+00  0.00000000E+00  0.00000000E+00
  0.00000000E+00  0.00000000E+00  0.00000000E+00
  0.00000000E+00  0.00000000E+00  0.00000000E+00
  0.00000000E+00  0.00000000E+00  0.00000000E+00
  0.00000000E+00  0.00000000E+00  0.00000000E+00
  0.00000000E+00  0.00000000E+00  0.00000000E+00
  0.00000000E+00  0.00000000E+00  0.00000000E+00
  0.00000000E+00  0.00000000E+00  0.00000000E+00
  0.00000000E+00  0.00000000E+00  0.00000000E+00
