BaGa4                                   
   1.00000000000000     
    -4.6242828917574634   -0.0027204184307140   -0.0110560665966825
    -0.0027204184307140   -4.6242828917574625   -0.0110560665966825
     2.3265472330313961    2.3265472330313961    5.4526555152959633
   Ba   Ga
     1     4
Direct
  0.0000000000000000  0.0000000000000000  0.0000000000000000
  0.6238532809259212  0.6238532809259212  0.2442696731517060
  0.7476865405480169  0.2523134594519831  0.5000000000000000
  0.2523134594519831  0.7476865405480169  0.5000000000000000
  0.3761467190740859  0.3761467190740859  0.7557303268482940
 
  0.00000000E+00  0.00000000E+00  0.00000000E+00
  0.00000000E+00  0.00000000E+00  0.00000000E+00
  0.00000000E+00  0.00000000E+00  0.00000000E+00
  0.00000000E+00  0.00000000E+00  0.00000000E+00
  0.00000000E+00  0.00000000E+00  0.00000000E+00
