Be8 I2                                  
   1.00000000000000     
     3.4088301654589483    0.0000000000000000    0.0000000000000000
     0.0000000000000000    3.4088301654589483    0.0000000000000000
     0.0000000000000000    0.0000000000000000   12.9995525918970145
   Be   I 
     8     2
Direct
  0.0000000000000000  0.0000000000000000  0.0000000000000000
  0.5000000000000000  0.5000000000000000  0.0000000000000000
  0.0000000000000000  0.0000000000000000  0.3931424305638203
  0.5000000000000000  0.5000000000000000  0.3931424305638203
  0.5000000000000000  0.0000000000000000  0.4955567932861769
  0.0000000000000000  0.5000000000000000  0.5044432067138303
  0.0000000000000000  0.0000000000000000  0.6068575694361797
  0.5000000000000000  0.5000000000000000  0.6068575694361797
  0.0000000000000000  0.5000000000000000  0.2317576777140786
  0.5000000000000000  0.0000000000000000  0.7682423222859214
 
  0.00000000E+00  0.00000000E+00  0.00000000E+00
  0.00000000E+00  0.00000000E+00  0.00000000E+00
  0.00000000E+00  0.00000000E+00  0.00000000E+00
  0.00000000E+00  0.00000000E+00  0.00000000E+00
  0.00000000E+00  0.00000000E+00  0.00000000E+00
  0.00000000E+00  0.00000000E+00  0.00000000E+00
  0.00000000E+00  0.00000000E+00  0.00000000E+00
  0.00000000E+00  0.00000000E+00  0.00000000E+00
  0.00000000E+00  0.00000000E+00  0.00000000E+00
  0.00000000E+00  0.00000000E+00  0.00000000E+00
