Ba1 Al2 F10                             
   1.00000000000000     
     3.6092207707506536    5.0622760883832285    0.6018593308135229
    -3.6092207707506536    5.0622760883832285    0.6018593308135229
     0.0000000000000000    4.3645129119785846    5.6543831083797329
   Ba   Al   F 
     1     2    10
Direct
  0.5472712326871090  0.4527287673128910  0.0000000000000000
  0.0024827538328154  0.9978762294101529  0.7488870152690339
  0.0021237705898471  0.9975172461671846  0.2511129847309661
  0.2419306293309944  0.2459073340736140  0.5118710502776267
  0.7540926659263860  0.7580693706690056  0.4881289497223733
  0.7545237988046196  0.7585013517281709  0.9988445860409101
  0.2414986482718291  0.2454762011953804  0.0011554139590899
  0.9327268599460012  0.0672731400539988  0.0000000000000000
  0.0636206280744602  0.9363793719255398  0.5000000000000000
  0.7619016407988042  0.2389663943161864  0.6922311719836216
  0.7610336056838136  0.2380983592012029  0.3077688280163784
  0.2408910129273139  0.7600982468740156  0.8032323123338898
  0.2399017531259844  0.7591089870726790  0.1967676876661102
 
  0.00000000E+00  0.00000000E+00  0.00000000E+00
  0.00000000E+00  0.00000000E+00  0.00000000E+00
  0.00000000E+00  0.00000000E+00  0.00000000E+00
  0.00000000E+00  0.00000000E+00  0.00000000E+00
  0.00000000E+00  0.00000000E+00  0.00000000E+00
  0.00000000E+00  0.00000000E+00  0.00000000E+00
  0.00000000E+00  0.00000000E+00  0.00000000E+00
  0.00000000E+00  0.00000000E+00  0.00000000E+00
  0.00000000E+00  0.00000000E+00  0.00000000E+00
  0.00000000E+00  0.00000000E+00  0.00000000E+00
  0.00000000E+00  0.00000000E+00  0.00000000E+00
  0.00000000E+00  0.00000000E+00  0.00000000E+00
  0.00000000E+00  0.00000000E+00  0.00000000E+00
