Ba3 Tl4                                 
   1.0000000000000000     
     2.9565236414252816    1.7062547170620939    9.0105934574593132
    -2.9565236414252816    1.7062547170620939    9.0105934574593132
     0.0000000000000000   -3.4138989370534940    9.0108624058018165
   Tl   Ba
     4     3
Direct
  0.1660548437563563  0.1660548437563563  0.1655019018821235
  0.2958755129073793  0.2958755129073793  0.2961618706363112
  0.7086975267826503  0.7086975267826503  0.7091635123422648
  0.8390379148835407  0.8390379148835407  0.8384574970909426
  0.0025160400168787  0.0025160400168787  0.0028524804541021
  0.4303992717301313  0.4303992717301313  0.4305211232582451
  0.5744788899230642  0.5744788899230642  0.5744016143360184

  0.00000000E+00  0.00000000E+00  0.00000000E+00
  0.00000000E+00  0.00000000E+00  0.00000000E+00
  0.00000000E+00  0.00000000E+00  0.00000000E+00
  0.00000000E+00  0.00000000E+00  0.00000000E+00
  0.00000000E+00  0.00000000E+00  0.00000000E+00
  0.00000000E+00  0.00000000E+00  0.00000000E+00
  0.00000000E+00  0.00000000E+00  0.00000000E+00
