Ba4 Al10 I2                             
   1.00000000000000     
     9.1222452040571067   -0.1874043854990997    0.4622612192846550
    -4.6457353294862545    8.5323936108070946   -0.0625756027171093
    -4.1559126566896811   -2.4749128827310320    6.4793190935846745
   I    Ba   Al
     2     4    10
Direct
  0.9945278795198362  0.0439775856049351  0.1034272122763227
  0.9743030066402980  0.5452180872941028  0.6018866172637658
  0.8073954221027790  0.6934451067740781  0.2270304803219929
  0.4923444913908668  0.1641959248272258  0.3394992981535054
  0.4845210301862650  0.8995889164609778  0.7609198792313236
  0.1633544426142919  0.3721587286615033  0.9143199318868795
  0.0992692902851076  0.9644551799247623  0.7397029609141654
  0.4669736198436354  0.8001223429657713  0.1767144862639967
  0.1658706761119788  0.6529996539468641  0.2255749212753244
  0.5044004050223236  0.6326386107127391  0.4295479103758311
  0.7921945528858245  0.9804203124423552  0.5354402267990608
  0.1677220548340159  0.4513807104259300  0.4411296593329936
  0.1250169991730061  0.1733531240195774  0.5186751307836843
  0.5164173897073425  0.4799664979254885  0.6969681804066212
  0.7953854391942912  0.4065460072511371  0.9159342728032129
  0.4503033004881303  0.2393332107625241  0.8730288319113342
 
  0.00000000E+00  0.00000000E+00  0.00000000E+00
  0.00000000E+00  0.00000000E+00  0.00000000E+00
  0.00000000E+00  0.00000000E+00  0.00000000E+00
  0.00000000E+00  0.00000000E+00  0.00000000E+00
  0.00000000E+00  0.00000000E+00  0.00000000E+00
  0.00000000E+00  0.00000000E+00  0.00000000E+00
  0.00000000E+00  0.00000000E+00  0.00000000E+00
  0.00000000E+00  0.00000000E+00  0.00000000E+00
  0.00000000E+00  0.00000000E+00  0.00000000E+00
  0.00000000E+00  0.00000000E+00  0.00000000E+00
  0.00000000E+00  0.00000000E+00  0.00000000E+00
  0.00000000E+00  0.00000000E+00  0.00000000E+00
  0.00000000E+00  0.00000000E+00  0.00000000E+00
  0.00000000E+00  0.00000000E+00  0.00000000E+00
  0.00000000E+00  0.00000000E+00  0.00000000E+00
  0.00000000E+00  0.00000000E+00  0.00000000E+00
