BeAl2                                   
   1.00000000000000     
     5.0537253252866865    0.0000000000000000    0.0000000000000000
     0.0000000000000000    5.0537253252866865    0.0000000000000000
     0.0000000000000000    0.0000000000000000    3.8223053470320174
   Al   Be
     4     2
Direct
  0.3120882284571067  0.3120882284571067  0.0000000000000000
  0.6879117715428933  0.6879117715428933  0.0000000000000000
  0.8120882284571067  0.1879117715428933  0.5000000000000000
  0.1879117715428933  0.8120882284571067  0.5000000000000000
  0.0000000000000000  0.0000000000000000  0.0000000000000000
  0.5000000000000000  0.5000000000000000  0.5000000000000000
 
  0.00000000E+00  0.00000000E+00  0.00000000E+00
  0.00000000E+00  0.00000000E+00  0.00000000E+00
  0.00000000E+00  0.00000000E+00  0.00000000E+00
  0.00000000E+00  0.00000000E+00  0.00000000E+00
  0.00000000E+00  0.00000000E+00  0.00000000E+00
  0.00000000E+00  0.00000000E+00  0.00000000E+00
