F4                                      
   1.00000000000000     
     2.7137136418691936    0.0621368032294406   -0.0856987843355280
    -1.2351773039697702    2.4171129021482445    0.0856987749040799
    -0.1894688311895598    0.1129937922324060    6.4269077305080833
   F 
     4
Direct
  0.9120227823256428  0.4005632684867209  0.6022266192290715
  0.4005632685095364  0.9120227823253799  0.8977733807672905
  0.0879772176743572  0.5994367315132791  0.3977733807709285
  0.5994367314904636  0.0879772176746201  0.1022266192327024
 
  0.00000000E+00  0.00000000E+00  0.00000000E+00
  0.00000000E+00  0.00000000E+00  0.00000000E+00
  0.00000000E+00  0.00000000E+00  0.00000000E+00
  0.00000000E+00  0.00000000E+00  0.00000000E+00
