Ca4 In2 Br10                            
   1.0000000000000000     
     8.0114052585786215   -0.0014351080143276   -0.0323739896053316
     0.0049206244758534    8.8372982970742360    0.3601055701623448
     4.0017395919894954    4.7684194910556350    7.8793915124574880
   Br   In   Ca
    10     2     4
Direct
  0.9999936964531528  0.0000098521841210  0.9999518806449430
  0.4999802287334205  0.5000319490194016  0.0000375328669548
  0.5154659510489523  0.0535183896964924  0.2764568874766979
  0.0059677976887897  0.2611424317390032  0.2142601992578221
  0.7100024362871267  0.5538793420891608  0.2760108435059152
  0.2821001942667039  0.7607876724823512  0.2138664026582475
  0.7179071493136462  0.2393467018445179  0.7860920451193749
  0.2900092563283891  0.4461280228847144  0.7240364871682985
  0.9940264329777548  0.7388565675118599  0.7857526963239820
  0.4846359906522295  0.9465258223619770  0.7235050289296012
  0.3359711831818757  0.2525554852545397  0.4983080974199225
  0.6640732603064663  0.7473935676283503  0.5017232808968330
  0.3262789646106086  0.1668675792552321  0.0325034636775285
  0.8573259700190903  0.3321930201804122  0.9690551820383178
  0.1427675490569200  0.6678445291408366  0.0309001110953986
  0.6737939390748622  0.8332190667270041  0.9675398609201622

  0.00000000E+00  0.00000000E+00  0.00000000E+00
  0.00000000E+00  0.00000000E+00  0.00000000E+00
  0.00000000E+00  0.00000000E+00  0.00000000E+00
  0.00000000E+00  0.00000000E+00  0.00000000E+00
  0.00000000E+00  0.00000000E+00  0.00000000E+00
  0.00000000E+00  0.00000000E+00  0.00000000E+00
  0.00000000E+00  0.00000000E+00  0.00000000E+00
  0.00000000E+00  0.00000000E+00  0.00000000E+00
  0.00000000E+00  0.00000000E+00  0.00000000E+00
  0.00000000E+00  0.00000000E+00  0.00000000E+00
  0.00000000E+00  0.00000000E+00  0.00000000E+00
  0.00000000E+00  0.00000000E+00  0.00000000E+00
  0.00000000E+00  0.00000000E+00  0.00000000E+00
  0.00000000E+00  0.00000000E+00  0.00000000E+00
  0.00000000E+00  0.00000000E+00  0.00000000E+00
  0.00000000E+00  0.00000000E+00  0.00000000E+00
