Sr1 B3 Br6                              
   1.00000000000000     
     7.0665570976850214   -0.4137349984264533    0.1977927017892242
    -0.4137349984264534    7.0665570976850214    0.1977927017892238
     3.3965947739687548    3.3965947739687548    7.7168973904117006
   Br   Sr   B 
     6     1     3
Direct
  0.7159246745162733  0.2840753254837267  0.0000000000000000
  0.3801468977120095  0.3801468977120095  0.8297573937494818
  0.2840753254837267  0.7159246745162733  0.0000000000000000
  0.6198531022879905  0.6198531022879905  0.1702426062505182
  0.8684759406725675  0.8684759406725675  0.4288381413887237
  0.1315240593274325  0.1315240593274325  0.5711618586112692
  0.0000000000000000  0.0000000000000000  0.0000000000000000
  0.5000000000000000  0.5000000000000000  0.0000000000000000
  0.1457594053366336  0.8542405946633664  0.5000000000000000
  0.8542405946633664  0.1457594053366336  0.5000000000000000
 
  0.00000000E+00  0.00000000E+00  0.00000000E+00
  0.00000000E+00  0.00000000E+00  0.00000000E+00
  0.00000000E+00  0.00000000E+00  0.00000000E+00
  0.00000000E+00  0.00000000E+00  0.00000000E+00
  0.00000000E+00  0.00000000E+00  0.00000000E+00
  0.00000000E+00  0.00000000E+00  0.00000000E+00
  0.00000000E+00  0.00000000E+00  0.00000000E+00
  0.00000000E+00  0.00000000E+00  0.00000000E+00
  0.00000000E+00  0.00000000E+00  0.00000000E+00
  0.00000000E+00  0.00000000E+00  0.00000000E+00
