Sr1                                     
   1.00000000000000     
     3.8802842648106308    0.0000000343035534   -1.3718886539996955
    -1.9401405813422534    3.3604254054343530   -1.3718886540407647
    -0.0000000115583012   -0.0000000154791519    4.1156639179133272
   Sr
     1
Direct
  0.0000000000000000  0.0000000000000000  0.0000000000000000
 
  0.00000000E+00  0.00000000E+00  0.00000000E+00
