Be17 Tl11 Cl1                           
   1.0000000000000000     
     7.6874936860990983   -5.3312045945834994    2.8914946740616667
    -1.2799926013955527    8.7799763457971505    2.5856812167960523
    -6.6371418467419305   -3.6341633838361429    3.1561345761474104
   Tl   Cl   Be
    11     1    17
Direct
  0.8567789501107086  0.8650975209067937  0.8757494504192920
  0.3569553953413234  0.3282347006044759  0.1177732725585017
  0.5923217913371559  0.1624319199770525  0.2905864267784111
  0.1754410671221578  0.9601845896540482  0.2747241533409550
  0.9887832343784169  0.2177738585634472  0.2505641209970904
  0.4616108660440901  0.3440686055582773  0.7117758979133555
  0.8122452686994848  0.7224086553067934  0.4414464978066448
  0.6482586053910993  0.0090287903008601  0.6308593987374280
  0.9278750285330020  0.5383976522984781  0.7454536070394653
  0.2218315424173340  0.7392727864250332  0.5314460227485753
  0.0657094938078373  0.2624093190805397  0.7088134111700626
  0.8190533132932529  0.4339725467339832  0.0793570915657966
  0.2548688307395679  0.5769823763534134  0.0616126823271728
  0.2408451131728455  0.7951367001559362  0.0458192046591464
  0.3226745623830993  0.9126514073759253  0.8652440263787327
  0.1704586571233833  0.9697120267424637  0.9482318465390520
  0.4513704963013083  0.5905509384957739  0.9735430883301106
  0.7390138533411772  0.8579826303795173  0.1701829102073589
  0.4969259626570874  0.8458008258520593  0.0853278167910929
  0.2821423194329640  0.5535044177354109  0.3237355458855262
  0.0335949385274716  0.0306122337545744  0.4453552047950495
  0.5269026347974659  0.7084220357043165  0.2781296976572918
  0.6269848599079921  0.4348673582255884  0.5047339443825649
  0.1889909152670199  0.9989599066600903  0.6891485752358122
  0.2969685918548777  0.5084432813510631  0.5878526479774493
  0.5307009553457576  0.6292274877421704  0.5336431020081776
  0.0872643530973036  0.5908091590658771  0.1687182114152250
  0.2734390098299215  0.6438635383839681  0.8209513939780351
  0.5509453897449106  0.7685327306121081  0.8392217503566499

  0.00000000E+00  0.00000000E+00  0.00000000E+00
  0.00000000E+00  0.00000000E+00  0.00000000E+00
  0.00000000E+00  0.00000000E+00  0.00000000E+00
  0.00000000E+00  0.00000000E+00  0.00000000E+00
  0.00000000E+00  0.00000000E+00  0.00000000E+00
  0.00000000E+00  0.00000000E+00  0.00000000E+00
  0.00000000E+00  0.00000000E+00  0.00000000E+00
  0.00000000E+00  0.00000000E+00  0.00000000E+00
  0.00000000E+00  0.00000000E+00  0.00000000E+00
  0.00000000E+00  0.00000000E+00  0.00000000E+00
  0.00000000E+00  0.00000000E+00  0.00000000E+00
  0.00000000E+00  0.00000000E+00  0.00000000E+00
  0.00000000E+00  0.00000000E+00  0.00000000E+00
  0.00000000E+00  0.00000000E+00  0.00000000E+00
  0.00000000E+00  0.00000000E+00  0.00000000E+00
  0.00000000E+00  0.00000000E+00  0.00000000E+00
  0.00000000E+00  0.00000000E+00  0.00000000E+00
  0.00000000E+00  0.00000000E+00  0.00000000E+00
  0.00000000E+00  0.00000000E+00  0.00000000E+00
  0.00000000E+00  0.00000000E+00  0.00000000E+00
  0.00000000E+00  0.00000000E+00  0.00000000E+00
  0.00000000E+00  0.00000000E+00  0.00000000E+00
  0.00000000E+00  0.00000000E+00  0.00000000E+00
  0.00000000E+00  0.00000000E+00  0.00000000E+00
  0.00000000E+00  0.00000000E+00  0.00000000E+00
  0.00000000E+00  0.00000000E+00  0.00000000E+00
  0.00000000E+00  0.00000000E+00  0.00000000E+00
  0.00000000E+00  0.00000000E+00  0.00000000E+00
  0.00000000E+00  0.00000000E+00  0.00000000E+00
