Sr23 Tl30                               
   1.0000000000000000     
    -0.0036765257109965   -8.9886600528356340    8.7477374611932923
     7.7799405035824227   -4.4896034584393352   -8.7454796733278304
     7.7778292306047154    4.4926252115848575    8.7420094972819147
   Tl   Sr
    30    23
Direct
  0.2194058595901183  0.6776951092156551  0.0720096239844779
  0.4888886977615456  0.7470006423976088  0.0876754025709374
  0.7684541058861214  0.8509138223179349  0.0908272972621162
  0.3478421719914095  0.1586764798420859  0.1380555669783874
  0.0909037139878350  0.2313502915096564  0.1489355400543673
  0.8622856063238089  0.3476196404461973  0.1583848386978133
  0.3222685211549532  0.9279141681529310  0.2194504362006242
  0.8511359321410552  0.0906673278196308  0.2313343291341496
  0.0874940761913336  0.5110828224293869  0.2528512981878137
  0.6304966744990637  0.6656411234220130  0.2657785256782006
  0.0720174824672526  0.7806469631481505  0.3223620171123400
  0.2653959910081696  0.3691035858815823  0.3341739641536066
  0.8415732061882721  0.8620876741186976  0.3476664242370191
  0.6660886049653740  0.2653569290889521  0.3690633594276562
  0.2532310715837127  0.9125549584104817  0.4889821489094501
  0.7468765488125939  0.0873787193718414  0.5110389805806150
  0.3340589549189872  0.7342495790078942  0.6308180336521332
  0.1586735420493213  0.1380746813966098  0.6524344247455929
  0.7343449343387149  0.6305256141287714  0.6657374185577538
  0.9281917324391458  0.2195237788171482  0.6776002042682805
  0.3696251627097453  0.3342762831556811  0.7342290158523284
  0.9125274219054091  0.4890908365158921  0.7472069461024944
  0.1489662366899296  0.9093329554325180  0.7686797881476437
  0.6777624103315958  0.0720214900174057  0.7805734562171480
  0.1375116027434728  0.6529738098312592  0.8418562475554126
  0.9087610131582053  0.7691034362605791  0.8507802272941944
  0.6518553126938471  0.8412079880590042  0.8619343062320013
  0.2316419387193278  0.1490234024708670  0.9091017352502746
  0.5112068284076443  0.2529376853830527  0.9124733780955765
  0.7807167114496067  0.3221272234092325  0.9279628545547851
  0.3306393400936329  0.4256748873821579  0.0594916517392363
  0.0771414908956203  0.9227536689854432  0.0771995129084786
  0.9180987181288671  0.6226536036001917  0.0830626387884976
  0.6225125549937971  0.0827046626067656  0.0816862803482010
  0.5810238171186626  0.3838099890744715  0.1814731920698094
  0.3372383029215911  0.6624411759445579  0.3373905650964559
  0.5741909383455450  0.9402449220869968  0.3305585538881815
  0.8184958338005899  0.5807667219222381  0.3840114130002306
  0.0832213877740884  0.0817630672964356  0.3774352641083709
  0.3841705905009505  0.1815338995675546  0.4192357600938692
  0.9406325966856812  0.3304957582153136  0.4256913606445423
  0.5001882508580238  0.4999619595755007  0.5000655604712279
  0.0594320075307380  0.6696510028177158  0.5743480271253887
  0.6159271152468406  0.8184055905080285  0.5807832143055123
  0.9168559196500254  0.9184549385891216  0.6226912878614783
  0.1817687022645913  0.4196204327067576  0.6159848375991004
  0.4259013809326717  0.0595754339709202  0.6694802953363279
  0.6628600630241479  0.3372865296117595  0.6626767604306494
  0.4189479909130966  0.6161247095747342  0.8185751369662526
  0.3772348239397587  0.9170663559301104  0.9184065179538052
  0.0818165343020638  0.3776913836884717  0.9169214776263175
  0.9227899619141837  0.0775685474777603  0.9229914336434106
  0.6693096110572654  0.5741917374083059  0.9404614682994676

  0.00000000E+00  0.00000000E+00  0.00000000E+00
  0.00000000E+00  0.00000000E+00  0.00000000E+00
  0.00000000E+00  0.00000000E+00  0.00000000E+00
  0.00000000E+00  0.00000000E+00  0.00000000E+00
  0.00000000E+00  0.00000000E+00  0.00000000E+00
  0.00000000E+00  0.00000000E+00  0.00000000E+00
  0.00000000E+00  0.00000000E+00  0.00000000E+00
  0.00000000E+00  0.00000000E+00  0.00000000E+00
  0.00000000E+00  0.00000000E+00  0.00000000E+00
  0.00000000E+00  0.00000000E+00  0.00000000E+00
  0.00000000E+00  0.00000000E+00  0.00000000E+00
  0.00000000E+00  0.00000000E+00  0.00000000E+00
  0.00000000E+00  0.00000000E+00  0.00000000E+00
  0.00000000E+00  0.00000000E+00  0.00000000E+00
  0.00000000E+00  0.00000000E+00  0.00000000E+00
  0.00000000E+00  0.00000000E+00  0.00000000E+00
  0.00000000E+00  0.00000000E+00  0.00000000E+00
  0.00000000E+00  0.00000000E+00  0.00000000E+00
  0.00000000E+00  0.00000000E+00  0.00000000E+00
  0.00000000E+00  0.00000000E+00  0.00000000E+00
  0.00000000E+00  0.00000000E+00  0.00000000E+00
  0.00000000E+00  0.00000000E+00  0.00000000E+00
  0.00000000E+00  0.00000000E+00  0.00000000E+00
  0.00000000E+00  0.00000000E+00  0.00000000E+00
  0.00000000E+00  0.00000000E+00  0.00000000E+00
  0.00000000E+00  0.00000000E+00  0.00000000E+00
  0.00000000E+00  0.00000000E+00  0.00000000E+00
  0.00000000E+00  0.00000000E+00  0.00000000E+00
  0.00000000E+00  0.00000000E+00  0.00000000E+00
  0.00000000E+00  0.00000000E+00  0.00000000E+00
  0.00000000E+00  0.00000000E+00  0.00000000E+00
  0.00000000E+00  0.00000000E+00  0.00000000E+00
  0.00000000E+00  0.00000000E+00  0.00000000E+00
  0.00000000E+00  0.00000000E+00  0.00000000E+00
  0.00000000E+00  0.00000000E+00  0.00000000E+00
  0.00000000E+00  0.00000000E+00  0.00000000E+00
  0.00000000E+00  0.00000000E+00  0.00000000E+00
  0.00000000E+00  0.00000000E+00  0.00000000E+00
  0.00000000E+00  0.00000000E+00  0.00000000E+00
  0.00000000E+00  0.00000000E+00  0.00000000E+00
  0.00000000E+00  0.00000000E+00  0.00000000E+00
  0.00000000E+00  0.00000000E+00  0.00000000E+00
  0.00000000E+00  0.00000000E+00  0.00000000E+00
  0.00000000E+00  0.00000000E+00  0.00000000E+00
  0.00000000E+00  0.00000000E+00  0.00000000E+00
  0.00000000E+00  0.00000000E+00  0.00000000E+00
  0.00000000E+00  0.00000000E+00  0.00000000E+00
  0.00000000E+00  0.00000000E+00  0.00000000E+00
  0.00000000E+00  0.00000000E+00  0.00000000E+00
  0.00000000E+00  0.00000000E+00  0.00000000E+00
  0.00000000E+00  0.00000000E+00  0.00000000E+00
  0.00000000E+00  0.00000000E+00  0.00000000E+00
  0.00000000E+00  0.00000000E+00  0.00000000E+00
