Ca4 Al4 Br20                            
   1.0000000000000000     
     7.5092637679865879   -0.0000000000000001    0.0000000000000007
    -0.0000000000000005    6.6951579992051782    0.0000000000000005
     0.0000000000000005    0.0000000000000001   22.0419880872896705
   Ca   Al   Br
     4     4    20
Direct
  0.5720409621433831  0.4409663633194967  0.4582245595072436
  0.0720409621433831  0.0590336366805033  0.5417754404927564
  0.4279590378566098  0.9409663633194967  0.0417754404927564
  0.9279590378566098  0.5590336366805033  0.9582245595072436
  0.3658443245461598  0.8718267481352981  0.3604518861042365
  0.8658443245461598  0.6281732518647019  0.6395481138957564
  0.6341556754538402  0.3718267481352981  0.1395481138957564
  0.1341556754538331  0.1281732518647019  0.8604518861042365
  0.7549065465305844  0.7503183673827181  0.5441000244575136
  0.2549065465305844  0.7496816326172819  0.4558999755424864
  0.2450934534694085  0.2503183673827181  0.9558999755424864
  0.7450934534694156  0.2496816326172819  0.0441000244575136
  0.1897478107777530  0.7631083854492715  0.2841162861000655
  0.6897478107777530  0.7368916145507285  0.7158837138999345
  0.8102521892222470  0.2631083854492715  0.2158837138999345
  0.3102521892222470  0.2368916145507285  0.7841162861000655
  0.1053607856853773  0.7397119411509721  0.0549043922306751
  0.6053607856853773  0.7602880588490279  0.9450956077693320
  0.8946392143146227  0.2397119411509721  0.4450956077693249
  0.3946392143146227  0.2602880588490279  0.5549043922306680
  0.6197885969705155  0.7207744724480776  0.1391113524327636
  0.1197885969705155  0.7792255275519224  0.8608886475672364
  0.3802114030294845  0.2207744724480776  0.3608886475672364
  0.8802114030294845  0.2792255275519224  0.6391113524327636
  0.8472638198757778  0.2671313930665562  0.8600229140927240
  0.3472638198757778  0.2328686069334438  0.1399770859072760
  0.1527361801242222  0.7671313930665562  0.6399770859072760
  0.6527361801242222  0.7328686069334438  0.3600229140927169

  0.00000000E+00  0.00000000E+00  0.00000000E+00
  0.00000000E+00  0.00000000E+00  0.00000000E+00
  0.00000000E+00  0.00000000E+00  0.00000000E+00
  0.00000000E+00  0.00000000E+00  0.00000000E+00
  0.00000000E+00  0.00000000E+00  0.00000000E+00
  0.00000000E+00  0.00000000E+00  0.00000000E+00
  0.00000000E+00  0.00000000E+00  0.00000000E+00
  0.00000000E+00  0.00000000E+00  0.00000000E+00
  0.00000000E+00  0.00000000E+00  0.00000000E+00
  0.00000000E+00  0.00000000E+00  0.00000000E+00
  0.00000000E+00  0.00000000E+00  0.00000000E+00
  0.00000000E+00  0.00000000E+00  0.00000000E+00
  0.00000000E+00  0.00000000E+00  0.00000000E+00
  0.00000000E+00  0.00000000E+00  0.00000000E+00
  0.00000000E+00  0.00000000E+00  0.00000000E+00
  0.00000000E+00  0.00000000E+00  0.00000000E+00
  0.00000000E+00  0.00000000E+00  0.00000000E+00
  0.00000000E+00  0.00000000E+00  0.00000000E+00
  0.00000000E+00  0.00000000E+00  0.00000000E+00
  0.00000000E+00  0.00000000E+00  0.00000000E+00
  0.00000000E+00  0.00000000E+00  0.00000000E+00
  0.00000000E+00  0.00000000E+00  0.00000000E+00
  0.00000000E+00  0.00000000E+00  0.00000000E+00
  0.00000000E+00  0.00000000E+00  0.00000000E+00
  0.00000000E+00  0.00000000E+00  0.00000000E+00
  0.00000000E+00  0.00000000E+00  0.00000000E+00
  0.00000000E+00  0.00000000E+00  0.00000000E+00
  0.00000000E+00  0.00000000E+00  0.00000000E+00
