Be8 Al4 F28                             
   1.00000000000000     
     4.6558533711898828   -0.1903812907499090    0.7996562841071774
    -0.4187780519184435    8.9417557663230021    0.2062088583714119
     0.5698113038517990    0.0364646964621936    9.6999154577458686
   Be   F    Al
     8    28     4
Direct
  0.5752106414217195  0.6082512007856593  0.1601947877357759
  0.7304332520030243  0.0711893883580998  0.9114444817016363
  0.5675520568698715  0.5923445496060040  0.5083351951722790
  0.4324554200783695  0.1123071773199200  0.2955061252991840
  0.5529996157330430  0.8507569456595192  0.6331147184915338
  0.9946900357794775  0.4237297594405192  0.5098056688503476
  0.1473075336567433  0.8893446621991501  0.9945109449610428
  0.4123569844498789  0.3283071636313650  0.8864098869105774
  0.6096557956051498  0.6949229094467881  0.0133251064686206
  0.0594952305642167  0.8085182011746639  0.1421555537317261
  0.9703582825190153  0.0264617108807030  0.9835210129931511
  0.8544707975247405  0.5208746201143271  0.1332575504419182
  0.1712158192378723  0.1968244751360970  0.2476930941640774
  0.6680333441651172  0.2505460229399716  0.2054248878933009
  0.3232840358872480  0.4843510290900994  0.1855115833612686
  0.7053406328382721  0.0029673228278284  0.2573718625663233
  0.8733247042995771  0.6801682018765405  0.4109199619912616
  0.5452642199129158  0.7271261291347102  0.2737400266316712
  0.2058558516274616  0.9503414971792452  0.3303727962059284
  0.3244763791622063  0.4837190369498003  0.4697249253221827
  0.8826928613836316  0.3971008161025296  0.3741837777156150
  0.4111136205543247  0.1492804624763409  0.4656330437252407
  0.7609932316731758  0.9267109767281028  0.5015523530112844
  0.7357290523853308  0.5045716888196452  0.6002100123167722
  0.3832571784723058  0.7189784440390454  0.5793152277853864
  0.8634828001913206  0.0551610490265375  0.7470033394051754
  0.3471994290594225  0.2566595654192128  0.7459977436181902
  0.9704139490505455  0.2672695498739301  0.5871956067464907
  0.3487526994713406  0.9757920169205221  0.6877252625951940
  0.5317935052086824  0.4932353043052373  0.8669777398354910
  0.1102926060439700  0.7710123007426972  0.8830721315311010
  0.7174891359143700  0.7706111039146464  0.7363850299116521
  0.0686732654726541  0.5194013943480940  0.7797249319085182
  0.6467759666441069  0.2329884307325045  0.9257793953776599
  0.4655540753906351  0.9586378960697886  0.9640265885684585
  0.1380379671568548  0.3131185947411765  0.0074577520795387
  0.0079119371366261  0.3541329502025192  0.1909816758448599
  0.8692773413971011  0.8552448046274961  0.3176665205167808
  0.1948029071291799  0.1383796240533570  0.6373064825153989
  0.8225758369285288  0.6382610231055921  0.8496652140973211
 
  0.00000000E+00  0.00000000E+00  0.00000000E+00
  0.00000000E+00  0.00000000E+00  0.00000000E+00
  0.00000000E+00  0.00000000E+00  0.00000000E+00
  0.00000000E+00  0.00000000E+00  0.00000000E+00
  0.00000000E+00  0.00000000E+00  0.00000000E+00
  0.00000000E+00  0.00000000E+00  0.00000000E+00
  0.00000000E+00  0.00000000E+00  0.00000000E+00
  0.00000000E+00  0.00000000E+00  0.00000000E+00
  0.00000000E+00  0.00000000E+00  0.00000000E+00
  0.00000000E+00  0.00000000E+00  0.00000000E+00
  0.00000000E+00  0.00000000E+00  0.00000000E+00
  0.00000000E+00  0.00000000E+00  0.00000000E+00
  0.00000000E+00  0.00000000E+00  0.00000000E+00
  0.00000000E+00  0.00000000E+00  0.00000000E+00
  0.00000000E+00  0.00000000E+00  0.00000000E+00
  0.00000000E+00  0.00000000E+00  0.00000000E+00
  0.00000000E+00  0.00000000E+00  0.00000000E+00
  0.00000000E+00  0.00000000E+00  0.00000000E+00
  0.00000000E+00  0.00000000E+00  0.00000000E+00
  0.00000000E+00  0.00000000E+00  0.00000000E+00
  0.00000000E+00  0.00000000E+00  0.00000000E+00
  0.00000000E+00  0.00000000E+00  0.00000000E+00
  0.00000000E+00  0.00000000E+00  0.00000000E+00
  0.00000000E+00  0.00000000E+00  0.00000000E+00
  0.00000000E+00  0.00000000E+00  0.00000000E+00
  0.00000000E+00  0.00000000E+00  0.00000000E+00
  0.00000000E+00  0.00000000E+00  0.00000000E+00
  0.00000000E+00  0.00000000E+00  0.00000000E+00
  0.00000000E+00  0.00000000E+00  0.00000000E+00
  0.00000000E+00  0.00000000E+00  0.00000000E+00
  0.00000000E+00  0.00000000E+00  0.00000000E+00
  0.00000000E+00  0.00000000E+00  0.00000000E+00
  0.00000000E+00  0.00000000E+00  0.00000000E+00
  0.00000000E+00  0.00000000E+00  0.00000000E+00
  0.00000000E+00  0.00000000E+00  0.00000000E+00
  0.00000000E+00  0.00000000E+00  0.00000000E+00
  0.00000000E+00  0.00000000E+00  0.00000000E+00
  0.00000000E+00  0.00000000E+00  0.00000000E+00
  0.00000000E+00  0.00000000E+00  0.00000000E+00
  0.00000000E+00  0.00000000E+00  0.00000000E+00
