Sr1 B2 Br10                             
   1.00000000000000     
     5.3536342500946752    5.4098901787457416    0.7585835894251366
    -5.3536342500946752    5.4098901787457416    0.7585835894251366
     0.0000000000000000    5.2402245005992967    8.8178406777928089
   Sr   B    Br
     1     2    10
Direct
  0.6569342028009970  0.3430657971990030  0.0000000000000000
  0.0202202872013686  0.8648818624449746  0.7144235117677979
  0.1351181375550254  0.9797797127986314  0.2855764882322021
  0.1648625567883428  0.1293621102558831  0.6608920206536268
  0.8706378897441169  0.8351374432116572  0.3391079793463732
  0.7346974322771445  0.8538411825408332  0.7768284927759765
  0.1461588174591668  0.2653025677228555  0.2231715072240235
  0.9625812639270350  0.0374187360729650  0.0000000000000000
  0.1770644619046351  0.8229355380953649  0.5000000000000000
  0.6696469435544330  0.4314657277489502  0.6853491333120374
  0.5685342722510498  0.3303530564455670  0.3146508666879626
  0.0684243955404682  0.6308816610037908  0.8788654899133590
  0.3691183389962092  0.9315756044595318  0.1211345100866410
 
  0.00000000E+00  0.00000000E+00  0.00000000E+00
  0.00000000E+00  0.00000000E+00  0.00000000E+00
  0.00000000E+00  0.00000000E+00  0.00000000E+00
  0.00000000E+00  0.00000000E+00  0.00000000E+00
  0.00000000E+00  0.00000000E+00  0.00000000E+00
  0.00000000E+00  0.00000000E+00  0.00000000E+00
  0.00000000E+00  0.00000000E+00  0.00000000E+00
  0.00000000E+00  0.00000000E+00  0.00000000E+00
  0.00000000E+00  0.00000000E+00  0.00000000E+00
  0.00000000E+00  0.00000000E+00  0.00000000E+00
  0.00000000E+00  0.00000000E+00  0.00000000E+00
  0.00000000E+00  0.00000000E+00  0.00000000E+00
  0.00000000E+00  0.00000000E+00  0.00000000E+00
