Sr10 Ga4 Cl32                           
   1.00000000000000     
     4.6595840861820097   -7.7174981524736355    0.0000000000000000
     4.6595840861820097    7.7174981524736355    0.0000000000000000
     0.0000000000000000    0.0000000000000000   17.3826843427149953
   Sr   Ga   Cl
    10     4    32
Direct
  0.0000000000000000  0.0000000000000000  0.7171519989278394
  0.0000000000000000  0.0000000000000000  0.2828480010721606
  0.5000000000000000  0.5000000000000000  0.7828480010721606
  0.5000000000000000  0.5000000000000000  0.2171519989278394
  0.5000000000000000  0.5000000000000000  0.5000000000000000
  0.0000000000000000  0.0000000000000000  0.0000000000000000
  0.0000000000000000  0.5000000000000000  0.6375992327043249
  0.5000000000000000  0.0000000000000000  0.3624007672956751
  0.5000000000000000  0.0000000000000000  0.8624007672956751
  0.0000000000000000  0.5000000000000000  0.1375992327043249
  0.5000000000000000  0.0000000000000000  0.6151582766187715
  0.0000000000000000  0.5000000000000000  0.3848417233812285
  0.0000000000000000  0.5000000000000000  0.8848417233812285
  0.5000000000000000  0.0000000000000000  0.1151582766187715
  0.5360402695127959  0.1952547745320388  0.7118622174716691
  0.4639597304872041  0.8047452254679612  0.7118622174716691
  0.1952547745320388  0.5360402695127959  0.2881377825283309
  0.8047452254679612  0.4639597304872041  0.2881377825283309
  0.9639597304872041  0.3047452254679612  0.7881377825283309
  0.0360402695127959  0.6952547745320388  0.7881377825283309
  0.3047452254679612  0.9639597304872041  0.2118622174716691
  0.6952547745320388  0.0360402695127959  0.2118622174716691
  0.1870963548604649  0.8746148287558881  0.6137029320941494
  0.8129036451395351  0.1253851712441119  0.6137029320941494
  0.8746148287558881  0.1870963548604649  0.3862970679058506
  0.1253851712441119  0.8129036451395351  0.3862970679058506
  0.3129036451395351  0.6253851712441119  0.8862970679058506
  0.6870963548604649  0.3746148287558881  0.8862970679058506
  0.6673254389177146  0.9838360742198660  0.0151296760512949
  0.3326745610822854  0.0161639257801340  0.0151296760512949
  0.9838360742198660  0.6673254389177146  0.9848703239487051
  0.0161639257801340  0.3326745610822854  0.9848703239487051
  0.8326745610822854  0.5161639257801340  0.4848703239487051
  0.1673254389177146  0.4838360742198660  0.4848703239487051
  0.5161639257801340  0.8326745610822854  0.5151296760512949
  0.4838360742198660  0.1673254389177146  0.5151296760512949
  0.8624781380897915  0.7636452463798094  0.1505274461659596
  0.1375218619102085  0.2363547536201906  0.1505274461659596
  0.7636452463798094  0.8624781380897915  0.8494725538340333
  0.2363547536201906  0.1375218619102085  0.8494725538340333
  0.6375218619102085  0.7363547536201906  0.3494725538340404
  0.3624781380897915  0.2636452463798094  0.3494725538340404
  0.7363547536201906  0.6375218619102085  0.6505274461659667
  0.2636452463798094  0.3624781380897915  0.6505274461659667
  0.3746148287558881  0.6870963548604649  0.1137029320941494
  0.6253851712441119  0.3129036451395351  0.1137029320941494
 
  0.00000000E+00  0.00000000E+00  0.00000000E+00
  0.00000000E+00  0.00000000E+00  0.00000000E+00
  0.00000000E+00  0.00000000E+00  0.00000000E+00
  0.00000000E+00  0.00000000E+00  0.00000000E+00
  0.00000000E+00  0.00000000E+00  0.00000000E+00
  0.00000000E+00  0.00000000E+00  0.00000000E+00
  0.00000000E+00  0.00000000E+00  0.00000000E+00
  0.00000000E+00  0.00000000E+00  0.00000000E+00
  0.00000000E+00  0.00000000E+00  0.00000000E+00
  0.00000000E+00  0.00000000E+00  0.00000000E+00
  0.00000000E+00  0.00000000E+00  0.00000000E+00
  0.00000000E+00  0.00000000E+00  0.00000000E+00
  0.00000000E+00  0.00000000E+00  0.00000000E+00
  0.00000000E+00  0.00000000E+00  0.00000000E+00
  0.00000000E+00  0.00000000E+00  0.00000000E+00
  0.00000000E+00  0.00000000E+00  0.00000000E+00
  0.00000000E+00  0.00000000E+00  0.00000000E+00
  0.00000000E+00  0.00000000E+00  0.00000000E+00
  0.00000000E+00  0.00000000E+00  0.00000000E+00
  0.00000000E+00  0.00000000E+00  0.00000000E+00
  0.00000000E+00  0.00000000E+00  0.00000000E+00
  0.00000000E+00  0.00000000E+00  0.00000000E+00
  0.00000000E+00  0.00000000E+00  0.00000000E+00
  0.00000000E+00  0.00000000E+00  0.00000000E+00
  0.00000000E+00  0.00000000E+00  0.00000000E+00
  0.00000000E+00  0.00000000E+00  0.00000000E+00
  0.00000000E+00  0.00000000E+00  0.00000000E+00
  0.00000000E+00  0.00000000E+00  0.00000000E+00
  0.00000000E+00  0.00000000E+00  0.00000000E+00
  0.00000000E+00  0.00000000E+00  0.00000000E+00
  0.00000000E+00  0.00000000E+00  0.00000000E+00
  0.00000000E+00  0.00000000E+00  0.00000000E+00
  0.00000000E+00  0.00000000E+00  0.00000000E+00
  0.00000000E+00  0.00000000E+00  0.00000000E+00
  0.00000000E+00  0.00000000E+00  0.00000000E+00
  0.00000000E+00  0.00000000E+00  0.00000000E+00
  0.00000000E+00  0.00000000E+00  0.00000000E+00
  0.00000000E+00  0.00000000E+00  0.00000000E+00
  0.00000000E+00  0.00000000E+00  0.00000000E+00
  0.00000000E+00  0.00000000E+00  0.00000000E+00
  0.00000000E+00  0.00000000E+00  0.00000000E+00
  0.00000000E+00  0.00000000E+00  0.00000000E+00
  0.00000000E+00  0.00000000E+00  0.00000000E+00
  0.00000000E+00  0.00000000E+00  0.00000000E+00
  0.00000000E+00  0.00000000E+00  0.00000000E+00
  0.00000000E+00  0.00000000E+00  0.00000000E+00
