BeBr3                                   
   1.00000000000000     
    11.1214501633293033   -0.0958373512305951    0.0000000000000000
    -5.6443278689344432    9.5773448173113991    0.0000000000000000
     0.0000000000000000    0.0000000000000000    2.9864575356587606
   Be   Br
     2     6
Direct
  0.3298443142567891  0.6714477502916552  0.7500000000000000
  0.6701556857432109  0.3285522497083448  0.2500000000000000
  0.2305873573294264  0.4598097141487116  0.2500000000000000
  0.5390071052363439  0.7683622973153490  0.2500000000000000
  0.2341181352872042  0.7657225639836867  0.2500000000000000
  0.7694126426705736  0.5401902858512884  0.7500000000000000
  0.4609928947636561  0.2316377026846510  0.7500000000000000
  0.7658818647127958  0.2342774360163133  0.7500000000000000
 
  0.00000000E+00  0.00000000E+00  0.00000000E+00
  0.00000000E+00  0.00000000E+00  0.00000000E+00
  0.00000000E+00  0.00000000E+00  0.00000000E+00
  0.00000000E+00  0.00000000E+00  0.00000000E+00
  0.00000000E+00  0.00000000E+00  0.00000000E+00
  0.00000000E+00  0.00000000E+00  0.00000000E+00
  0.00000000E+00  0.00000000E+00  0.00000000E+00
  0.00000000E+00  0.00000000E+00  0.00000000E+00
