Ba2 Al2 F10                             
   1.00000000000000     
     4.8704460067379411    0.2646832687484760    2.0119059481056714
     1.3255695780645422    4.6940562130454451    2.0119060278837724
    -0.0033039517343858   -0.0026427520502345    8.0178403513358649
   Ba   Al   F 
     2     2    10
Direct
  0.4999391569963194  0.5000608430441460  0.2499999999538645
  0.5000608430036806  0.4999391569558540  0.7500000000461355
  0.0000000000000000  0.0000000000000000  0.5000000000000000
  0.0000000000000000  0.0000000000000000  0.0000000000000000
  0.0749133274315241  0.6211922069515197  0.5761019168219619
  0.3788077926277964  0.9250856736398205  0.9238980829330146
  0.9250856725684784  0.3788077930484803  0.4238990831780427
  0.6211922073722036  0.0749133263601820  0.0761019170669854
  0.9997946046739159  0.0002053953629186  0.7499999999756142
  0.0002053953260841  0.9997946046370814  0.2500000000243858
  0.9231451088269651  0.3791997086733119  0.9245738469793494
  0.6208002910485249  0.0768548920589467  0.5754261524857185
  0.0768548911730349  0.6208002913266881  0.0754261530206435
  0.3791997089514751  0.9231451079410533  0.4245738475142815
 
  0.00000000E+00  0.00000000E+00  0.00000000E+00
  0.00000000E+00  0.00000000E+00  0.00000000E+00
  0.00000000E+00  0.00000000E+00  0.00000000E+00
  0.00000000E+00  0.00000000E+00  0.00000000E+00
  0.00000000E+00  0.00000000E+00  0.00000000E+00
  0.00000000E+00  0.00000000E+00  0.00000000E+00
  0.00000000E+00  0.00000000E+00  0.00000000E+00
  0.00000000E+00  0.00000000E+00  0.00000000E+00
  0.00000000E+00  0.00000000E+00  0.00000000E+00
  0.00000000E+00  0.00000000E+00  0.00000000E+00
  0.00000000E+00  0.00000000E+00  0.00000000E+00
  0.00000000E+00  0.00000000E+00  0.00000000E+00
  0.00000000E+00  0.00000000E+00  0.00000000E+00
  0.00000000E+00  0.00000000E+00  0.00000000E+00
