Ba16 Tl6                                
   1.0000000000000000     
    10.9299816770430063   -0.0055770863301079    0.0150124249861011
    -5.4571742851633385    9.4206677746865051   -0.0165682218288083
    -2.1347078577130896   -3.1705487565894988   10.2132733573967780
   Tl   Ba
     6    16
Direct
  0.0000663495826814  0.4999668573781690  0.0002669608182941
  0.6759754498922845  0.8374013285049884  0.0229453042490135
  0.8271830523196968  0.6722133884788803  0.5015171043912332
  0.5002479009281657  0.9997442789612876  0.5001057910853888
  0.1728355074697134  0.3278395289249261  0.4984679286121505
  0.3238667618302600  0.1623263672920530  0.9769875619113861
  0.0872683909456242  0.2374408458322250  0.1040298147820451
  0.7040252686731492  0.4861195611186346  0.1163697645566657
  0.3232288642313179  0.8822210446171894  0.1170240384397587
  0.5453412538588793  0.7114206339324554  0.2883267676053194
  0.7727311327661326  0.1460364943004819  0.2952311826568135
  0.0375561120092200  0.9372672854681454  0.3314164981879202
  0.4696221624632386  0.3028581665223555  0.3570189711702909
  0.1249299328187519  0.5954903498586219  0.3535810027286104
  0.8751609532949232  0.4046326518285284  0.6462677454674761
  0.5303676092404856  0.6972806656063355  0.6430365554552182
  0.9617692341207302  0.0625647881647211  0.6681940616223443
  0.2274861569661084  0.8538086549373247  0.7048058196787252
  0.4546738064765492  0.2883436215312543  0.7116776484426097
  0.6770734461757186  0.1179854014799346  0.8835897701417750
  0.2958862795290784  0.5137674981401901  0.8835838809926244
  0.9131043744072755  0.7629705871213091  0.8959558270043360

  0.00000000E+00  0.00000000E+00  0.00000000E+00
  0.00000000E+00  0.00000000E+00  0.00000000E+00
  0.00000000E+00  0.00000000E+00  0.00000000E+00
  0.00000000E+00  0.00000000E+00  0.00000000E+00
  0.00000000E+00  0.00000000E+00  0.00000000E+00
  0.00000000E+00  0.00000000E+00  0.00000000E+00
  0.00000000E+00  0.00000000E+00  0.00000000E+00
  0.00000000E+00  0.00000000E+00  0.00000000E+00
  0.00000000E+00  0.00000000E+00  0.00000000E+00
  0.00000000E+00  0.00000000E+00  0.00000000E+00
  0.00000000E+00  0.00000000E+00  0.00000000E+00
  0.00000000E+00  0.00000000E+00  0.00000000E+00
  0.00000000E+00  0.00000000E+00  0.00000000E+00
  0.00000000E+00  0.00000000E+00  0.00000000E+00
  0.00000000E+00  0.00000000E+00  0.00000000E+00
  0.00000000E+00  0.00000000E+00  0.00000000E+00
  0.00000000E+00  0.00000000E+00  0.00000000E+00
  0.00000000E+00  0.00000000E+00  0.00000000E+00
  0.00000000E+00  0.00000000E+00  0.00000000E+00
  0.00000000E+00  0.00000000E+00  0.00000000E+00
  0.00000000E+00  0.00000000E+00  0.00000000E+00
  0.00000000E+00  0.00000000E+00  0.00000000E+00
