Ca18 Tl11                               
   1.0000000000000000     
     8.5262786057148432    6.0916009377479625   -0.1266854840440594
    -8.5262786057148432    6.0916009377479625   -0.1266854840440594
     0.0000000000000000    5.9054226327797368    9.2021693694263931
   Ca   Tl
    18    11
Direct
  0.9316165387154882  0.9316165387154882  0.0936619080842362
  0.3083091642687279  0.6058105587795382  0.9842848436498173
  0.9783618001258887  0.3034751267457594  0.0191344060795160
  0.3034751267457594  0.9783618001258887  0.0191344060795160
  0.6058105587795382  0.3083091642687279  0.9842848436498173
  0.3523091665709686  0.3523091665709686  0.7825311732626616
  0.7104513133883188  0.7104513133883188  0.7100616705116423
  0.6022198038732185  0.0156221869828457  0.7049789010246172
  0.0156221869828457  0.6022198038732185  0.7049789010246172
  0.0230533066276308  0.0230533066276308  0.7224136373219636
  0.4122983214547133  0.7670880243242166  0.5766977643528790
  0.7670880243242166  0.4122983214547133  0.5766977643528790
  0.0243174452672648  0.2778727713518805  0.3833589737432987
  0.2778727713518805  0.0243174452672648  0.3833589737432987
  0.6305032316418036  0.6305032316418036  0.3904284324863667
  0.2707357355993238  0.6930653195884062  0.3095124125506672
  0.6930653195884062  0.2707357355993238  0.3095124125506672
  0.4301972240080332  0.4301972240080332  0.2485724782787031
  0.6164252535338619  0.8115387469731203  0.0070761045623442
  0.8115387469731203  0.6164252535338619  0.0070761045623442
  0.8345059103397716  0.1988435144787246  0.8180992006070298
  0.1988435144787246  0.8345059103397716  0.8180992006070298
  0.2048731449058465  0.4098351932378108  0.5674403030100024
  0.4098351932378108  0.2048731449058465  0.5674403030100024
  0.7867406277974993  0.9825517874680045  0.3955720380312826
  0.9825517874680045  0.7867406277974993  0.3955720380312826
  0.5965699690201802  0.9940798043774919  0.2006936401559685
  0.9940798043774919  0.5965699690201802  0.2006936401559685
  0.2267290085536686  0.2267290085536686  0.1186345245195355

  0.00000000E+00  0.00000000E+00  0.00000000E+00
  0.00000000E+00  0.00000000E+00  0.00000000E+00
  0.00000000E+00  0.00000000E+00  0.00000000E+00
  0.00000000E+00  0.00000000E+00  0.00000000E+00
  0.00000000E+00  0.00000000E+00  0.00000000E+00
  0.00000000E+00  0.00000000E+00  0.00000000E+00
  0.00000000E+00  0.00000000E+00  0.00000000E+00
  0.00000000E+00  0.00000000E+00  0.00000000E+00
  0.00000000E+00  0.00000000E+00  0.00000000E+00
  0.00000000E+00  0.00000000E+00  0.00000000E+00
  0.00000000E+00  0.00000000E+00  0.00000000E+00
  0.00000000E+00  0.00000000E+00  0.00000000E+00
  0.00000000E+00  0.00000000E+00  0.00000000E+00
  0.00000000E+00  0.00000000E+00  0.00000000E+00
  0.00000000E+00  0.00000000E+00  0.00000000E+00
  0.00000000E+00  0.00000000E+00  0.00000000E+00
  0.00000000E+00  0.00000000E+00  0.00000000E+00
  0.00000000E+00  0.00000000E+00  0.00000000E+00
  0.00000000E+00  0.00000000E+00  0.00000000E+00
  0.00000000E+00  0.00000000E+00  0.00000000E+00
  0.00000000E+00  0.00000000E+00  0.00000000E+00
  0.00000000E+00  0.00000000E+00  0.00000000E+00
  0.00000000E+00  0.00000000E+00  0.00000000E+00
  0.00000000E+00  0.00000000E+00  0.00000000E+00
  0.00000000E+00  0.00000000E+00  0.00000000E+00
  0.00000000E+00  0.00000000E+00  0.00000000E+00
  0.00000000E+00  0.00000000E+00  0.00000000E+00
  0.00000000E+00  0.00000000E+00  0.00000000E+00
  0.00000000E+00  0.00000000E+00  0.00000000E+00
