Ca2 Tl2 I10                             
   1.00000000000000     
     7.0769239488547404   -1.5096628086114987    3.4160172244713110
     0.0778850543437145    7.2357356198959177    3.4160172099142554
     0.2705604187144465    0.2165351579853889   13.1863111677734928
   Ca   Tl   I 
     2     2    10
Direct
  0.2910666418966059  0.7089333574014347  0.2499999998760174
  0.7089333581033941  0.2910666425985653  0.7500000001239826
  0.0000000000000000  0.0000000000000000  0.5000000000000000
  0.0000000000000000  0.0000000000000000  0.0000000000000000
  0.6380007635955209  0.7222681346944810  0.6575240513818557
  0.2777318652400211  0.3619982362763281  0.8424759481346555
  0.3619982364044816  0.2777318653055190  0.3424769486181489
  0.7222681347599789  0.6380007637236744  0.1575240518653516
  0.9872055686651180  0.0127944313959745  0.7500000003958647
  0.0127944313348820  0.9872055686040255  0.2499999996041353
  0.6600815305992427  0.1998127329338431  0.0190013923526493
  0.8001872666193606  0.3399184699218267  0.4809986080565309
  0.3399184694007573  0.8001872670661569  0.9809986076473436
  0.1998127333806394  0.6600815300781733  0.5190013919434691
 
  0.00000000E+00  0.00000000E+00  0.00000000E+00
  0.00000000E+00  0.00000000E+00  0.00000000E+00
  0.00000000E+00  0.00000000E+00  0.00000000E+00
  0.00000000E+00  0.00000000E+00  0.00000000E+00
  0.00000000E+00  0.00000000E+00  0.00000000E+00
  0.00000000E+00  0.00000000E+00  0.00000000E+00
  0.00000000E+00  0.00000000E+00  0.00000000E+00
  0.00000000E+00  0.00000000E+00  0.00000000E+00
  0.00000000E+00  0.00000000E+00  0.00000000E+00
  0.00000000E+00  0.00000000E+00  0.00000000E+00
  0.00000000E+00  0.00000000E+00  0.00000000E+00
  0.00000000E+00  0.00000000E+00  0.00000000E+00
  0.00000000E+00  0.00000000E+00  0.00000000E+00
  0.00000000E+00  0.00000000E+00  0.00000000E+00
