Be16 Ga16 F80                           
   1.0000000000000000     
    12.7808058035540615    0.0000012044433390    0.0000000000000008
    -0.0000012044433398   12.7808058035540615    0.0000000000000008
     0.0000000000000000    0.0000000000000000    7.3391569753671453
   Be   Ga   F 
    16    16    80
Direct
  0.5439216468805057  0.7422523994735784  0.6022924195992303
  0.2422523994735784  0.9560783531194943  0.1022924195992232
  0.7577476005264216  0.0439216468805057  0.1022924195992232
  0.4560783531194943  0.2577476005264074  0.6022924195992303
  0.2470479856025634  0.0422740295828277  0.6023054893943964
  0.5422740295828206  0.2529520143974295  0.1023054893943964
  0.4577259704171723  0.7470479856025634  0.1023054893943964
  0.7529520143974366  0.9577259704171794  0.6023054893943964
  0.0439216468805057  0.2422523994735784  0.1022924195992232
  0.7422523994735784  0.4560783531194943  0.6022924195992303
  0.2577476005264074  0.5439216468805057  0.6022924195992303
  0.9560783531194943  0.7577476005264216  0.1022924195992232
  0.7470479856025634  0.5422740295828206  0.1023054893943964
  0.0422740295828277  0.7529520143974366  0.6023054893943964
  0.9577259704171794  0.2470479856025634  0.6023054893943964
  0.2529520143974295  0.4577259704171723  0.1023054893943964
  0.0000000000000000  0.0000000000000000  0.6030697078069664
  0.0000000000000000  0.0000000000000000  0.1030338816943441
  0.5000000000000000  0.0000000000000000  0.1005008968735481
  0.5000000000000000  0.0000000000000000  0.6005008968735623
  0.2504377964441034  0.2496168307206617  0.8531321796110589
  0.7496168307206617  0.2495622035559109  0.3531321796110589
  0.2503831692793383  0.7504377964440820  0.3531321796110589
  0.7495622035559180  0.7503831692793383  0.8531321796110589
  0.5000000000000000  0.5000000000000000  0.1030697078069736
  0.5000000000000000  0.5000000000000000  0.6030338816943441
  0.0000000000000000  0.5000000000000000  0.6005008968735623
  0.0000000000000000  0.5000000000000000  0.1005008968735481
  0.7504377964440820  0.7496168307206617  0.3531321796110589
  0.2496168307206617  0.7495622035559180  0.8531321796110589
  0.7503831692793383  0.2504377964441034  0.8531321796110589
  0.2495622035559109  0.2503831692793383  0.3531321796110589
  0.0000000000000000  0.0000000000000000  0.8530012739956163
  0.0000000000000000  0.0000000000000000  0.3530596549060050
  0.1474484300365049  0.9719070596148995  0.6030647472709347
  0.4719070596148924  0.3525515699634951  0.1030647472709276
  0.5280929403851005  0.6474484300364907  0.1030647472709276
  0.8525515699635093  0.0280929403850934  0.6030647472709347
  0.1467697365685297  0.0321105661492851  0.1027792072579956
  0.5321105661492780  0.3532302634314703  0.6027792072580098
  0.4678894338507220  0.6467697365685297  0.6027792072580098
  0.8532302634314703  0.9678894338507220  0.1027792072579956
  0.5000000000000000  0.0000000000000000  0.8505091120199637
  0.5000000000000000  0.0000000000000000  0.3505091120199850
  0.4843233042281625  0.1478256550652404  0.1004944735945017
  0.6478256550652546  0.0156766957718375  0.6004944735945017
  0.3521743449347525  0.9843233042281625  0.6004944735945017
  0.5156766957718375  0.8521743449347454  0.1004944735945017
  0.5056359693733299  0.1484913064719038  0.6007233263233687
  0.6484913064718967  0.9943640306266630  0.1007233263233758
  0.3515086935280891  0.0056359693733299  0.1007233263233758
  0.4943640306266559  0.8515086935281033  0.6007233263233687
  0.3922433365683986  0.2626469861546710  0.7841321789449083
  0.7626469861546781  0.1077566634316014  0.2841321789448941
  0.2373530138453219  0.8922433365683986  0.2841321789448941
  0.6077566634316014  0.7373530138453219  0.7841321789449083
  0.3914221208127273  0.2637698046109094  0.4214758280492887
  0.7637698046109165  0.1085778791872869  0.9214758280492816
  0.2362301953890906  0.8914221208127344  0.9214758280492816
  0.6085778791872656  0.7362301953890835  0.4214758280492887
  0.2485560939394347  0.1073065452223716  0.7831158713610193
  0.6073065452223716  0.2514439060605653  0.2831158713610122
  0.3926934547776284  0.7485560939394347  0.2831158713610122
  0.7514439060605653  0.8926934547776284  0.7831158713610193
  0.2859992074392892  0.2155434771448128  0.1034306394465077
  0.7155434771448199  0.2140007925607037  0.6034306394465077
  0.2844565228551872  0.7859992074392892  0.6034306394465077
  0.7140007925607108  0.7844565228551801  0.1034306394465077
  0.7529274310530880  0.8920175739258980  0.4223512550993576
  0.3920175739258767  0.7470725689468978  0.9223512550993505
  0.6079824260741020  0.2529274310531022  0.9223512550993505
  0.2470725689468978  0.1079824260741162  0.4223512550993576
  0.5000000000000000  0.5000000000000000  0.3530012739956163
  0.5000000000000000  0.5000000000000000  0.8530596549060050
  0.6474484300364907  0.4719070596148924  0.1030647472709276
  0.9719070596148995  0.8525515699635093  0.6030647472709347
  0.0280929403850934  0.1474484300365049  0.6030647472709347
  0.3525515699634951  0.5280929403851005  0.1030647472709276
  0.6467697365685297  0.5321105661492780  0.6027792072580098
  0.0321105661492851  0.8532302634314703  0.1027792072579956
  0.9678894338507220  0.1467697365685297  0.1027792072579956
  0.3532302634314703  0.4678894338507220  0.6027792072580098
  0.0000000000000000  0.5000000000000000  0.3505091120199850
  0.0000000000000000  0.5000000000000000  0.8505091120199637
  0.9843233042281625  0.6478256550652546  0.6004944735945017
  0.1478256550652404  0.5156766957718375  0.1004944735945017
  0.8521743449347454  0.4843233042281625  0.1004944735945017
  0.0156766957718375  0.3521743449347525  0.6004944735945017
  0.0056359693733299  0.6484913064718967  0.1007233263233758
  0.1484913064719038  0.4943640306266559  0.6007233263233687
  0.8515086935281033  0.5056359693733299  0.6007233263233687
  0.9943640306266630  0.3515086935280891  0.1007233263233758
  0.8922433365683986  0.7626469861546781  0.2841321789448941
  0.2626469861546710  0.6077566634316014  0.7841321789449083
  0.7373530138453219  0.3922433365683986  0.7841321789449083
  0.1077566634316014  0.2373530138453219  0.2841321789448941
  0.8914221208127344  0.7637698046109165  0.9214758280492816
  0.2637698046109094  0.6085778791872656  0.4214758280492887
  0.7362301953890835  0.3914221208127273  0.4214758280492887
  0.1085778791872869  0.2362301953890906  0.9214758280492816
  0.7485560939394347  0.6073065452223716  0.2831158713610122
  0.1073065452223716  0.7514439060605653  0.7831158713610193
  0.8926934547776284  0.2485560939394347  0.7831158713610193
  0.2514439060605653  0.3926934547776284  0.2831158713610122
  0.7859992074392892  0.7155434771448199  0.6034306394465077
  0.2155434771448128  0.7140007925607108  0.1034306394465077
  0.7844565228551801  0.2859992074392892  0.1034306394465077
  0.2140007925607037  0.2844565228551872  0.6034306394465077
  0.2529274310531022  0.3920175739258767  0.9223512550993505
  0.8920175739258980  0.2470725689468978  0.4223512550993576
  0.1079824260741162  0.7529274310530880  0.4223512550993576
  0.7470725689468978  0.6079824260741020  0.9223512550993505

  0.00000000E+00  0.00000000E+00  0.00000000E+00
  0.00000000E+00  0.00000000E+00  0.00000000E+00
  0.00000000E+00  0.00000000E+00  0.00000000E+00
  0.00000000E+00  0.00000000E+00  0.00000000E+00
  0.00000000E+00  0.00000000E+00  0.00000000E+00
  0.00000000E+00  0.00000000E+00  0.00000000E+00
  0.00000000E+00  0.00000000E+00  0.00000000E+00
  0.00000000E+00  0.00000000E+00  0.00000000E+00
  0.00000000E+00  0.00000000E+00  0.00000000E+00
  0.00000000E+00  0.00000000E+00  0.00000000E+00
  0.00000000E+00  0.00000000E+00  0.00000000E+00
  0.00000000E+00  0.00000000E+00  0.00000000E+00
  0.00000000E+00  0.00000000E+00  0.00000000E+00
  0.00000000E+00  0.00000000E+00  0.00000000E+00
  0.00000000E+00  0.00000000E+00  0.00000000E+00
  0.00000000E+00  0.00000000E+00  0.00000000E+00
  0.00000000E+00  0.00000000E+00  0.00000000E+00
  0.00000000E+00  0.00000000E+00  0.00000000E+00
  0.00000000E+00  0.00000000E+00  0.00000000E+00
  0.00000000E+00  0.00000000E+00  0.00000000E+00
  0.00000000E+00  0.00000000E+00  0.00000000E+00
  0.00000000E+00  0.00000000E+00  0.00000000E+00
  0.00000000E+00  0.00000000E+00  0.00000000E+00
  0.00000000E+00  0.00000000E+00  0.00000000E+00
  0.00000000E+00  0.00000000E+00  0.00000000E+00
  0.00000000E+00  0.00000000E+00  0.00000000E+00
  0.00000000E+00  0.00000000E+00  0.00000000E+00
  0.00000000E+00  0.00000000E+00  0.00000000E+00
  0.00000000E+00  0.00000000E+00  0.00000000E+00
  0.00000000E+00  0.00000000E+00  0.00000000E+00
  0.00000000E+00  0.00000000E+00  0.00000000E+00
  0.00000000E+00  0.00000000E+00  0.00000000E+00
  0.00000000E+00  0.00000000E+00  0.00000000E+00
  0.00000000E+00  0.00000000E+00  0.00000000E+00
  0.00000000E+00  0.00000000E+00  0.00000000E+00
  0.00000000E+00  0.00000000E+00  0.00000000E+00
  0.00000000E+00  0.00000000E+00  0.00000000E+00
  0.00000000E+00  0.00000000E+00  0.00000000E+00
  0.00000000E+00  0.00000000E+00  0.00000000E+00
  0.00000000E+00  0.00000000E+00  0.00000000E+00
  0.00000000E+00  0.00000000E+00  0.00000000E+00
  0.00000000E+00  0.00000000E+00  0.00000000E+00
  0.00000000E+00  0.00000000E+00  0.00000000E+00
  0.00000000E+00  0.00000000E+00  0.00000000E+00
  0.00000000E+00  0.00000000E+00  0.00000000E+00
  0.00000000E+00  0.00000000E+00  0.00000000E+00
  0.00000000E+00  0.00000000E+00  0.00000000E+00
  0.00000000E+00  0.00000000E+00  0.00000000E+00
  0.00000000E+00  0.00000000E+00  0.00000000E+00
  0.00000000E+00  0.00000000E+00  0.00000000E+00
  0.00000000E+00  0.00000000E+00  0.00000000E+00
  0.00000000E+00  0.00000000E+00  0.00000000E+00
  0.00000000E+00  0.00000000E+00  0.00000000E+00
  0.00000000E+00  0.00000000E+00  0.00000000E+00
  0.00000000E+00  0.00000000E+00  0.00000000E+00
  0.00000000E+00  0.00000000E+00  0.00000000E+00
  0.00000000E+00  0.00000000E+00  0.00000000E+00
  0.00000000E+00  0.00000000E+00  0.00000000E+00
  0.00000000E+00  0.00000000E+00  0.00000000E+00
  0.00000000E+00  0.00000000E+00  0.00000000E+00
  0.00000000E+00  0.00000000E+00  0.00000000E+00
  0.00000000E+00  0.00000000E+00  0.00000000E+00
  0.00000000E+00  0.00000000E+00  0.00000000E+00
  0.00000000E+00  0.00000000E+00  0.00000000E+00
  0.00000000E+00  0.00000000E+00  0.00000000E+00
  0.00000000E+00  0.00000000E+00  0.00000000E+00
  0.00000000E+00  0.00000000E+00  0.00000000E+00
  0.00000000E+00  0.00000000E+00  0.00000000E+00
  0.00000000E+00  0.00000000E+00  0.00000000E+00
  0.00000000E+00  0.00000000E+00  0.00000000E+00
  0.00000000E+00  0.00000000E+00  0.00000000E+00
  0.00000000E+00  0.00000000E+00  0.00000000E+00
  0.00000000E+00  0.00000000E+00  0.00000000E+00
  0.00000000E+00  0.00000000E+00  0.00000000E+00
  0.00000000E+00  0.00000000E+00  0.00000000E+00
  0.00000000E+00  0.00000000E+00  0.00000000E+00
  0.00000000E+00  0.00000000E+00  0.00000000E+00
  0.00000000E+00  0.00000000E+00  0.00000000E+00
  0.00000000E+00  0.00000000E+00  0.00000000E+00
  0.00000000E+00  0.00000000E+00  0.00000000E+00
  0.00000000E+00  0.00000000E+00  0.00000000E+00
  0.00000000E+00  0.00000000E+00  0.00000000E+00
  0.00000000E+00  0.00000000E+00  0.00000000E+00
  0.00000000E+00  0.00000000E+00  0.00000000E+00
  0.00000000E+00  0.00000000E+00  0.00000000E+00
  0.00000000E+00  0.00000000E+00  0.00000000E+00
  0.00000000E+00  0.00000000E+00  0.00000000E+00
  0.00000000E+00  0.00000000E+00  0.00000000E+00
  0.00000000E+00  0.00000000E+00  0.00000000E+00
  0.00000000E+00  0.00000000E+00  0.00000000E+00
  0.00000000E+00  0.00000000E+00  0.00000000E+00
  0.00000000E+00  0.00000000E+00  0.00000000E+00
  0.00000000E+00  0.00000000E+00  0.00000000E+00
  0.00000000E+00  0.00000000E+00  0.00000000E+00
  0.00000000E+00  0.00000000E+00  0.00000000E+00
  0.00000000E+00  0.00000000E+00  0.00000000E+00
  0.00000000E+00  0.00000000E+00  0.00000000E+00
  0.00000000E+00  0.00000000E+00  0.00000000E+00
  0.00000000E+00  0.00000000E+00  0.00000000E+00
  0.00000000E+00  0.00000000E+00  0.00000000E+00
  0.00000000E+00  0.00000000E+00  0.00000000E+00
  0.00000000E+00  0.00000000E+00  0.00000000E+00
  0.00000000E+00  0.00000000E+00  0.00000000E+00
  0.00000000E+00  0.00000000E+00  0.00000000E+00
  0.00000000E+00  0.00000000E+00  0.00000000E+00
  0.00000000E+00  0.00000000E+00  0.00000000E+00
  0.00000000E+00  0.00000000E+00  0.00000000E+00
  0.00000000E+00  0.00000000E+00  0.00000000E+00
  0.00000000E+00  0.00000000E+00  0.00000000E+00
  0.00000000E+00  0.00000000E+00  0.00000000E+00
  0.00000000E+00  0.00000000E+00  0.00000000E+00
  0.00000000E+00  0.00000000E+00  0.00000000E+00
