Ca4 In2 I10                             
   1.0000000000000000     
     8.8323439736223257   -4.4461318163630921    0.1464727066584821
     8.8272062240258151    4.4356122022759283    0.1420535439334187
    -4.5868627037178147   -0.0011374975423646    7.6122669903076465
   I    In   Ca
    10     2     4
Direct
  0.5004671658706243  0.0003598475652353  0.0009436076006963
  0.0179387712184464  0.2141611476771956  0.0177324343652501
  0.5176893736309722  0.7131513777178284  0.2125815274764946
  0.2865808111703316  0.4826936081822737  0.2874749534362309
  0.7860485504951953  0.9821349018093173  0.4822902650824687
  0.0001180338609927  0.4992537397449013  0.4997667336565002
  0.2157747875071792  0.0166243052847648  0.5190747121134649
  0.7130954008257504  0.5176120560772048  0.7125026596604371
  0.4823180270583549  0.2870261505425020  0.7873525582779308
  0.9820567452734110  0.7858153339132272  0.9820228198866374
  0.7467827645690903  0.2525405559896186  0.2501328495590798
  0.2517810689319262  0.7484025057088814  0.7487672488840573
  0.8430474244662634  0.6567797820820402  0.1566940956999758
  0.3432973141023439  0.1563924235844070  0.3427532134751914
  0.6567757298926225  0.8436424576833303  0.6571970459207250
  0.1565280311264914  0.3437098064372677  0.8430132749048411

  0.00000000E+00  0.00000000E+00  0.00000000E+00
  0.00000000E+00  0.00000000E+00  0.00000000E+00
  0.00000000E+00  0.00000000E+00  0.00000000E+00
  0.00000000E+00  0.00000000E+00  0.00000000E+00
  0.00000000E+00  0.00000000E+00  0.00000000E+00
  0.00000000E+00  0.00000000E+00  0.00000000E+00
  0.00000000E+00  0.00000000E+00  0.00000000E+00
  0.00000000E+00  0.00000000E+00  0.00000000E+00
  0.00000000E+00  0.00000000E+00  0.00000000E+00
  0.00000000E+00  0.00000000E+00  0.00000000E+00
  0.00000000E+00  0.00000000E+00  0.00000000E+00
  0.00000000E+00  0.00000000E+00  0.00000000E+00
  0.00000000E+00  0.00000000E+00  0.00000000E+00
  0.00000000E+00  0.00000000E+00  0.00000000E+00
  0.00000000E+00  0.00000000E+00  0.00000000E+00
  0.00000000E+00  0.00000000E+00  0.00000000E+00
