Ba3 Tl8                                 
   1.0000000000000000     
    -4.8116397347656736   -0.0025597529552431    0.0536805569575535
    -0.0023537188944941   -5.3242050607390174   -0.0133171510188497
     2.2307222569645955    2.7000240431595945   15.7011221976013289
   Ba   Tl
     3     8
Direct
  0.0001400895628549  0.0003489959189125  0.9998882850700710
  0.1569564105452486  0.6537394859986492  0.2989891089738421
  0.8430495755187764  0.3458498313884277  0.7010020194303692
  0.6363034434178161  0.5498983635364496  0.0974877563785128
  0.4937767631089685  0.0954844264860526  0.1849072935672211
  0.7123626151520739  0.1932697197664481  0.3761632263844561
  0.7377601060242824  0.7505599476677460  0.4931485572030496
  0.2616040455183608  0.2488692601395357  0.5068326048441421
  0.2870750460872245  0.8061686903170369  0.6237388122747092
  0.5061961945469946  0.9046774387464041  0.8149146428693683
  0.3647757105173994  0.4507338400343386  0.9025276930042523

  0.00000000E+00  0.00000000E+00  0.00000000E+00
  0.00000000E+00  0.00000000E+00  0.00000000E+00
  0.00000000E+00  0.00000000E+00  0.00000000E+00
  0.00000000E+00  0.00000000E+00  0.00000000E+00
  0.00000000E+00  0.00000000E+00  0.00000000E+00
  0.00000000E+00  0.00000000E+00  0.00000000E+00
  0.00000000E+00  0.00000000E+00  0.00000000E+00
  0.00000000E+00  0.00000000E+00  0.00000000E+00
  0.00000000E+00  0.00000000E+00  0.00000000E+00
  0.00000000E+00  0.00000000E+00  0.00000000E+00
  0.00000000E+00  0.00000000E+00  0.00000000E+00
