Ca4 Al4 F20                             
   1.0000000000000000     
     9.8054225636369488    0.0000000000000000    0.0000000000000000
     0.0000000000000000    5.1910390046622137    0.0153450943941439
     0.0000000000000000    2.4389989088802366    6.8425719642871705
   Ca   Al   F 
     4     4    20
Direct
  0.9812384485057493  0.4672581499924817  0.2575822034557333
  0.4812384485057493  0.5327418500075183  0.2424177965442667
  0.0187615514942507  0.5327418500075183  0.7424177965442667
  0.5187615514942507  0.4672581499924817  0.7575822034557333
  0.7551838594004394  0.1097604904990206  0.5998088228163567
  0.2551838594004394  0.8902395095009794  0.9001911771836433
  0.2448161405995606  0.8902395095009794  0.4001911771836433
  0.7448161405995606  0.1097604904990206  0.0998088228163567
  0.6138600907445522  0.3410079279131040  0.5061590782087251
  0.1138600907445522  0.6589920720868960  0.9938409217912749
  0.3861399092554478  0.6589920720868960  0.4938409217912749
  0.8861399092554478  0.3410079279131040  0.0061590782087251
  0.7936467502522362  0.1368980788045988  0.3415416013726613
  0.2936467502522362  0.8631019211954012  0.1584583986273387
  0.2063532497477638  0.8631019211954012  0.6584583986273387
  0.7063532497477638  0.1368980788045988  0.8415416013726613
  0.4031430389526776  0.0840932775126149  0.8106501558134909
  0.9031430389526776  0.9159067224873851  0.6893498441865091
  0.5968569610473224  0.9159067224873851  0.1893498441865091
  0.0968569610473224  0.0840932775126149  0.3106501558134909
  0.6519464417703844  0.8222285464489687  0.6379899209715632
  0.1519464417703844  0.1777714535510313  0.8620100790284368
  0.3480535582296156  0.1777714535510313  0.3620100790284368
  0.8480535582296156  0.8222285464489687  0.1379899209715632
  0.3653577735292828  0.5862366744295215  0.9500416840922625
  0.8653577735292828  0.4137633255704785  0.5499583159077375
  0.6346422264707172  0.4137633255704785  0.0499583159077375
  0.1346422264707172  0.5862366744295215  0.4500416840922625

  0.00000000E+00  0.00000000E+00  0.00000000E+00
  0.00000000E+00  0.00000000E+00  0.00000000E+00
  0.00000000E+00  0.00000000E+00  0.00000000E+00
  0.00000000E+00  0.00000000E+00  0.00000000E+00
  0.00000000E+00  0.00000000E+00  0.00000000E+00
  0.00000000E+00  0.00000000E+00  0.00000000E+00
  0.00000000E+00  0.00000000E+00  0.00000000E+00
  0.00000000E+00  0.00000000E+00  0.00000000E+00
  0.00000000E+00  0.00000000E+00  0.00000000E+00
  0.00000000E+00  0.00000000E+00  0.00000000E+00
  0.00000000E+00  0.00000000E+00  0.00000000E+00
  0.00000000E+00  0.00000000E+00  0.00000000E+00
  0.00000000E+00  0.00000000E+00  0.00000000E+00
  0.00000000E+00  0.00000000E+00  0.00000000E+00
  0.00000000E+00  0.00000000E+00  0.00000000E+00
  0.00000000E+00  0.00000000E+00  0.00000000E+00
  0.00000000E+00  0.00000000E+00  0.00000000E+00
  0.00000000E+00  0.00000000E+00  0.00000000E+00
  0.00000000E+00  0.00000000E+00  0.00000000E+00
  0.00000000E+00  0.00000000E+00  0.00000000E+00
  0.00000000E+00  0.00000000E+00  0.00000000E+00
  0.00000000E+00  0.00000000E+00  0.00000000E+00
  0.00000000E+00  0.00000000E+00  0.00000000E+00
  0.00000000E+00  0.00000000E+00  0.00000000E+00
  0.00000000E+00  0.00000000E+00  0.00000000E+00
  0.00000000E+00  0.00000000E+00  0.00000000E+00
  0.00000000E+00  0.00000000E+00  0.00000000E+00
  0.00000000E+00  0.00000000E+00  0.00000000E+00
