In8 I16                                 
   1.00000000000000     
     8.6479851111786292    0.0000000000000000    0.0000000000000000
     0.0000000000000000   11.4153079305793987    0.0000000000000000
     0.0000000000000000    0.0000000000000000   11.6541913142933780
   In   I 
     8    16
Direct
  0.2500000000000000  0.0000000000000000  0.6799531665725738
  0.2500000000000000  0.5000000000000000  0.8200468334274262
  0.7500000000000000  0.0000000000000000  0.3200468334274262
  0.7500000000000000  0.5000000000000000  0.1799531665725738
  0.6324098149737694  0.2500000000000000  0.7500000000000000
  0.8675901850262306  0.7500000000000000  0.7500000000000000
  0.3675901850262306  0.7500000000000000  0.2500000000000000
  0.1324098149737694  0.2500000000000000  0.2500000000000000
  0.5082721368740408  0.9584703091578746  0.8144685147009767
  0.5082721368740408  0.5415296908421254  0.6855314852990233
  0.9917278631259592  0.4584703091578675  0.6855314852990233
  0.9917278631259592  0.0415296908421325  0.8144685147009767
  0.4917278631259592  0.0415296908421325  0.1855314852990162
  0.4917278631259592  0.4584703091578675  0.3144685147009838
  0.0082721368740408  0.5415296908421254  0.3144685147009838
  0.0082721368740408  0.9584703091578746  0.1855314852990162
  0.3393107018044361  0.1910797525718237  0.5493912760517574
  0.3393107018044361  0.3089202474281763  0.9506087239482426
  0.1606892981955639  0.6910797525718237  0.9506087239482426
  0.1606892981955639  0.8089202474281763  0.5493912760517574
  0.6606892981955639  0.8089202474281763  0.4506087239482426
  0.6606892981955639  0.6910797525718237  0.0493912760517574
  0.8393107018044361  0.3089202474281763  0.0493912760517574
  0.8393107018044361  0.1910797525718237  0.4506087239482426
 
  0.00000000E+00  0.00000000E+00  0.00000000E+00
  0.00000000E+00  0.00000000E+00  0.00000000E+00
  0.00000000E+00  0.00000000E+00  0.00000000E+00
  0.00000000E+00  0.00000000E+00  0.00000000E+00
  0.00000000E+00  0.00000000E+00  0.00000000E+00
  0.00000000E+00  0.00000000E+00  0.00000000E+00
  0.00000000E+00  0.00000000E+00  0.00000000E+00
  0.00000000E+00  0.00000000E+00  0.00000000E+00
  0.00000000E+00  0.00000000E+00  0.00000000E+00
  0.00000000E+00  0.00000000E+00  0.00000000E+00
  0.00000000E+00  0.00000000E+00  0.00000000E+00
  0.00000000E+00  0.00000000E+00  0.00000000E+00
  0.00000000E+00  0.00000000E+00  0.00000000E+00
  0.00000000E+00  0.00000000E+00  0.00000000E+00
  0.00000000E+00  0.00000000E+00  0.00000000E+00
  0.00000000E+00  0.00000000E+00  0.00000000E+00
  0.00000000E+00  0.00000000E+00  0.00000000E+00
  0.00000000E+00  0.00000000E+00  0.00000000E+00
  0.00000000E+00  0.00000000E+00  0.00000000E+00
  0.00000000E+00  0.00000000E+00  0.00000000E+00
  0.00000000E+00  0.00000000E+00  0.00000000E+00
  0.00000000E+00  0.00000000E+00  0.00000000E+00
  0.00000000E+00  0.00000000E+00  0.00000000E+00
  0.00000000E+00  0.00000000E+00  0.00000000E+00
