Ca4 Tl4 Cl2                             
   1.0000000000000000     
     4.7662516090589895    1.3845099789529414   -0.0041446664832922
    -1.0436594832904045    3.6170672441766731    0.0015569988493596
     0.0155409542696229   -0.0029331839568158   16.8971701698688648
   Tl   Cl   Ca
     4     2     4
Direct
  0.2500172210611709  0.5010151406112229  0.0557623696503384
  0.2499879122800550  0.5010244739331711  0.4442651402216100
  0.7499855927658245  0.4990001357503644  0.5557807606503502
  0.7500081197826560  0.4989595653935552  0.9443032725161657
  0.7500455479292683  0.5013644582086130  0.2500818426359643
  0.2499568695119692  0.4986374542385192  0.7499774881982972
  0.7500209068763439  0.0008434941422237  0.1208346672559344
  0.7499913837870054  0.0008440971226591  0.3792971801874074
  0.2499820274367650  0.9991756843427808  0.6207547771656792
  0.2500044185689347  0.9991354962568906  0.8792225015182709

  0.00000000E+00  0.00000000E+00  0.00000000E+00
  0.00000000E+00  0.00000000E+00  0.00000000E+00
  0.00000000E+00  0.00000000E+00  0.00000000E+00
  0.00000000E+00  0.00000000E+00  0.00000000E+00
  0.00000000E+00  0.00000000E+00  0.00000000E+00
  0.00000000E+00  0.00000000E+00  0.00000000E+00
  0.00000000E+00  0.00000000E+00  0.00000000E+00
  0.00000000E+00  0.00000000E+00  0.00000000E+00
  0.00000000E+00  0.00000000E+00  0.00000000E+00
  0.00000000E+00  0.00000000E+00  0.00000000E+00
