Al20 I4                                 
   1.00000000000000     
     6.2197916203773005    4.7872918085177663   -0.2234887484675915
    -6.2197916203773014    4.7872918085177663   -0.2234887484675918
     0.0000000000000002    1.9639306448311584    9.4949725310377957
   Al   I 
    20     4
Direct
  0.6815796899250515  0.5933560243696334  0.7090387883857119
  0.4066439756303666  0.3184203100749556  0.7909612116142881
  0.3184203100749556  0.4066439756303595  0.2909612116142881
  0.5933560243696334  0.6815796899250515  0.2090387883857119
  0.1789472304414659  0.5292006475735604  0.7541916620603004
  0.4707993524264396  0.8210527695585341  0.7458083379396996
  0.8210527695585341  0.4707993524264396  0.2458083379396996
  0.5292006475735604  0.1789472304414659  0.2541916620603004
  0.1946168857975721  0.3138523415401266  0.5643269417617560
  0.6861476584598734  0.8053831142024279  0.9356730582382440
  0.8053831142024279  0.6861476584598734  0.4356730582382440
  0.3138523415401266  0.1946168857975721  0.0643269417617560
  0.4392734353303780  0.6522379193303820  0.5064925372842310
  0.3477620806696180  0.5607265646696220  0.9935074627157690
  0.5607265646696220  0.3477620806696180  0.4935074627157690
  0.6522379193303820  0.4392734353303780  0.0064925372842310
  0.9849644761814602  0.7522371028779062  0.8119330274838461
  0.2477628971220938  0.0150355238185398  0.6880669725161539
  0.0150355238185398  0.2477628971220938  0.1880669725161610
  0.7522371028779062  0.9849644761814602  0.3119330274838390
  0.1994595315214482  0.8648249224209934  0.4301666740771850
  0.1351750775790066  0.8005404684785518  0.0698333259228150
  0.8005404684785518  0.1351750775790066  0.5698333259228150
  0.8648249224209934  0.1994595315214482  0.9301666740771850
 
  0.00000000E+00  0.00000000E+00  0.00000000E+00
  0.00000000E+00  0.00000000E+00  0.00000000E+00
  0.00000000E+00  0.00000000E+00  0.00000000E+00
  0.00000000E+00  0.00000000E+00  0.00000000E+00
  0.00000000E+00  0.00000000E+00  0.00000000E+00
  0.00000000E+00  0.00000000E+00  0.00000000E+00
  0.00000000E+00  0.00000000E+00  0.00000000E+00
  0.00000000E+00  0.00000000E+00  0.00000000E+00
  0.00000000E+00  0.00000000E+00  0.00000000E+00
  0.00000000E+00  0.00000000E+00  0.00000000E+00
  0.00000000E+00  0.00000000E+00  0.00000000E+00
  0.00000000E+00  0.00000000E+00  0.00000000E+00
  0.00000000E+00  0.00000000E+00  0.00000000E+00
  0.00000000E+00  0.00000000E+00  0.00000000E+00
  0.00000000E+00  0.00000000E+00  0.00000000E+00
  0.00000000E+00  0.00000000E+00  0.00000000E+00
  0.00000000E+00  0.00000000E+00  0.00000000E+00
  0.00000000E+00  0.00000000E+00  0.00000000E+00
  0.00000000E+00  0.00000000E+00  0.00000000E+00
  0.00000000E+00  0.00000000E+00  0.00000000E+00
  0.00000000E+00  0.00000000E+00  0.00000000E+00
  0.00000000E+00  0.00000000E+00  0.00000000E+00
  0.00000000E+00  0.00000000E+00  0.00000000E+00
  0.00000000E+00  0.00000000E+00  0.00000000E+00
