Sr4 B4 Br20                             
   1.0000000000000000     
     9.5098822817867319    0.0000000000000000    0.0000000000000005
    -0.0000000000000008    7.9966895831920777    0.0000000000000004
     0.0000000000000009    0.0000000000000001   14.3134258745191403
   Sr   B    Br
     4     4    20
Direct
  0.6736106610998860  0.5311783110352408  0.3173196654213513
  0.1736106610998860  0.9688216889647592  0.6826803345786558
  0.3263893389001069  0.0311783110352408  0.1826803345786487
  0.8263893389001069  0.4688216889647592  0.8173196654213442
  0.9982316426685856  0.7929408392835455  0.3919497012239148
  0.4982316426685856  0.7070591607164545  0.6080502987760852
  0.0017683573314144  0.2929408392835455  0.1080502987760781
  0.5017683573314144  0.2070591607164545  0.8919497012239148
  0.9485091214889962  0.5628727705596859  0.4448117931791842
  0.4485091214889820  0.9371272294403141  0.5551882068208158
  0.0514908785110038  0.0628727705596859  0.0551882068208158
  0.5514908785110038  0.4371272294403141  0.9448117931791842
  0.8565704791260131  0.8554930161129022  0.2917725690614645
  0.3565704791260202  0.6445069838870978  0.7082274309385355
  0.1434295208739798  0.3554930161129093  0.2082274309385355
  0.6434295208739869  0.1445069838870907  0.7917725690614645
  0.0117583773321144  0.4704163785397668  0.0058713159643844
  0.5117583773321144  0.0295836214602332  0.9941286840356156
  0.9882416226678856  0.9704163785397668  0.4941286840356156
  0.4882416226678856  0.5295836214602332  0.5058713159643844
  0.4989903420341051  0.7190293928960472  0.1824172047516939
  0.9989903420341051  0.7809706071039528  0.8175827952483061
  0.5010096579658949  0.2190293928960472  0.3175827952483061
  0.0010096579658949  0.2809706071039528  0.6824172047516939
  0.3049189336148785  0.2190023904349516  0.8372544057952140
  0.8049189336148785  0.2809976095650413  0.1627455942047860
  0.6950810663851215  0.7190023904349587  0.6627455942047860
  0.1950810663851215  0.7809976095650413  0.3372544057952140

  0.00000000E+00  0.00000000E+00  0.00000000E+00
  0.00000000E+00  0.00000000E+00  0.00000000E+00
  0.00000000E+00  0.00000000E+00  0.00000000E+00
  0.00000000E+00  0.00000000E+00  0.00000000E+00
  0.00000000E+00  0.00000000E+00  0.00000000E+00
  0.00000000E+00  0.00000000E+00  0.00000000E+00
  0.00000000E+00  0.00000000E+00  0.00000000E+00
  0.00000000E+00  0.00000000E+00  0.00000000E+00
  0.00000000E+00  0.00000000E+00  0.00000000E+00
  0.00000000E+00  0.00000000E+00  0.00000000E+00
  0.00000000E+00  0.00000000E+00  0.00000000E+00
  0.00000000E+00  0.00000000E+00  0.00000000E+00
  0.00000000E+00  0.00000000E+00  0.00000000E+00
  0.00000000E+00  0.00000000E+00  0.00000000E+00
  0.00000000E+00  0.00000000E+00  0.00000000E+00
  0.00000000E+00  0.00000000E+00  0.00000000E+00
  0.00000000E+00  0.00000000E+00  0.00000000E+00
  0.00000000E+00  0.00000000E+00  0.00000000E+00
  0.00000000E+00  0.00000000E+00  0.00000000E+00
  0.00000000E+00  0.00000000E+00  0.00000000E+00
  0.00000000E+00  0.00000000E+00  0.00000000E+00
  0.00000000E+00  0.00000000E+00  0.00000000E+00
  0.00000000E+00  0.00000000E+00  0.00000000E+00
  0.00000000E+00  0.00000000E+00  0.00000000E+00
  0.00000000E+00  0.00000000E+00  0.00000000E+00
  0.00000000E+00  0.00000000E+00  0.00000000E+00
  0.00000000E+00  0.00000000E+00  0.00000000E+00
  0.00000000E+00  0.00000000E+00  0.00000000E+00
