Be4 Tl4 I20                             
   1.0000000000000000     
     4.7763693396200892   -0.0000000000000000    0.0000000000000006
    -0.0000000000000003    8.0567116628822451    0.0000000000000009
    -0.0000000000000018   -0.0000000000000003   37.9861700153123891
   Be   Tl   I 
     4     4    20
Direct
  0.7765169595090029  0.2794641341636890  0.4062309147102425
  0.2765169595090100  0.2205358658363110  0.5937690852897575
  0.2234830404909829  0.7794641341636890  0.0937690852897433
  0.7234830404909829  0.7205358658363110  0.9062309147102425
  0.2743914774975380  0.6659453657020009  0.3946054621540824
  0.7743914774975380  0.8340546342979991  0.6053945378459105
  0.7256085225024620  0.1659453657020009  0.1053945378459105
  0.2256085225024620  0.3340546342979920  0.8946054621540824
  0.7699749892023604  0.4711937492207809  0.4517950486909541
  0.2699749892023533  0.0288062507792191  0.5482049513090459
  0.2300250107976396  0.9711937492207809  0.0482049513090459
  0.7300250107976396  0.5288062507792191  0.9517950486909541
  0.2146471416652034  0.8886186393290316  0.1500094346581946
  0.7146471416652034  0.6113813606709684  0.8499905653418125
  0.7853528583347966  0.3886186393290316  0.3499905653418125
  0.2853528583347966  0.1113813606709684  0.6500094346581875
  0.7257977265792803  0.0017879866883348  0.9178639129891266
  0.2257977265792803  0.4982120133116723  0.0821360870108734
  0.2742022734207126  0.5017879866883348  0.5821360870108734
  0.7742022734207197  0.9982120133116652  0.4178639129891337
  0.6392244487718912  0.8845153618384671  0.3029862886750507
  0.1392244487718912  0.6154846381615329  0.6970137113249422
  0.3607755512281088  0.3845153618384671  0.1970137113249493
  0.8607755512281088  0.1154846381615329  0.8029862886750578
  0.0053422684670608  0.8627567518696395  0.7497832722695250
  0.5053422684670608  0.6372432481303605  0.2502167277304821
  0.9946577315329392  0.3627567518696395  0.7502167277304750
  0.4946577315329392  0.1372432481303605  0.2497832722695250

  0.00000000E+00  0.00000000E+00  0.00000000E+00
  0.00000000E+00  0.00000000E+00  0.00000000E+00
  0.00000000E+00  0.00000000E+00  0.00000000E+00
  0.00000000E+00  0.00000000E+00  0.00000000E+00
  0.00000000E+00  0.00000000E+00  0.00000000E+00
  0.00000000E+00  0.00000000E+00  0.00000000E+00
  0.00000000E+00  0.00000000E+00  0.00000000E+00
  0.00000000E+00  0.00000000E+00  0.00000000E+00
  0.00000000E+00  0.00000000E+00  0.00000000E+00
  0.00000000E+00  0.00000000E+00  0.00000000E+00
  0.00000000E+00  0.00000000E+00  0.00000000E+00
  0.00000000E+00  0.00000000E+00  0.00000000E+00
  0.00000000E+00  0.00000000E+00  0.00000000E+00
  0.00000000E+00  0.00000000E+00  0.00000000E+00
  0.00000000E+00  0.00000000E+00  0.00000000E+00
  0.00000000E+00  0.00000000E+00  0.00000000E+00
  0.00000000E+00  0.00000000E+00  0.00000000E+00
  0.00000000E+00  0.00000000E+00  0.00000000E+00
  0.00000000E+00  0.00000000E+00  0.00000000E+00
  0.00000000E+00  0.00000000E+00  0.00000000E+00
  0.00000000E+00  0.00000000E+00  0.00000000E+00
  0.00000000E+00  0.00000000E+00  0.00000000E+00
  0.00000000E+00  0.00000000E+00  0.00000000E+00
  0.00000000E+00  0.00000000E+00  0.00000000E+00
  0.00000000E+00  0.00000000E+00  0.00000000E+00
  0.00000000E+00  0.00000000E+00  0.00000000E+00
  0.00000000E+00  0.00000000E+00  0.00000000E+00
  0.00000000E+00  0.00000000E+00  0.00000000E+00
