Be4 Al4 F20                             
   1.0000000000000000     
     8.8029794225451976    0.0000000000000000    0.0000000000000000
     0.0000000000000000    4.8380456668366936    0.0545507051025592
     0.0000000000000000    2.3232613981846360    6.5081453138574759
   Be   Al   F 
     4     4    20
Direct
  0.0445920400586530  0.6155502147518632  0.2071517110294110
  0.5445920400586530  0.3844497852481368  0.2928482889705890
  0.9554079599413470  0.3844497852481368  0.7928482889705890
  0.4554079599413399  0.6155502147518632  0.7071517110294110
  0.7581138096251436  0.9629515589408015  0.6395679935225189
  0.2581138096251436  0.0370484410591985  0.8604320064774811
  0.2418861903748564  0.0370484410591985  0.3604320064774811
  0.7418861903748564  0.9629515589408015  0.1395679935225260
  0.6110897167884559  0.2145297270444360  0.5108962585413934
  0.1110897167884488  0.7854702729555640  0.9891037414586066
  0.3889102832115441  0.7854702729555640  0.4891037414586066
  0.8889102832115441  0.2145297270444360  0.0108962585413934
  0.8089737552967549  0.9652990944870155  0.3862128880176527
  0.3089737552967549  0.0347009055129845  0.1137871119823473
  0.1910262447032451  0.0347009055129845  0.6137871119823473
  0.6910262447032451  0.9652990944870155  0.8862128880176527
  0.4101148491930289  0.2898905535806833  0.7601079996306908
  0.9101148491930360  0.7101094464193167  0.7398920003693092
  0.5898851508069640  0.7101094464193167  0.2398920003693092
  0.0898851508069711  0.2898905535806833  0.2601079996306908
  0.6303911329911855  0.6497038600055021  0.6850497113387704
  0.1303911329911855  0.3502961399944979  0.8149502886612296
  0.3696088670088145  0.3502961399944979  0.3149502886612296
  0.8696088670088145  0.6497038600055021  0.1850497113387704
  0.3878948741679338  0.7379469608537974  0.8714992382883153
  0.8878948741679338  0.2620530391462026  0.6285007617116847
  0.6121051258320662  0.2620530391462026  0.1285007617116918
  0.1121051258320662  0.7379469608537974  0.3714992382883082

  0.00000000E+00  0.00000000E+00  0.00000000E+00
  0.00000000E+00  0.00000000E+00  0.00000000E+00
  0.00000000E+00  0.00000000E+00  0.00000000E+00
  0.00000000E+00  0.00000000E+00  0.00000000E+00
  0.00000000E+00  0.00000000E+00  0.00000000E+00
  0.00000000E+00  0.00000000E+00  0.00000000E+00
  0.00000000E+00  0.00000000E+00  0.00000000E+00
  0.00000000E+00  0.00000000E+00  0.00000000E+00
  0.00000000E+00  0.00000000E+00  0.00000000E+00
  0.00000000E+00  0.00000000E+00  0.00000000E+00
  0.00000000E+00  0.00000000E+00  0.00000000E+00
  0.00000000E+00  0.00000000E+00  0.00000000E+00
  0.00000000E+00  0.00000000E+00  0.00000000E+00
  0.00000000E+00  0.00000000E+00  0.00000000E+00
  0.00000000E+00  0.00000000E+00  0.00000000E+00
  0.00000000E+00  0.00000000E+00  0.00000000E+00
  0.00000000E+00  0.00000000E+00  0.00000000E+00
  0.00000000E+00  0.00000000E+00  0.00000000E+00
  0.00000000E+00  0.00000000E+00  0.00000000E+00
  0.00000000E+00  0.00000000E+00  0.00000000E+00
  0.00000000E+00  0.00000000E+00  0.00000000E+00
  0.00000000E+00  0.00000000E+00  0.00000000E+00
  0.00000000E+00  0.00000000E+00  0.00000000E+00
  0.00000000E+00  0.00000000E+00  0.00000000E+00
  0.00000000E+00  0.00000000E+00  0.00000000E+00
  0.00000000E+00  0.00000000E+00  0.00000000E+00
  0.00000000E+00  0.00000000E+00  0.00000000E+00
  0.00000000E+00  0.00000000E+00  0.00000000E+00
