Ba2 I8                                  
   1.00000000000000     
     6.6286031632675639   -0.0767834717271339    0.0336874169911871
    -3.3646789902638155    9.0007749827044794    0.0434980490745529
    -1.2033831578377736   -3.6831255399171412    8.9065633748151640
   I    Ba
     8     2
Direct
  0.7573439407786040  0.4695574365173414  0.1390664010837597
  0.7914362850803158  0.9991549464817382  0.1657982899773032
  0.2644978209607629  0.1605752442680881  0.3859902293385673
  0.2936603518223322  0.6854063964138462  0.4212878949374286
  0.7062653628099724  0.3145018369996535  0.5787551067491137
  0.7355192528548002  0.8395403539791459  0.6140141632050415
  0.2086248406127353  0.0008196234075584  0.8342037646003035
  0.2426746247705580  0.5304142258060978  0.8609414264546302
  0.1792089893439908  0.3277636571234837  0.1100359278094984
  0.8207685309659354  0.6722062790030492  0.8899067958443538
 
  0.00000000E+00  0.00000000E+00  0.00000000E+00
  0.00000000E+00  0.00000000E+00  0.00000000E+00
  0.00000000E+00  0.00000000E+00  0.00000000E+00
  0.00000000E+00  0.00000000E+00  0.00000000E+00
  0.00000000E+00  0.00000000E+00  0.00000000E+00
  0.00000000E+00  0.00000000E+00  0.00000000E+00
  0.00000000E+00  0.00000000E+00  0.00000000E+00
  0.00000000E+00  0.00000000E+00  0.00000000E+00
  0.00000000E+00  0.00000000E+00  0.00000000E+00
  0.00000000E+00  0.00000000E+00  0.00000000E+00
