Be4 Al4 Cl20                            
   1.0000000000000000     
     0.0000000000000000    6.5752691158140637   -0.2050691391771498
    13.4157558266961257    0.0000000000000000    0.0000000000000000
     0.0000000000000000    0.0587075964253758  -10.2067663536721156
   Be   Al   Cl
     4     4    20
Direct
  0.5231452934932292  0.5371983788589603  0.3711813426899013
  0.4768547065067708  0.0371983788589603  0.6288186573100987
  0.9645173170021835  0.1464763972211003  0.8855331608305619
  0.0354826829978165  0.6464763972211003  0.1144668391694381
  0.5399239299200289  0.7582266955803547  0.1334861310453448
  0.4600760700799711  0.2582266955803547  0.8665138689546552
  0.0205083457351520  0.6133156422631032  0.4858065756590619
  0.9794916542648480  0.1133156422631103  0.5141934243409381
  0.1929669477458731  0.9903911997657175  0.5497426391152231
  0.3151959867635838  0.5482944935992577  0.5397191418533325
  0.6848040132364090  0.0482944935992577  0.4602808581466604
  0.8433378220605547  0.7581133220805754  0.0330132565701931
  0.9360803904926627  0.5177750957331924  0.0938093663072621
  0.4397540191810947  0.9045225043545813  0.1642286046000550
  0.9240830881851991  0.2051327920372827  0.6928955689534533
  0.5750026140012068  0.6907199827551196  0.3306463207280430
  0.0639196095073373  0.0177750957331924  0.9061906336927379
  0.9139250714132672  0.7080130583727708  0.6359171883522592
  0.5602459808189053  0.4045225043545813  0.8357713953999450
  0.8070330522541269  0.4903911997657247  0.4502573608847698
  0.5717545267484354  0.9501399368998378  0.7547500983117530
  0.6711898770122886  0.1692794804781315  0.9813367681261767
  0.0860749285867328  0.2080130583727708  0.3640828116477408
  0.0759169118148009  0.7051327920372827  0.3071044310465467
  0.1566621779394382  0.2581133220805754  0.9669867434297998
  0.3288101229877114  0.6692794804781315  0.0186632318738233
  0.4249973859987932  0.1907199827551196  0.6693536792719570
  0.4282454732515646  0.4501399368998378  0.2452499016882470

  0.00000000E+00  0.00000000E+00  0.00000000E+00
  0.00000000E+00  0.00000000E+00  0.00000000E+00
  0.00000000E+00  0.00000000E+00  0.00000000E+00
  0.00000000E+00  0.00000000E+00  0.00000000E+00
  0.00000000E+00  0.00000000E+00  0.00000000E+00
  0.00000000E+00  0.00000000E+00  0.00000000E+00
  0.00000000E+00  0.00000000E+00  0.00000000E+00
  0.00000000E+00  0.00000000E+00  0.00000000E+00
  0.00000000E+00  0.00000000E+00  0.00000000E+00
  0.00000000E+00  0.00000000E+00  0.00000000E+00
  0.00000000E+00  0.00000000E+00  0.00000000E+00
  0.00000000E+00  0.00000000E+00  0.00000000E+00
  0.00000000E+00  0.00000000E+00  0.00000000E+00
  0.00000000E+00  0.00000000E+00  0.00000000E+00
  0.00000000E+00  0.00000000E+00  0.00000000E+00
  0.00000000E+00  0.00000000E+00  0.00000000E+00
  0.00000000E+00  0.00000000E+00  0.00000000E+00
  0.00000000E+00  0.00000000E+00  0.00000000E+00
  0.00000000E+00  0.00000000E+00  0.00000000E+00
  0.00000000E+00  0.00000000E+00  0.00000000E+00
  0.00000000E+00  0.00000000E+00  0.00000000E+00
  0.00000000E+00  0.00000000E+00  0.00000000E+00
  0.00000000E+00  0.00000000E+00  0.00000000E+00
  0.00000000E+00  0.00000000E+00  0.00000000E+00
  0.00000000E+00  0.00000000E+00  0.00000000E+00
  0.00000000E+00  0.00000000E+00  0.00000000E+00
  0.00000000E+00  0.00000000E+00  0.00000000E+00
  0.00000000E+00  0.00000000E+00  0.00000000E+00
