Ba4 Al2 I10                             
   1.00000000000000     
     6.8067882380697071   -7.0800247693124296    0.4683989775188442
     6.8067882380697071    7.0800247693124296    0.4683989775188442
    -6.3048625338709572    0.0000000000000000    7.7371725719170588
   I    Ba   Al
    10     4     2
Direct
  0.4992165800238340  0.9994711507578842  0.9965726178810144
  0.9994711507578842  0.4992165800238340  0.9965726178810144
  0.9802548634932933  0.9802548634932933  0.2352269942588379
  0.7433759451395474  0.4638822207699818  0.2647169276795012
  0.4638822207699818  0.7433759451395474  0.2647169276795012
  0.3133788475936612  0.3133788475936612  0.3044564928652349
  0.6847044291691446  0.6847044291691446  0.6943357993300552
  0.5369804070482544  0.2569702008194596  0.7341653497257994
  0.2569702008194596  0.5369804070482544  0.7341653497257994
  0.0200608881736457  0.0200608881736457  0.7657382476236450
  0.8292237775751516  0.1728011222124053  0.0010272759778474
  0.3294614492394743  0.3294614492394743  0.9708020293864692
  0.6716893849856973  0.6716893849856973  0.0307082645060603
  0.1728011222124053  0.8292237775751516  0.0010272759778474
  0.6565765199816198  0.3418522130169563  0.5028839147506901
  0.3418522130169563  0.6565765199816198  0.5028839147506901
 
  0.00000000E+00  0.00000000E+00  0.00000000E+00
  0.00000000E+00  0.00000000E+00  0.00000000E+00
  0.00000000E+00  0.00000000E+00  0.00000000E+00
  0.00000000E+00  0.00000000E+00  0.00000000E+00
  0.00000000E+00  0.00000000E+00  0.00000000E+00
  0.00000000E+00  0.00000000E+00  0.00000000E+00
  0.00000000E+00  0.00000000E+00  0.00000000E+00
  0.00000000E+00  0.00000000E+00  0.00000000E+00
  0.00000000E+00  0.00000000E+00  0.00000000E+00
  0.00000000E+00  0.00000000E+00  0.00000000E+00
  0.00000000E+00  0.00000000E+00  0.00000000E+00
  0.00000000E+00  0.00000000E+00  0.00000000E+00
  0.00000000E+00  0.00000000E+00  0.00000000E+00
  0.00000000E+00  0.00000000E+00  0.00000000E+00
  0.00000000E+00  0.00000000E+00  0.00000000E+00
  0.00000000E+00  0.00000000E+00  0.00000000E+00
