Tl1 Cl6                                 
   1.0000000000000000     
     3.0288190483003667    2.4716891333340052    7.4212008026660463
    -2.4791917228497016    1.1757033018622487    7.5465280242580759
    -0.9478404491182573   -4.2920674014189295    7.6676965900365754
   Cl   Tl
     6     1
Direct
  0.4670526596570355  0.6371057209512685  0.1329159420921755
  0.9752632928206353  0.4807307640230647  0.3086766938837187
  0.7353325199112177  0.0742595673355950  0.4131657844120369
  0.2648765697946374  0.9256843570427620  0.5870316130779116
  0.0248666690850428  0.5193468393954532  0.6913383784270692
  0.5330282540416249  0.3630954070850834  0.8672248109528766
  0.9999800346897985  0.0001773441667652  0.0000467771542247

  0.00000000E+00  0.00000000E+00  0.00000000E+00
  0.00000000E+00  0.00000000E+00  0.00000000E+00
  0.00000000E+00  0.00000000E+00  0.00000000E+00
  0.00000000E+00  0.00000000E+00  0.00000000E+00
  0.00000000E+00  0.00000000E+00  0.00000000E+00
  0.00000000E+00  0.00000000E+00  0.00000000E+00
  0.00000000E+00  0.00000000E+00  0.00000000E+00
