Ba1 In2 I6                              
   1.0000000000000000     
     5.2146270477863776    4.3072218953188184    6.8102636990347438
    -5.2146270477863776    4.3072218953188184    6.8102636990347438
     0.0000000000000000   -3.6098312094251774    5.4723054163324614
   Ba   I    In
     1     6     2
Direct
  0.0000000000000000  0.0000000000000000  0.0000000000000000
  0.7687041333004956  0.7687041333004956  0.2280392349789508
  0.7021974858374520  0.2960783222105476  0.2538857175778091
  0.2960783222105476  0.7021974858374520  0.2538857175778091
  0.2312958666995044  0.2312958666995044  0.7719607650210492
  0.7039216777894524  0.2978025141625480  0.7461142824221980
  0.2978025141625480  0.7039216777894524  0.7461142824221980
  0.3297885582026652  0.3297885582026652  0.2289360441229462
  0.6702114417973348  0.6702114417973348  0.7710639558770538

  0.00000000E+00  0.00000000E+00  0.00000000E+00
  0.00000000E+00  0.00000000E+00  0.00000000E+00
  0.00000000E+00  0.00000000E+00  0.00000000E+00
  0.00000000E+00  0.00000000E+00  0.00000000E+00
  0.00000000E+00  0.00000000E+00  0.00000000E+00
  0.00000000E+00  0.00000000E+00  0.00000000E+00
  0.00000000E+00  0.00000000E+00  0.00000000E+00
  0.00000000E+00  0.00000000E+00  0.00000000E+00
  0.00000000E+00  0.00000000E+00  0.00000000E+00
