Mg4 Ga4 I2                              
   1.00000000000000     
     4.1531530116384152   -0.0149543910071183    0.0171502350578392
    -2.0920273779935874    3.6768908269932239   -0.0297823818769025
     0.0655197773714476   -0.0912814160849068   15.8870399929137101
   Mg   Ga   I 
     4     4     2
Direct
  0.0059143142478533  0.0123948150796309  0.1127882139777014
  0.0061197684301391  0.0029734123291050  0.3873264870252200
  0.9936799032105412  0.9970089136803466  0.6127406970283502
  0.9942714776527666  0.9876231043916377  0.8872135098376788
  0.3348548895161017  0.6695954850899568  0.0204594689893796
  0.3349908890568472  0.6673932157861913  0.4794125136554612
  0.6647957978403127  0.3325887074893004  0.5206839019383906
  0.6653217049889406  0.3303923484772326  0.9795078943895561
  0.6804183131902235  0.3437574613164642  0.2499309388310209
  0.3196329418662742  0.6562725363601487  0.7500963743272422
 
  0.00000000E+00  0.00000000E+00  0.00000000E+00
  0.00000000E+00  0.00000000E+00  0.00000000E+00
  0.00000000E+00  0.00000000E+00  0.00000000E+00
  0.00000000E+00  0.00000000E+00  0.00000000E+00
  0.00000000E+00  0.00000000E+00  0.00000000E+00
  0.00000000E+00  0.00000000E+00  0.00000000E+00
  0.00000000E+00  0.00000000E+00  0.00000000E+00
  0.00000000E+00  0.00000000E+00  0.00000000E+00
  0.00000000E+00  0.00000000E+00  0.00000000E+00
  0.00000000E+00  0.00000000E+00  0.00000000E+00
