Ba2 Tl10                                
   1.0000000000000000     
     5.4199467975103319   -5.7906172846624813    0.0000000000000000
     5.4199467975103319    5.7906172846624813    0.0000000000000000
     0.0000000000000000    0.0000000000000000    6.7002389247922443
   Tl   Ba
    10     2
Direct
  0.2359595023959216  0.2359595023959216  0.0000000000000000
  0.7635122100680505  0.7635122100680505  0.0000000000000000
  0.5930649724558066  0.0752295903471421  0.2500000000000000
  0.9249693187303905  0.4076971905431819  0.2500000000000000
  0.5250473452253530  0.4743179181577801  0.2500000000000000
  0.2359595023959216  0.2359595023959216  0.5000000000000000
  0.7635122100680505  0.7635122100680505  0.5000000000000000
  0.4743179181577801  0.5250473452253530  0.7500000000000000
  0.0752295903471421  0.5930649724558066  0.7500000000000000
  0.4076971905431819  0.9249693187303905  0.7500000000000000
  0.2094086789604717  0.7911215606519306  0.2500000000000000
  0.7911215606519306  0.2094086789604717  0.7500000000000000

  0.00000000E+00  0.00000000E+00  0.00000000E+00
  0.00000000E+00  0.00000000E+00  0.00000000E+00
  0.00000000E+00  0.00000000E+00  0.00000000E+00
  0.00000000E+00  0.00000000E+00  0.00000000E+00
  0.00000000E+00  0.00000000E+00  0.00000000E+00
  0.00000000E+00  0.00000000E+00  0.00000000E+00
  0.00000000E+00  0.00000000E+00  0.00000000E+00
  0.00000000E+00  0.00000000E+00  0.00000000E+00
  0.00000000E+00  0.00000000E+00  0.00000000E+00
  0.00000000E+00  0.00000000E+00  0.00000000E+00
  0.00000000E+00  0.00000000E+00  0.00000000E+00
  0.00000000E+00  0.00000000E+00  0.00000000E+00
