Ba6 In33                                
   1.0000000000000000     
    10.6742756243941361   -0.0000000000000000    0.0000000000000000
    -0.0000000000000000   10.6742756243941361    0.0000000000000000
    -0.0000000000000000    0.0000000000000000   10.6742756243941361
   Ba   In
     6    33
Direct
  0.2230600225914827  0.5000000000000000  0.0000000000000000
  0.7769399774085173  0.5000000000000000  0.0000000000000000
  0.5000000000000000  0.0000000000000000  0.2230600225914827
  0.0000000000000000  0.2230600225914827  0.5000000000000000
  0.0000000000000000  0.7769399774085173  0.5000000000000000
  0.5000000000000000  0.0000000000000000  0.7769399774085173
  0.0000000000000000  0.0000000000000000  0.0000000000000000
  0.2582798689113162  0.1463606537164068  0.0000000000000000
  0.7417201310886838  0.1463606537164068  0.0000000000000000
  0.5000000000000000  0.2926329868660815  0.0000000000000000
  0.5000000000000000  0.7073670131339185  0.0000000000000000
  0.2582798689113162  0.8536393462835932  0.0000000000000000
  0.7417201310886838  0.8536393462835932  0.0000000000000000
  0.0000000000000000  0.2582798689113162  0.1463606537164068
  0.0000000000000000  0.7417201310886838  0.1463606537164068
  0.5000000000000000  0.5000000000000000  0.2261355504964797
  0.1463606537164068  0.0000000000000000  0.2582798689113162
  0.8536393462835932  0.0000000000000000  0.2582798689113162
  0.2966097826710694  0.2966097826710694  0.2966097826710694
  0.7033902173289306  0.2966097826710694  0.2966097826710694
  0.2966097826710694  0.7033902173289306  0.2966097826710694
  0.7033902173289306  0.7033902173289306  0.2966097826710694
  0.0000000000000000  0.5000000000000000  0.2926329868660815
  0.2926329868660815  0.0000000000000000  0.5000000000000000
  0.7073670131339185  0.0000000000000000  0.5000000000000000
  0.5000000000000000  0.2261355504964797  0.5000000000000000
  0.2261355504964797  0.5000000000000000  0.5000000000000000
  0.7738644495035203  0.5000000000000000  0.5000000000000000
  0.5000000000000000  0.7738644495035203  0.5000000000000000
  0.0000000000000000  0.5000000000000000  0.7073670131339185
  0.2966097826710694  0.2966097826710694  0.7033902173289306
  0.7033902173289306  0.2966097826710694  0.7033902173289306
  0.2966097826710694  0.7033902173289306  0.7033902173289306
  0.7033902173289306  0.7033902173289306  0.7033902173289306
  0.1463606537164068  0.0000000000000000  0.7417201310886838
  0.8536393462835932  0.0000000000000000  0.7417201310886838
  0.5000000000000000  0.5000000000000000  0.7738644495035203
  0.0000000000000000  0.2582798689113162  0.8536393462835932
  0.0000000000000000  0.7417201310886838  0.8536393462835932

  0.00000000E+00  0.00000000E+00  0.00000000E+00
  0.00000000E+00  0.00000000E+00  0.00000000E+00
  0.00000000E+00  0.00000000E+00  0.00000000E+00
  0.00000000E+00  0.00000000E+00  0.00000000E+00
  0.00000000E+00  0.00000000E+00  0.00000000E+00
  0.00000000E+00  0.00000000E+00  0.00000000E+00
  0.00000000E+00  0.00000000E+00  0.00000000E+00
  0.00000000E+00  0.00000000E+00  0.00000000E+00
  0.00000000E+00  0.00000000E+00  0.00000000E+00
  0.00000000E+00  0.00000000E+00  0.00000000E+00
  0.00000000E+00  0.00000000E+00  0.00000000E+00
  0.00000000E+00  0.00000000E+00  0.00000000E+00
  0.00000000E+00  0.00000000E+00  0.00000000E+00
  0.00000000E+00  0.00000000E+00  0.00000000E+00
  0.00000000E+00  0.00000000E+00  0.00000000E+00
  0.00000000E+00  0.00000000E+00  0.00000000E+00
  0.00000000E+00  0.00000000E+00  0.00000000E+00
  0.00000000E+00  0.00000000E+00  0.00000000E+00
  0.00000000E+00  0.00000000E+00  0.00000000E+00
  0.00000000E+00  0.00000000E+00  0.00000000E+00
  0.00000000E+00  0.00000000E+00  0.00000000E+00
  0.00000000E+00  0.00000000E+00  0.00000000E+00
  0.00000000E+00  0.00000000E+00  0.00000000E+00
  0.00000000E+00  0.00000000E+00  0.00000000E+00
  0.00000000E+00  0.00000000E+00  0.00000000E+00
  0.00000000E+00  0.00000000E+00  0.00000000E+00
  0.00000000E+00  0.00000000E+00  0.00000000E+00
  0.00000000E+00  0.00000000E+00  0.00000000E+00
  0.00000000E+00  0.00000000E+00  0.00000000E+00
  0.00000000E+00  0.00000000E+00  0.00000000E+00
  0.00000000E+00  0.00000000E+00  0.00000000E+00
  0.00000000E+00  0.00000000E+00  0.00000000E+00
  0.00000000E+00  0.00000000E+00  0.00000000E+00
  0.00000000E+00  0.00000000E+00  0.00000000E+00
  0.00000000E+00  0.00000000E+00  0.00000000E+00
  0.00000000E+00  0.00000000E+00  0.00000000E+00
  0.00000000E+00  0.00000000E+00  0.00000000E+00
  0.00000000E+00  0.00000000E+00  0.00000000E+00
  0.00000000E+00  0.00000000E+00  0.00000000E+00
