Mg4 Al10 Br2                            
   1.00000000000000     
     7.8117487968206269   -0.3698933370082216    0.0781282365512476
    -0.3886946513044138    7.6681065247201570    0.2397004604921530
     3.7632031600741258    3.8259584157766096    5.8251349143439732
   Br   Mg   Al
     2     4    10
Direct
  0.5660360361380015  0.5351355923913275  0.8592065383338436
  0.0546408241844247  0.9751893959505722  0.8519778941413563
  0.3239661739475324  0.2401794216917779  0.8636293611869164
  0.9216851981180341  0.4659422092066876  0.8188928850810200
  0.2274562790172396  0.6625131114355085  0.8722031272971620
  0.7066413224577701  0.0261330475826611  0.9666267493615166
  0.8330435916599228  0.7743206644929117  0.3578098777784930
  0.2987273183982992  0.3184716017517246  0.3442093958829986
  0.5581161061141771  0.0650270727799764  0.3457630385147610
  0.9563941356089529  0.1840806639313186  0.2640785459116870
  0.6449888601504412  0.4374093812033237  0.3457837370118924
  0.2993208121764184  0.7737512887817033  0.1438554056891661
  0.9375318240473263  0.4106980448326354  0.4536536048817723
  0.4028118091324231  0.6508701323402093  0.4519846991457612
  0.1772149758569199  0.9365414456791328  0.3854631857002886
  0.5913247329921205  0.0436369259485261  0.6748619540813863
 
  0.00000000E+00  0.00000000E+00  0.00000000E+00
  0.00000000E+00  0.00000000E+00  0.00000000E+00
  0.00000000E+00  0.00000000E+00  0.00000000E+00
  0.00000000E+00  0.00000000E+00  0.00000000E+00
  0.00000000E+00  0.00000000E+00  0.00000000E+00
  0.00000000E+00  0.00000000E+00  0.00000000E+00
  0.00000000E+00  0.00000000E+00  0.00000000E+00
  0.00000000E+00  0.00000000E+00  0.00000000E+00
  0.00000000E+00  0.00000000E+00  0.00000000E+00
  0.00000000E+00  0.00000000E+00  0.00000000E+00
  0.00000000E+00  0.00000000E+00  0.00000000E+00
  0.00000000E+00  0.00000000E+00  0.00000000E+00
  0.00000000E+00  0.00000000E+00  0.00000000E+00
  0.00000000E+00  0.00000000E+00  0.00000000E+00
  0.00000000E+00  0.00000000E+00  0.00000000E+00
  0.00000000E+00  0.00000000E+00  0.00000000E+00
