Ba4 In4 I2                              
   1.0000000000000000     
     4.9569392399490528    0.0010041337883488    0.0000000000000000
    -2.4775821467304167    4.2967930181802920    0.0000000000000000
     0.0000000000000000    0.0000000000000000   19.3936731070984187
   In   Ba   I 
     4     4     2
Direct
  0.6665681871439091  0.3331640755716094  0.9851330944578294
  0.3334318128560909  0.6668359244283906  0.0148669055421706
  0.6665681871439091  0.3331640755716094  0.5148669055421706
  0.3334318128560909  0.6668359244283906  0.4851330944578294
  0.0004353367595371  0.0010525843444711  0.1227360995145901
  0.0004353367595371  0.0010525843444711  0.3772639004854099
  0.9995646632404629  0.9989474156555289  0.6227360995145901
  0.9995646632404629  0.9989474156555289  0.8772639004854099
  0.6681397674746563  0.3372509836464346  0.2500000000000000
  0.3318602325253437  0.6627490163535654  0.7500000000000000

  0.00000000E+00  0.00000000E+00  0.00000000E+00
  0.00000000E+00  0.00000000E+00  0.00000000E+00
  0.00000000E+00  0.00000000E+00  0.00000000E+00
  0.00000000E+00  0.00000000E+00  0.00000000E+00
  0.00000000E+00  0.00000000E+00  0.00000000E+00
  0.00000000E+00  0.00000000E+00  0.00000000E+00
  0.00000000E+00  0.00000000E+00  0.00000000E+00
  0.00000000E+00  0.00000000E+00  0.00000000E+00
  0.00000000E+00  0.00000000E+00  0.00000000E+00
  0.00000000E+00  0.00000000E+00  0.00000000E+00
