Ba10 Tl4 I32                            
   1.0000000000000000     
     5.5862676007987577   -9.3039045778184626    0.0000000000000000
     5.5862676007987577    9.3039045778184626    0.0000000000000000
     0.0000000000000000    0.0000000000000000   20.7780009182451977
   Ba   Tl   I 
    10     4    32
Direct
  0.0000000000000000  0.0000000000000000  0.7170685868689759
  0.0000000000000000  0.0000000000000000  0.2829314131310241
  0.5000000000000000  0.5000000000000000  0.7829314131310241
  0.5000000000000000  0.5000000000000000  0.2170685868689759
  0.5000000000000000  0.5000000000000000  0.5000000000000000
  0.0000000000000000  0.0000000000000000  0.0000000000000000
  0.0000000000000000  0.5000000000000000  0.6436403158380486
  0.5000000000000000  0.0000000000000000  0.3563596841619443
  0.5000000000000000  0.0000000000000000  0.8563596841619514
  0.0000000000000000  0.5000000000000000  0.1436403158380486
  0.5000000000000000  0.0000000000000000  0.6111851713295735
  0.0000000000000000  0.5000000000000000  0.3888148286704265
  0.0000000000000000  0.5000000000000000  0.8888148286704265
  0.5000000000000000  0.0000000000000000  0.1111851713295735
  0.5530127585153579  0.2098050195269678  0.7164070625399006
  0.4469872414846421  0.7901949804730322  0.7164070625399006
  0.2098050195269678  0.5530127585153579  0.2835929374600994
  0.7901949804730322  0.4469872414846421  0.2835929374600994
  0.9469872414846421  0.2901949804730322  0.7835929374600994
  0.0530127585153579  0.7098050195269678  0.7835929374600994
  0.2901949804730322  0.9469872414846421  0.2164070625399006
  0.7098050195269678  0.0530127585153579  0.2164070625399006
  0.1650019051776823  0.8676614873842823  0.6114695249175952
  0.8349980948223177  0.1323385126157248  0.6114695249175952
  0.8676614873842823  0.1650019051776823  0.3885304750824048
  0.1323385126157248  0.8349980948223177  0.3885304750824048
  0.3349980948223177  0.6323385126157177  0.8885304750824048
  0.6650019051776823  0.3676614873842752  0.8885304750824048
  0.6637408989699125  0.9671193953701831  0.0014423360970142
  0.3362591010300875  0.0328806046298169  0.0014423360970142
  0.9671193953701831  0.6637408989699125  0.9985576639029858
  0.0328806046298169  0.3362591010300875  0.9985576639029858
  0.8362591010300875  0.5328806046298169  0.4985576639029858
  0.1637408989699125  0.4671193953701831  0.4985576639029858
  0.5328806046298169  0.8362591010300875  0.5014423360970142
  0.4671193953701831  0.1637408989699125  0.5014423360970142
  0.8559465273245976  0.7687795548052776  0.1511284558625263
  0.1440534726754024  0.2312204451947224  0.1511284558625263
  0.7687795548052776  0.8559465273245976  0.8488715441374737
  0.2312204451947224  0.1440534726754024  0.8488715441374737
  0.6440534726754024  0.7312204451947224  0.3488715441374737
  0.3559465273245976  0.2687795548052776  0.3488715441374737
  0.7312204451947224  0.6440534726754024  0.6511284558625263
  0.2687795548052776  0.3559465273245976  0.6511284558625263
  0.3676614873842752  0.6650019051776823  0.1114695249175952
  0.6323385126157177  0.3349980948223177  0.1114695249175952

  0.00000000E+00  0.00000000E+00  0.00000000E+00
  0.00000000E+00  0.00000000E+00  0.00000000E+00
  0.00000000E+00  0.00000000E+00  0.00000000E+00
  0.00000000E+00  0.00000000E+00  0.00000000E+00
  0.00000000E+00  0.00000000E+00  0.00000000E+00
  0.00000000E+00  0.00000000E+00  0.00000000E+00
  0.00000000E+00  0.00000000E+00  0.00000000E+00
  0.00000000E+00  0.00000000E+00  0.00000000E+00
  0.00000000E+00  0.00000000E+00  0.00000000E+00
  0.00000000E+00  0.00000000E+00  0.00000000E+00
  0.00000000E+00  0.00000000E+00  0.00000000E+00
  0.00000000E+00  0.00000000E+00  0.00000000E+00
  0.00000000E+00  0.00000000E+00  0.00000000E+00
  0.00000000E+00  0.00000000E+00  0.00000000E+00
  0.00000000E+00  0.00000000E+00  0.00000000E+00
  0.00000000E+00  0.00000000E+00  0.00000000E+00
  0.00000000E+00  0.00000000E+00  0.00000000E+00
  0.00000000E+00  0.00000000E+00  0.00000000E+00
  0.00000000E+00  0.00000000E+00  0.00000000E+00
  0.00000000E+00  0.00000000E+00  0.00000000E+00
  0.00000000E+00  0.00000000E+00  0.00000000E+00
  0.00000000E+00  0.00000000E+00  0.00000000E+00
  0.00000000E+00  0.00000000E+00  0.00000000E+00
  0.00000000E+00  0.00000000E+00  0.00000000E+00
  0.00000000E+00  0.00000000E+00  0.00000000E+00
  0.00000000E+00  0.00000000E+00  0.00000000E+00
  0.00000000E+00  0.00000000E+00  0.00000000E+00
  0.00000000E+00  0.00000000E+00  0.00000000E+00
  0.00000000E+00  0.00000000E+00  0.00000000E+00
  0.00000000E+00  0.00000000E+00  0.00000000E+00
  0.00000000E+00  0.00000000E+00  0.00000000E+00
  0.00000000E+00  0.00000000E+00  0.00000000E+00
  0.00000000E+00  0.00000000E+00  0.00000000E+00
  0.00000000E+00  0.00000000E+00  0.00000000E+00
  0.00000000E+00  0.00000000E+00  0.00000000E+00
  0.00000000E+00  0.00000000E+00  0.00000000E+00
  0.00000000E+00  0.00000000E+00  0.00000000E+00
  0.00000000E+00  0.00000000E+00  0.00000000E+00
  0.00000000E+00  0.00000000E+00  0.00000000E+00
  0.00000000E+00  0.00000000E+00  0.00000000E+00
  0.00000000E+00  0.00000000E+00  0.00000000E+00
  0.00000000E+00  0.00000000E+00  0.00000000E+00
  0.00000000E+00  0.00000000E+00  0.00000000E+00
  0.00000000E+00  0.00000000E+00  0.00000000E+00
  0.00000000E+00  0.00000000E+00  0.00000000E+00
  0.00000000E+00  0.00000000E+00  0.00000000E+00
