Be1 Ga12                                
   1.00000000000000     
     0.0000000000000000    5.4133652829172574    5.4133652829172574
     5.4133652829172574    0.0000000000000000    5.4133652829172574
     5.4133652829172574    5.4133652829172574    0.0000000000000000
   Ga   Be
    12     1
Direct
  0.5000000000000000  0.5000000000000000  0.1592734277810024
  0.8407265722189976  0.5000000000000000  0.1592734277810024
  0.5000000000000000  0.8407265722189976  0.1592734277810024
  0.5000000000000000  0.1592734277810024  0.5000000000000000
  0.8407265722189976  0.1592734277810024  0.5000000000000000
  0.1592734277810024  0.5000000000000000  0.5000000000000000
  0.8407265722189976  0.5000000000000000  0.5000000000000000
  0.1592734277810024  0.8407265722189976  0.5000000000000000
  0.5000000000000000  0.8407265722189976  0.5000000000000000
  0.5000000000000000  0.1592734277810024  0.8407265722189976
  0.1592734277810024  0.5000000000000000  0.8407265722189976
  0.5000000000000000  0.5000000000000000  0.8407265722189976
  0.0000000000000000  0.0000000000000000  0.0000000000000000
 
  0.00000000E+00  0.00000000E+00  0.00000000E+00
  0.00000000E+00  0.00000000E+00  0.00000000E+00
  0.00000000E+00  0.00000000E+00  0.00000000E+00
  0.00000000E+00  0.00000000E+00  0.00000000E+00
  0.00000000E+00  0.00000000E+00  0.00000000E+00
  0.00000000E+00  0.00000000E+00  0.00000000E+00
  0.00000000E+00  0.00000000E+00  0.00000000E+00
  0.00000000E+00  0.00000000E+00  0.00000000E+00
  0.00000000E+00  0.00000000E+00  0.00000000E+00
  0.00000000E+00  0.00000000E+00  0.00000000E+00
  0.00000000E+00  0.00000000E+00  0.00000000E+00
  0.00000000E+00  0.00000000E+00  0.00000000E+00
  0.00000000E+00  0.00000000E+00  0.00000000E+00
