Ca3 In33                                
   1.00000000000000     
    10.1034809787810413    0.0000000000000000    0.0000000000000000
     0.0000000000000000   10.1034809787810413    0.0000000000000000
     0.0000000000000000    0.0000000000000000   10.1034809787810413
   Ca   In
     3    33
Direct
  0.5000000000000000  0.0000000000000000  0.0000000000000000
  0.0000000000000000  0.5000000000000000  0.0000000000000000
  0.0000000000000000  0.0000000000000000  0.5000000000000000
  0.3434945467470030  0.3434945467470030  0.0000000000000000
  0.6565054532529970  0.3434945467470030  0.0000000000000000
  0.3434945467470030  0.6565054532529970  0.0000000000000000
  0.6565054532529970  0.6565054532529970  0.0000000000000000
  0.1579964990479468  0.1579964990479468  0.1579964990479468
  0.8420035009520532  0.1579964990479468  0.1579964990479468
  0.1579964990479468  0.8420035009520532  0.1579964990479468
  0.8420035009520532  0.8420035009520532  0.1579964990479468
  0.5000000000000000  0.2624240816333909  0.2624240816333909
  0.2624240816333909  0.5000000000000000  0.2624240816333909
  0.7375759183666091  0.5000000000000000  0.2624240816333909
  0.5000000000000000  0.7375759183666091  0.2624240816333909
  0.3434945467470030  0.0000000000000000  0.3434945467470030
  0.6565054532529970  0.0000000000000000  0.3434945467470030
  0.0000000000000000  0.3434945467470030  0.3434945467470030
  0.0000000000000000  0.6565054532529970  0.3434945467470030
  0.2624240816333909  0.2624240816333909  0.5000000000000000
  0.7375759183666091  0.2624240816333909  0.5000000000000000
  0.5000000000000000  0.5000000000000000  0.5000000000000000
  0.2624240816333909  0.7375759183666091  0.5000000000000000
  0.7375759183666091  0.7375759183666091  0.5000000000000000
  0.3434945467470030  0.0000000000000000  0.6565054532529970
  0.6565054532529970  0.0000000000000000  0.6565054532529970
  0.0000000000000000  0.3434945467470030  0.6565054532529970
  0.0000000000000000  0.6565054532529970  0.6565054532529970
  0.5000000000000000  0.2624240816333909  0.7375759183666091
  0.2624240816333909  0.5000000000000000  0.7375759183666091
  0.7375759183666091  0.5000000000000000  0.7375759183666091
  0.5000000000000000  0.7375759183666091  0.7375759183666091
  0.1579964990479468  0.1579964990479468  0.8420035009520532
  0.8420035009520532  0.1579964990479468  0.8420035009520532
  0.1579964990479468  0.8420035009520532  0.8420035009520532
  0.8420035009520532  0.8420035009520532  0.8420035009520532
 
  0.00000000E+00  0.00000000E+00  0.00000000E+00
  0.00000000E+00  0.00000000E+00  0.00000000E+00
  0.00000000E+00  0.00000000E+00  0.00000000E+00
  0.00000000E+00  0.00000000E+00  0.00000000E+00
  0.00000000E+00  0.00000000E+00  0.00000000E+00
  0.00000000E+00  0.00000000E+00  0.00000000E+00
  0.00000000E+00  0.00000000E+00  0.00000000E+00
  0.00000000E+00  0.00000000E+00  0.00000000E+00
  0.00000000E+00  0.00000000E+00  0.00000000E+00
  0.00000000E+00  0.00000000E+00  0.00000000E+00
  0.00000000E+00  0.00000000E+00  0.00000000E+00
  0.00000000E+00  0.00000000E+00  0.00000000E+00
  0.00000000E+00  0.00000000E+00  0.00000000E+00
  0.00000000E+00  0.00000000E+00  0.00000000E+00
  0.00000000E+00  0.00000000E+00  0.00000000E+00
  0.00000000E+00  0.00000000E+00  0.00000000E+00
  0.00000000E+00  0.00000000E+00  0.00000000E+00
  0.00000000E+00  0.00000000E+00  0.00000000E+00
  0.00000000E+00  0.00000000E+00  0.00000000E+00
  0.00000000E+00  0.00000000E+00  0.00000000E+00
  0.00000000E+00  0.00000000E+00  0.00000000E+00
  0.00000000E+00  0.00000000E+00  0.00000000E+00
  0.00000000E+00  0.00000000E+00  0.00000000E+00
  0.00000000E+00  0.00000000E+00  0.00000000E+00
  0.00000000E+00  0.00000000E+00  0.00000000E+00
  0.00000000E+00  0.00000000E+00  0.00000000E+00
  0.00000000E+00  0.00000000E+00  0.00000000E+00
  0.00000000E+00  0.00000000E+00  0.00000000E+00
  0.00000000E+00  0.00000000E+00  0.00000000E+00
  0.00000000E+00  0.00000000E+00  0.00000000E+00
  0.00000000E+00  0.00000000E+00  0.00000000E+00
  0.00000000E+00  0.00000000E+00  0.00000000E+00
  0.00000000E+00  0.00000000E+00  0.00000000E+00
  0.00000000E+00  0.00000000E+00  0.00000000E+00
  0.00000000E+00  0.00000000E+00  0.00000000E+00
  0.00000000E+00  0.00000000E+00  0.00000000E+00
