Ba8 Al6                                 
   1.00000000000000     
     7.4042604256330211    7.4256088528828608    0.0000000000000000
    -3.1054519367993834    9.1178942081417631    0.0000000000000000
     0.0000000000000000    0.0000000000000000    6.1982533521976455
   Al   Ba
     6     8
Direct
  0.9587352848973367  0.2881365612421547  0.0000000000000000
  0.3030731918734588  0.4450612000046235  0.0000000000000000
  0.0283737918737117  0.5203864832163205  0.0000000000000000
  0.5651020040981152  0.0927521593893630  0.5000000000000000
  0.4954735223404256  0.8604626540059854  0.5000000000000000
  0.2207091242787058  0.9358297184151212  0.5000000000000000
  0.6514724876845293  0.1688593250203425  0.0000000000000000
  0.6498587634613600  0.6408353448658346  0.0000000000000000
  0.3342162647111522  0.0711914338240263  0.0000000000000000
  0.1044499865815851  0.8467499393764015  0.0000000000000000
  0.8723041221586598  0.2122271307753039  0.5000000000000000
  0.4191871388541415  0.5342256486033961  0.5000000000000000
  0.1896291989770162  0.3096240846847635  0.5000000000000000
  0.8739651182098171  0.7400583165763521  0.5000000000000000
 
  0.00000000E+00  0.00000000E+00  0.00000000E+00
  0.00000000E+00  0.00000000E+00  0.00000000E+00
  0.00000000E+00  0.00000000E+00  0.00000000E+00
  0.00000000E+00  0.00000000E+00  0.00000000E+00
  0.00000000E+00  0.00000000E+00  0.00000000E+00
  0.00000000E+00  0.00000000E+00  0.00000000E+00
  0.00000000E+00  0.00000000E+00  0.00000000E+00
  0.00000000E+00  0.00000000E+00  0.00000000E+00
  0.00000000E+00  0.00000000E+00  0.00000000E+00
  0.00000000E+00  0.00000000E+00  0.00000000E+00
  0.00000000E+00  0.00000000E+00  0.00000000E+00
  0.00000000E+00  0.00000000E+00  0.00000000E+00
  0.00000000E+00  0.00000000E+00  0.00000000E+00
  0.00000000E+00  0.00000000E+00  0.00000000E+00
