Mg4 B4 I20                              
   1.0000000000000000     
    19.6460095838374507    0.0000000000000000    0.0000000000000000
     0.0000000000000000    7.1120115951164715    0.7601298149539035
     0.0000000000000000    4.2770439151769732   11.7429473915841776
   Mg   B    I 
     4     4    20
Direct
  0.0009097790598886  0.2508973218459474  0.4993809207027624
  0.5009097790598815  0.7491026781540526  0.0006190792972376
  0.9990902209401185  0.7491026781540526  0.5006190792972376
  0.4990902209401114  0.2508973218459474  0.9993809207027624
  0.6823076319439707  0.1008519805772394  0.4745905857267019
  0.1823076319439707  0.8991480194227606  0.0254094142732981
  0.3176923680560293  0.8991480194227606  0.5254094142732981
  0.8176923680560293  0.1008519805772394  0.9745905857267019
  0.6367408404249844  0.3909269425702533  0.4411575624022390
  0.1367408404249844  0.6090730574297467  0.0588424375977610
  0.3632591595750156  0.6090730574297467  0.5588424375977610
  0.8632591595750156  0.3909269425702533  0.9411575624022390
  0.7627330993058692  0.0895517671112884  0.3635390099853382
  0.2627330993058692  0.9104482328887116  0.1364609900146618
  0.2372669006941308  0.9104482328887116  0.6364609900146618
  0.7372669006941308  0.0895517671112884  0.8635390099853382
  0.5096675083236093  0.1436080772956032  0.8126104246968495
  0.0096675083236093  0.8563919227043968  0.6873895753031505
  0.4903324916763907  0.8563919227043968  0.1873895753031505
  0.9903324916763907  0.1436080772956032  0.3126104246968495
  0.6484438764194280  0.8218671129060411  0.6200741856675620
  0.1484438764194280  0.1781328870939589  0.8799258143324380
  0.3515561235805720  0.1781328870939589  0.3799258143324309
  0.8515561235805720  0.8218671129060411  0.1200741856675620
  0.3930439686072376  0.5161190960972206  0.9828536630781741
  0.8930439686072376  0.4838809039027794  0.5171463369218259
  0.6069560313927624  0.4838809039027794  0.0171463369218259
  0.1069560313927624  0.5161190960972206  0.4828536630781741

  0.00000000E+00  0.00000000E+00  0.00000000E+00
  0.00000000E+00  0.00000000E+00  0.00000000E+00
  0.00000000E+00  0.00000000E+00  0.00000000E+00
  0.00000000E+00  0.00000000E+00  0.00000000E+00
  0.00000000E+00  0.00000000E+00  0.00000000E+00
  0.00000000E+00  0.00000000E+00  0.00000000E+00
  0.00000000E+00  0.00000000E+00  0.00000000E+00
  0.00000000E+00  0.00000000E+00  0.00000000E+00
  0.00000000E+00  0.00000000E+00  0.00000000E+00
  0.00000000E+00  0.00000000E+00  0.00000000E+00
  0.00000000E+00  0.00000000E+00  0.00000000E+00
  0.00000000E+00  0.00000000E+00  0.00000000E+00
  0.00000000E+00  0.00000000E+00  0.00000000E+00
  0.00000000E+00  0.00000000E+00  0.00000000E+00
  0.00000000E+00  0.00000000E+00  0.00000000E+00
  0.00000000E+00  0.00000000E+00  0.00000000E+00
  0.00000000E+00  0.00000000E+00  0.00000000E+00
  0.00000000E+00  0.00000000E+00  0.00000000E+00
  0.00000000E+00  0.00000000E+00  0.00000000E+00
  0.00000000E+00  0.00000000E+00  0.00000000E+00
  0.00000000E+00  0.00000000E+00  0.00000000E+00
  0.00000000E+00  0.00000000E+00  0.00000000E+00
  0.00000000E+00  0.00000000E+00  0.00000000E+00
  0.00000000E+00  0.00000000E+00  0.00000000E+00
  0.00000000E+00  0.00000000E+00  0.00000000E+00
  0.00000000E+00  0.00000000E+00  0.00000000E+00
  0.00000000E+00  0.00000000E+00  0.00000000E+00
  0.00000000E+00  0.00000000E+00  0.00000000E+00
