Sr16 In12 Cl1                           
   1.00000000000000     
     9.2592160183213448   -5.3458388579152416    3.7789911299563554
    -0.0600646982929246   10.5181131548303402    3.6817872659939854
    -9.1390436761618883   -5.2066698504169215    3.6819455509242354
   In   Cl   Sr
    12     1    16
Direct
  0.8015488393151458  0.6100958039617339  0.9999515095114120
  0.6154984970979669  0.8138887453864498  0.9999541859586145
  0.3787912019920796  0.3942059771009809  0.2229885937769254
  0.1557999803525050  0.7771287214558313  0.1714033695485284
  0.8016118657927862  0.1860495974040859  0.1860535765013012
  0.3788180648783097  0.2230949405669378  0.3942261230498119
  0.1914719144101014  0.3898112744806923  0.3897952019024871
  0.8015958909678247  0.9999844754638403  0.6101081375427526
  0.9845680409217152  0.8289810387176644  0.6058485197521719
  0.6154829524528367  0.9999524418480092  0.8138805514589222
  0.9845792600802596  0.6058694095138861  0.8290646697239978
  0.1558138189413043  0.1713414514100435  0.7770554282430027
  0.4174825983539918  0.9999583422887568  0.9999616745950064
  0.9898419735580219  0.2342894874652544  0.9999417973081819
  0.5340213847475042  0.2749922444477662  0.9999873539643076
  0.2682979257686711  0.5431781858131828  0.0000178067707708
  0.1737544402646662  0.0000008662508861  0.0000442529951883
  0.6990323458985088  0.7177144862277061  0.2731632904030050
  0.5340373769631412  0.9999913475828208  0.2749943106502499
  0.9812313556731596  0.5553445111220938  0.2821402891362084
  0.9898427033073602  0.9999574070069386  0.2343489018021430
  0.7254247028149834  0.4569690348174404  0.4569511360263618
  0.4258285494584158  0.7268019109290123  0.4445484161905284
  0.9812694613511468  0.2821727509454703  0.5553769663575352
  0.2683860840486787  0.0000404075439846  0.5432151094127846
  0.7554243408802748  0.7655423725669124  0.7655424943034319
  0.6990424686099956  0.2731624165307664  0.7176934032064892
  0.2588995117846409  0.7249224027987324  0.7249200432104246
  0.4258024493139771  0.4445589483521104  0.7268238866974173
 
  0.00000000E+00  0.00000000E+00  0.00000000E+00
  0.00000000E+00  0.00000000E+00  0.00000000E+00
  0.00000000E+00  0.00000000E+00  0.00000000E+00
  0.00000000E+00  0.00000000E+00  0.00000000E+00
  0.00000000E+00  0.00000000E+00  0.00000000E+00
  0.00000000E+00  0.00000000E+00  0.00000000E+00
  0.00000000E+00  0.00000000E+00  0.00000000E+00
  0.00000000E+00  0.00000000E+00  0.00000000E+00
  0.00000000E+00  0.00000000E+00  0.00000000E+00
  0.00000000E+00  0.00000000E+00  0.00000000E+00
  0.00000000E+00  0.00000000E+00  0.00000000E+00
  0.00000000E+00  0.00000000E+00  0.00000000E+00
  0.00000000E+00  0.00000000E+00  0.00000000E+00
  0.00000000E+00  0.00000000E+00  0.00000000E+00
  0.00000000E+00  0.00000000E+00  0.00000000E+00
  0.00000000E+00  0.00000000E+00  0.00000000E+00
  0.00000000E+00  0.00000000E+00  0.00000000E+00
  0.00000000E+00  0.00000000E+00  0.00000000E+00
  0.00000000E+00  0.00000000E+00  0.00000000E+00
  0.00000000E+00  0.00000000E+00  0.00000000E+00
  0.00000000E+00  0.00000000E+00  0.00000000E+00
  0.00000000E+00  0.00000000E+00  0.00000000E+00
  0.00000000E+00  0.00000000E+00  0.00000000E+00
  0.00000000E+00  0.00000000E+00  0.00000000E+00
  0.00000000E+00  0.00000000E+00  0.00000000E+00
  0.00000000E+00  0.00000000E+00  0.00000000E+00
  0.00000000E+00  0.00000000E+00  0.00000000E+00
  0.00000000E+00  0.00000000E+00  0.00000000E+00
  0.00000000E+00  0.00000000E+00  0.00000000E+00
