Ca2 Al2 I6                              
   1.00000000000000     
     2.2649688332611966   -7.4478417330883637    0.0000000000000000
     2.2649688332611966    7.4478417330883637    0.0000000000000000
     0.0000000000000000    0.0000000000000000   11.5094255470184876
   Ca   Al   I 
     2     2     6
Direct
  0.0000000000000000  0.0000000000000000  0.0000000000000000
  0.0000000000000000  0.0000000000000000  0.5000000000000000
  0.2585620548770180  0.7414379451229820  0.2500000000000000
  0.7414379451229820  0.2585620548770180  0.7500000000000000
  0.6386953064375476  0.3613046935624524  0.0604390621452069
  0.3613046935624524  0.6386953064375476  0.9395609378547931
  0.3613046935624524  0.6386953064375476  0.5604390621452069
  0.6386953064375476  0.3613046935624524  0.4395609378547931
  0.9111709402189803  0.0888290597810197  0.2500000000000000
  0.0888290597810197  0.9111709402189803  0.7500000000000000
 
  0.00000000E+00  0.00000000E+00  0.00000000E+00
  0.00000000E+00  0.00000000E+00  0.00000000E+00
  0.00000000E+00  0.00000000E+00  0.00000000E+00
  0.00000000E+00  0.00000000E+00  0.00000000E+00
  0.00000000E+00  0.00000000E+00  0.00000000E+00
  0.00000000E+00  0.00000000E+00  0.00000000E+00
  0.00000000E+00  0.00000000E+00  0.00000000E+00
  0.00000000E+00  0.00000000E+00  0.00000000E+00
  0.00000000E+00  0.00000000E+00  0.00000000E+00
  0.00000000E+00  0.00000000E+00  0.00000000E+00
