Be2 In2 Br6                             
   1.00000000000000     
    -4.7533280997590142    1.0881324685967628    0.7291444424224278
    -5.0668326948044324    7.9025410581471691    2.2296764533182789
     1.8367523774835799   -3.1986374443326819  -12.5987125466360741
   Br   Be   In
     6     2     2
Direct
  0.0098919975713088  0.6415528975871467  0.9197648106128327
  0.7091266243967453  0.0224370650214993  0.2248072518107165
  0.8716632169000675  0.7476016201082203  0.4458492652737647
  0.0779309789655969  0.3343197255502943  0.5472227296825807
  0.2853598130874317  0.0571289099871919  0.7095104798111720
  0.9929642672800156  0.1337330541058961  0.0017746091508997
  0.5764349829934403  0.9344979751340716  0.0470602068788537
  0.4068511585063916  0.0438387702536360  0.5658628994935100
  0.7851375067982431  0.3853225338088606  0.2922297090531458
  0.2846394535007732  0.6995674484431618  0.7462180382325272
 
  0.00000000E+00  0.00000000E+00  0.00000000E+00
  0.00000000E+00  0.00000000E+00  0.00000000E+00
  0.00000000E+00  0.00000000E+00  0.00000000E+00
  0.00000000E+00  0.00000000E+00  0.00000000E+00
  0.00000000E+00  0.00000000E+00  0.00000000E+00
  0.00000000E+00  0.00000000E+00  0.00000000E+00
  0.00000000E+00  0.00000000E+00  0.00000000E+00
  0.00000000E+00  0.00000000E+00  0.00000000E+00
  0.00000000E+00  0.00000000E+00  0.00000000E+00
  0.00000000E+00  0.00000000E+00  0.00000000E+00
