Sr16 Ga12 I1                            
   1.00000000000000     
     9.7707849115653271   -5.6412252883411114    3.9852197118848749
    -0.4318218718960389   10.0383617887533951    3.2856875732834396
    -8.9093407601935759   -4.6448161585707455    3.2857254524798547
   Ga   I    Sr
    12     1    16
Direct
  0.8119691691897444  0.6076908100554519  0.9999231557318069
  0.6727596199536023  0.8356451478024312  0.0002502608024102
  0.3628525411017023  0.4121348650327477  0.2505618479998262
  0.1114603107846222  0.7489186847219997  0.1604517263351539
  0.8370870259512699  0.1642197674302679  0.1642197664510192
  0.3628525438273797  0.2505618612436251  0.4121348631023736
  0.2048599490229179  0.3926766881865476  0.3926766909699637
  0.8119691637375155  0.9999231522780647  0.6076908028490067
  0.9502437097109251  0.8370096800725904  0.5885596903094523
  0.6727596208569508  0.0002502615096276  0.8356451475305136
  0.9502437022346157  0.5885596722695112  0.8370096672854714
  0.1114603155866831  0.1604517280649134  0.7489187027576492
  0.3757118099882675  0.9996349747979849  0.9996349742933219
  0.9987001198614252  0.2886918033819441  0.0001200426057508
  0.6186068632655122  0.2652305657319545  0.0004078116675785
  0.2567551432819286  0.5834817834407602  0.9997829514693777
  0.1173831077318823  0.9998499283507911  0.9998509260300779
  0.6630308766256334  0.6737254011730727  0.2395184851137842
  0.6186068805562783  0.0004088287994790  0.2652305977687917
  0.9898407253801125  0.5654474821893416  0.3263701967715349
  0.9987001366628334  0.0001200603620219  0.2886918382115979
  0.6755134607930202  0.4184445161782193  0.4184445161658203
  0.4236617299333503  0.7610858124958995  0.4340083727215642
  0.9898407209880773  0.3263701894135167  0.5654474846702726
  0.2567551413364484  0.9997829509491396  0.5834817852472298
  0.7091871450971468  0.7112703754456007  0.7112703576688943
  0.6630308736191495  0.2395184825007277  0.6737253913712564
  0.3536958555706775  0.7348871433056132  0.7348871264314099
  0.4236617373503293  0.4340083828161525  0.7610858196671018
 
  0.00000000E+00  0.00000000E+00  0.00000000E+00
  0.00000000E+00  0.00000000E+00  0.00000000E+00
  0.00000000E+00  0.00000000E+00  0.00000000E+00
  0.00000000E+00  0.00000000E+00  0.00000000E+00
  0.00000000E+00  0.00000000E+00  0.00000000E+00
  0.00000000E+00  0.00000000E+00  0.00000000E+00
  0.00000000E+00  0.00000000E+00  0.00000000E+00
  0.00000000E+00  0.00000000E+00  0.00000000E+00
  0.00000000E+00  0.00000000E+00  0.00000000E+00
  0.00000000E+00  0.00000000E+00  0.00000000E+00
  0.00000000E+00  0.00000000E+00  0.00000000E+00
  0.00000000E+00  0.00000000E+00  0.00000000E+00
  0.00000000E+00  0.00000000E+00  0.00000000E+00
  0.00000000E+00  0.00000000E+00  0.00000000E+00
  0.00000000E+00  0.00000000E+00  0.00000000E+00
  0.00000000E+00  0.00000000E+00  0.00000000E+00
  0.00000000E+00  0.00000000E+00  0.00000000E+00
  0.00000000E+00  0.00000000E+00  0.00000000E+00
  0.00000000E+00  0.00000000E+00  0.00000000E+00
  0.00000000E+00  0.00000000E+00  0.00000000E+00
  0.00000000E+00  0.00000000E+00  0.00000000E+00
  0.00000000E+00  0.00000000E+00  0.00000000E+00
  0.00000000E+00  0.00000000E+00  0.00000000E+00
  0.00000000E+00  0.00000000E+00  0.00000000E+00
  0.00000000E+00  0.00000000E+00  0.00000000E+00
  0.00000000E+00  0.00000000E+00  0.00000000E+00
  0.00000000E+00  0.00000000E+00  0.00000000E+00
  0.00000000E+00  0.00000000E+00  0.00000000E+00
  0.00000000E+00  0.00000000E+00  0.00000000E+00
