Sr3Cl2                                  
   1.00000000000000     
    -7.5961046501825162   -0.0002558685801226    0.0008088181069736
     3.7978308247524746   -6.5785510680453925   -0.0009826483114287
    -3.7987330342342043    2.1930540140636481    7.1349532432177662
   Cl   Sr
     4     6
Direct
  0.3312232821075582  0.6689981055012524  0.0076957541728575
  0.1690031214145478  0.8312063670173728  0.4923067803013552
  0.8309477459923258  0.1687412197161180  0.5076964965928852
  0.6687116630325534  0.3309826132082492  0.9923126269877258
  0.5902815622069895  0.7505339928998538  0.2498366318571001
  0.9104697433125466  0.4104969503001854  0.2500118506550066
  0.2505387914924597  0.0902750255510014  0.2501725589109611
  0.7494470230864678  0.9097144171295426  0.7498266173545289
  0.0895291583810334  0.5894411164195930  0.7499842274247399
  0.4096479089734970  0.2494101922568177  0.7501764557428459
 
  0.00000000E+00  0.00000000E+00  0.00000000E+00
  0.00000000E+00  0.00000000E+00  0.00000000E+00
  0.00000000E+00  0.00000000E+00  0.00000000E+00
  0.00000000E+00  0.00000000E+00  0.00000000E+00
  0.00000000E+00  0.00000000E+00  0.00000000E+00
  0.00000000E+00  0.00000000E+00  0.00000000E+00
  0.00000000E+00  0.00000000E+00  0.00000000E+00
  0.00000000E+00  0.00000000E+00  0.00000000E+00
  0.00000000E+00  0.00000000E+00  0.00000000E+00
  0.00000000E+00  0.00000000E+00  0.00000000E+00
