Sr4 B10 Br2                             
   1.00000000000000     
     9.3199760354203551    0.1926824877697438    0.3547819345442242
     0.0999887146917384    8.3916122188075839    0.1598018799535078
     4.8556764603479365    4.3483716221767921    4.0890082997012671
   Br   Sr   B 
     2     4    10
Direct
  0.6687337950480199  0.6377934510576182  0.6537351836560745
  0.1728150832103452  0.3068026991865622  0.5557526793424969
  0.2069928503158636  0.1105905647312397  0.0339398338570049
  0.7667017271319025  0.3030468957174932  0.0593420922577863
  0.1768938592750118  0.6102447779944740  0.0249013138890462
  0.7676286211765202  0.7815215063796686  0.0251168297478443
  0.2255686562058585  0.0403007883023747  0.6424706366443687
  0.6783189798417908  0.8897387301368340  0.6262279076465660
  0.4555926628788711  0.9302950733224051  0.2344697504965794
  0.8148716146763917  0.1019459448536395  0.5203816998218684
  0.6733858711376399  0.2811569831063565  0.5145206502199997
  0.1433373121753547  0.7560117537260069  0.5641678140334747
  0.6441897825784224  0.1214984132230654  0.8037906394521244
  0.2814602900788472  0.6314729833636008  0.5852511190359166
  0.2778304339637785  0.9904050298870644  0.4436496001772738
  0.5455784603053857  0.0070744050115863  0.7122822497215680
 
  0.00000000E+00  0.00000000E+00  0.00000000E+00
  0.00000000E+00  0.00000000E+00  0.00000000E+00
  0.00000000E+00  0.00000000E+00  0.00000000E+00
  0.00000000E+00  0.00000000E+00  0.00000000E+00
  0.00000000E+00  0.00000000E+00  0.00000000E+00
  0.00000000E+00  0.00000000E+00  0.00000000E+00
  0.00000000E+00  0.00000000E+00  0.00000000E+00
  0.00000000E+00  0.00000000E+00  0.00000000E+00
  0.00000000E+00  0.00000000E+00  0.00000000E+00
  0.00000000E+00  0.00000000E+00  0.00000000E+00
  0.00000000E+00  0.00000000E+00  0.00000000E+00
  0.00000000E+00  0.00000000E+00  0.00000000E+00
  0.00000000E+00  0.00000000E+00  0.00000000E+00
  0.00000000E+00  0.00000000E+00  0.00000000E+00
  0.00000000E+00  0.00000000E+00  0.00000000E+00
  0.00000000E+00  0.00000000E+00  0.00000000E+00
