Sr16 Tl13                               
   1.0000000000000000     
     9.3856368190533548   -4.8229721256178868    4.0417277326792371
     0.2845329231859398    9.9793507445352816    3.7014296231540795
    -9.6177327728210553   -5.3393208497186944    3.9400711633039656
   Tl   Sr
    13    16
Direct
  0.6053092738364327  0.8466067152514185  0.9999997335432766
  0.9033460314825774  0.6504422673413188  0.0000003911063615
  0.7110470241538849  0.3878490186696553  0.0000141015874888
  0.3044881759277587  0.3363820245785476  0.1969427031150630
  0.2239988877928525  0.8230343523065926  0.2644869974198514
  0.7759561504910408  0.2077223202770000  0.2091042327276114
  0.3794275309861348  0.1941824835800787  0.4088723297103485
  0.2018371112566442  0.3857657628473987  0.4322122913709592
  0.7696104530349146  0.9535827341379814  0.5678134815526334
  0.9705397101987856  0.7853276135431813  0.5911239530297649
  0.5668411025201294  0.9986407125627110  0.7908786677577382
  0.9595352995635196  0.5585962277020755  0.7355054049348269
  0.1075360581941922  0.1394321618639438  0.8030420513225494
  0.4470113962292075  0.1978786801344228  0.9999956262543606
  0.1580880770042086  0.9244305238784634  0.0000171248006637
  0.9367555513524408  0.2033190632267008  0.9999808219100359
  0.2177874425510211  0.5322719127754283  0.9999927674086990
  0.6903410446120262  0.6892239056200182  0.2266743962382307
  0.5390393823236295  0.9915248470771516  0.2720319203334824
  0.0128122216072768  0.5672715646999009  0.3114004045683174
  0.9863183343808686  0.9992680285688635  0.2261142131860012
  0.6719240436087617  0.4370278678974842  0.4193083084373868
  0.4306817230695899  0.7038332082174747  0.4461687890387154
  0.9845065320684583  0.2576762718320751  0.5538228553817532
  0.2525980970599591  0.0177183433460897  0.5806783752434441
  0.7601999901989558  0.7731482150372599  0.7738844860414815
  0.7014502466434536  0.2559371649203115  0.6886233137120215
  0.2670231864313948  0.7195161092372899  0.7279737602468401
  0.4636599214198753  0.4625498988691490  0.7733394980201282

  0.00000000E+00  0.00000000E+00  0.00000000E+00
  0.00000000E+00  0.00000000E+00  0.00000000E+00
  0.00000000E+00  0.00000000E+00  0.00000000E+00
  0.00000000E+00  0.00000000E+00  0.00000000E+00
  0.00000000E+00  0.00000000E+00  0.00000000E+00
  0.00000000E+00  0.00000000E+00  0.00000000E+00
  0.00000000E+00  0.00000000E+00  0.00000000E+00
  0.00000000E+00  0.00000000E+00  0.00000000E+00
  0.00000000E+00  0.00000000E+00  0.00000000E+00
  0.00000000E+00  0.00000000E+00  0.00000000E+00
  0.00000000E+00  0.00000000E+00  0.00000000E+00
  0.00000000E+00  0.00000000E+00  0.00000000E+00
  0.00000000E+00  0.00000000E+00  0.00000000E+00
  0.00000000E+00  0.00000000E+00  0.00000000E+00
  0.00000000E+00  0.00000000E+00  0.00000000E+00
  0.00000000E+00  0.00000000E+00  0.00000000E+00
  0.00000000E+00  0.00000000E+00  0.00000000E+00
  0.00000000E+00  0.00000000E+00  0.00000000E+00
  0.00000000E+00  0.00000000E+00  0.00000000E+00
  0.00000000E+00  0.00000000E+00  0.00000000E+00
  0.00000000E+00  0.00000000E+00  0.00000000E+00
  0.00000000E+00  0.00000000E+00  0.00000000E+00
  0.00000000E+00  0.00000000E+00  0.00000000E+00
  0.00000000E+00  0.00000000E+00  0.00000000E+00
  0.00000000E+00  0.00000000E+00  0.00000000E+00
  0.00000000E+00  0.00000000E+00  0.00000000E+00
  0.00000000E+00  0.00000000E+00  0.00000000E+00
  0.00000000E+00  0.00000000E+00  0.00000000E+00
  0.00000000E+00  0.00000000E+00  0.00000000E+00
