CaGa                                    
   1.00000000000000     
    -4.2247768563828485    0.0103907605662478    0.0000000000000000
     0.0000000000000000    0.0000000000000000   -4.3891865486229893
    -2.0978323323572510   -5.7013345574662786    0.0000000000000000
   Ca   Ga
     2     2
Direct
  0.8556614583620643  0.2500000000000000  0.2894561404977551
  0.1443385416379357  0.7500000000000000  0.7105438595022449
  0.4330175268216294  0.7500000000000000  0.1340400982992520
  0.5669824731783706  0.2500000000000000  0.8659599017007480
 
  0.00000000E+00  0.00000000E+00  0.00000000E+00
  0.00000000E+00  0.00000000E+00  0.00000000E+00
  0.00000000E+00  0.00000000E+00  0.00000000E+00
  0.00000000E+00  0.00000000E+00  0.00000000E+00
