AlCl4                                   
   1.00000000000000     
     6.3272494504875780    0.0174645784545177   -0.0197635136174091
     3.0269060677407928    6.8916467261448791    0.0579267366370053
     0.2182820362443966    0.0171700106662310    8.2093990269384722
   Al   Cl
     2     8
Direct
  0.7817332627790208  0.9310368892400547  0.0590628061664944
  0.2183079629053779  0.0690053920913343  0.9408201980607771
  0.4618157887977006  0.1988543229164392  0.0841141255762210
  0.0054034566394137  0.1029928664322313  0.1656147527376604
  0.8771974037995136  0.7135720362494027  0.2427422124773670
  0.3519625114686349  0.5648622467087847  0.4376797350073574
  0.6480598103391912  0.4352753457005889  0.5619936332395383
  0.1228257475418317  0.2864756418542100  0.7571323575149904
  0.9946253161882908  0.8970362907005551  0.8342667263909860
  0.5382287395410330  0.8011889681064090  0.9157734528286170
 
  0.00000000E+00  0.00000000E+00  0.00000000E+00
  0.00000000E+00  0.00000000E+00  0.00000000E+00
  0.00000000E+00  0.00000000E+00  0.00000000E+00
  0.00000000E+00  0.00000000E+00  0.00000000E+00
  0.00000000E+00  0.00000000E+00  0.00000000E+00
  0.00000000E+00  0.00000000E+00  0.00000000E+00
  0.00000000E+00  0.00000000E+00  0.00000000E+00
  0.00000000E+00  0.00000000E+00  0.00000000E+00
  0.00000000E+00  0.00000000E+00  0.00000000E+00
  0.00000000E+00  0.00000000E+00  0.00000000E+00
