Be32 Al28                               
   1.00000000000000     
     9.2134252651319546   -0.0002980425997404   -0.0002981977382098
    -0.0002981977382098    9.2134252651319528   -0.0002980425997404
    -0.0002980425997404   -0.0002981977382098    9.2134252651319546
   Be   Al
    32    28
Direct
  0.7301172615571545  0.5621302820380620  0.1048204527344652
  0.8020635118038797  0.0628606599341168  0.0901704581314746
  0.3952696134170282  0.2699157200939126  0.0623917585786842
  0.0901704581314746  0.8020635118038797  0.0628606599341168
  0.2572299308093804  0.7428581659425006  0.2429766447841857
  0.2304936199797183  0.2304936199797183  0.2304936199797183
  0.0623917585786842  0.3952696134170282  0.2699157200939126
  0.5629343470619688  0.4098190845788849  0.1979643504183883
  0.4370774531578050  0.9097826742744601  0.3021577101416852
  0.9376685488713647  0.8952479010110750  0.2300202334832733
  0.7695560243468478  0.7304915104638923  0.2694108384383327
  0.7428581659425006  0.2429766447841857  0.2572299308093804
  0.9097826742744601  0.3021577101416852  0.4370774531578050
  0.6048640116997674  0.7697455039837209  0.4375472538876153
  0.1979643504183883  0.5629343470619688  0.4098190845788849
  0.2699157200939126  0.0623917585786842  0.3952696134170282
  0.7697455039837209  0.4375472538876153  0.6048640116997674
  0.6975405087165711  0.9369951481463445  0.5902226031160751
  0.1048204527344652  0.7301172615571545  0.5621302820380620
  0.4098190845788849  0.1979643504183883  0.5629343470619688
  0.2429766447841857  0.2572299308093804  0.7428581659425006
  0.2694108384383327  0.7695560243468478  0.7304915104638923
  0.4375472538876153  0.6048640116997674  0.7697455039837209
  0.9369951481463445  0.5902226031160751  0.6975405087165711
  0.0628606599341168  0.0901704581314746  0.8020635118038797
  0.5621302820380620  0.1048204527344652  0.7301172615571545
  0.7304915104638923  0.2694108384383327  0.7695560243468478
  0.7568665751168737  0.7568665751168737  0.7568665751168737
  0.5902226031160751  0.6975405087165711  0.9369951481463445
  0.8952479010110750  0.2300202334832733  0.9376685488713647
  0.3021577101416852  0.4370774531578050  0.9097826742744601
  0.2300202334832733  0.9376685488713647  0.8952479010110750
  0.5285722431519915  0.9716066761480988  0.0287778340095386
  0.8128032953365647  0.8042162252100411  0.0220124758707669
  0.6412661860277993  0.2492217047489191  0.0037669724294389
  0.9962490924524019  0.1413039140247676  0.2507907297982186
  0.5221884354373927  0.6871901327809198  0.1955423819687283
  0.6956566566036813  0.9778565875056984  0.3128472472640098
  0.7490691718544653  0.4964824800161196  0.3589327010975509
  0.2507907297982186  0.9962490924524019  0.1413039140247676
  0.3043762793484106  0.4778789307267459  0.1871744193138980
  0.4778789307267459  0.1871744193138980  0.3043762793484106
  0.0037669724294389  0.6412661860277993  0.2492217047489191
  0.3589327010975509  0.7490691718544653  0.4964824800161196
  0.1871744193138980  0.3043762793484106  0.4778789307267459
  0.4715385046052205  0.4715385046052205  0.4715385046052205
  0.9716066761480988  0.0287778340095386  0.5285722431519915
  0.6871901327809198  0.1955423819687283  0.5221884354373927
  0.8588678365072724  0.7513802417359159  0.5035332833059201
  0.5035332833059201  0.8588678365072724  0.7513802417359159
  0.9778565875056984  0.3128472472640098  0.6956566566036813
  0.8042162252100411  0.0220124758707669  0.8128032953365647
  0.7513802417359159  0.5035332833059201  0.8588678365072724
  0.2492217047489191  0.0037669724294389  0.6412661860277993
  0.1955423819687283  0.5221884354373927  0.6871901327809198
  0.0220124758707669  0.8128032953365647  0.8042162252100411
  0.4964824800161196  0.3589327010975509  0.7490691718544653
  0.1413039140247676  0.2507907297982186  0.9962490924524019
  0.3128472472640098  0.6956566566036813  0.9778565875056984
  0.0287778340095386  0.5285722431519915  0.9716066761480988
 
  0.00000000E+00  0.00000000E+00  0.00000000E+00
  0.00000000E+00  0.00000000E+00  0.00000000E+00
  0.00000000E+00  0.00000000E+00  0.00000000E+00
  0.00000000E+00  0.00000000E+00  0.00000000E+00
  0.00000000E+00  0.00000000E+00  0.00000000E+00
  0.00000000E+00  0.00000000E+00  0.00000000E+00
  0.00000000E+00  0.00000000E+00  0.00000000E+00
  0.00000000E+00  0.00000000E+00  0.00000000E+00
  0.00000000E+00  0.00000000E+00  0.00000000E+00
  0.00000000E+00  0.00000000E+00  0.00000000E+00
  0.00000000E+00  0.00000000E+00  0.00000000E+00
  0.00000000E+00  0.00000000E+00  0.00000000E+00
  0.00000000E+00  0.00000000E+00  0.00000000E+00
  0.00000000E+00  0.00000000E+00  0.00000000E+00
  0.00000000E+00  0.00000000E+00  0.00000000E+00
  0.00000000E+00  0.00000000E+00  0.00000000E+00
  0.00000000E+00  0.00000000E+00  0.00000000E+00
  0.00000000E+00  0.00000000E+00  0.00000000E+00
  0.00000000E+00  0.00000000E+00  0.00000000E+00
  0.00000000E+00  0.00000000E+00  0.00000000E+00
  0.00000000E+00  0.00000000E+00  0.00000000E+00
  0.00000000E+00  0.00000000E+00  0.00000000E+00
  0.00000000E+00  0.00000000E+00  0.00000000E+00
  0.00000000E+00  0.00000000E+00  0.00000000E+00
  0.00000000E+00  0.00000000E+00  0.00000000E+00
  0.00000000E+00  0.00000000E+00  0.00000000E+00
  0.00000000E+00  0.00000000E+00  0.00000000E+00
  0.00000000E+00  0.00000000E+00  0.00000000E+00
  0.00000000E+00  0.00000000E+00  0.00000000E+00
  0.00000000E+00  0.00000000E+00  0.00000000E+00
  0.00000000E+00  0.00000000E+00  0.00000000E+00
  0.00000000E+00  0.00000000E+00  0.00000000E+00
  0.00000000E+00  0.00000000E+00  0.00000000E+00
  0.00000000E+00  0.00000000E+00  0.00000000E+00
  0.00000000E+00  0.00000000E+00  0.00000000E+00
  0.00000000E+00  0.00000000E+00  0.00000000E+00
  0.00000000E+00  0.00000000E+00  0.00000000E+00
  0.00000000E+00  0.00000000E+00  0.00000000E+00
  0.00000000E+00  0.00000000E+00  0.00000000E+00
  0.00000000E+00  0.00000000E+00  0.00000000E+00
  0.00000000E+00  0.00000000E+00  0.00000000E+00
  0.00000000E+00  0.00000000E+00  0.00000000E+00
  0.00000000E+00  0.00000000E+00  0.00000000E+00
  0.00000000E+00  0.00000000E+00  0.00000000E+00
  0.00000000E+00  0.00000000E+00  0.00000000E+00
  0.00000000E+00  0.00000000E+00  0.00000000E+00
  0.00000000E+00  0.00000000E+00  0.00000000E+00
  0.00000000E+00  0.00000000E+00  0.00000000E+00
  0.00000000E+00  0.00000000E+00  0.00000000E+00
  0.00000000E+00  0.00000000E+00  0.00000000E+00
  0.00000000E+00  0.00000000E+00  0.00000000E+00
  0.00000000E+00  0.00000000E+00  0.00000000E+00
  0.00000000E+00  0.00000000E+00  0.00000000E+00
  0.00000000E+00  0.00000000E+00  0.00000000E+00
  0.00000000E+00  0.00000000E+00  0.00000000E+00
  0.00000000E+00  0.00000000E+00  0.00000000E+00
  0.00000000E+00  0.00000000E+00  0.00000000E+00
  0.00000000E+00  0.00000000E+00  0.00000000E+00
  0.00000000E+00  0.00000000E+00  0.00000000E+00
  0.00000000E+00  0.00000000E+00  0.00000000E+00
