Be4                                     
   1.00000000000000     
     3.7753519642986646    0.0000000000000000    0.0000000000000000
     0.0000000000000000    3.7753519642986646    0.0000000000000000
     0.0000000000000000    0.0000000000000000    2.2568717276885164
   Be
     4
Direct
  0.2995265278038630  0.2995265278038630  0.0000000000000000
  0.7004734721961370  0.7004734721961370  0.0000000000000000
  0.2004734721961370  0.7995265278038630  0.5000000000000000
  0.7995265278038630  0.2004734721961370  0.5000000000000000
 
  0.00000000E+00  0.00000000E+00  0.00000000E+00
  0.00000000E+00  0.00000000E+00  0.00000000E+00
  0.00000000E+00  0.00000000E+00  0.00000000E+00
  0.00000000E+00  0.00000000E+00  0.00000000E+00
