Ca17 Ga12                               
   1.00000000000000     
    -5.8091251335836915   -5.8091251335836898    5.8119995257962875
    -5.8091251335836915    5.8119995257962893   -5.8091251335836898
     5.8119995257962884   -5.8091251335836906   -5.8091251335836898
   Ga   Ca
    12    17
Direct
  0.3667219892554741  0.1780237080614313  0.0001196130220933
  0.1780237080614313  0.3667219892554741  0.0001196130220933
  0.8221227098225015  0.8221227098225015  0.1886521588911805
  0.3667219892554741  0.0001196130220933  0.1780237080614313
  0.0001196130220933  0.3667219892554741  0.1780237080614313
  0.1780237080614313  0.0001196130220933  0.3667219892554741
  0.0001196130220933  0.1780237080614313  0.3667219892554741
  0.8110272948036013  0.6330815794976203  0.6330815794976203
  0.6330815794976203  0.8110272948036013  0.6330815794976203
  0.8221227098225015  0.1886521588911805  0.8221227098225015
  0.1886521588911805  0.8221227098225015  0.8221227098225015
  0.6330815794976203  0.6330815794976203  0.8110272948036013
  0.0003351120776927  0.0003351120776927  0.0003351120776927
  0.6860262914021007  0.9998898569116861  0.9998898569116861
  0.6982384969500117  0.4102942601505930  0.9999504498724150
  0.9998898569116861  0.6860262914021007  0.9998898569116861
  0.4102942601505930  0.6982384969500117  0.9999504498724150
  0.5894665951679841  0.5894665951679841  0.2872697860434030
  0.7123457950559455  0.3019470521802816  0.3019470521802816
  0.3019470521802816  0.7123457950559455  0.3019470521802816
  0.3146309399418854  0.3146309399418854  0.3146309399418854
  0.6982384969500117  0.9999504498724150  0.4102942601505930
  0.9999504498724150  0.6982384969500117  0.4102942601505930
  0.5894665951679841  0.2872697860434030  0.5894665951679841
  0.2872697860434030  0.5894665951679841  0.5894665951679841
  0.9998898569116861  0.9998898569116861  0.6860262914021007
  0.4102942601505930  0.9999504498724150  0.6982384969500117
  0.9999504498724150  0.4102942601505930  0.6982384969500117
  0.3019470521802816  0.3019470521802816  0.7123457950559455
 
  0.00000000E+00  0.00000000E+00  0.00000000E+00
  0.00000000E+00  0.00000000E+00  0.00000000E+00
  0.00000000E+00  0.00000000E+00  0.00000000E+00
  0.00000000E+00  0.00000000E+00  0.00000000E+00
  0.00000000E+00  0.00000000E+00  0.00000000E+00
  0.00000000E+00  0.00000000E+00  0.00000000E+00
  0.00000000E+00  0.00000000E+00  0.00000000E+00
  0.00000000E+00  0.00000000E+00  0.00000000E+00
  0.00000000E+00  0.00000000E+00  0.00000000E+00
  0.00000000E+00  0.00000000E+00  0.00000000E+00
  0.00000000E+00  0.00000000E+00  0.00000000E+00
  0.00000000E+00  0.00000000E+00  0.00000000E+00
  0.00000000E+00  0.00000000E+00  0.00000000E+00
  0.00000000E+00  0.00000000E+00  0.00000000E+00
  0.00000000E+00  0.00000000E+00  0.00000000E+00
  0.00000000E+00  0.00000000E+00  0.00000000E+00
  0.00000000E+00  0.00000000E+00  0.00000000E+00
  0.00000000E+00  0.00000000E+00  0.00000000E+00
  0.00000000E+00  0.00000000E+00  0.00000000E+00
  0.00000000E+00  0.00000000E+00  0.00000000E+00
  0.00000000E+00  0.00000000E+00  0.00000000E+00
  0.00000000E+00  0.00000000E+00  0.00000000E+00
  0.00000000E+00  0.00000000E+00  0.00000000E+00
  0.00000000E+00  0.00000000E+00  0.00000000E+00
  0.00000000E+00  0.00000000E+00  0.00000000E+00
  0.00000000E+00  0.00000000E+00  0.00000000E+00
  0.00000000E+00  0.00000000E+00  0.00000000E+00
  0.00000000E+00  0.00000000E+00  0.00000000E+00
  0.00000000E+00  0.00000000E+00  0.00000000E+00
