Ba13 B14                                
   1.00000000000000     
     6.6326425653492800    6.6326425653492800    8.9571111177444216
     6.6326425653492791   -8.9571111177444198   -6.6326425653492800
    -8.9571111177444216    6.6326425653492800   -6.6326425653492791
   B    Ba
    14    13
Direct
  0.3891557013938964  0.9240452469135079  0.9240452469135079
  0.6108442986061036  0.0759547530864921  0.0759547530864921
  0.2428258963515617  0.2428258963515617  0.8336346623367916
  0.9240452469135079  0.3891557013938964  0.9240452469135079
  0.0759547530864921  0.6108442986061036  0.0759547530864921
  0.7571741036484383  0.7571741036484383  0.1663653376632084
  0.2428258963515617  0.8336346623367916  0.2428258963515617
  0.8336346623367916  0.2428258963515617  0.2428258963515617
  0.9240452469135079  0.9240452469135079  0.3891557013938964
  0.3948273294352802  0.3948273294352802  0.3948273294352802
  0.0759547530864921  0.0759547530864921  0.6108442986061036
  0.6051726705647198  0.6051726705647198  0.6051726705647198
  0.7571741036484383  0.1663653376632084  0.7571741036484383
  0.1663653376632084  0.7571741036484383  0.7571741036484383
  0.0000000000000000  0.0000000000000000  0.0000000000000000
  0.7555983431943929  0.2444016568056071  0.0000000000000000
  0.2444016568056071  0.7555983431943929  0.0000000000000000
  0.6090932220815333  0.6090932220815333  0.2598143033690050
  0.7555983431943929  0.0000000000000000  0.2444016568056071
  0.0000000000000000  0.7555983431943929  0.2444016568056071
  0.7401856966309950  0.3909067779184667  0.3909067779184667
  0.3909067779184667  0.7401856966309950  0.3909067779184667
  0.2444016568056071  0.0000000000000000  0.7555983431943929
  0.6090932220815333  0.2598143033690050  0.6090932220815333
  0.0000000000000000  0.2444016568056071  0.7555983431943929
  0.2598143033690050  0.6090932220815333  0.6090932220815333
  0.3909067779184667  0.3909067779184667  0.7401856966309950
 
  0.00000000E+00  0.00000000E+00  0.00000000E+00
  0.00000000E+00  0.00000000E+00  0.00000000E+00
  0.00000000E+00  0.00000000E+00  0.00000000E+00
  0.00000000E+00  0.00000000E+00  0.00000000E+00
  0.00000000E+00  0.00000000E+00  0.00000000E+00
  0.00000000E+00  0.00000000E+00  0.00000000E+00
  0.00000000E+00  0.00000000E+00  0.00000000E+00
  0.00000000E+00  0.00000000E+00  0.00000000E+00
  0.00000000E+00  0.00000000E+00  0.00000000E+00
  0.00000000E+00  0.00000000E+00  0.00000000E+00
  0.00000000E+00  0.00000000E+00  0.00000000E+00
  0.00000000E+00  0.00000000E+00  0.00000000E+00
  0.00000000E+00  0.00000000E+00  0.00000000E+00
  0.00000000E+00  0.00000000E+00  0.00000000E+00
  0.00000000E+00  0.00000000E+00  0.00000000E+00
  0.00000000E+00  0.00000000E+00  0.00000000E+00
  0.00000000E+00  0.00000000E+00  0.00000000E+00
  0.00000000E+00  0.00000000E+00  0.00000000E+00
  0.00000000E+00  0.00000000E+00  0.00000000E+00
  0.00000000E+00  0.00000000E+00  0.00000000E+00
  0.00000000E+00  0.00000000E+00  0.00000000E+00
  0.00000000E+00  0.00000000E+00  0.00000000E+00
  0.00000000E+00  0.00000000E+00  0.00000000E+00
  0.00000000E+00  0.00000000E+00  0.00000000E+00
  0.00000000E+00  0.00000000E+00  0.00000000E+00
  0.00000000E+00  0.00000000E+00  0.00000000E+00
  0.00000000E+00  0.00000000E+00  0.00000000E+00
