B4 Br2                                  
   1.00000000000000     
     5.3159482810390584    0.0000000000000000    0.0000000000000000
     0.0000000000000000    5.3159482810390584    0.0000000000000000
     0.0000000000000000    0.0000000000000000    3.6678944931003552
   B    Br
     4     2
Direct
  0.2979958155366162  0.2979958155366162  0.0000000000000000
  0.7020041844633838  0.7020041844633838  0.0000000000000000
  0.7979958155366162  0.2020041844633838  0.5000000000000000
  0.2020041844633838  0.7979958155366162  0.5000000000000000
  0.0000000000000000  0.0000000000000000  0.0000000000000000
  0.5000000000000000  0.5000000000000000  0.5000000000000000
 
  0.00000000E+00  0.00000000E+00  0.00000000E+00
  0.00000000E+00  0.00000000E+00  0.00000000E+00
  0.00000000E+00  0.00000000E+00  0.00000000E+00
  0.00000000E+00  0.00000000E+00  0.00000000E+00
  0.00000000E+00  0.00000000E+00  0.00000000E+00
  0.00000000E+00  0.00000000E+00  0.00000000E+00
