MgTlCl3                                 
   1.00000000000000     
     7.0824524389494341    0.0032060568536326    0.0000000000000000
    -3.5379571579363138    6.1368660384436575    0.0000000000000000
     0.0000000000000000    0.0000000000000000    6.2242456283524747
   Cl   Mg   Tl
     6     2     2
Direct
  0.1598422653750688  0.3205121444711381  0.2500000000000000
  0.1608912969270477  0.8393946282464242  0.2500000000000000
  0.6791951301681820  0.8401832539925280  0.2500000000000000
  0.3208048698318180  0.1598167460074720  0.7500000000000000
  0.8391087030729523  0.1606053717535758  0.7500000000000000
  0.8401577346249312  0.6794878555288619  0.7500000000000000
  0.0000000000000000  0.0000000000000000  0.0000000000000000
  0.0000000000000000  0.0000000000000000  0.5000000000000000
  0.6668797553951791  0.3305996550597712  0.2500000000000000
  0.3331202446048209  0.6694003449402288  0.7500000000000000
 
  0.00000000E+00  0.00000000E+00  0.00000000E+00
  0.00000000E+00  0.00000000E+00  0.00000000E+00
  0.00000000E+00  0.00000000E+00  0.00000000E+00
  0.00000000E+00  0.00000000E+00  0.00000000E+00
  0.00000000E+00  0.00000000E+00  0.00000000E+00
  0.00000000E+00  0.00000000E+00  0.00000000E+00
  0.00000000E+00  0.00000000E+00  0.00000000E+00
  0.00000000E+00  0.00000000E+00  0.00000000E+00
  0.00000000E+00  0.00000000E+00  0.00000000E+00
  0.00000000E+00  0.00000000E+00  0.00000000E+00
