B2Cl3                                   
   1.00000000000000     
    -6.9362026338977394   -0.4188097036115936   -1.3432858359757274
     3.0314884253089112   -6.2423774619683554    1.5038560093026052
    -2.2209817923746833    1.3237753652916335    5.5565818410082182
   B    Cl
     4     6
Direct
  0.9349441335183926  0.5170331874623173  0.1295199336603545
  0.0152187241982560  0.4296602777384209  0.3793556260097333
  0.9847812758017440  0.5703397222615862  0.6206443739902667
  0.0650558664816074  0.4829668125376827  0.8704800663396455
  0.2094217385590937  0.3307838245744605  0.3120224502958777
  0.8334941758678980  0.7085804014477688  0.1928140544802375
  0.7532855972707893  0.2515642423812992  0.2564124911722203
  0.2467144027292107  0.7484357576187008  0.7435875088277797
  0.1665058241321020  0.2914195985522312  0.8071859455197625
  0.7905782614409063  0.6692161754255395  0.6879775497041223
 
  0.00000000E+00  0.00000000E+00  0.00000000E+00
  0.00000000E+00  0.00000000E+00  0.00000000E+00
  0.00000000E+00  0.00000000E+00  0.00000000E+00
  0.00000000E+00  0.00000000E+00  0.00000000E+00
  0.00000000E+00  0.00000000E+00  0.00000000E+00
  0.00000000E+00  0.00000000E+00  0.00000000E+00
  0.00000000E+00  0.00000000E+00  0.00000000E+00
  0.00000000E+00  0.00000000E+00  0.00000000E+00
  0.00000000E+00  0.00000000E+00  0.00000000E+00
  0.00000000E+00  0.00000000E+00  0.00000000E+00
