Sr4 B4 F20                              
   1.0000000000000000     
     8.0502715374370890    0.0000000000000000    0.0000000000000000
     0.0000000000000000    4.9188831252360341   -0.7114182102893244
     0.0000000000000000    1.2286044574571262    8.0709628374957294
   Sr   B    F 
     4     4    20
Direct
  0.1074722680105467  0.4992043113182945  0.2827800333990282
  0.6074722680105467  0.5007956886817055  0.2172199666009718
  0.8925277319894533  0.5007956886817055  0.7172199666009718
  0.3925277319894533  0.4992043113182945  0.7827800333990282
  0.6987149690685115  0.0030209935777137  0.5536771144481918
  0.1987149690685115  0.9969790064222863  0.9463228855518082
  0.3012850309314885  0.9969790064222863  0.4463228855518011
  0.8012850309314885  0.0030209935777137  0.0536771144481918
  0.6253781511999321  0.2329037522980499  0.6261095500671914
  0.1253781511999321  0.7670962477019501  0.8738904499328086
  0.3746218488000679  0.7670962477019501  0.3738904499328015
  0.8746218488000679  0.2329037522980499  0.1261095500671985
  0.6724648713538812  0.0063036149236240  0.3862340351828450
  0.1724648713538812  0.9936963850763760  0.1137659648171550
  0.3275351286461188  0.9936963850763760  0.6137659648171550
  0.8275351286461188  0.0063036149236240  0.8862340351828450
  0.3695734665520476  0.9965917953776824  0.9104298112349980
  0.8695734665520405  0.0034082046223176  0.5895701887650020
  0.6304265334479595  0.0034082046223176  0.0895701887650020
  0.1304265334479524  0.9965917953776824  0.4104298112349980
  0.6267155301737546  0.7695637842798035  0.6247026551494699
  0.1267155301737546  0.2304362157201894  0.8752973448505301
  0.3732844698262454  0.2304362157201894  0.3752973448505301
  0.8732844698262454  0.7695637842798035  0.1247026551494699
  0.3419739910255473  0.4961266317043851  0.0805365524529194
  0.8419739910255544  0.5038733682956149  0.4194634475470878
  0.6580260089744456  0.5038733682956149  0.9194634475470806
  0.1580260089744527  0.4961266317043851  0.5805365524529194

  0.00000000E+00  0.00000000E+00  0.00000000E+00
  0.00000000E+00  0.00000000E+00  0.00000000E+00
  0.00000000E+00  0.00000000E+00  0.00000000E+00
  0.00000000E+00  0.00000000E+00  0.00000000E+00
  0.00000000E+00  0.00000000E+00  0.00000000E+00
  0.00000000E+00  0.00000000E+00  0.00000000E+00
  0.00000000E+00  0.00000000E+00  0.00000000E+00
  0.00000000E+00  0.00000000E+00  0.00000000E+00
  0.00000000E+00  0.00000000E+00  0.00000000E+00
  0.00000000E+00  0.00000000E+00  0.00000000E+00
  0.00000000E+00  0.00000000E+00  0.00000000E+00
  0.00000000E+00  0.00000000E+00  0.00000000E+00
  0.00000000E+00  0.00000000E+00  0.00000000E+00
  0.00000000E+00  0.00000000E+00  0.00000000E+00
  0.00000000E+00  0.00000000E+00  0.00000000E+00
  0.00000000E+00  0.00000000E+00  0.00000000E+00
  0.00000000E+00  0.00000000E+00  0.00000000E+00
  0.00000000E+00  0.00000000E+00  0.00000000E+00
  0.00000000E+00  0.00000000E+00  0.00000000E+00
  0.00000000E+00  0.00000000E+00  0.00000000E+00
  0.00000000E+00  0.00000000E+00  0.00000000E+00
  0.00000000E+00  0.00000000E+00  0.00000000E+00
  0.00000000E+00  0.00000000E+00  0.00000000E+00
  0.00000000E+00  0.00000000E+00  0.00000000E+00
  0.00000000E+00  0.00000000E+00  0.00000000E+00
  0.00000000E+00  0.00000000E+00  0.00000000E+00
  0.00000000E+00  0.00000000E+00  0.00000000E+00
  0.00000000E+00  0.00000000E+00  0.00000000E+00
