Sr4 F16                                 
   1.00000000000000     
     0.0000000000000000   -4.2923946430426678    0.0000000000000000
    -9.4252969243362585    0.0000000000000000    0.0000000000000000
     0.0000000000000000    0.0000000000000000   -6.2852859353380408
   Sr   F 
     4    16
Direct
  0.7500000000000000  0.8532433579187710  0.8272032310009720
  0.2500000000000000  0.1467566420812290  0.1727967689990280
  0.2500000000000000  0.6467566420812290  0.3272032310009720
  0.7500000000000000  0.3532433579187710  0.6727967689990280
  0.0756603966028990  0.5894073066393517  0.8542916954022459
  0.9243396033971010  0.4105926933606483  0.1457083045977541
  0.9243396033971010  0.9105926933606483  0.3542916954022459
  0.5756603966028990  0.4105926933606483  0.1457083045977541
  0.0756603966028990  0.0894073066393517  0.6457083045977541
  0.4243396033971010  0.5894073066393517  0.8542916954022459
  0.4243396033971010  0.0894073066393517  0.6457083045977541
  0.5756603966028990  0.9105926933606483  0.3542916954022459
  0.7500000000000000  0.1903777910060995  0.3778432162345737
  0.2500000000000000  0.8096222089939005  0.6221567837654263
  0.2500000000000000  0.3096222089939005  0.8778432162345737
  0.7500000000000000  0.6903777910060995  0.1221567837654263
  0.7500000000000000  0.1044052494079750  0.9672318457540001
  0.2500000000000000  0.8955947505920250  0.0327681542459999
  0.2500000000000000  0.3955947505920250  0.4672318457540001
  0.7500000000000000  0.6044052494079750  0.5327681542459999
 
  0.00000000E+00  0.00000000E+00  0.00000000E+00
  0.00000000E+00  0.00000000E+00  0.00000000E+00
  0.00000000E+00  0.00000000E+00  0.00000000E+00
  0.00000000E+00  0.00000000E+00  0.00000000E+00
  0.00000000E+00  0.00000000E+00  0.00000000E+00
  0.00000000E+00  0.00000000E+00  0.00000000E+00
  0.00000000E+00  0.00000000E+00  0.00000000E+00
  0.00000000E+00  0.00000000E+00  0.00000000E+00
  0.00000000E+00  0.00000000E+00  0.00000000E+00
  0.00000000E+00  0.00000000E+00  0.00000000E+00
  0.00000000E+00  0.00000000E+00  0.00000000E+00
  0.00000000E+00  0.00000000E+00  0.00000000E+00
  0.00000000E+00  0.00000000E+00  0.00000000E+00
  0.00000000E+00  0.00000000E+00  0.00000000E+00
  0.00000000E+00  0.00000000E+00  0.00000000E+00
  0.00000000E+00  0.00000000E+00  0.00000000E+00
  0.00000000E+00  0.00000000E+00  0.00000000E+00
  0.00000000E+00  0.00000000E+00  0.00000000E+00
  0.00000000E+00  0.00000000E+00  0.00000000E+00
  0.00000000E+00  0.00000000E+00  0.00000000E+00
