CaF                                     
   1.00000000000000     
     0.0000000000000000    2.7674293410338739    2.7674293410338739
     2.7674293410338739    0.0000000000000000    2.7674293410338739
     2.7674293410338739    2.7674293410338739    0.0000000000000000
   Ca   F 
     1     1
Direct
  0.0000000000000000  0.0000000000000000  0.0000000000000000
  0.2500000000000000  0.2500000000000000  0.2500000000000000
 
  0.00000000E+00  0.00000000E+00  0.00000000E+00
  0.00000000E+00  0.00000000E+00  0.00000000E+00
