Ba2 B4 I16                              
   1.00000000000000     
     9.1850454825291070   -0.2729617729554932    0.6341105369548687
    -2.0918491094744156    8.9455670348114751    0.6235174212224222
    -2.1915955790747805   -2.6655874451522954   11.2240289029264009
   B    I    Ba
     4    16     2
Direct
  0.8829080944287000  0.1007257808771982  0.2079059041170837
  0.3993222995627050  0.6170415851167590  0.2922882940956839
  0.6007039949031139  0.3830249162464625  0.7076805669005992
  0.1171476593558225  0.8993694963853187  0.7921148728583773
  0.6647539527672137  0.9587604282088478  0.0921107932116243
  0.0424652948119757  0.2211049995056982  0.0968229380764001
  0.5487095100904611  0.5024641822476354  0.1964283723467872
  0.2399026089021632  0.6903056109816887  0.1651045280877597
  0.8099577630037089  0.2603041574938985  0.3350913968626159
  0.9974058132042387  0.9510971528372636  0.3036927361436952
  0.5413775381845909  0.8352726181568784  0.4080316948737561
  0.2789492725182399  0.4574857709776694  0.4033582192957326
  0.7210569646826102  0.5425964695690766  0.5965927612537030
  0.4587255505798495  0.1647925985304610  0.5919669198341708
  0.0026150487269234  0.0490147230826992  0.6963473112680632
  0.1900598277126306  0.7397675966381101  0.6648948900624774
  0.7601471352935718  0.3097591074608559  0.8348497565391995
  0.4513033392297530  0.4975445562900020  0.8035977521104627
  0.9575217722866540  0.7789316186243269  0.9031678747162317
  0.3352573530224419  0.0413166814389285  0.9079385011956589
  0.3824573118135746  0.1173344404096781  0.2500810757843652
  0.6175518949190533  0.8826855089205594  0.7499328403656023
 
  0.00000000E+00  0.00000000E+00  0.00000000E+00
  0.00000000E+00  0.00000000E+00  0.00000000E+00
  0.00000000E+00  0.00000000E+00  0.00000000E+00
  0.00000000E+00  0.00000000E+00  0.00000000E+00
  0.00000000E+00  0.00000000E+00  0.00000000E+00
  0.00000000E+00  0.00000000E+00  0.00000000E+00
  0.00000000E+00  0.00000000E+00  0.00000000E+00
  0.00000000E+00  0.00000000E+00  0.00000000E+00
  0.00000000E+00  0.00000000E+00  0.00000000E+00
  0.00000000E+00  0.00000000E+00  0.00000000E+00
  0.00000000E+00  0.00000000E+00  0.00000000E+00
  0.00000000E+00  0.00000000E+00  0.00000000E+00
  0.00000000E+00  0.00000000E+00  0.00000000E+00
  0.00000000E+00  0.00000000E+00  0.00000000E+00
  0.00000000E+00  0.00000000E+00  0.00000000E+00
  0.00000000E+00  0.00000000E+00  0.00000000E+00
  0.00000000E+00  0.00000000E+00  0.00000000E+00
  0.00000000E+00  0.00000000E+00  0.00000000E+00
  0.00000000E+00  0.00000000E+00  0.00000000E+00
  0.00000000E+00  0.00000000E+00  0.00000000E+00
  0.00000000E+00  0.00000000E+00  0.00000000E+00
  0.00000000E+00  0.00000000E+00  0.00000000E+00
