Ca20 B4                                 
   1.00000000000000     
     7.2863034463417833   -0.0003835590797126    0.0000072124247869
    -0.0007810400651781   16.3106571964139597    0.0023162981952568
     0.0000270918483060    0.0009468260177323    6.6688721946132752
   B    Ca
     4    20
Direct
  0.7503910108715885  0.2500571442226800  0.0444106062589924
  0.2503993098113710  0.2498845824864446  0.4556046979843771
  0.7496554669129409  0.7501672563746311  0.5444037374580688
  0.2496252011720088  0.7500781173679201  0.9556248423149469
  0.5847865563766419  0.7500323535497770  0.1670963438304369
  0.3035933063323810  0.5596952192744737  0.1519605655199001
  0.3035808413170784  0.9403530724967197  0.1519253262079943
  0.0362402747999084  0.1512021249023690  0.1892915285816557
  0.0363036596231368  0.3488113036435081  0.1893785995040744
  0.5363194193779464  0.1511871399135529  0.3106431474964069
  0.5362167722861955  0.3487938097618084  0.3107228544219680
  0.8035877826488544  0.5596464357160542  0.3480729503887261
  0.8035849901892078  0.9403040430553347  0.3480981224877340
  0.0847907096672884  0.7500151860231128  0.3329414883387685
  0.9152322106308617  0.2500458435289588  0.6670864845454503
  0.1964045549882059  0.0597567426789922  0.6518802500716134
  0.1964195088743068  0.4404273839187951  0.6519996104658787
  0.4637957740053764  0.6512771578565761  0.6893381157667022
  0.4637126465503414  0.8488741229625560  0.6893486505681352
  0.9637389535831531  0.6512650105858810  0.8106784858659069
  0.9637602186935794  0.8488633006779125  0.8106938547188918
  0.6964014927517823  0.0596857980866119  0.8480454255025975
  0.6964292714012430  0.4403502597170927  0.8481262582852622
  0.4152300671346083  0.2500265911982353  0.8329280534155004
 
  0.00000000E+00  0.00000000E+00  0.00000000E+00
  0.00000000E+00  0.00000000E+00  0.00000000E+00
  0.00000000E+00  0.00000000E+00  0.00000000E+00
  0.00000000E+00  0.00000000E+00  0.00000000E+00
  0.00000000E+00  0.00000000E+00  0.00000000E+00
  0.00000000E+00  0.00000000E+00  0.00000000E+00
  0.00000000E+00  0.00000000E+00  0.00000000E+00
  0.00000000E+00  0.00000000E+00  0.00000000E+00
  0.00000000E+00  0.00000000E+00  0.00000000E+00
  0.00000000E+00  0.00000000E+00  0.00000000E+00
  0.00000000E+00  0.00000000E+00  0.00000000E+00
  0.00000000E+00  0.00000000E+00  0.00000000E+00
  0.00000000E+00  0.00000000E+00  0.00000000E+00
  0.00000000E+00  0.00000000E+00  0.00000000E+00
  0.00000000E+00  0.00000000E+00  0.00000000E+00
  0.00000000E+00  0.00000000E+00  0.00000000E+00
  0.00000000E+00  0.00000000E+00  0.00000000E+00
  0.00000000E+00  0.00000000E+00  0.00000000E+00
  0.00000000E+00  0.00000000E+00  0.00000000E+00
  0.00000000E+00  0.00000000E+00  0.00000000E+00
  0.00000000E+00  0.00000000E+00  0.00000000E+00
  0.00000000E+00  0.00000000E+00  0.00000000E+00
  0.00000000E+00  0.00000000E+00  0.00000000E+00
  0.00000000E+00  0.00000000E+00  0.00000000E+00
