Ca8 B4 F28                              
   1.00000000000000     
     6.3185702915548090    0.0001426411328125    0.0579977870889201
    -0.0002348969707480   10.8699804806319857   -0.0001753084229315
     0.2107140862119475    0.0001332353733962    6.9679119662192646
   F    B    Ca
    28     4     8
Direct
  0.2062117899643567  0.8668479325021821  0.0242339097206994
  0.2159785629172362  0.6425624650543114  0.1941844632287371
  0.8255432345807350  0.5628645518094899  0.0598437770998999
  0.4992864287256751  0.0711663688360034  0.1522422393601062
  0.1490184036641224  0.2323597124998216  0.1461296849077485
  0.5543522131968643  0.3278020760740503  0.1491131261682028
  0.8070710571443556  0.9539975028525802  0.1507716220227309
  0.1929631534798588  0.4539976791911471  0.3492280948478026
  0.4456837445446027  0.8278021703150245  0.3508876953092539
  0.8510180106742524  0.7323586486130580  0.3538722228165838
  0.5007496657286978  0.5711652871488866  0.3477546919086620
  0.1744934874708477  0.0628639465517438  0.4401552754885714
  0.7840549976313440  0.1425608603221917  0.3058141202508011
  0.7938240991771011  0.3668485479543335  0.4757683304218574
  0.2061001235636795  0.6332250257521892  0.5242116472705121
  0.2159541846404025  0.8574752175537910  0.6942024332058239
  0.8255460864310180  0.9370775545824443  0.5597970854497447
  0.4992333347206781  0.4288992976466020  0.6523484819978620
  0.1490061771619366  0.2676265127897892  0.6460653283970501
  0.5544512586857806  0.1722586269182358  0.6491199645571015
  0.8070209095937813  0.5460474857894013  0.6507921500188871
  0.1930132225313841  0.0460486969256664  0.8492066276360646
  0.4455863899654631  0.6722569202678343  0.8508820478211589
  0.8510300798042962  0.7676268060286091  0.8539349435852088
  0.5008051259213815  0.9288986776645700  0.8476512622013317
  0.1744898792008627  0.4370777050869776  0.9402029450377469
  0.7840798296050693  0.3574773119355683  0.8057950382175036
  0.7939383380743692  0.1332247581658947  0.9757886566684633
  0.7214128948122038  0.0726288256829406  0.1460669853639018
  0.2786229543380330  0.5726290671508352  0.3539326375473308
  0.7213505905844571  0.4273978073419187  0.6460876551913586
  0.2786848902321779  0.9273971700577945  0.8539129936597405
  0.6292633840784276  0.7308040762436221  0.1072867781393185
  0.8975873702572201  0.3754363326748162  0.1414223377108286
  0.1024479013214830  0.8754355838250731  0.3585786449882420
  0.3707731873892826  0.2308033655396144  0.3927141026142422
  0.6293036593259487  0.7691109574618267  0.6072756631503182
  0.8976431888184990  0.1244632911412680  0.6414234931359033
  0.1023938130027489  0.6244635447621079  0.8585755067187648
  0.3707323770394311  0.2691116312858028  0.8927253361639700
 
  0.00000000E+00  0.00000000E+00  0.00000000E+00
  0.00000000E+00  0.00000000E+00  0.00000000E+00
  0.00000000E+00  0.00000000E+00  0.00000000E+00
  0.00000000E+00  0.00000000E+00  0.00000000E+00
  0.00000000E+00  0.00000000E+00  0.00000000E+00
  0.00000000E+00  0.00000000E+00  0.00000000E+00
  0.00000000E+00  0.00000000E+00  0.00000000E+00
  0.00000000E+00  0.00000000E+00  0.00000000E+00
  0.00000000E+00  0.00000000E+00  0.00000000E+00
  0.00000000E+00  0.00000000E+00  0.00000000E+00
  0.00000000E+00  0.00000000E+00  0.00000000E+00
  0.00000000E+00  0.00000000E+00  0.00000000E+00
  0.00000000E+00  0.00000000E+00  0.00000000E+00
  0.00000000E+00  0.00000000E+00  0.00000000E+00
  0.00000000E+00  0.00000000E+00  0.00000000E+00
  0.00000000E+00  0.00000000E+00  0.00000000E+00
  0.00000000E+00  0.00000000E+00  0.00000000E+00
  0.00000000E+00  0.00000000E+00  0.00000000E+00
  0.00000000E+00  0.00000000E+00  0.00000000E+00
  0.00000000E+00  0.00000000E+00  0.00000000E+00
  0.00000000E+00  0.00000000E+00  0.00000000E+00
  0.00000000E+00  0.00000000E+00  0.00000000E+00
  0.00000000E+00  0.00000000E+00  0.00000000E+00
  0.00000000E+00  0.00000000E+00  0.00000000E+00
  0.00000000E+00  0.00000000E+00  0.00000000E+00
  0.00000000E+00  0.00000000E+00  0.00000000E+00
  0.00000000E+00  0.00000000E+00  0.00000000E+00
  0.00000000E+00  0.00000000E+00  0.00000000E+00
  0.00000000E+00  0.00000000E+00  0.00000000E+00
  0.00000000E+00  0.00000000E+00  0.00000000E+00
  0.00000000E+00  0.00000000E+00  0.00000000E+00
  0.00000000E+00  0.00000000E+00  0.00000000E+00
  0.00000000E+00  0.00000000E+00  0.00000000E+00
  0.00000000E+00  0.00000000E+00  0.00000000E+00
  0.00000000E+00  0.00000000E+00  0.00000000E+00
  0.00000000E+00  0.00000000E+00  0.00000000E+00
  0.00000000E+00  0.00000000E+00  0.00000000E+00
  0.00000000E+00  0.00000000E+00  0.00000000E+00
  0.00000000E+00  0.00000000E+00  0.00000000E+00
  0.00000000E+00  0.00000000E+00  0.00000000E+00
