Sr10 Ga4 Br32                           
   1.00000000000000     
     4.9849167582922655   -8.1492697231517806    0.0000000000000000
     4.9849167582922655    8.1492697231517806    0.0000000000000000
     0.0000000000000000    0.0000000000000000   18.3910350695115916
   Sr   Ga   Br
    10     4    32
Direct
  0.0000000000000000  0.0000000000000000  0.7178469597359225
  0.0000000000000000  0.0000000000000000  0.2821530402640775
  0.5000000000000000  0.5000000000000000  0.7821530402640775
  0.5000000000000000  0.5000000000000000  0.2178469597359225
  0.5000000000000000  0.5000000000000000  0.5000000000000000
  0.0000000000000000  0.0000000000000000  0.0000000000000000
  0.0000000000000000  0.5000000000000000  0.6383835124969650
  0.5000000000000000  0.0000000000000000  0.3616164875030350
  0.5000000000000000  0.0000000000000000  0.8616164875030350
  0.0000000000000000  0.5000000000000000  0.1383835124969650
  0.5000000000000000  0.0000000000000000  0.6153062906470694
  0.0000000000000000  0.5000000000000000  0.3846937093529306
  0.0000000000000000  0.5000000000000000  0.8846937093529306
  0.5000000000000000  0.0000000000000000  0.1153062906470694
  0.5393956211474418  0.1964434426733206  0.7133112226698941
  0.4606043788525582  0.8035565573266794  0.7133112226698941
  0.1964434426733206  0.5393956211474418  0.2866887773301059
  0.8035565573266794  0.4606043788525582  0.2866887773301059
  0.9606043788525582  0.3035565573266794  0.7866887773301059
  0.0393956211474418  0.6964434426733206  0.7866887773301059
  0.3035565573266794  0.9606043788525582  0.2133112226698941
  0.6964434426733206  0.0393956211474418  0.2133112226698941
  0.1792734075451392  0.8728630450648822  0.6125273328698526
  0.8207265924548608  0.1271369549351178  0.6125273328698526
  0.8728630450648822  0.1792734075451392  0.3874726671301474
  0.1271369549351178  0.8207265924548608  0.3874726671301474
  0.3207265924548608  0.6271369549351178  0.8874726671301474
  0.6792734075451392  0.3728630450648822  0.8874726671301474
  0.6667549096386480  0.9801298362144237  0.0135042968606456
  0.3332450903613520  0.0198701637855763  0.0135042968606456
  0.9801298362144237  0.6667549096386480  0.9864957031393544
  0.0198701637855763  0.3332450903613520  0.9864957031393544
  0.8332450903613520  0.5198701637855763  0.4864957031393544
  0.1667549096386480  0.4801298362144237  0.4864957031393544
  0.5198701637855763  0.8332450903613520  0.5135042968606456
  0.4801298362144237  0.1667549096386480  0.5135042968606456
  0.8649025816879359  0.7667571485934772  0.1504508334733714
  0.1350974183120641  0.2332428514065228  0.1504508334733714
  0.7667571485934772  0.8649025816879359  0.8495491665266286
  0.2332428514065228  0.1350974183120641  0.8495491665266286
  0.6350974183120641  0.7332428514065228  0.3495491665266286
  0.3649025816879359  0.2667571485934772  0.3495491665266286
  0.7332428514065228  0.6350974183120641  0.6504508334733714
  0.2667571485934772  0.3649025816879359  0.6504508334733714
  0.3728630450648822  0.6792734075451392  0.1125273328698526
  0.6271369549351178  0.3207265924548608  0.1125273328698526
 
  0.00000000E+00  0.00000000E+00  0.00000000E+00
  0.00000000E+00  0.00000000E+00  0.00000000E+00
  0.00000000E+00  0.00000000E+00  0.00000000E+00
  0.00000000E+00  0.00000000E+00  0.00000000E+00
  0.00000000E+00  0.00000000E+00  0.00000000E+00
  0.00000000E+00  0.00000000E+00  0.00000000E+00
  0.00000000E+00  0.00000000E+00  0.00000000E+00
  0.00000000E+00  0.00000000E+00  0.00000000E+00
  0.00000000E+00  0.00000000E+00  0.00000000E+00
  0.00000000E+00  0.00000000E+00  0.00000000E+00
  0.00000000E+00  0.00000000E+00  0.00000000E+00
  0.00000000E+00  0.00000000E+00  0.00000000E+00
  0.00000000E+00  0.00000000E+00  0.00000000E+00
  0.00000000E+00  0.00000000E+00  0.00000000E+00
  0.00000000E+00  0.00000000E+00  0.00000000E+00
  0.00000000E+00  0.00000000E+00  0.00000000E+00
  0.00000000E+00  0.00000000E+00  0.00000000E+00
  0.00000000E+00  0.00000000E+00  0.00000000E+00
  0.00000000E+00  0.00000000E+00  0.00000000E+00
  0.00000000E+00  0.00000000E+00  0.00000000E+00
  0.00000000E+00  0.00000000E+00  0.00000000E+00
  0.00000000E+00  0.00000000E+00  0.00000000E+00
  0.00000000E+00  0.00000000E+00  0.00000000E+00
  0.00000000E+00  0.00000000E+00  0.00000000E+00
  0.00000000E+00  0.00000000E+00  0.00000000E+00
  0.00000000E+00  0.00000000E+00  0.00000000E+00
  0.00000000E+00  0.00000000E+00  0.00000000E+00
  0.00000000E+00  0.00000000E+00  0.00000000E+00
  0.00000000E+00  0.00000000E+00  0.00000000E+00
  0.00000000E+00  0.00000000E+00  0.00000000E+00
  0.00000000E+00  0.00000000E+00  0.00000000E+00
  0.00000000E+00  0.00000000E+00  0.00000000E+00
  0.00000000E+00  0.00000000E+00  0.00000000E+00
  0.00000000E+00  0.00000000E+00  0.00000000E+00
  0.00000000E+00  0.00000000E+00  0.00000000E+00
  0.00000000E+00  0.00000000E+00  0.00000000E+00
  0.00000000E+00  0.00000000E+00  0.00000000E+00
  0.00000000E+00  0.00000000E+00  0.00000000E+00
  0.00000000E+00  0.00000000E+00  0.00000000E+00
  0.00000000E+00  0.00000000E+00  0.00000000E+00
  0.00000000E+00  0.00000000E+00  0.00000000E+00
  0.00000000E+00  0.00000000E+00  0.00000000E+00
  0.00000000E+00  0.00000000E+00  0.00000000E+00
  0.00000000E+00  0.00000000E+00  0.00000000E+00
  0.00000000E+00  0.00000000E+00  0.00000000E+00
  0.00000000E+00  0.00000000E+00  0.00000000E+00
