Ca4 Ga4 Cl20                            
   1.0000000000000000     
     0.0000000000000000    8.2857708123108900    0.0212721610897866
    12.1074285720261496    0.0000000000000000    0.0000000000000000
     0.0000000000000000   -0.0317375207395838  -11.1156382715426822
   Ca   Ga   Cl
     4     4    20
Direct
  0.1977192516348367  0.3858549938742257  0.5142292248120981
  0.8022807483651704  0.8858549938742399  0.4857707751879090
  0.2610150832807463  0.9827604533669287  0.3103379387601137
  0.7389849167192537  0.4827604533669287  0.6896620612398650
  0.6243295998337572  0.7421100002405439  0.8545337512733084
  0.3756704001662357  0.2421100002405367  0.1454662487266845
  0.0654866163302970  0.6959067505797307  0.3220375788102672
  0.9345133836697102  0.1959067505797307  0.6779624211897257
  0.5022637580253857  0.9500873338992335  0.4596519365910936
  0.1290073707480275  0.5194663281910437  0.3099589681497434
  0.8709926292519725  0.0194663281910437  0.6900410318502566
  0.8213954419792771  0.8164203329659259  0.9513144225353969
  0.6064476226407507  0.5606502651020406  0.8990588339514574
  0.9514212850123656  0.0210509449882110  0.3389976237478152
  0.7988856308132739  0.2846494377605424  0.8187567120891046
  0.8003021256558682  0.7148980100628108  0.3097355231991727
  0.3935523773592422  0.0606502651020406  0.1009411660485426
  0.1278942416311892  0.7830990611962676  0.4927849556450568
  0.0485787149876344  0.5210509449882110  0.6610023762521848
  0.4977362419746143  0.4500873338992406  0.5403480634089064
  0.7051199475914345  0.7188743103094097  0.6541123787041556
  0.6067991399124182  0.3217707574631561  0.1467164234350236
  0.8721057583688108  0.2830990611962605  0.5072150443549504
  0.2011143691867261  0.7846494377605424  0.1812432879108883
  0.1786045580207158  0.3164203329659330  0.0486855774645960
  0.3932008600875889  0.8217707574631561  0.8532835765649764
  0.1996978743441247  0.2148980100628108  0.6902644768008273
  0.2948800524085655  0.2188743103094168  0.3458876212958444

  0.00000000E+00  0.00000000E+00  0.00000000E+00
  0.00000000E+00  0.00000000E+00  0.00000000E+00
  0.00000000E+00  0.00000000E+00  0.00000000E+00
  0.00000000E+00  0.00000000E+00  0.00000000E+00
  0.00000000E+00  0.00000000E+00  0.00000000E+00
  0.00000000E+00  0.00000000E+00  0.00000000E+00
  0.00000000E+00  0.00000000E+00  0.00000000E+00
  0.00000000E+00  0.00000000E+00  0.00000000E+00
  0.00000000E+00  0.00000000E+00  0.00000000E+00
  0.00000000E+00  0.00000000E+00  0.00000000E+00
  0.00000000E+00  0.00000000E+00  0.00000000E+00
  0.00000000E+00  0.00000000E+00  0.00000000E+00
  0.00000000E+00  0.00000000E+00  0.00000000E+00
  0.00000000E+00  0.00000000E+00  0.00000000E+00
  0.00000000E+00  0.00000000E+00  0.00000000E+00
  0.00000000E+00  0.00000000E+00  0.00000000E+00
  0.00000000E+00  0.00000000E+00  0.00000000E+00
  0.00000000E+00  0.00000000E+00  0.00000000E+00
  0.00000000E+00  0.00000000E+00  0.00000000E+00
  0.00000000E+00  0.00000000E+00  0.00000000E+00
  0.00000000E+00  0.00000000E+00  0.00000000E+00
  0.00000000E+00  0.00000000E+00  0.00000000E+00
  0.00000000E+00  0.00000000E+00  0.00000000E+00
  0.00000000E+00  0.00000000E+00  0.00000000E+00
  0.00000000E+00  0.00000000E+00  0.00000000E+00
  0.00000000E+00  0.00000000E+00  0.00000000E+00
  0.00000000E+00  0.00000000E+00  0.00000000E+00
  0.00000000E+00  0.00000000E+00  0.00000000E+00
