Be2Tl                                   
   1.0000000000000000     
     0.0000000000000000    2.8957972909324590    2.8957972909324590
     2.8957972909324590    0.0000000000000000    2.8957972909324590
     2.8957972909324590    2.8957972909324590    0.0000000000000000
   Be   Tl
     2     1
Direct
  0.2500000000000000  0.2500000000000000  0.2500000000000000
  0.7500000000000000  0.7500000000000000  0.7500000000000000
  0.0000000000000000  0.0000000000000000  0.0000000000000000

  0.00000000E+00  0.00000000E+00  0.00000000E+00
  0.00000000E+00  0.00000000E+00  0.00000000E+00
  0.00000000E+00  0.00000000E+00  0.00000000E+00
