Sr10 Tl4 F32                            
   1.0000000000000000     
     3.7561999986542229   -6.4630902182329049    0.0000000000000000
     3.7561999986542229    6.4630902182329049    0.0000000000000000
     0.0000000000000000    0.0000000000000000   14.8124701268820083
   Sr   Tl   F 
    10     4    32
Direct
  0.0000000000000000  0.0000000000000000  0.7155596365968080
  0.0000000000000000  0.0000000000000000  0.2844403634031920
  0.5000000000000000  0.5000000000000000  0.7844403634031920
  0.5000000000000000  0.5000000000000000  0.2155596365968080
  0.5000000000000000  0.5000000000000000  0.5000000000000000
  0.0000000000000000  0.0000000000000000  0.0000000000000000
  0.0000000000000000  0.5000000000000000  0.6499061247745317
  0.5000000000000000  0.0000000000000000  0.3500938752254754
  0.5000000000000000  0.0000000000000000  0.8500938752254683
  0.0000000000000000  0.5000000000000000  0.1499061247745246
  0.5000000000000000  0.0000000000000000  0.6027271551094202
  0.0000000000000000  0.5000000000000000  0.3972728448905727
  0.0000000000000000  0.5000000000000000  0.8972728448905798
  0.5000000000000000  0.0000000000000000  0.1027271551094202
  0.5678666725855663  0.2246648771809276  0.7109012332341109
  0.4321333274144408  0.7753351228190724  0.7109012332341109
  0.2246648771809276  0.5678666725855663  0.2890987667658891
  0.7753351228190724  0.4321333274144408  0.2890987667658891
  0.9321333274144337  0.2753351228190724  0.7890987667658891
  0.0678666725855663  0.7246648771809276  0.7890987667658891
  0.2753351228190724  0.9321333274144337  0.2109012332341109
  0.7246648771809276  0.0678666725855663  0.2109012332341109
  0.1692357650702263  0.8722735636643151  0.6104168204744695
  0.8307642349297737  0.1277264363356920  0.6104168204744695
  0.8722735636643151  0.1692357650702263  0.3895831795255305
  0.1277264363356920  0.8307642349297737  0.3895831795255305
  0.3307642349297737  0.6277264363356849  0.8895831795255305
  0.6692357650702263  0.3722735636643080  0.8895831795255305
  0.6709778398443120  0.9800639767295110  0.9903747415173214
  0.3290221601556880  0.0199360232704890  0.9903747415173214
  0.9800639767295110  0.6709778398443120  0.0096252584826857
  0.0199360232704890  0.3290221601556880  0.0096252584826857
  0.8290221601556880  0.5199360232704890  0.5096252584826786
  0.1709778398443120  0.4800639767295110  0.5096252584826786
  0.5199360232704890  0.8290221601556880  0.4903747415173214
  0.4800639767295110  0.1709778398443120  0.4903747415173214
  0.8526207455603299  0.7612976574580372  0.1581990765260954
  0.1473792544396630  0.2387023425419699  0.1581990765260954
  0.7612976574580372  0.8526207455603299  0.8418009234739046
  0.2387023425419699  0.1473792544396630  0.8418009234739046
  0.6473792544396701  0.7387023425419628  0.3418009234739046
  0.3526207455603370  0.2612976574580301  0.3418009234739046
  0.7387023425419628  0.6473792544396701  0.6581990765260954
  0.2612976574580301  0.3526207455603370  0.6581990765260954
  0.3722735636643080  0.6692357650702263  0.1104168204744695
  0.6277264363356849  0.3307642349297737  0.1104168204744695

  0.00000000E+00  0.00000000E+00  0.00000000E+00
  0.00000000E+00  0.00000000E+00  0.00000000E+00
  0.00000000E+00  0.00000000E+00  0.00000000E+00
  0.00000000E+00  0.00000000E+00  0.00000000E+00
  0.00000000E+00  0.00000000E+00  0.00000000E+00
  0.00000000E+00  0.00000000E+00  0.00000000E+00
  0.00000000E+00  0.00000000E+00  0.00000000E+00
  0.00000000E+00  0.00000000E+00  0.00000000E+00
  0.00000000E+00  0.00000000E+00  0.00000000E+00
  0.00000000E+00  0.00000000E+00  0.00000000E+00
  0.00000000E+00  0.00000000E+00  0.00000000E+00
  0.00000000E+00  0.00000000E+00  0.00000000E+00
  0.00000000E+00  0.00000000E+00  0.00000000E+00
  0.00000000E+00  0.00000000E+00  0.00000000E+00
  0.00000000E+00  0.00000000E+00  0.00000000E+00
  0.00000000E+00  0.00000000E+00  0.00000000E+00
  0.00000000E+00  0.00000000E+00  0.00000000E+00
  0.00000000E+00  0.00000000E+00  0.00000000E+00
  0.00000000E+00  0.00000000E+00  0.00000000E+00
  0.00000000E+00  0.00000000E+00  0.00000000E+00
  0.00000000E+00  0.00000000E+00  0.00000000E+00
  0.00000000E+00  0.00000000E+00  0.00000000E+00
  0.00000000E+00  0.00000000E+00  0.00000000E+00
  0.00000000E+00  0.00000000E+00  0.00000000E+00
  0.00000000E+00  0.00000000E+00  0.00000000E+00
  0.00000000E+00  0.00000000E+00  0.00000000E+00
  0.00000000E+00  0.00000000E+00  0.00000000E+00
  0.00000000E+00  0.00000000E+00  0.00000000E+00
  0.00000000E+00  0.00000000E+00  0.00000000E+00
  0.00000000E+00  0.00000000E+00  0.00000000E+00
  0.00000000E+00  0.00000000E+00  0.00000000E+00
  0.00000000E+00  0.00000000E+00  0.00000000E+00
  0.00000000E+00  0.00000000E+00  0.00000000E+00
  0.00000000E+00  0.00000000E+00  0.00000000E+00
  0.00000000E+00  0.00000000E+00  0.00000000E+00
  0.00000000E+00  0.00000000E+00  0.00000000E+00
  0.00000000E+00  0.00000000E+00  0.00000000E+00
  0.00000000E+00  0.00000000E+00  0.00000000E+00
  0.00000000E+00  0.00000000E+00  0.00000000E+00
  0.00000000E+00  0.00000000E+00  0.00000000E+00
  0.00000000E+00  0.00000000E+00  0.00000000E+00
  0.00000000E+00  0.00000000E+00  0.00000000E+00
  0.00000000E+00  0.00000000E+00  0.00000000E+00
  0.00000000E+00  0.00000000E+00  0.00000000E+00
  0.00000000E+00  0.00000000E+00  0.00000000E+00
  0.00000000E+00  0.00000000E+00  0.00000000E+00
