Sr1 B8                                  
   1.00000000000000     
     6.0499131491163913   -0.7441643609252959    0.0000000000000000
    -3.7091722947596759    4.5674316333479963    0.0000000000000000
     0.0000000000000000    0.0000000000000000    4.8898789530664803
   B    Sr
     8     1
Direct
  0.4052711674499108  0.3033971577620633  0.0000000000000000
  0.8075755724641240  0.1068833056599487  0.0000000000000000
  0.5935655786955962  0.1944335925082612  0.0000000000000000
  0.1917164231153450  0.3960220646163819  0.0000000000000000
  0.8082835768846550  0.6039779353836181  0.0000000000000000
  0.4064344213044038  0.8055664074917388  0.0000000000000000
  0.1924244275358760  0.8931166943400513  0.0000000000000000
  0.5947288325500892  0.6966028422379367  0.0000000000000000
  0.0000000000000000  0.0000000000000000  0.5000000000000000
 
  0.00000000E+00  0.00000000E+00  0.00000000E+00
  0.00000000E+00  0.00000000E+00  0.00000000E+00
  0.00000000E+00  0.00000000E+00  0.00000000E+00
  0.00000000E+00  0.00000000E+00  0.00000000E+00
  0.00000000E+00  0.00000000E+00  0.00000000E+00
  0.00000000E+00  0.00000000E+00  0.00000000E+00
  0.00000000E+00  0.00000000E+00  0.00000000E+00
  0.00000000E+00  0.00000000E+00  0.00000000E+00
  0.00000000E+00  0.00000000E+00  0.00000000E+00
