MgIn                                    
   1.00000000000000     
     3.1709244262885692    0.0000000000000000    0.0000000000000000
     0.0000000000000000    3.1709244262885692    0.0000000000000000
     0.0000000000000001    0.0000000000000001    4.6477237354165029
   In   Mg
     1     1
Direct
  0.0000000000000000  0.0000000000000000  0.0000000000000000
  0.5000000000000000  0.5000000000000000  0.5000000000000000
 
  0.00000000E+00  0.00000000E+00  0.00000000E+00
  0.00000000E+00  0.00000000E+00  0.00000000E+00
