Ba18 Tl11                               
   1.0000000000000000     
    11.1323067980821708    6.1600317835777254   -0.6904912529400382
   -11.1323067980821708    6.1600317835777254   -0.6904912529400382
     0.0000000000000000    5.2173259031796420    9.1182568730465281
   Ba   Tl
    18    11
Direct
  0.8216877475235620  0.8216877475235620  0.1340755841029306
  0.2963583308830451  0.6238129966514876  0.8994441728020917
  0.9067219513836946  0.2397657395632180  0.0252708778321988
  0.2397657395632180  0.9067219513836946  0.0252708778321988
  0.6238129966514876  0.2963583308830451  0.8994441728020917
  0.2573427648584214  0.2573427648584214  0.8709653406756814
  0.7249949969444174  0.7249949969444174  0.6828892854921733
  0.6567987518855105  0.0033286545448163  0.8092252469272481
  0.0033286545448163  0.6567987518855105  0.8092252469272481
  0.0764830765821358  0.0764830765821358  0.6176615824238496
  0.5180893624643019  0.7990237923652685  0.4592192929799879
  0.7990237923652685  0.5180893624643019  0.4592192929799879
  0.1237957799681695  0.3930541473130447  0.3407228459841178
  0.3930541473130447  0.1237957799681695  0.3407228459841178
  0.4587365949195927  0.4587365949195927  0.4726650825151921
  0.1891239810383851  0.7144206820077557  0.4122302300096550
  0.7144206820077557  0.1891239810383851  0.4122302300096550
  0.4826135497075654  0.4826135497075654  0.0828034333384267
  0.4694878196471919  0.7306711486720516  0.1481244605695480
  0.7306711486720516  0.4694878196471919  0.1481244605695480
  0.9090553042247507  0.3590510897023194  0.6626633324926203
  0.3590510897023194  0.9090553042247507  0.6626633324926203
  0.1858032587896830  0.4502872756761533  0.6583618485417446
  0.4502872756761533  0.1858032587896830  0.6583618485417446
  0.8672740074294012  0.0188655177375381  0.3844053933557561
  0.0188655177375381  0.8672740074294012  0.3844053933557561
  0.5458412880269776  0.0054835300966900  0.1548802813987749
  0.0054835300966900  0.5458412880269776  0.1548802813987749
  0.1720268593928083  0.1720268593928083  0.2298447256643996

  0.00000000E+00  0.00000000E+00  0.00000000E+00
  0.00000000E+00  0.00000000E+00  0.00000000E+00
  0.00000000E+00  0.00000000E+00  0.00000000E+00
  0.00000000E+00  0.00000000E+00  0.00000000E+00
  0.00000000E+00  0.00000000E+00  0.00000000E+00
  0.00000000E+00  0.00000000E+00  0.00000000E+00
  0.00000000E+00  0.00000000E+00  0.00000000E+00
  0.00000000E+00  0.00000000E+00  0.00000000E+00
  0.00000000E+00  0.00000000E+00  0.00000000E+00
  0.00000000E+00  0.00000000E+00  0.00000000E+00
  0.00000000E+00  0.00000000E+00  0.00000000E+00
  0.00000000E+00  0.00000000E+00  0.00000000E+00
  0.00000000E+00  0.00000000E+00  0.00000000E+00
  0.00000000E+00  0.00000000E+00  0.00000000E+00
  0.00000000E+00  0.00000000E+00  0.00000000E+00
  0.00000000E+00  0.00000000E+00  0.00000000E+00
  0.00000000E+00  0.00000000E+00  0.00000000E+00
  0.00000000E+00  0.00000000E+00  0.00000000E+00
  0.00000000E+00  0.00000000E+00  0.00000000E+00
  0.00000000E+00  0.00000000E+00  0.00000000E+00
  0.00000000E+00  0.00000000E+00  0.00000000E+00
  0.00000000E+00  0.00000000E+00  0.00000000E+00
  0.00000000E+00  0.00000000E+00  0.00000000E+00
  0.00000000E+00  0.00000000E+00  0.00000000E+00
  0.00000000E+00  0.00000000E+00  0.00000000E+00
  0.00000000E+00  0.00000000E+00  0.00000000E+00
  0.00000000E+00  0.00000000E+00  0.00000000E+00
  0.00000000E+00  0.00000000E+00  0.00000000E+00
  0.00000000E+00  0.00000000E+00  0.00000000E+00
