Ca1 Al3 Br6                             
   1.00000000000000     
     7.6961887313481858   -0.1911880977940691    0.0568489942564104
    -0.1911880977940691    7.6961887313481858    0.0568489942564104
     3.7724121413679983    3.7724121413679992    5.4993158028610880
   Br   Ca   Al
     6     1     3
Direct
  0.7415174627419461  0.2584825372580539  0.0000000000000000
  0.3333986961760473  0.3333986961760473  0.8572487839933629
  0.2584825372580539  0.7415174627419461  0.0000000000000000
  0.6666013038239527  0.6666013038239527  0.1427512160066371
  0.8198247987771126  0.8198247987771126  0.5154261281307626
  0.1801752012228874  0.1801752012228874  0.4845738718692374
  0.0000000000000000  0.0000000000000000  0.0000000000000000
  0.5000000000000000  0.5000000000000000  0.0000000000000000
  0.2128131556317072  0.7871868443682928  0.5000000000000000
  0.7871868443682928  0.2128131556317072  0.5000000000000000
 
  0.00000000E+00  0.00000000E+00  0.00000000E+00
  0.00000000E+00  0.00000000E+00  0.00000000E+00
  0.00000000E+00  0.00000000E+00  0.00000000E+00
  0.00000000E+00  0.00000000E+00  0.00000000E+00
  0.00000000E+00  0.00000000E+00  0.00000000E+00
  0.00000000E+00  0.00000000E+00  0.00000000E+00
  0.00000000E+00  0.00000000E+00  0.00000000E+00
  0.00000000E+00  0.00000000E+00  0.00000000E+00
  0.00000000E+00  0.00000000E+00  0.00000000E+00
  0.00000000E+00  0.00000000E+00  0.00000000E+00
