Ca4 B4 Br20                             
   1.0000000000000000     
     0.0000000000000000   11.0945522743152054   -0.7389690873647116
    12.3807637821289642    0.0000000000000000    0.0000000000000000
     0.0000000000000000    0.2118496947227429   -8.1504346727855452
   Ca   B    Br
     4     4    20
Direct
  0.6567153764748923  0.3640310058892666  0.8584840216286338
  0.3432846235251077  0.8640310058892595  0.1415159783713662
  0.0971879687416788  0.0644027969087730  0.3221331022454024
  0.9028120312583212  0.5644027969087801  0.6778668977546047
  0.6127778327564641  0.7115511753783395  0.0025030014615410
  0.3872221672435501  0.2115511753783395  0.9974969985384590
  0.1343531943449392  0.6221192147389871  0.4557471256484504
  0.8656468056550679  0.1221192147389871  0.5442528743515496
  0.0134483825359268  0.1329877181587520  0.6726881673882943
  0.1404161644816782  0.4690145496861433  0.5487782247459947
  0.8595838355183218  0.9690145496861362  0.4512217752539911
  0.7764380018495558  0.7432972009748298  0.8772493769689191
  0.8942979444563761  0.4061770434198806  0.9246210000331345
  0.3174594220602742  0.9933366899174274  0.4219351080942531
  0.7088837553199738  0.1485649390729051  0.6855373937116767
  0.5974479980080289  0.8131282176404397  0.2010430126613798
  0.1057020555436239  0.9061770434198735  0.0753789999668655
  0.1110896962526908  0.7266409551480848  0.6507356437904761
  0.6825405779397258  0.4933366899174274  0.5780648919057469
  0.9865516174640732  0.6329877181587591  0.3273118326117057
  0.4027636265777943  0.0582295680948164  0.9107996880744409
  0.5235225526857121  0.2441179049713895  0.1423421240679161
  0.8889103037473163  0.2266409551481061  0.3492643562095239
  0.2911162446800262  0.6485649390729051  0.3144626062883233
  0.2235619981504371  0.2432972009748298  0.1227506230310738
  0.4764774473142879  0.7441179049713895  0.8576578759320910
  0.4025520019919711  0.3131282176404397  0.7989569873386202
  0.5972363734221986  0.5582295680948164  0.0892003119255591

  0.00000000E+00  0.00000000E+00  0.00000000E+00
  0.00000000E+00  0.00000000E+00  0.00000000E+00
  0.00000000E+00  0.00000000E+00  0.00000000E+00
  0.00000000E+00  0.00000000E+00  0.00000000E+00
  0.00000000E+00  0.00000000E+00  0.00000000E+00
  0.00000000E+00  0.00000000E+00  0.00000000E+00
  0.00000000E+00  0.00000000E+00  0.00000000E+00
  0.00000000E+00  0.00000000E+00  0.00000000E+00
  0.00000000E+00  0.00000000E+00  0.00000000E+00
  0.00000000E+00  0.00000000E+00  0.00000000E+00
  0.00000000E+00  0.00000000E+00  0.00000000E+00
  0.00000000E+00  0.00000000E+00  0.00000000E+00
  0.00000000E+00  0.00000000E+00  0.00000000E+00
  0.00000000E+00  0.00000000E+00  0.00000000E+00
  0.00000000E+00  0.00000000E+00  0.00000000E+00
  0.00000000E+00  0.00000000E+00  0.00000000E+00
  0.00000000E+00  0.00000000E+00  0.00000000E+00
  0.00000000E+00  0.00000000E+00  0.00000000E+00
  0.00000000E+00  0.00000000E+00  0.00000000E+00
  0.00000000E+00  0.00000000E+00  0.00000000E+00
  0.00000000E+00  0.00000000E+00  0.00000000E+00
  0.00000000E+00  0.00000000E+00  0.00000000E+00
  0.00000000E+00  0.00000000E+00  0.00000000E+00
  0.00000000E+00  0.00000000E+00  0.00000000E+00
  0.00000000E+00  0.00000000E+00  0.00000000E+00
  0.00000000E+00  0.00000000E+00  0.00000000E+00
  0.00000000E+00  0.00000000E+00  0.00000000E+00
  0.00000000E+00  0.00000000E+00  0.00000000E+00
