Ba4 Tl2 Br10                            
   1.0000000000000000     
     9.0894187840093217   -0.0049607027277138   -0.0077399212987121
    -0.0049607027277138    9.0894187840093217   -0.0077399212987121
     4.5359952536674548    4.5359952536674548    7.1866192263767248
   Br   Ba   Tl
    10     4     2
Direct
  0.5002499549093429  0.0002381328038510  0.9996421650799903
  0.0002381328038510  0.5002499549093429  0.9996421650799903
  0.7159880496889599  0.0102892890593012  0.2757835350810680
  0.2158981881700299  0.2158981881700299  0.2746354099494823
  0.5090563361034768  0.5090563361034768  0.2771612490317494
  0.0102892890593012  0.7159880496889599  0.2757835350810680
  0.9900818555401472  0.2849952342809559  0.7234048893981537
  0.4913787866861838  0.4913787866861838  0.7224808790299164
  0.7843754801430620  0.7843754801430620  0.7250692588427725
  0.2849952342809559  0.9900818555401472  0.7234048893981537
  0.1581889539389820  0.1581889539389820  0.9983297806543376
  0.6569923361119976  0.3427357883086799  0.0002619849406713
  0.3427357883086799  0.6569923361119976  0.0002619849406713
  0.8423329721347059  0.8423329721347059  0.0011213705530366
  0.7482811136343983  0.2490175284859362  0.5015084514694692
  0.2490175284859362  0.7482811136343983  0.5015084514694692

  0.00000000E+00  0.00000000E+00  0.00000000E+00
  0.00000000E+00  0.00000000E+00  0.00000000E+00
  0.00000000E+00  0.00000000E+00  0.00000000E+00
  0.00000000E+00  0.00000000E+00  0.00000000E+00
  0.00000000E+00  0.00000000E+00  0.00000000E+00
  0.00000000E+00  0.00000000E+00  0.00000000E+00
  0.00000000E+00  0.00000000E+00  0.00000000E+00
  0.00000000E+00  0.00000000E+00  0.00000000E+00
  0.00000000E+00  0.00000000E+00  0.00000000E+00
  0.00000000E+00  0.00000000E+00  0.00000000E+00
  0.00000000E+00  0.00000000E+00  0.00000000E+00
  0.00000000E+00  0.00000000E+00  0.00000000E+00
  0.00000000E+00  0.00000000E+00  0.00000000E+00
  0.00000000E+00  0.00000000E+00  0.00000000E+00
  0.00000000E+00  0.00000000E+00  0.00000000E+00
  0.00000000E+00  0.00000000E+00  0.00000000E+00
