Be1 Ga2 F10                             
   1.00000000000000     
     3.1417009474292765    3.4720459083955073    0.2866959421581169
    -3.1417009474292752    3.4720459083955060    0.2866959421581169
     0.0000000000000001    2.8253798430394039    6.7346012299643139
   Be   Ga   F 
     1     2    10
Direct
  0.4290782360421659  0.5709217639578412  0.0000000000000000
  0.0155525162611809  0.9914870163603737  0.7481095122285168
  0.0085129836396263  0.9844474837388191  0.2518904877714760
  0.2624555380420972  0.3444981022857974  0.6288605804204863
  0.6555018977142026  0.7375444619579028  0.3711394195795208
  0.7723677602697165  0.6425886742052995  0.9233098821520684
  0.3574113257947005  0.2276322397302764  0.0766901178479316
  0.9214957329299267  0.0785042670700662  0.0000000000000000
  0.0917611139102092  0.9082388860897908  0.5000000000000000
  0.7340455585419292  0.2949747341908662  0.6774719283815216
  0.7050252658091196  0.2659544414580708  0.3225280716184784
  0.3432162056020545  0.7524251345569510  0.8043467345389672
  0.2475748654430419  0.6567837943979526  0.1956532654610328
 
  0.00000000E+00  0.00000000E+00  0.00000000E+00
  0.00000000E+00  0.00000000E+00  0.00000000E+00
  0.00000000E+00  0.00000000E+00  0.00000000E+00
  0.00000000E+00  0.00000000E+00  0.00000000E+00
  0.00000000E+00  0.00000000E+00  0.00000000E+00
  0.00000000E+00  0.00000000E+00  0.00000000E+00
  0.00000000E+00  0.00000000E+00  0.00000000E+00
  0.00000000E+00  0.00000000E+00  0.00000000E+00
  0.00000000E+00  0.00000000E+00  0.00000000E+00
  0.00000000E+00  0.00000000E+00  0.00000000E+00
  0.00000000E+00  0.00000000E+00  0.00000000E+00
  0.00000000E+00  0.00000000E+00  0.00000000E+00
  0.00000000E+00  0.00000000E+00  0.00000000E+00
