BaF3                                    
   1.00000000000000     
     0.0000000000000000    3.0994944477024058    3.0994944477024058
     3.0994944477024058    0.0000000000000000    3.0994944477024058
     3.0994944477024058    3.0994944477024058    0.0000000000000000
   Ba   F 
     1     3
Direct
  0.7500000000000000  0.7500000000000000  0.7500000000000000
  0.0000000000000000  0.0000000000000000  0.0000000000000000
  0.5000000000000000  0.5000000000000000  0.5000000000000000
  0.2500000000000000  0.2500000000000000  0.2500000000000000
 
  0.00000000E+00  0.00000000E+00  0.00000000E+00
  0.00000000E+00  0.00000000E+00  0.00000000E+00
  0.00000000E+00  0.00000000E+00  0.00000000E+00
  0.00000000E+00  0.00000000E+00  0.00000000E+00
