Mg1 B13                                 
   1.00000000000000     
     4.5395051933984911   -3.2602713498602651   -0.7010244790606533
     4.5395051933984911    3.2602713498602651   -0.7010244790606533
    -1.8257590375815953    0.0000000000000000    4.0844304009912689
   Mg   B 
     1    13
Direct
  0.0938389328206455  0.0938389328206455  0.0460192517459319
  0.8744105955830506  0.8744105955830506  0.4791065364186622
  0.5713068137248456  0.1987013160211220  0.3389271786603913
  0.1987013160211220  0.5713068137248456  0.3389271786603913
  0.8600400441759035  0.5376150917946774  0.1974082851851264
  0.5376150917946774  0.8600400441759035  0.1974082851851264
  0.7060751436714696  0.7060751436714696  0.5492411497329499
  0.0805428889713511  0.0805428889713511  0.5318731534452610
  0.4098225164465674  0.4098225164465674  0.6654207974876343
  0.3413544363324945  0.8143478597178984  0.3726138172967168
  0.8143478597178984  0.3413544363324945  0.3726138172967168
  0.7236380058557685  0.4571505266207438  0.7377242684144889
  0.4571505266207438  0.7236380058557685  0.7377242684144889
  0.3310448282634724  0.3310448282634724  0.9349920120561421
 
  0.00000000E+00  0.00000000E+00  0.00000000E+00
  0.00000000E+00  0.00000000E+00  0.00000000E+00
  0.00000000E+00  0.00000000E+00  0.00000000E+00
  0.00000000E+00  0.00000000E+00  0.00000000E+00
  0.00000000E+00  0.00000000E+00  0.00000000E+00
  0.00000000E+00  0.00000000E+00  0.00000000E+00
  0.00000000E+00  0.00000000E+00  0.00000000E+00
  0.00000000E+00  0.00000000E+00  0.00000000E+00
  0.00000000E+00  0.00000000E+00  0.00000000E+00
  0.00000000E+00  0.00000000E+00  0.00000000E+00
  0.00000000E+00  0.00000000E+00  0.00000000E+00
  0.00000000E+00  0.00000000E+00  0.00000000E+00
  0.00000000E+00  0.00000000E+00  0.00000000E+00
  0.00000000E+00  0.00000000E+00  0.00000000E+00
