Mg32 Al28                               
   1.00000000000000     
    10.9338003565343342    0.0000482395213827    0.0000483354551797
     0.0000483354551797   10.9338003565343342    0.0000482395213827
     0.0000482395213827    0.0000483354551797   10.9338003565343342
   Al   Mg
    28    32
Direct
  0.4333920351755296  0.5666377864668490  0.0666031632176995
  0.2272185555759307  0.7032010866189893  0.0753063294364225
  0.2675222428336212  0.1969029564694793  0.0716106908479262
  0.0716106908479262  0.2675222428336212  0.1969029564694793
  0.4247041067146924  0.7728104421922737  0.2031618229718362
  0.2968452250685445  0.5753096476216868  0.2727776699635172
  0.8031543490352888  0.5716510145363145  0.2325303017412708
  0.1969029564694793  0.0716106908479262  0.2675222428336212
  0.7032010866189893  0.0753063294364225  0.2272185555759307
  0.5753096476216868  0.2727776699635172  0.2968452250685445
  0.9283658319949879  0.7675769708206204  0.3032031297185611
  0.7324491015261856  0.6968890963443855  0.4284289229821709
  0.7728104421922737  0.2031618229718362  0.4247041067146924
  0.5666377864668490  0.0666031632176995  0.4333920351755296
  0.0666031632176995  0.4333920351755296  0.5666377864668490
  0.2727776699635172  0.2968452250685445  0.5753096476216868
  0.2325303017412708  0.8031543490352888  0.5716510145363145
  0.4284289229821709  0.7324491015261856  0.6968890963443855
  0.0753063294364225  0.2272185555759307  0.7032010866189893
  0.2031618229718362  0.4247041067146924  0.7728104421922737
  0.6968890963443855  0.4284289229821709  0.7324491015261856
  0.3032031297185611  0.9283658319949879  0.7675769708206204
  0.7968575980476302  0.9247408104263357  0.7272586430830188
  0.9247408104263357  0.7272586430830188  0.7968575980476302
  0.5716510145363145  0.2325303017412708  0.8031543490352888
  0.7675769708206204  0.3032031297185611  0.9283658319949879
  0.7272586430830188  0.7968575980476302  0.9247408104263357
  0.9334224655751058  0.9334224655751058  0.9334224655751058
  0.1921613539062363  0.9526813756733077  0.0098909667298983
  0.1895652437709359  0.4486817065726356  0.0359292457036204
  0.5099196640786730  0.3078717590373401  0.0473630756711714
  0.9641011125649754  0.6896114359997938  0.0513952356855327
  0.8190467477440464  0.3190997180334776  0.1809364602154773
  0.6840169435739654  0.8159902554779848  0.1840393266447578
  0.9526813756733077  0.0098909667298983  0.1921613539062363
  0.4486817065726356  0.0359292457036204  0.1895652437709359
  0.5513490761368161  0.5359033720709689  0.3104274327924799
  0.0473630756711714  0.5099196640786730  0.3078717590373401
  0.3159840587395166  0.3159840587395166  0.3159840587395166
  0.1809364602154773  0.8190467477440464  0.3190997180334776
  0.0359292457036204  0.1895652437709359  0.4486817065726356
  0.4900630363398761  0.8078651705392161  0.4526567315424828
  0.8104355316023089  0.9486679143193939  0.4641512483380623
  0.8078651705392161  0.4526567315424828  0.4900630363398761
  0.3078717590373401  0.0473630756711714  0.5099196640786730
  0.3104274327924799  0.5513490761368161  0.5359033720709689
  0.9901539784128772  0.6921533349782720  0.5473723351121080
  0.5359033720709689  0.3104274327924799  0.5513490761368161
  0.6809831549849434  0.6809831549849434  0.6809831549849434
  0.8159902554779848  0.1840393266447578  0.6840169435739654
  0.5473723351121080  0.9901539784128772  0.6921533349782720
  0.0513952356855327  0.9641011125649754  0.6896114359997938
  0.9486679143193939  0.4641512483380623  0.8104355316023089
  0.4526567315424828  0.4900630363398761  0.8078651705392161
  0.1840393266447578  0.6840169435739654  0.8159902554779848
  0.3190997180334776  0.1809364602154773  0.8190467477440464
  0.4641512483380623  0.8104355316023089  0.9486679143193939
  0.0098909667298983  0.1921613539062363  0.9526813756733077
  0.6896114359997938  0.0513952356855327  0.9641011125649754
  0.6921533349782720  0.5473723351121080  0.9901539784128772
 
  0.00000000E+00  0.00000000E+00  0.00000000E+00
  0.00000000E+00  0.00000000E+00  0.00000000E+00
  0.00000000E+00  0.00000000E+00  0.00000000E+00
  0.00000000E+00  0.00000000E+00  0.00000000E+00
  0.00000000E+00  0.00000000E+00  0.00000000E+00
  0.00000000E+00  0.00000000E+00  0.00000000E+00
  0.00000000E+00  0.00000000E+00  0.00000000E+00
  0.00000000E+00  0.00000000E+00  0.00000000E+00
  0.00000000E+00  0.00000000E+00  0.00000000E+00
  0.00000000E+00  0.00000000E+00  0.00000000E+00
  0.00000000E+00  0.00000000E+00  0.00000000E+00
  0.00000000E+00  0.00000000E+00  0.00000000E+00
  0.00000000E+00  0.00000000E+00  0.00000000E+00
  0.00000000E+00  0.00000000E+00  0.00000000E+00
  0.00000000E+00  0.00000000E+00  0.00000000E+00
  0.00000000E+00  0.00000000E+00  0.00000000E+00
  0.00000000E+00  0.00000000E+00  0.00000000E+00
  0.00000000E+00  0.00000000E+00  0.00000000E+00
  0.00000000E+00  0.00000000E+00  0.00000000E+00
  0.00000000E+00  0.00000000E+00  0.00000000E+00
  0.00000000E+00  0.00000000E+00  0.00000000E+00
  0.00000000E+00  0.00000000E+00  0.00000000E+00
  0.00000000E+00  0.00000000E+00  0.00000000E+00
  0.00000000E+00  0.00000000E+00  0.00000000E+00
  0.00000000E+00  0.00000000E+00  0.00000000E+00
  0.00000000E+00  0.00000000E+00  0.00000000E+00
  0.00000000E+00  0.00000000E+00  0.00000000E+00
  0.00000000E+00  0.00000000E+00  0.00000000E+00
  0.00000000E+00  0.00000000E+00  0.00000000E+00
  0.00000000E+00  0.00000000E+00  0.00000000E+00
  0.00000000E+00  0.00000000E+00  0.00000000E+00
  0.00000000E+00  0.00000000E+00  0.00000000E+00
  0.00000000E+00  0.00000000E+00  0.00000000E+00
  0.00000000E+00  0.00000000E+00  0.00000000E+00
  0.00000000E+00  0.00000000E+00  0.00000000E+00
  0.00000000E+00  0.00000000E+00  0.00000000E+00
  0.00000000E+00  0.00000000E+00  0.00000000E+00
  0.00000000E+00  0.00000000E+00  0.00000000E+00
  0.00000000E+00  0.00000000E+00  0.00000000E+00
  0.00000000E+00  0.00000000E+00  0.00000000E+00
  0.00000000E+00  0.00000000E+00  0.00000000E+00
  0.00000000E+00  0.00000000E+00  0.00000000E+00
  0.00000000E+00  0.00000000E+00  0.00000000E+00
  0.00000000E+00  0.00000000E+00  0.00000000E+00
  0.00000000E+00  0.00000000E+00  0.00000000E+00
  0.00000000E+00  0.00000000E+00  0.00000000E+00
  0.00000000E+00  0.00000000E+00  0.00000000E+00
  0.00000000E+00  0.00000000E+00  0.00000000E+00
  0.00000000E+00  0.00000000E+00  0.00000000E+00
  0.00000000E+00  0.00000000E+00  0.00000000E+00
  0.00000000E+00  0.00000000E+00  0.00000000E+00
  0.00000000E+00  0.00000000E+00  0.00000000E+00
  0.00000000E+00  0.00000000E+00  0.00000000E+00
  0.00000000E+00  0.00000000E+00  0.00000000E+00
  0.00000000E+00  0.00000000E+00  0.00000000E+00
  0.00000000E+00  0.00000000E+00  0.00000000E+00
  0.00000000E+00  0.00000000E+00  0.00000000E+00
  0.00000000E+00  0.00000000E+00  0.00000000E+00
  0.00000000E+00  0.00000000E+00  0.00000000E+00
  0.00000000E+00  0.00000000E+00  0.00000000E+00
