Mg4 Ga10 I2                             
   1.00000000000000     
    10.2092653676861111   -0.0637200440688039    0.7211053067639104
    -5.4866861042185411    5.7611526644790709   -1.7375910984447926
    -4.4324557055826537   -3.3421370168541826    6.6828726314170011
   I    Mg   Ga
     2     4    10
Direct
  0.3597736479562883  0.4279026831453763  0.3999581358714011
  0.8546199104950460  0.5642685969923846  0.5444794769112491
  0.1291135748636023  0.0121463267259756  0.4901856270953928
  0.3424883548993876  0.1505653840754420  0.0902262101229070
  0.3726825910775275  0.6503273482805341  0.7343665636349854
  0.0545045966611752  0.1846285646937318  0.7742662273909744
  0.8520174440496078  0.8622921795122096  0.9278860576325840
  0.3192498369792105  0.7575471669508858  0.0124761901766561
  0.0778587196610161  0.7151133981774507  0.1301495670645210
  0.7754628925101485  0.9590756468867099  0.3239961161612683
  0.6006081572829345  0.9967400382667719  0.4509707102530953
  0.9224053844392941  0.3326812740196843  0.2549442449259089
  0.3614935036568596  0.9153323353369345  0.5482525307516326
  0.5557391836989609  0.5353629090739744  0.9889346488783843
  0.8476418901174370  0.2118480256345237  0.8879492855694977
  0.5743403116514898  0.2239681222273830  0.9407584075595210
 
  0.00000000E+00  0.00000000E+00  0.00000000E+00
  0.00000000E+00  0.00000000E+00  0.00000000E+00
  0.00000000E+00  0.00000000E+00  0.00000000E+00
  0.00000000E+00  0.00000000E+00  0.00000000E+00
  0.00000000E+00  0.00000000E+00  0.00000000E+00
  0.00000000E+00  0.00000000E+00  0.00000000E+00
  0.00000000E+00  0.00000000E+00  0.00000000E+00
  0.00000000E+00  0.00000000E+00  0.00000000E+00
  0.00000000E+00  0.00000000E+00  0.00000000E+00
  0.00000000E+00  0.00000000E+00  0.00000000E+00
  0.00000000E+00  0.00000000E+00  0.00000000E+00
  0.00000000E+00  0.00000000E+00  0.00000000E+00
  0.00000000E+00  0.00000000E+00  0.00000000E+00
  0.00000000E+00  0.00000000E+00  0.00000000E+00
  0.00000000E+00  0.00000000E+00  0.00000000E+00
  0.00000000E+00  0.00000000E+00  0.00000000E+00
