Mg22 Tl14                               
   1.0000000000000000     
    -7.4892036531127335    7.6871238449266874    0.5279238751278688
     8.0567966877776804    0.0000000000000000   -8.3853455151354854
    -7.4892036531127335   -7.6871238449266874    0.5279238751278688
   Mg   Tl
    22    14
Direct
  0.9645434511282076  0.9393716058660004  0.9645434511282076
  0.3321745036486945  0.2705687645923476  0.1229271651265549
  0.8058053818038857  0.1347993780141792  0.1160975776087980
  0.8292692157576624  0.6399322253226032  0.0420233407568347
  0.5999828012264388  0.2524622409525463  0.2308455968334329
  0.1416898049094470  0.6736277082151858  0.1416898049094470
  0.4978210257898894  0.7953467479160281  0.2909913764922152
  0.1229271651265549  0.2705687645923476  0.3321745036486945
  0.2308455968334329  0.2524622409525463  0.5999828012264388
  0.4258485645049745  0.0624171724017586  0.4258485645049745
  0.8439549042493297  0.9631697934686585  0.5008348473094273
  0.4584179859418853  0.3775382849235172  0.4584179859418853
  0.8012840626128863  0.2128287231736650  0.4574337717258956
  0.2909913764922152  0.7953467479160281  0.4978210257898894
  0.4860776928160035  0.6653817782081717  0.4860776928160035
  0.8202209018312701  0.6886394163847172  0.5921363397276238
  0.5008348473094273  0.9631697934686585  0.8439549042493297
  0.4574337717258956  0.2128287231736650  0.8012840626128863
  0.6555586435068790  0.0979592874163657  0.6555586435068790
  0.1160975776087980  0.1347993780141792  0.8058053818038857
  0.0420233407568347  0.6399322253226032  0.8292692157576624
  0.5921363397276238  0.6886394163847172  0.8202209018312701
  0.7939653371765800  0.3535450255969010  0.0315563740901723
  0.1877460704128779  0.9908917623912004  0.1877460704128779
  0.8021182441021537  0.9193578265256619  0.1979805229141007
  0.1565859052224496  0.4231457808415442  0.1565859052224496
  0.9660572875279101  0.5053240196176247  0.4288903043390846
  0.6674070810325574  0.5742257094410377  0.2624569221111557
  0.0742393840010038  0.8717148027396959  0.4439343655812422
  0.0315563740901723  0.3535450255969010  0.7939653371765800
  0.4288903043390846  0.5053240196176247  0.9660572875279101
  0.2624569221111557  0.5742257094410377  0.6674070810325574
  0.1979805229141007  0.9193578265256619  0.8021182441021537
  0.7837623291956675  0.9759462222998962  0.7837623291956675
  0.6869609169848090  0.4298910499450059  0.6869609169848090
  0.4439343655812422  0.8717148027396959  0.0742393840010038

  0.00000000E+00  0.00000000E+00  0.00000000E+00
  0.00000000E+00  0.00000000E+00  0.00000000E+00
  0.00000000E+00  0.00000000E+00  0.00000000E+00
  0.00000000E+00  0.00000000E+00  0.00000000E+00
  0.00000000E+00  0.00000000E+00  0.00000000E+00
  0.00000000E+00  0.00000000E+00  0.00000000E+00
  0.00000000E+00  0.00000000E+00  0.00000000E+00
  0.00000000E+00  0.00000000E+00  0.00000000E+00
  0.00000000E+00  0.00000000E+00  0.00000000E+00
  0.00000000E+00  0.00000000E+00  0.00000000E+00
  0.00000000E+00  0.00000000E+00  0.00000000E+00
  0.00000000E+00  0.00000000E+00  0.00000000E+00
  0.00000000E+00  0.00000000E+00  0.00000000E+00
  0.00000000E+00  0.00000000E+00  0.00000000E+00
  0.00000000E+00  0.00000000E+00  0.00000000E+00
  0.00000000E+00  0.00000000E+00  0.00000000E+00
  0.00000000E+00  0.00000000E+00  0.00000000E+00
  0.00000000E+00  0.00000000E+00  0.00000000E+00
  0.00000000E+00  0.00000000E+00  0.00000000E+00
  0.00000000E+00  0.00000000E+00  0.00000000E+00
  0.00000000E+00  0.00000000E+00  0.00000000E+00
  0.00000000E+00  0.00000000E+00  0.00000000E+00
  0.00000000E+00  0.00000000E+00  0.00000000E+00
  0.00000000E+00  0.00000000E+00  0.00000000E+00
  0.00000000E+00  0.00000000E+00  0.00000000E+00
  0.00000000E+00  0.00000000E+00  0.00000000E+00
  0.00000000E+00  0.00000000E+00  0.00000000E+00
  0.00000000E+00  0.00000000E+00  0.00000000E+00
  0.00000000E+00  0.00000000E+00  0.00000000E+00
  0.00000000E+00  0.00000000E+00  0.00000000E+00
  0.00000000E+00  0.00000000E+00  0.00000000E+00
  0.00000000E+00  0.00000000E+00  0.00000000E+00
  0.00000000E+00  0.00000000E+00  0.00000000E+00
  0.00000000E+00  0.00000000E+00  0.00000000E+00
  0.00000000E+00  0.00000000E+00  0.00000000E+00
  0.00000000E+00  0.00000000E+00  0.00000000E+00
