Be2 I8                                  
   1.00000000000000     
     5.2890334871165230  -10.5434662790633364    0.0000000000000000
     5.2890334871165248   10.5434662790633364    0.0000000000000000
     0.0000000000000000    0.0000000000000000    5.9956046800800307
   I    Be
     8     2
Direct
  0.6276307386960553  0.1287162319042281  0.0000000000000000
  0.0642347680204907  0.1914658097083901  0.0000000000000000
  0.9357652319795093  0.8085341902916099  0.0000000000000000
  0.3723692613039447  0.8712837680957719  0.0000000000000000
  0.1914658097083901  0.0642347680204907  0.5000000000000000
  0.8712837680957719  0.3723692613039447  0.5000000000000000
  0.1287162319042281  0.6276307386960553  0.5000000000000000
  0.8085341902916099  0.9357652319795093  0.5000000000000000
  0.0000000000000000  0.0000000000000000  0.2500000000000000
  0.0000000000000000  0.0000000000000000  0.7500000000000000
 
  0.00000000E+00  0.00000000E+00  0.00000000E+00
  0.00000000E+00  0.00000000E+00  0.00000000E+00
  0.00000000E+00  0.00000000E+00  0.00000000E+00
  0.00000000E+00  0.00000000E+00  0.00000000E+00
  0.00000000E+00  0.00000000E+00  0.00000000E+00
  0.00000000E+00  0.00000000E+00  0.00000000E+00
  0.00000000E+00  0.00000000E+00  0.00000000E+00
  0.00000000E+00  0.00000000E+00  0.00000000E+00
  0.00000000E+00  0.00000000E+00  0.00000000E+00
  0.00000000E+00  0.00000000E+00  0.00000000E+00
