Mg16Al12Cl                              
   1.00000000000000     
     7.5983903903873982   -4.3866009512460602    3.1018965232514724
    -0.0750708883845095    8.5578522870237155    2.9795825550983541
    -7.4483207186833864   -4.2144747739874129    2.9798980998057223
   Al   Cl   Mg
    12     1    16
Direct
  0.8067919598316209  0.6131368506043273  0.0000042089876118
  0.6509718413774692  0.8089514419858119  0.9999992369582031
  0.3590501953027285  0.3732118075995672  0.1857416791558819
  0.1733062553139462  0.8142675411389035  0.1874866433616660
  0.8420250587455413  0.1910553131094233  0.1910563313203966
  0.3590561470994302  0.1857554793437544  0.3732187959461726
  0.1936815189407994  0.3868833117415278  0.3868864315846068
  0.8067943265826898  0.9999878184810669  0.6131104246103973
  0.9858174741814807  0.8125190591921978  0.6267771645828262
  0.6509521934150300  0.9999839334522207  0.8089366963841655
  0.9858273377889191  0.6267968282465404  0.8125302781813915
  0.1732919386180072  0.1874786511300286  0.8142642902913835
  0.3986072596634358  0.0000187922447950  0.0000106068278072
  0.5859147738635500  0.2891556542967493  0.9999957504226700
  0.3077950289191165  0.5969431928689772  0.9999937307937898
  0.0243787615166724  0.0000020056998196  0.0000038342144180
  0.9965352115385357  0.3472035360752983  0.0000058147538411
  0.6745942394611220  0.6756794349276873  0.2724461116749666
  0.5859123978311658  0.9999946180414767  0.2891736362197221
  0.9989017383018037  0.5967665645280533  0.3243055065088853
  0.9965397777521616  0.0000113850225176  0.3472130171831580
  0.4021298420314992  0.7275319131158327  0.4032126691067148
  0.7108550920681083  0.4030598935659384  0.4030607594081914
  0.3077935639819529  0.9999932548359425  0.5969355939200156
  0.9989039589048261  0.3243163879323063  0.5967740858741024
  0.6493100155446498  0.6527776462207910  0.6527801208419106
  0.6745986674803177  0.2724611284057517  0.6756911989846088
  0.2967362366648061  0.7108472526690335  0.7108491482809640
  0.4021271872785945  0.4032113342836396  0.7275378288195071
 
  0.00000000E+00  0.00000000E+00  0.00000000E+00
  0.00000000E+00  0.00000000E+00  0.00000000E+00
  0.00000000E+00  0.00000000E+00  0.00000000E+00
  0.00000000E+00  0.00000000E+00  0.00000000E+00
  0.00000000E+00  0.00000000E+00  0.00000000E+00
  0.00000000E+00  0.00000000E+00  0.00000000E+00
  0.00000000E+00  0.00000000E+00  0.00000000E+00
  0.00000000E+00  0.00000000E+00  0.00000000E+00
  0.00000000E+00  0.00000000E+00  0.00000000E+00
  0.00000000E+00  0.00000000E+00  0.00000000E+00
  0.00000000E+00  0.00000000E+00  0.00000000E+00
  0.00000000E+00  0.00000000E+00  0.00000000E+00
  0.00000000E+00  0.00000000E+00  0.00000000E+00
  0.00000000E+00  0.00000000E+00  0.00000000E+00
  0.00000000E+00  0.00000000E+00  0.00000000E+00
  0.00000000E+00  0.00000000E+00  0.00000000E+00
  0.00000000E+00  0.00000000E+00  0.00000000E+00
  0.00000000E+00  0.00000000E+00  0.00000000E+00
  0.00000000E+00  0.00000000E+00  0.00000000E+00
  0.00000000E+00  0.00000000E+00  0.00000000E+00
  0.00000000E+00  0.00000000E+00  0.00000000E+00
  0.00000000E+00  0.00000000E+00  0.00000000E+00
  0.00000000E+00  0.00000000E+00  0.00000000E+00
  0.00000000E+00  0.00000000E+00  0.00000000E+00
  0.00000000E+00  0.00000000E+00  0.00000000E+00
  0.00000000E+00  0.00000000E+00  0.00000000E+00
  0.00000000E+00  0.00000000E+00  0.00000000E+00
  0.00000000E+00  0.00000000E+00  0.00000000E+00
  0.00000000E+00  0.00000000E+00  0.00000000E+00
