Mg4 Al4 F20                             
   1.0000000000000000     
     0.0000000000000000    5.0984266522934227   -0.5399883509981476
     8.5823169419375045    0.0000000000000000    0.0000000000000000
     0.0000000000000000    0.5562698841535048   -6.6684739947496343
   Mg   Al   F 
     4     4    20
Direct
  0.4135164877113766  0.3699194772644958  0.3328441623469303
  0.5864835122886234  0.8699194772644887  0.6671558376530697
  0.8993079519002478  0.0943971725009121  0.1272509270752025
  0.1006920480997522  0.5943971725009121  0.8727490729247975
  0.5079731880900127  0.7585079814533131  0.1530902642968712
  0.4920268119099873  0.2585079814533131  0.8469097357031217
  0.9295572062028867  0.6020444156685443  0.4015201386293086
  0.0704427937971133  0.1020444156685443  0.5984798613706914
  0.2943593189118303  0.9443066792268766  0.5441996136736549
  0.1752928239428755  0.5052979478280193  0.5152851210542835
  0.8247071760571245  0.0052979478280193  0.4847148789457094
  0.8367887178839766  0.7482683445777383  0.0112825037339022
  0.0165067342166196  0.5135298691123538  0.1542631884078460
  0.5675177352978338  0.9603781935400875  0.1806610781325375
  0.8380096956951562  0.2611094952231738  0.7099897250667482
  0.6408610155344121  0.7315207166145186  0.3938782191256394
  0.9834932657833804  0.0135298691123538  0.8457368115921540
  0.8768888861918427  0.6964294213414348  0.6563337225774077
  0.4324822647021662  0.4603781935400875  0.8193389218674554
  0.7056406810881555  0.4443066792268766  0.4558003863263451
  0.5052499809805511  0.0524579474287918  0.8433536189553053
  0.6248701729699917  0.2594313182197681  0.0931138904091853
  0.1231111138081644  0.1964294213414348  0.3436662774225923
  0.1619903043048438  0.7611094952231738  0.2900102749332518
  0.1632112821160163  0.2482683445777383  0.9887174962660836
  0.3751298270300083  0.7594313182197681  0.9068861095908147
  0.3591389844655879  0.2315207166145186  0.6061217808743606
  0.4947500190194560  0.5524579474287918  0.1566463810446947

  0.00000000E+00  0.00000000E+00  0.00000000E+00
  0.00000000E+00  0.00000000E+00  0.00000000E+00
  0.00000000E+00  0.00000000E+00  0.00000000E+00
  0.00000000E+00  0.00000000E+00  0.00000000E+00
  0.00000000E+00  0.00000000E+00  0.00000000E+00
  0.00000000E+00  0.00000000E+00  0.00000000E+00
  0.00000000E+00  0.00000000E+00  0.00000000E+00
  0.00000000E+00  0.00000000E+00  0.00000000E+00
  0.00000000E+00  0.00000000E+00  0.00000000E+00
  0.00000000E+00  0.00000000E+00  0.00000000E+00
  0.00000000E+00  0.00000000E+00  0.00000000E+00
  0.00000000E+00  0.00000000E+00  0.00000000E+00
  0.00000000E+00  0.00000000E+00  0.00000000E+00
  0.00000000E+00  0.00000000E+00  0.00000000E+00
  0.00000000E+00  0.00000000E+00  0.00000000E+00
  0.00000000E+00  0.00000000E+00  0.00000000E+00
  0.00000000E+00  0.00000000E+00  0.00000000E+00
  0.00000000E+00  0.00000000E+00  0.00000000E+00
  0.00000000E+00  0.00000000E+00  0.00000000E+00
  0.00000000E+00  0.00000000E+00  0.00000000E+00
  0.00000000E+00  0.00000000E+00  0.00000000E+00
  0.00000000E+00  0.00000000E+00  0.00000000E+00
  0.00000000E+00  0.00000000E+00  0.00000000E+00
  0.00000000E+00  0.00000000E+00  0.00000000E+00
  0.00000000E+00  0.00000000E+00  0.00000000E+00
  0.00000000E+00  0.00000000E+00  0.00000000E+00
  0.00000000E+00  0.00000000E+00  0.00000000E+00
  0.00000000E+00  0.00000000E+00  0.00000000E+00
