Br1                                     
   1.00000000000000     
     2.3632387369563075    2.3632387369563075    0.0000000000000000
     2.3632387369563075    0.0000000000000000   -2.3632387369563075
     0.0000000000000000    2.3632387369563075   -2.3632387369563075
   Br
     1
Direct
  0.0000000000000000  0.0000000000000000  0.0000000000000000
 
  0.00000000E+00  0.00000000E+00  0.00000000E+00
