Al4                                     
   1.00000000000000     
     2.8522095876302704   -0.0000000000512308    0.0000000000000000
    -1.4261047989039524    2.4700863699201534    0.0000000000000000
     0.0000000000000000    0.0000000000000000    9.3783003501396998
   Al
     4
Direct
  0.0000000000000000  0.0000000000000000  0.0000000000000000
  0.3333330000000032  0.6666669999999968  0.2500000000000000
  0.0000000000000000  0.0000000000000000  0.5000000000000000
  0.6666680000000014  0.3333330000000032  0.7500000000000000
 
  0.00000000E+00  0.00000000E+00  0.00000000E+00
  0.00000000E+00  0.00000000E+00  0.00000000E+00
  0.00000000E+00  0.00000000E+00  0.00000000E+00
  0.00000000E+00  0.00000000E+00  0.00000000E+00
