Be1 Tl3 Cl6                             
   1.0000000000000000     
     7.2080286368482280    0.0006331604629621    0.0023121564962914
     0.0006331604629621    7.2080286368482280    0.0023121564962914
     3.6059722178935618    3.6059722178935618    5.1289180355577511
   Cl   Be   Tl
     6     1     3
Direct
  0.7753488112224147  0.2246511887775853  0.0000000000000000
  0.2258791033116623  0.2258791033116623  0.9979177043046263
  0.2246511887775853  0.7753488112224147  0.0000000000000000
  0.7741208966883306  0.7741208966883306  0.0020822956953737
  0.7742443148909288  0.7742443148909288  0.4525148573891755
  0.2257556851090712  0.2257556851090712  0.5474851426108245
  0.0000000000000000  0.0000000000000000  0.0000000000000000
  0.5000000000000000  0.5000000000000000  0.0000000000000000
  0.2500325549653510  0.7499674450346490  0.5000000000000000
  0.7499674450346490  0.2500325549653510  0.5000000000000000

  0.00000000E+00  0.00000000E+00  0.00000000E+00
  0.00000000E+00  0.00000000E+00  0.00000000E+00
  0.00000000E+00  0.00000000E+00  0.00000000E+00
  0.00000000E+00  0.00000000E+00  0.00000000E+00
  0.00000000E+00  0.00000000E+00  0.00000000E+00
  0.00000000E+00  0.00000000E+00  0.00000000E+00
  0.00000000E+00  0.00000000E+00  0.00000000E+00
  0.00000000E+00  0.00000000E+00  0.00000000E+00
  0.00000000E+00  0.00000000E+00  0.00000000E+00
  0.00000000E+00  0.00000000E+00  0.00000000E+00
