Mg1 Tl2 F10                             
   1.0000000000000000     
     3.0370501118867264    4.5741651813705824    0.8470548496943309
    -3.0370501118867264    4.5741651813705824    0.8470548496943309
     0.0000000000000000    4.7120995084864399    6.7478380054364546
   Mg   Tl   F 
     1     2    10
Direct
  0.5566049227477805  0.4433950772522124  0.0000000000000000
  0.0765443908034413  0.0281349591131601  0.7048054444356637
  0.9718650408868470  0.9234556091965587  0.2951945555643434
  0.4064832969853001  0.4691318577375370  0.6222727995830795
  0.5308681422624630  0.5935167030146999  0.3777272004169205
  0.8139405138293370  0.6392764652290737  0.9746852731634590
  0.3607235347709263  0.1860594861706630  0.0253147268365410
  0.8964446861881470  0.1035553138118530  0.0000000000000000
  0.9221767794142082  0.0778232205857918  0.5000000000000000
  0.8825453413764706  0.4908616825489602  0.6383234325589200
  0.5091383174510398  0.1174546586235294  0.3616765674410800
  0.4316184740692108  0.8149544407851863  0.7810623762692899
  0.1850455592148137  0.5683815259307892  0.2189376237307101

  0.00000000E+00  0.00000000E+00  0.00000000E+00
  0.00000000E+00  0.00000000E+00  0.00000000E+00
  0.00000000E+00  0.00000000E+00  0.00000000E+00
  0.00000000E+00  0.00000000E+00  0.00000000E+00
  0.00000000E+00  0.00000000E+00  0.00000000E+00
  0.00000000E+00  0.00000000E+00  0.00000000E+00
  0.00000000E+00  0.00000000E+00  0.00000000E+00
  0.00000000E+00  0.00000000E+00  0.00000000E+00
  0.00000000E+00  0.00000000E+00  0.00000000E+00
  0.00000000E+00  0.00000000E+00  0.00000000E+00
  0.00000000E+00  0.00000000E+00  0.00000000E+00
  0.00000000E+00  0.00000000E+00  0.00000000E+00
  0.00000000E+00  0.00000000E+00  0.00000000E+00
