Be32 In28                               
   1.00000000000000     
    10.0847717198112754    0.0024296549915785    0.0024296548598453
     0.0024296548598453   10.0847717198112736    0.0024296549915785
     0.0024296549915785    0.0024296548598452   10.0847717198112772
   Be   In
    32    28
Direct
  0.7023764141152355  0.5729431475344171  0.0808607291302152
  0.7972771740525033  0.0729731919465237  0.0818687017486752
  0.4173874852606971  0.2965494727812725  0.0734194469482858
  0.0818687017486752  0.7972771740525033  0.0729731919465237
  0.2705732166295363  0.7298120692649022  0.2323963382248238
  0.2301966624662626  0.2301966624662626  0.2301966624662626
  0.0734194469482858  0.4173874852606971  0.2965494727812725
  0.5742593546292767  0.4174426657134873  0.2020175859391600
  0.4253172210048959  0.9168727812846669  0.2977291604095385
  0.9263606004397289  0.9169452013238484  0.2010036459732660
  0.7700202460591115  0.7310402029193241  0.2707859572117925
  0.7298120692649022  0.2323963382248238  0.2705732166295363
  0.9168727812846669  0.2977291604095385  0.4253172210048959
  0.5829857693502305  0.7978189761594621  0.4255242253578047
  0.2020175859391600  0.5742593546292767  0.4174426657134873
  0.2965494727812725  0.0734194469482858  0.4173874852606971
  0.7978189761594621  0.4255242253578047  0.5829857693502305
  0.7010450238460635  0.9257104236562839  0.5811916612521628
  0.0808607291302152  0.7023764141152355  0.5729431475344171
  0.4174426657134873  0.2020175859391600  0.5742593546292767
  0.2323963382248238  0.2705732166295363  0.7298120692649022
  0.2707859572117925  0.7700202460591115  0.7310402029193241
  0.4255242253578047  0.5829857693502305  0.7978189761594621
  0.9257104236562839  0.5811916612521628  0.7010450238460635
  0.0729731919465237  0.0818687017486752  0.7972771740525033
  0.5729431475344171  0.0808607291302152  0.7023764141152355
  0.7310402029193241  0.2707859572117925  0.7700202460591115
  0.7694792543503794  0.7694792543503794  0.7694792543503794
  0.5811916612521628  0.7010450238460635  0.9257104236562839
  0.9169452013238484  0.2010036459732660  0.9263606004397289
  0.2977291604095385  0.4253172210048959  0.9168727812846669
  0.2010036459732660  0.9263606004397289  0.9169452013238484
  0.5029867429909842  0.0058917188887548  0.9992340553754602
  0.7998284259202180  0.8069302921266015  0.0208826555711425
  0.6972657483092775  0.3050230421482993  0.0214541480345076
  0.9784429657591431  0.1949415253609743  0.1963701007273215
  0.5225568495363433  0.6981684104430315  0.1941654536455744
  0.6945814916514124  0.9798581656897127  0.3023932405962455
  0.8063498519324810  0.4792629763731426  0.3016179474695875
  0.1963701007273215  0.9784429657591431  0.1949415253609743
  0.3070862387426700  0.4783120852480707  0.1985608436434134
  0.4783120852480707  0.1985608436434134  0.3070862387426700
  0.0214541480345076  0.6972657483092775  0.3050230421482993
  0.3016179474695875  0.8063498519324810  0.4792629763731426
  0.1985608436434134  0.3070862387426700  0.4783120852480707
  0.4993333818604668  0.4993333818604668  0.4993333818604668
  0.0058917188887548  0.9992340553754602  0.5029867429909842
  0.6981684104430315  0.1941654536455744  0.5225568495363433
  0.8019147095581616  0.6935584562440340  0.5211574691691681
  0.5211574691691681  0.8019147095581616  0.6935584562440340
  0.9798581656897127  0.3023932405962455  0.6945814916514124
  0.8069302921266015  0.0208826555711425  0.7998284259202180
  0.6935584562440340  0.5211574691691681  0.8019147095581616
  0.3050230421482993  0.0214541480345076  0.6972657483092775
  0.1941654536455744  0.5225568495363433  0.6981684104430315
  0.0208826555711425  0.7998284259202180  0.8069302921266015
  0.4792629763731426  0.3016179474695875  0.8063498519324810
  0.1949415253609743  0.1963701007273215  0.9784429657591431
  0.3023932405962455  0.6945814916514124  0.9798581656897127
  0.9992340553754602  0.5029867429909842  0.0058917188887548
 
  0.00000000E+00  0.00000000E+00  0.00000000E+00
  0.00000000E+00  0.00000000E+00  0.00000000E+00
  0.00000000E+00  0.00000000E+00  0.00000000E+00
  0.00000000E+00  0.00000000E+00  0.00000000E+00
  0.00000000E+00  0.00000000E+00  0.00000000E+00
  0.00000000E+00  0.00000000E+00  0.00000000E+00
  0.00000000E+00  0.00000000E+00  0.00000000E+00
  0.00000000E+00  0.00000000E+00  0.00000000E+00
  0.00000000E+00  0.00000000E+00  0.00000000E+00
  0.00000000E+00  0.00000000E+00  0.00000000E+00
  0.00000000E+00  0.00000000E+00  0.00000000E+00
  0.00000000E+00  0.00000000E+00  0.00000000E+00
  0.00000000E+00  0.00000000E+00  0.00000000E+00
  0.00000000E+00  0.00000000E+00  0.00000000E+00
  0.00000000E+00  0.00000000E+00  0.00000000E+00
  0.00000000E+00  0.00000000E+00  0.00000000E+00
  0.00000000E+00  0.00000000E+00  0.00000000E+00
  0.00000000E+00  0.00000000E+00  0.00000000E+00
  0.00000000E+00  0.00000000E+00  0.00000000E+00
  0.00000000E+00  0.00000000E+00  0.00000000E+00
  0.00000000E+00  0.00000000E+00  0.00000000E+00
  0.00000000E+00  0.00000000E+00  0.00000000E+00
  0.00000000E+00  0.00000000E+00  0.00000000E+00
  0.00000000E+00  0.00000000E+00  0.00000000E+00
  0.00000000E+00  0.00000000E+00  0.00000000E+00
  0.00000000E+00  0.00000000E+00  0.00000000E+00
  0.00000000E+00  0.00000000E+00  0.00000000E+00
  0.00000000E+00  0.00000000E+00  0.00000000E+00
  0.00000000E+00  0.00000000E+00  0.00000000E+00
  0.00000000E+00  0.00000000E+00  0.00000000E+00
  0.00000000E+00  0.00000000E+00  0.00000000E+00
  0.00000000E+00  0.00000000E+00  0.00000000E+00
  0.00000000E+00  0.00000000E+00  0.00000000E+00
  0.00000000E+00  0.00000000E+00  0.00000000E+00
  0.00000000E+00  0.00000000E+00  0.00000000E+00
  0.00000000E+00  0.00000000E+00  0.00000000E+00
  0.00000000E+00  0.00000000E+00  0.00000000E+00
  0.00000000E+00  0.00000000E+00  0.00000000E+00
  0.00000000E+00  0.00000000E+00  0.00000000E+00
  0.00000000E+00  0.00000000E+00  0.00000000E+00
  0.00000000E+00  0.00000000E+00  0.00000000E+00
  0.00000000E+00  0.00000000E+00  0.00000000E+00
  0.00000000E+00  0.00000000E+00  0.00000000E+00
  0.00000000E+00  0.00000000E+00  0.00000000E+00
  0.00000000E+00  0.00000000E+00  0.00000000E+00
  0.00000000E+00  0.00000000E+00  0.00000000E+00
  0.00000000E+00  0.00000000E+00  0.00000000E+00
  0.00000000E+00  0.00000000E+00  0.00000000E+00
  0.00000000E+00  0.00000000E+00  0.00000000E+00
  0.00000000E+00  0.00000000E+00  0.00000000E+00
  0.00000000E+00  0.00000000E+00  0.00000000E+00
  0.00000000E+00  0.00000000E+00  0.00000000E+00
  0.00000000E+00  0.00000000E+00  0.00000000E+00
  0.00000000E+00  0.00000000E+00  0.00000000E+00
  0.00000000E+00  0.00000000E+00  0.00000000E+00
  0.00000000E+00  0.00000000E+00  0.00000000E+00
  0.00000000E+00  0.00000000E+00  0.00000000E+00
  0.00000000E+00  0.00000000E+00  0.00000000E+00
  0.00000000E+00  0.00000000E+00  0.00000000E+00
  0.00000000E+00  0.00000000E+00  0.00000000E+00
