Mg10                                    
   1.00000000000000     
     3.1811406132680178   -0.0462415560761103   -0.1569177099772261
    -0.0612986413259318    5.2035316858914236    0.0732616886576350
    -0.8380055406804598    0.1979029576128498   13.7593565986408688
   Mg
    10
Direct
  0.7292598292897594  0.2494446803151789  0.1832075378470321
  0.8067349363399430  0.7504879476222825  0.3167275808255496
  0.0043791430893236  0.7502458485049814  0.7167677831627586
  0.5342235417740042  0.2496010054445037  0.7832800639212891
  0.5998902564518218  0.7490833955563119  0.9167365299210957
  0.9378070533264733  0.2510116682410413  0.5833012539968081
  0.3348330383510785  0.2506137304433835  0.3832756187051416
  0.4083509128689400  0.7513506996313382  0.5167709515702654
  0.1286324705092028  0.2488400764472658  0.9832381033877269
  0.2015988179994608  0.7493359577937255  0.1167025866623348
 
  0.00000000E+00  0.00000000E+00  0.00000000E+00
  0.00000000E+00  0.00000000E+00  0.00000000E+00
  0.00000000E+00  0.00000000E+00  0.00000000E+00
  0.00000000E+00  0.00000000E+00  0.00000000E+00
  0.00000000E+00  0.00000000E+00  0.00000000E+00
  0.00000000E+00  0.00000000E+00  0.00000000E+00
  0.00000000E+00  0.00000000E+00  0.00000000E+00
  0.00000000E+00  0.00000000E+00  0.00000000E+00
  0.00000000E+00  0.00000000E+00  0.00000000E+00
  0.00000000E+00  0.00000000E+00  0.00000000E+00
