Sr3 Al1 Cl1                             
   1.00000000000000     
     5.6651799561745637    0.0000000000000000    0.0000000000000000
     0.0000000000000000    5.6651799561745646    0.0000000000000000
     0.0000000000000000    0.0000000000000000    5.6651799561745637
   Sr   Cl   Al
     3     1     1
Direct
  0.5000000000000000  0.5000000000000000  0.0000000000000000
  0.5000000000000000  0.0000000000000000  0.5000000000000000
  0.0000000000000000  0.5000000000000000  0.5000000000000000
  0.5000000000000000  0.5000000000000000  0.5000000000000000
  0.0000000000000000  0.0000000000000000  0.0000000000000000
 
  0.00000000E+00  0.00000000E+00  0.00000000E+00
  0.00000000E+00  0.00000000E+00  0.00000000E+00
  0.00000000E+00  0.00000000E+00  0.00000000E+00
  0.00000000E+00  0.00000000E+00  0.00000000E+00
  0.00000000E+00  0.00000000E+00  0.00000000E+00
