In12 F28                                
   1.00000000000000     
    10.4784940461335605    0.0000101143442687    0.0013149847630223
    -0.0000054241861023    7.2443147588276968    0.0010518250685585
    -0.0010250339894222   -0.0010996927988781    7.7038775776791208
   F    In
    28    12
Direct
  0.1967588282382451  0.5965347375522612  0.1152105364997027
  0.6967616521892026  0.9034651704439227  0.1152127653152490
  0.8104707335715631  0.2539043053441432  0.0842533139652915
  0.3104688438928491  0.2460872592153720  0.0842674346213244
  0.4865341165358359  0.6208905662841957  0.1608403751755532
  0.9865297678138845  0.8791102225737930  0.1608040314226997
  0.5024553042456432  0.1048294726602634  0.3878325085886587
  0.0024546380564630  0.3951572547600648  0.3878343156188180
  0.6406745024963101  0.3931278951875115  0.3645061169408237
  0.1406529919622344  0.1068367818031746  0.3645349340297344
  0.8070607622339736  0.0698352510347888  0.4069762434778283
  0.3070517636060970  0.4301475076209158  0.4069694017913363
  0.9493030717688811  0.7622063867712754  0.5271074044491684
  0.4492956430434987  0.7377887808532790  0.5271148875176905
  0.3032583300405349  0.0965392071925280  0.6152110225287757
  0.8032554988106426  0.4034590342496571  0.6152124586602881
  0.6895424852893157  0.7539026066447079  0.5842464976302821
  0.1895443456335855  0.7460884328833259  0.5842612096870212
  0.0134965686156008  0.1208890407095780  0.6608182837694088
  0.5135018420190036  0.3791129216849072  0.6607797772798421
  0.9975614466220790  0.6048367934786043  0.8878369683401672
  0.4975628088053980  0.8951507522272166  0.8878387918280168
  0.8593593119259211  0.8931574472713351  0.8645275577034468
  0.3593795686603727  0.6068107014451343  0.8645534897152700
  0.6929684437521431  0.5698467089061694  0.9069742672026351
  0.1929764585302394  0.9301381737501089  0.9069684580957329
  0.5507063687227003  0.2622187786176795  0.0270887749458311
  0.0507141712042767  0.2377784322961674  0.0270981898264040
  0.8382262851338069  0.6779851720926615  0.0734871788577038
  0.3382298457220188  0.8220053997761099  0.0734930188677154
  0.9568521348676029  0.1456534914249019  0.2461999735468652
  0.4568558320474949  0.3543372581306912  0.2462062904692743
  0.8099031715395100  0.5934409994260434  0.4125874674897148
  0.3098969006201031  0.9065521284408220  0.4125908297702239
  0.6617984925319504  0.1779709358389141  0.5734796854217379
  0.1617948832468059  0.3220182280556045  0.5734862091108397
  0.5431690884425677  0.6456490384746374  0.7462022199274188
  0.0431654478625845  0.8543423362003608  0.7462086732014228
  0.6901107784023424  0.0934463855838601  0.9125875825815228
  0.1901168712968087  0.4065480030932349  0.9125908541285597
 
  0.00000000E+00  0.00000000E+00  0.00000000E+00
  0.00000000E+00  0.00000000E+00  0.00000000E+00
  0.00000000E+00  0.00000000E+00  0.00000000E+00
  0.00000000E+00  0.00000000E+00  0.00000000E+00
  0.00000000E+00  0.00000000E+00  0.00000000E+00
  0.00000000E+00  0.00000000E+00  0.00000000E+00
  0.00000000E+00  0.00000000E+00  0.00000000E+00
  0.00000000E+00  0.00000000E+00  0.00000000E+00
  0.00000000E+00  0.00000000E+00  0.00000000E+00
  0.00000000E+00  0.00000000E+00  0.00000000E+00
  0.00000000E+00  0.00000000E+00  0.00000000E+00
  0.00000000E+00  0.00000000E+00  0.00000000E+00
  0.00000000E+00  0.00000000E+00  0.00000000E+00
  0.00000000E+00  0.00000000E+00  0.00000000E+00
  0.00000000E+00  0.00000000E+00  0.00000000E+00
  0.00000000E+00  0.00000000E+00  0.00000000E+00
  0.00000000E+00  0.00000000E+00  0.00000000E+00
  0.00000000E+00  0.00000000E+00  0.00000000E+00
  0.00000000E+00  0.00000000E+00  0.00000000E+00
  0.00000000E+00  0.00000000E+00  0.00000000E+00
  0.00000000E+00  0.00000000E+00  0.00000000E+00
  0.00000000E+00  0.00000000E+00  0.00000000E+00
  0.00000000E+00  0.00000000E+00  0.00000000E+00
  0.00000000E+00  0.00000000E+00  0.00000000E+00
  0.00000000E+00  0.00000000E+00  0.00000000E+00
  0.00000000E+00  0.00000000E+00  0.00000000E+00
  0.00000000E+00  0.00000000E+00  0.00000000E+00
  0.00000000E+00  0.00000000E+00  0.00000000E+00
  0.00000000E+00  0.00000000E+00  0.00000000E+00
  0.00000000E+00  0.00000000E+00  0.00000000E+00
  0.00000000E+00  0.00000000E+00  0.00000000E+00
  0.00000000E+00  0.00000000E+00  0.00000000E+00
  0.00000000E+00  0.00000000E+00  0.00000000E+00
  0.00000000E+00  0.00000000E+00  0.00000000E+00
  0.00000000E+00  0.00000000E+00  0.00000000E+00
  0.00000000E+00  0.00000000E+00  0.00000000E+00
  0.00000000E+00  0.00000000E+00  0.00000000E+00
  0.00000000E+00  0.00000000E+00  0.00000000E+00
  0.00000000E+00  0.00000000E+00  0.00000000E+00
  0.00000000E+00  0.00000000E+00  0.00000000E+00
