Sr1 Ga2 F10                             
   1.00000000000000     
     3.5449063787105244    4.8095222132257813    0.5106064383967021
    -3.5449063787105244    4.8095222132257813    0.5106064383967023
     0.0000000000000001    4.1875199025390524    5.7794989052749921
   Sr   Ga   F 
     1     2    10
Direct
  0.5525345517478399  0.4474654482521672  0.0000000000000000
  0.0156466512807540  0.0090727828194872  0.7346256420512489
  0.9909272171805199  0.9843533487192602  0.2653743579487511
  0.2626764558906132  0.2883032827515564  0.4780762502910392
  0.7116967172484365  0.7373235441093939  0.5219237497089608
  0.7674927055524421  0.7439991695291468  0.9776109573165641
  0.2560008304708532  0.2325072944475579  0.0223890426834359
  0.9003152359678666  0.0996847640321405  0.0000000000000000
  0.1155770786940522  0.8844229213059478  0.5000000000000000
  0.7497321058549247  0.2574664330550789  0.6792264723137578
  0.7425335669449211  0.2502678941450753  0.3207735276862422
  0.3048587570153032  0.8259928738485414  0.7992919479142486
  0.1740071261514515  0.6951412429846897  0.2007080520857514
 
  0.00000000E+00  0.00000000E+00  0.00000000E+00
  0.00000000E+00  0.00000000E+00  0.00000000E+00
  0.00000000E+00  0.00000000E+00  0.00000000E+00
  0.00000000E+00  0.00000000E+00  0.00000000E+00
  0.00000000E+00  0.00000000E+00  0.00000000E+00
  0.00000000E+00  0.00000000E+00  0.00000000E+00
  0.00000000E+00  0.00000000E+00  0.00000000E+00
  0.00000000E+00  0.00000000E+00  0.00000000E+00
  0.00000000E+00  0.00000000E+00  0.00000000E+00
  0.00000000E+00  0.00000000E+00  0.00000000E+00
  0.00000000E+00  0.00000000E+00  0.00000000E+00
  0.00000000E+00  0.00000000E+00  0.00000000E+00
  0.00000000E+00  0.00000000E+00  0.00000000E+00
