Be2Cl3                                  
   1.00000000000000     
    -5.9586038206617742   -0.0002924826228737   -0.0183944566258414
     2.9784302645554206   -5.1606867303570327    0.0493583398575297
    -2.9487903906903994    1.6624478047385820    8.5256801779136833
   Be   Cl
     4     6
Direct
  0.9081925476714261  0.0942240328592590  0.2675119812471536
  0.5396558819833004  0.4624686540726159  0.3779040413934496
  0.4602618069806965  0.5374890579941294  0.6220896963632683
  0.0917041534376111  0.9056766975950907  0.7324884232432254
  0.2468096931305865  0.1129761116174279  0.2559983520010150
  0.8904527713974630  0.4016857778911529  0.2526626602063899
  0.5998603696192646  0.7555678539736590  0.2554445296484644
  0.4000943600835569  0.2443261923862821  0.7444741238731112
  0.1094585160316797  0.5981933575193139  0.7473515690002444
  0.7530098996644341  0.8868922640910739  0.7440746230236641
 
  0.00000000E+00  0.00000000E+00  0.00000000E+00
  0.00000000E+00  0.00000000E+00  0.00000000E+00
  0.00000000E+00  0.00000000E+00  0.00000000E+00
  0.00000000E+00  0.00000000E+00  0.00000000E+00
  0.00000000E+00  0.00000000E+00  0.00000000E+00
  0.00000000E+00  0.00000000E+00  0.00000000E+00
  0.00000000E+00  0.00000000E+00  0.00000000E+00
  0.00000000E+00  0.00000000E+00  0.00000000E+00
  0.00000000E+00  0.00000000E+00  0.00000000E+00
  0.00000000E+00  0.00000000E+00  0.00000000E+00
