Ca1 Tl2 Cl8                             
   1.0000000000000000     
     6.4400040707454167   -3.8750023827481908   -0.1125015919858329
     6.4400040707454167    3.8750023827481908   -0.1125015919858329
    -0.1665138691184424    0.0000000000000000    8.0602438125481424
   Tl   Ca   Cl
     2     1     8
Direct
  0.3237213998899477  0.3237213998899477  0.3048831916237305
  0.6762786001100523  0.6762786001100523  0.6951168083762695
  0.0000000000000000  0.0000000000000000  0.0000000000000000
  0.6267120130831927  0.1139764108875951  0.1351995031053690
  0.1139764108875951  0.6267120130831927  0.1351995031053690
  0.1269891335153517  0.1269891335153517  0.2833700897262901
  0.6332358062314469  0.6332358062314469  0.4031828655523952
  0.3667641937685531  0.3667641937685531  0.5968171344476048
  0.8730108664846483  0.8730108664846483  0.7166299102737099
  0.8860235891124049  0.3732879869168073  0.8648004968946310
  0.3732879869168073  0.8860235891124049  0.8648004968946310

  0.00000000E+00  0.00000000E+00  0.00000000E+00
  0.00000000E+00  0.00000000E+00  0.00000000E+00
  0.00000000E+00  0.00000000E+00  0.00000000E+00
  0.00000000E+00  0.00000000E+00  0.00000000E+00
  0.00000000E+00  0.00000000E+00  0.00000000E+00
  0.00000000E+00  0.00000000E+00  0.00000000E+00
  0.00000000E+00  0.00000000E+00  0.00000000E+00
  0.00000000E+00  0.00000000E+00  0.00000000E+00
  0.00000000E+00  0.00000000E+00  0.00000000E+00
  0.00000000E+00  0.00000000E+00  0.00000000E+00
  0.00000000E+00  0.00000000E+00  0.00000000E+00
