Mg4 In8 I16                             
   1.00000000000000     
     9.9617832076915782   -0.0270780462101567   -0.0265357561980082
    -0.0104215098869320    8.5899949418520158    0.2094021887043482
    -0.0364127722071532    0.3845308444073646   15.1496102811628166
   Mg   I    In
     4    16     8
Direct
  0.7127116393712143  0.2699879408464625  0.0684313704562385
  0.2108638604168505  0.2314872017266651  0.4322230800231424
  0.7885495217160710  0.7677830733247930  0.5675640531578452
  0.2878680788800665  0.7305669952938416  0.9317081059353782
  0.2009562043949202  0.6622208170343811  0.1006970159287803
  0.4423172444744168  0.2034360624068228  0.0693335482162141
  0.8458009616308146  0.0093383174483819  0.1358599161147183
  0.7744706194705842  0.5214523981830652  0.1663510400313939
  0.2744209983390178  0.9809391005051467  0.3348855584080965
  0.3436832354607020  0.4932802559171066  0.3651676154317727
  0.9404738213751784  0.2958405504644688  0.4302263505265884
  0.7000768423298354  0.8338807285869123  0.3981896266782670
  0.2992103496927214  0.1653433379112812  0.6016388163535780
  0.0589266134741280  0.7034276095280063  0.5693731406617957
  0.6557854595754975  0.5060177136786734  0.6347082198493723
  0.7252893186631511  0.0183871346165745  0.6649266307368222
  0.2259877766220697  0.4791887184808061  0.8337562425878531
  0.1547630481236624  0.9912639893015651  0.8643810541032479
  0.5582227546658061  0.7973075051381642  0.9309175804439676
  0.7995571903316758  0.3383138898021016  0.8994434514779428
  0.1040612425993075  0.2758007742137067  0.0094608551358917
  0.5305548811770180  0.8264443694769597  0.1558089731757093
  0.0284459742571244  0.6741601648474571  0.3445155722318844
  0.6014253754675494  0.2229390132196443  0.4899012489254773
  0.3979411300699596  0.7762717447883105  0.5100206216075520
  0.9712132626499326  0.3252935427917265  0.6549532895477057
  0.4699327679107270  0.1743103156714625  0.8444813213551328
  0.8964898268600479  0.7249167347954000  0.9906757008974125
 
  0.00000000E+00  0.00000000E+00  0.00000000E+00
  0.00000000E+00  0.00000000E+00  0.00000000E+00
  0.00000000E+00  0.00000000E+00  0.00000000E+00
  0.00000000E+00  0.00000000E+00  0.00000000E+00
  0.00000000E+00  0.00000000E+00  0.00000000E+00
  0.00000000E+00  0.00000000E+00  0.00000000E+00
  0.00000000E+00  0.00000000E+00  0.00000000E+00
  0.00000000E+00  0.00000000E+00  0.00000000E+00
  0.00000000E+00  0.00000000E+00  0.00000000E+00
  0.00000000E+00  0.00000000E+00  0.00000000E+00
  0.00000000E+00  0.00000000E+00  0.00000000E+00
  0.00000000E+00  0.00000000E+00  0.00000000E+00
  0.00000000E+00  0.00000000E+00  0.00000000E+00
  0.00000000E+00  0.00000000E+00  0.00000000E+00
  0.00000000E+00  0.00000000E+00  0.00000000E+00
  0.00000000E+00  0.00000000E+00  0.00000000E+00
  0.00000000E+00  0.00000000E+00  0.00000000E+00
  0.00000000E+00  0.00000000E+00  0.00000000E+00
  0.00000000E+00  0.00000000E+00  0.00000000E+00
  0.00000000E+00  0.00000000E+00  0.00000000E+00
  0.00000000E+00  0.00000000E+00  0.00000000E+00
  0.00000000E+00  0.00000000E+00  0.00000000E+00
  0.00000000E+00  0.00000000E+00  0.00000000E+00
  0.00000000E+00  0.00000000E+00  0.00000000E+00
  0.00000000E+00  0.00000000E+00  0.00000000E+00
  0.00000000E+00  0.00000000E+00  0.00000000E+00
  0.00000000E+00  0.00000000E+00  0.00000000E+00
  0.00000000E+00  0.00000000E+00  0.00000000E+00
