Be2 Cl8                                 
   1.00000000000000     
     4.5096552795950178   -8.8304528375321780    0.0000000000000000
     4.5096552795950187    8.8304528375321762    0.0000000000000000
     0.0000000000000000    0.0000000000000000    5.2332468061409854
   Cl   Be
     8     2
Direct
  0.6069025171091553  0.1148567237669909  0.0000000000000000
  0.0606698434829553  0.1850463946402172  0.0000000000000000
  0.9393301565170447  0.8149536053597828  0.0000000000000000
  0.3930974828908447  0.8851432762330091  0.0000000000000000
  0.1850463946402172  0.0606698434829553  0.5000000000000000
  0.8851432762330091  0.3930974828908447  0.5000000000000000
  0.1148567237669909  0.6069025171091553  0.5000000000000000
  0.8149536053597828  0.9393301565170447  0.5000000000000000
  0.0000000000000000  0.0000000000000000  0.2500000000000000
  0.0000000000000000  0.0000000000000000  0.7500000000000000
 
  0.00000000E+00  0.00000000E+00  0.00000000E+00
  0.00000000E+00  0.00000000E+00  0.00000000E+00
  0.00000000E+00  0.00000000E+00  0.00000000E+00
  0.00000000E+00  0.00000000E+00  0.00000000E+00
  0.00000000E+00  0.00000000E+00  0.00000000E+00
  0.00000000E+00  0.00000000E+00  0.00000000E+00
  0.00000000E+00  0.00000000E+00  0.00000000E+00
  0.00000000E+00  0.00000000E+00  0.00000000E+00
  0.00000000E+00  0.00000000E+00  0.00000000E+00
  0.00000000E+00  0.00000000E+00  0.00000000E+00
