Mg2 B2 I10                              
   1.0000000000000000     
     4.8655016864227729   -0.0000000000000002    0.0000000000000003
    -0.0000000000000011   13.0082287022225458    0.0000000000000010
     0.0000000000000001    0.0000000000000004   11.3186041633784349
   Mg   B    I 
     2     2    10
Direct
  0.0000000000000000  0.0000000000000000  0.5000000000000000
  0.5000000000000000  0.5000000000000000  0.0000000000000000
  0.5000000000000000  0.0000000000000000  0.0000000000000000
  0.0000000000000000  0.5000000000000000  0.5000000000000000
  0.5000000000000000  0.8552692510556597  0.5000000000000000
  0.5000000000000000  0.1447307489443403  0.5000000000000000
  0.5000000000000000  0.0000000000000000  0.1977457493196226
  0.5000000000000000  0.0000000000000000  0.8022542506803774
  0.0000000000000000  0.0000000000000000  0.0000000000000000
  0.0000000000000000  0.3552692510556597  0.0000000000000000
  0.0000000000000000  0.6447307489443403  0.0000000000000000
  0.0000000000000000  0.5000000000000000  0.6977457493196226
  0.0000000000000000  0.5000000000000000  0.3022542506803774
  0.5000000000000000  0.5000000000000000  0.5000000000000000

  0.00000000E+00  0.00000000E+00  0.00000000E+00
  0.00000000E+00  0.00000000E+00  0.00000000E+00
  0.00000000E+00  0.00000000E+00  0.00000000E+00
  0.00000000E+00  0.00000000E+00  0.00000000E+00
  0.00000000E+00  0.00000000E+00  0.00000000E+00
  0.00000000E+00  0.00000000E+00  0.00000000E+00
  0.00000000E+00  0.00000000E+00  0.00000000E+00
  0.00000000E+00  0.00000000E+00  0.00000000E+00
  0.00000000E+00  0.00000000E+00  0.00000000E+00
  0.00000000E+00  0.00000000E+00  0.00000000E+00
  0.00000000E+00  0.00000000E+00  0.00000000E+00
  0.00000000E+00  0.00000000E+00  0.00000000E+00
  0.00000000E+00  0.00000000E+00  0.00000000E+00
  0.00000000E+00  0.00000000E+00  0.00000000E+00
