Tl3Br                                   
   1.0000000000000000     
     5.0876452100852187   -0.0000000000000000    0.0000000000000000
    -0.0000000000000000    5.0876452100852187   -0.0000000000000000
     0.0000000000000000   -0.0000000000000000    5.0876452100852187
   Br   Tl
     1     3
Direct
  0.0000000000000000  0.0000000000000000  0.0000000000000000
  0.0000000000000000  0.5000000000000000  0.5000000000000000
  0.5000000000000000  0.0000000000000000  0.5000000000000000
  0.5000000000000000  0.5000000000000000  0.0000000000000000

  0.00000000E+00  0.00000000E+00  0.00000000E+00
  0.00000000E+00  0.00000000E+00  0.00000000E+00
  0.00000000E+00  0.00000000E+00  0.00000000E+00
  0.00000000E+00  0.00000000E+00  0.00000000E+00
