Sr1 Ga1 F3                              
   1.00000000000000     
     4.5643277646116251    0.0000000000000000    0.0000000000000000
     0.0000000000000000    4.5643277646116243    0.0000000000000000
     0.0000000000000000    0.0000000000000000    4.7476231673244991
   F    Sr   Ga
     3     1     1
Direct
  0.0000000000000000  0.0000000000000000  0.0132454544550100
  0.5000000000000000  0.0000000000000000  0.6240678646695841
  0.0000000000000000  0.5000000000000000  0.6240678646695841
  0.0000000000000000  0.0000000000000000  0.4986733575523274
  0.5000000000000000  0.5000000000000000  0.8812454586535168
 
  0.00000000E+00  0.00000000E+00  0.00000000E+00
  0.00000000E+00  0.00000000E+00  0.00000000E+00
  0.00000000E+00  0.00000000E+00  0.00000000E+00
  0.00000000E+00  0.00000000E+00  0.00000000E+00
  0.00000000E+00  0.00000000E+00  0.00000000E+00
