Ba16 B16 F80                            
   1.0000000000000000     
    14.1077520757645161   -0.0000005779165907    0.0000000000000009
     0.0000005779165900   14.1077520757645161    0.0000000000000009
    -0.0000000000000000   -0.0000000000000000    7.9932262218952106
   Ba   B    F 
    16    16    80
Direct
  0.5451405592621299  0.7088526305157856  0.4864848174737446
  0.2088526305157785  0.9548594407378701  0.9864848174737446
  0.7911473694842144  0.0451405592621228  0.9864848174737446
  0.4548594407378843  0.2911473694842357  0.4864848174737446
  0.2481249735317164  0.0557985697756749  0.5019363734664068
  0.5557985697756749  0.2518750264682623  0.0019363734663997
  0.4442014302243180  0.7481249735317235  0.0019363734663997
  0.7518750264682765  0.9442014302243251  0.5019363734664068
  0.0451405592621228  0.2088526305157785  0.9864848174737446
  0.7088526305157856  0.4548594407378843  0.4864848174737446
  0.2911473694842357  0.5451405592621299  0.4864848174737446
  0.9548594407378701  0.7911473694842144  0.9864848174737446
  0.7481249735317235  0.5557985697756749  0.0019363734663997
  0.0557985697756749  0.7518750264682765  0.5019363734664068
  0.9442014302243251  0.2481249735317164  0.5019363734664068
  0.2518750264682623  0.4442014302243180  0.0019363734663997
  0.0000000000000000  0.0000000000000000  0.7113182353823149
  0.0000000000000000  0.0000000000000000  0.2176327810536236
  0.5000000000000000  0.0000000000000000  0.0274841726130646
  0.5000000000000000  0.0000000000000000  0.5274841726130646
  0.2954245564468181  0.1830546496194216  0.9542646758262663
  0.6830546496194003  0.2045754435531819  0.4542646758262734
  0.3169453503805855  0.7954245564468181  0.4542646758262734
  0.7045754435531819  0.8169453503805997  0.9542646758262663
  0.5000000000000000  0.5000000000000000  0.2113182353823149
  0.5000000000000000  0.5000000000000000  0.7176327810536165
  0.0000000000000000  0.5000000000000000  0.5274841726130646
  0.0000000000000000  0.5000000000000000  0.0274841726130646
  0.7954245564468181  0.6830546496194003  0.4542646758262734
  0.1830546496194216  0.7045754435531819  0.9542646758262663
  0.8169453503805997  0.2954245564468181  0.9542646758262663
  0.2045754435531819  0.3169453503805855  0.4542646758262734
  0.0000000000000000  0.0000000000000000  0.0395338044142548
  0.0000000000000000  0.0000000000000000  0.5366407140348883
  0.0949235441776608  0.0545120332854978  0.7589621378243692
  0.5545120332855049  0.4050764558223392  0.2589621378243692
  0.4454879667144951  0.5949235441776608  0.2589621378243692
  0.9050764558223392  0.9454879667144951  0.7589621378243692
  0.0992882172573673  0.0508210971811920  0.2531000611216854
  0.5508210971811707  0.4007117827426256  0.7531000611216925
  0.4491789028188080  0.5992882172573673  0.7531000611216925
  0.9007117827426327  0.9491789028188293  0.2531000611216854
  0.5000000000000000  0.0000000000000000  0.6913763519790308
  0.5000000000000000  0.0000000000000000  0.1913763519790308
  0.4571437722472496  0.0716252394918513  0.9465117333590527
  0.5716252394918513  0.0428562277527504  0.4465117333590527
  0.4283747605081487  0.9571437722472496  0.4465117333590527
  0.5428562277527504  0.9283747605081487  0.9465117333590527
  0.4104331695992869  0.1259263877171435  0.5361864853342624
  0.6259263877171364  0.0895668304007060  0.0361864853342553
  0.3740736122828636  0.9104331695992727  0.0361864853342553
  0.5895668304007131  0.8740736122828636  0.5361864853342624
  0.3740253530113833  0.2307930680787251  0.8873815193981045
  0.7307930680787322  0.1259746469886238  0.3873815193980903
  0.2692069319212749  0.8740253530113762  0.3873815193980903
  0.6259746469886238  0.7692069319212678  0.8873815193981045
  0.4275173387927396  0.2473373710863527  0.2022640411028860
  0.7473373710863385  0.0724826612072604  0.7022640411028789
  0.2526626289136473  0.9275173387927538  0.7022640411028789
  0.5724826612072462  0.7526626289136615  0.2022640411028860
  0.2535099972714505  0.1294265680359956  0.8237074491164194
  0.6294265680360169  0.2464900027285424  0.3237074491164265
  0.3705734319639973  0.7535099972714505  0.3237074491164265
  0.7464900027285495  0.8705734319639831  0.8237074491164194
  0.3048328424507929  0.1213511781092080  0.0910799316623425
  0.6213511781092080  0.1951671575492142  0.5910799316623354
  0.3786488218907920  0.8048328424507787  0.5910799316623354
  0.6951671575492213  0.8786488218907920  0.0910799316623425
  0.7297193308639294  0.7537646597291570  0.5052528782971137
  0.2537646597291499  0.7702806691360564  0.0052528782971208
  0.7462353402708430  0.2297193308639294  0.0052528782971208
  0.2702806691360706  0.2462353402708501  0.5052528782971137
  0.5000000000000000  0.5000000000000000  0.5395338044142548
  0.5000000000000000  0.5000000000000000  0.0366407140348883
  0.5949235441776608  0.5545120332855049  0.2589621378243692
  0.0545120332854978  0.9050764558223392  0.7589621378243692
  0.9454879667144951  0.0949235441776608  0.7589621378243692
  0.4050764558223392  0.4454879667144951  0.2589621378243692
  0.5992882172573673  0.5508210971811707  0.7531000611216925
  0.0508210971811920  0.9007117827426327  0.2531000611216854
  0.9491789028188293  0.0992882172573673  0.2531000611216854
  0.4007117827426256  0.4491789028188080  0.7531000611216925
  0.0000000000000000  0.5000000000000000  0.1913763519790308
  0.0000000000000000  0.5000000000000000  0.6913763519790308
  0.9571437722472496  0.5716252394918513  0.4465117333590527
  0.0716252394918513  0.5428562277527504  0.9465117333590527
  0.9283747605081487  0.4571437722472496  0.9465117333590527
  0.0428562277527504  0.4283747605081487  0.4465117333590527
  0.9104331695992727  0.6259263877171364  0.0361864853342553
  0.1259263877171435  0.5895668304007131  0.5361864853342624
  0.8740736122828636  0.4104331695992869  0.5361864853342624
  0.0895668304007060  0.3740736122828636  0.0361864853342553
  0.8740253530113762  0.7307930680787322  0.3873815193980903
  0.2307930680787251  0.6259746469886238  0.8873815193981045
  0.7692069319212678  0.3740253530113833  0.8873815193981045
  0.1259746469886238  0.2692069319212749  0.3873815193980903
  0.9275173387927538  0.7473373710863385  0.7022640411028789
  0.2473373710863527  0.5724826612072462  0.2022640411028860
  0.7526626289136615  0.4275173387927396  0.2022640411028860
  0.0724826612072604  0.2526626289136473  0.7022640411028789
  0.7535099972714505  0.6294265680360169  0.3237074491164265
  0.1294265680359956  0.7464900027285495  0.8237074491164194
  0.8705734319639831  0.2535099972714505  0.8237074491164194
  0.2464900027285424  0.3705734319639973  0.3237074491164265
  0.8048328424507787  0.6213511781092080  0.5910799316623354
  0.1213511781092080  0.6951671575492213  0.0910799316623425
  0.8786488218907920  0.3048328424507929  0.0910799316623425
  0.1951671575492142  0.3786488218907920  0.5910799316623354
  0.2297193308639294  0.2537646597291499  0.0052528782971208
  0.7537646597291570  0.2702806691360706  0.5052528782971137
  0.2462353402708501  0.7297193308639294  0.5052528782971137
  0.7702806691360564  0.7462353402708430  0.0052528782971208

  0.00000000E+00  0.00000000E+00  0.00000000E+00
  0.00000000E+00  0.00000000E+00  0.00000000E+00
  0.00000000E+00  0.00000000E+00  0.00000000E+00
  0.00000000E+00  0.00000000E+00  0.00000000E+00
  0.00000000E+00  0.00000000E+00  0.00000000E+00
  0.00000000E+00  0.00000000E+00  0.00000000E+00
  0.00000000E+00  0.00000000E+00  0.00000000E+00
  0.00000000E+00  0.00000000E+00  0.00000000E+00
  0.00000000E+00  0.00000000E+00  0.00000000E+00
  0.00000000E+00  0.00000000E+00  0.00000000E+00
  0.00000000E+00  0.00000000E+00  0.00000000E+00
  0.00000000E+00  0.00000000E+00  0.00000000E+00
  0.00000000E+00  0.00000000E+00  0.00000000E+00
  0.00000000E+00  0.00000000E+00  0.00000000E+00
  0.00000000E+00  0.00000000E+00  0.00000000E+00
  0.00000000E+00  0.00000000E+00  0.00000000E+00
  0.00000000E+00  0.00000000E+00  0.00000000E+00
  0.00000000E+00  0.00000000E+00  0.00000000E+00
  0.00000000E+00  0.00000000E+00  0.00000000E+00
  0.00000000E+00  0.00000000E+00  0.00000000E+00
  0.00000000E+00  0.00000000E+00  0.00000000E+00
  0.00000000E+00  0.00000000E+00  0.00000000E+00
  0.00000000E+00  0.00000000E+00  0.00000000E+00
  0.00000000E+00  0.00000000E+00  0.00000000E+00
  0.00000000E+00  0.00000000E+00  0.00000000E+00
  0.00000000E+00  0.00000000E+00  0.00000000E+00
  0.00000000E+00  0.00000000E+00  0.00000000E+00
  0.00000000E+00  0.00000000E+00  0.00000000E+00
  0.00000000E+00  0.00000000E+00  0.00000000E+00
  0.00000000E+00  0.00000000E+00  0.00000000E+00
  0.00000000E+00  0.00000000E+00  0.00000000E+00
  0.00000000E+00  0.00000000E+00  0.00000000E+00
  0.00000000E+00  0.00000000E+00  0.00000000E+00
  0.00000000E+00  0.00000000E+00  0.00000000E+00
  0.00000000E+00  0.00000000E+00  0.00000000E+00
  0.00000000E+00  0.00000000E+00  0.00000000E+00
  0.00000000E+00  0.00000000E+00  0.00000000E+00
  0.00000000E+00  0.00000000E+00  0.00000000E+00
  0.00000000E+00  0.00000000E+00  0.00000000E+00
  0.00000000E+00  0.00000000E+00  0.00000000E+00
  0.00000000E+00  0.00000000E+00  0.00000000E+00
  0.00000000E+00  0.00000000E+00  0.00000000E+00
  0.00000000E+00  0.00000000E+00  0.00000000E+00
  0.00000000E+00  0.00000000E+00  0.00000000E+00
  0.00000000E+00  0.00000000E+00  0.00000000E+00
  0.00000000E+00  0.00000000E+00  0.00000000E+00
  0.00000000E+00  0.00000000E+00  0.00000000E+00
  0.00000000E+00  0.00000000E+00  0.00000000E+00
  0.00000000E+00  0.00000000E+00  0.00000000E+00
  0.00000000E+00  0.00000000E+00  0.00000000E+00
  0.00000000E+00  0.00000000E+00  0.00000000E+00
  0.00000000E+00  0.00000000E+00  0.00000000E+00
  0.00000000E+00  0.00000000E+00  0.00000000E+00
  0.00000000E+00  0.00000000E+00  0.00000000E+00
  0.00000000E+00  0.00000000E+00  0.00000000E+00
  0.00000000E+00  0.00000000E+00  0.00000000E+00
  0.00000000E+00  0.00000000E+00  0.00000000E+00
  0.00000000E+00  0.00000000E+00  0.00000000E+00
  0.00000000E+00  0.00000000E+00  0.00000000E+00
  0.00000000E+00  0.00000000E+00  0.00000000E+00
  0.00000000E+00  0.00000000E+00  0.00000000E+00
  0.00000000E+00  0.00000000E+00  0.00000000E+00
  0.00000000E+00  0.00000000E+00  0.00000000E+00
  0.00000000E+00  0.00000000E+00  0.00000000E+00
  0.00000000E+00  0.00000000E+00  0.00000000E+00
  0.00000000E+00  0.00000000E+00  0.00000000E+00
  0.00000000E+00  0.00000000E+00  0.00000000E+00
  0.00000000E+00  0.00000000E+00  0.00000000E+00
  0.00000000E+00  0.00000000E+00  0.00000000E+00
  0.00000000E+00  0.00000000E+00  0.00000000E+00
  0.00000000E+00  0.00000000E+00  0.00000000E+00
  0.00000000E+00  0.00000000E+00  0.00000000E+00
  0.00000000E+00  0.00000000E+00  0.00000000E+00
  0.00000000E+00  0.00000000E+00  0.00000000E+00
  0.00000000E+00  0.00000000E+00  0.00000000E+00
  0.00000000E+00  0.00000000E+00  0.00000000E+00
  0.00000000E+00  0.00000000E+00  0.00000000E+00
  0.00000000E+00  0.00000000E+00  0.00000000E+00
  0.00000000E+00  0.00000000E+00  0.00000000E+00
  0.00000000E+00  0.00000000E+00  0.00000000E+00
  0.00000000E+00  0.00000000E+00  0.00000000E+00
  0.00000000E+00  0.00000000E+00  0.00000000E+00
  0.00000000E+00  0.00000000E+00  0.00000000E+00
  0.00000000E+00  0.00000000E+00  0.00000000E+00
  0.00000000E+00  0.00000000E+00  0.00000000E+00
  0.00000000E+00  0.00000000E+00  0.00000000E+00
  0.00000000E+00  0.00000000E+00  0.00000000E+00
  0.00000000E+00  0.00000000E+00  0.00000000E+00
  0.00000000E+00  0.00000000E+00  0.00000000E+00
  0.00000000E+00  0.00000000E+00  0.00000000E+00
  0.00000000E+00  0.00000000E+00  0.00000000E+00
  0.00000000E+00  0.00000000E+00  0.00000000E+00
  0.00000000E+00  0.00000000E+00  0.00000000E+00
  0.00000000E+00  0.00000000E+00  0.00000000E+00
  0.00000000E+00  0.00000000E+00  0.00000000E+00
  0.00000000E+00  0.00000000E+00  0.00000000E+00
  0.00000000E+00  0.00000000E+00  0.00000000E+00
  0.00000000E+00  0.00000000E+00  0.00000000E+00
  0.00000000E+00  0.00000000E+00  0.00000000E+00
  0.00000000E+00  0.00000000E+00  0.00000000E+00
  0.00000000E+00  0.00000000E+00  0.00000000E+00
  0.00000000E+00  0.00000000E+00  0.00000000E+00
  0.00000000E+00  0.00000000E+00  0.00000000E+00
  0.00000000E+00  0.00000000E+00  0.00000000E+00
  0.00000000E+00  0.00000000E+00  0.00000000E+00
  0.00000000E+00  0.00000000E+00  0.00000000E+00
  0.00000000E+00  0.00000000E+00  0.00000000E+00
  0.00000000E+00  0.00000000E+00  0.00000000E+00
  0.00000000E+00  0.00000000E+00  0.00000000E+00
  0.00000000E+00  0.00000000E+00  0.00000000E+00
  0.00000000E+00  0.00000000E+00  0.00000000E+00
  0.00000000E+00  0.00000000E+00  0.00000000E+00
