Ba22 Al14                               
   1.00000000000000     
    -9.1046830596571358    9.1083646736122610   -0.0023770329086833
     9.1022676079915463    0.0000000000000000   -9.1407701373212618
    -9.1046830596571358   -9.1083646736122610   -0.0023770329086833
   Ba   Al
    22    14
Direct
  0.9999181954089948  0.0002387318385360  0.9999181954089948
  0.3896449742663535  0.2605773340164745  0.1303791116509032
  0.8705484619438906  0.2607420596418493  0.1304846657541319
  0.8696091730731084  0.7394457716873504  0.1293662352909735
  0.5002206878205868  0.0007330266484118  0.1643845411875589
  0.1645585355713806  0.6638209965203785  0.1645585355713806
  0.4992785795698111  0.6636292946837159  0.1640296825069996
  0.1303791116509032  0.2605773340164745  0.3896449742663535
  0.1643845411875589  0.0007330266484118  0.5002206878205868
  0.4999778650099955  0.9995830270329620  0.4999778650099955
  0.8357801079725462  0.9992978071636642  0.4997835025834760
  0.5010941638128230  0.3368999856455375  0.5010941638128230
  0.8357802631694398  0.3362329429204038  0.5007102339974807
  0.1640296825069996  0.6636292946837159  0.4992785795698111
  0.4989060382178252  0.6627542066603382  0.4989060382178252
  0.8696122623807838  0.7393772670522267  0.6102890753899288
  0.4997835025834760  0.9992978071636642  0.8357801079725462
  0.5007102339974807  0.3362329429204038  0.8357802631694398
  0.8353829500216960  0.3361629141394218  0.8353829500216960
  0.1304846657541319  0.2607420596418493  0.8705484619438906
  0.1293662352909735  0.7394457716873504  0.8696091730731084
  0.6102890753899288  0.7393772670522267  0.8696122623807838
  0.6967428385253882  0.3935835044820237  0.0907498188401377
  0.2230607367192832  0.0003147957231775  0.2230607367192832
  0.7771911821862645  0.0000174797521524  0.2228097370262674
  0.2188256230394288  0.4383458338645312  0.2188256230394288
  0.6970325283962353  0.3941461535334128  0.3035319494467217
  0.6964735381673108  0.6059364959242473  0.3028907600473190
  0.9092158508539825  0.6065124259767316  0.3032121641672063
  0.0907498188401377  0.3935835044820237  0.6967428385253882
  0.3035319494467217  0.3941461535334128  0.6970325283962353
  0.3028907600473190  0.6059364959242473  0.6964735381673108
  0.2228097370262674  0.0000174797521524  0.7771911821862645
  0.7769496047003130  0.9996905949476940  0.7769496047003130
  0.7811743612834547  0.5617257866620662  0.7811743612834547
  0.3032121641672063  0.6065124259767316  0.9092158508539825
 
  0.00000000E+00  0.00000000E+00  0.00000000E+00
  0.00000000E+00  0.00000000E+00  0.00000000E+00
  0.00000000E+00  0.00000000E+00  0.00000000E+00
  0.00000000E+00  0.00000000E+00  0.00000000E+00
  0.00000000E+00  0.00000000E+00  0.00000000E+00
  0.00000000E+00  0.00000000E+00  0.00000000E+00
  0.00000000E+00  0.00000000E+00  0.00000000E+00
  0.00000000E+00  0.00000000E+00  0.00000000E+00
  0.00000000E+00  0.00000000E+00  0.00000000E+00
  0.00000000E+00  0.00000000E+00  0.00000000E+00
  0.00000000E+00  0.00000000E+00  0.00000000E+00
  0.00000000E+00  0.00000000E+00  0.00000000E+00
  0.00000000E+00  0.00000000E+00  0.00000000E+00
  0.00000000E+00  0.00000000E+00  0.00000000E+00
  0.00000000E+00  0.00000000E+00  0.00000000E+00
  0.00000000E+00  0.00000000E+00  0.00000000E+00
  0.00000000E+00  0.00000000E+00  0.00000000E+00
  0.00000000E+00  0.00000000E+00  0.00000000E+00
  0.00000000E+00  0.00000000E+00  0.00000000E+00
  0.00000000E+00  0.00000000E+00  0.00000000E+00
  0.00000000E+00  0.00000000E+00  0.00000000E+00
  0.00000000E+00  0.00000000E+00  0.00000000E+00
  0.00000000E+00  0.00000000E+00  0.00000000E+00
  0.00000000E+00  0.00000000E+00  0.00000000E+00
  0.00000000E+00  0.00000000E+00  0.00000000E+00
  0.00000000E+00  0.00000000E+00  0.00000000E+00
  0.00000000E+00  0.00000000E+00  0.00000000E+00
  0.00000000E+00  0.00000000E+00  0.00000000E+00
  0.00000000E+00  0.00000000E+00  0.00000000E+00
  0.00000000E+00  0.00000000E+00  0.00000000E+00
  0.00000000E+00  0.00000000E+00  0.00000000E+00
  0.00000000E+00  0.00000000E+00  0.00000000E+00
  0.00000000E+00  0.00000000E+00  0.00000000E+00
  0.00000000E+00  0.00000000E+00  0.00000000E+00
  0.00000000E+00  0.00000000E+00  0.00000000E+00
  0.00000000E+00  0.00000000E+00  0.00000000E+00
