Tl2F3                                   
   1.0000000000000000     
    -3.3159879079277772    4.6926731225942673    3.3159879079277772
     3.3159879079277772   -4.6926731225942673    3.3159879079277772
     3.3159879079277772    4.6926731225942673   -3.3159879079277772
   F    Tl
     6     4
Direct
  0.2677419070393938  0.0000000000000000  0.2677419070393938
  0.2676394712562953  0.5352789425125692  0.2676394712562953
  0.7323605287437047  0.0000000000000000  0.2676394712562953
  0.7323605287437047  0.4647210574874308  0.7323605287437047
  0.2676394712562953  0.0000000000000000  0.7323605287437047
  0.7322580929606062  0.0000000000000000  0.7322580929606062
  0.0000000000000000  0.0000000000000000  0.0000000000000000
  0.7500000000000000  0.5000000000000000  0.2500000000000000
  0.5000000000000000  0.0000000000000000  0.5000000000000000
  0.2500000000000000  0.5000000000000000  0.7500000000000000

  0.00000000E+00  0.00000000E+00  0.00000000E+00
  0.00000000E+00  0.00000000E+00  0.00000000E+00
  0.00000000E+00  0.00000000E+00  0.00000000E+00
  0.00000000E+00  0.00000000E+00  0.00000000E+00
  0.00000000E+00  0.00000000E+00  0.00000000E+00
  0.00000000E+00  0.00000000E+00  0.00000000E+00
  0.00000000E+00  0.00000000E+00  0.00000000E+00
  0.00000000E+00  0.00000000E+00  0.00000000E+00
  0.00000000E+00  0.00000000E+00  0.00000000E+00
  0.00000000E+00  0.00000000E+00  0.00000000E+00
