Be1 Al8                                 
   1.00000000000000     
     9.8655759105436971   -2.9178869823774058    0.0000000000000000
    -7.5757336759732752    8.0079293087423817    0.0000000000000000
     0.0000000000000000    0.0000000000000000    2.7744769601105936
   Al   Be
     8     1
Direct
  0.3660436553488751  0.2207482065206108  0.0000000000000000
  0.7147456526360259  0.0956228046468084  0.0000000000000000
  0.7863266279108885  0.4041485076334936  0.0000000000000000
  0.1531074152788960  0.2964498318481077  0.0000000000000000
  0.8468925847211040  0.7035501681518923  0.0000000000000000
  0.2136733720891115  0.5958514923664993  0.0000000000000000
  0.2852543473639741  0.9043771953531916  0.0000000000000000
  0.6339563446511249  0.7792517934793892  0.0000000000000000
  0.0000000000000000  0.0000000000000000  0.5000000000000000
 
  0.00000000E+00  0.00000000E+00  0.00000000E+00
  0.00000000E+00  0.00000000E+00  0.00000000E+00
  0.00000000E+00  0.00000000E+00  0.00000000E+00
  0.00000000E+00  0.00000000E+00  0.00000000E+00
  0.00000000E+00  0.00000000E+00  0.00000000E+00
  0.00000000E+00  0.00000000E+00  0.00000000E+00
  0.00000000E+00  0.00000000E+00  0.00000000E+00
  0.00000000E+00  0.00000000E+00  0.00000000E+00
  0.00000000E+00  0.00000000E+00  0.00000000E+00
