Ca4 B6                                  
   1.00000000000000     
     2.0571086523613125   -4.8514074166442320    0.0000000000000000
     2.0571086523613125    4.8514074166442320    0.0000000000000000
     0.0000000000000000    0.0000000000000000    6.4449580362358505
   Ca   B 
     4     6
Direct
  0.1602127434111722  0.8397872565888349  0.0959016999713285
  0.6602127434111651  0.3397872565888278  0.4040983000286715
  0.3397872565888278  0.6602127434111651  0.5959016999713214
  0.8397872565888349  0.1602127434111722  0.9040983000286786
  0.5000000000000000  0.5000000000000000  0.0000000000000000
  0.1779087356956666  0.3220912643043334  0.2500000000000000
  0.6779087356956666  0.8220912643043334  0.2500000000000000
  0.0000000000000000  0.0000000000000000  0.5000000000000000
  0.3220912643043334  0.1779087356956666  0.7500000000000000
  0.8220912643043334  0.6779087356956666  0.7500000000000000
 
  0.00000000E+00  0.00000000E+00  0.00000000E+00
  0.00000000E+00  0.00000000E+00  0.00000000E+00
  0.00000000E+00  0.00000000E+00  0.00000000E+00
  0.00000000E+00  0.00000000E+00  0.00000000E+00
  0.00000000E+00  0.00000000E+00  0.00000000E+00
  0.00000000E+00  0.00000000E+00  0.00000000E+00
  0.00000000E+00  0.00000000E+00  0.00000000E+00
  0.00000000E+00  0.00000000E+00  0.00000000E+00
  0.00000000E+00  0.00000000E+00  0.00000000E+00
  0.00000000E+00  0.00000000E+00  0.00000000E+00
