Sr13 In16                               
   1.0000000000000000     
    -6.3358031929698004   -6.3358031929698004    6.3358031929698004
    -6.3358031929698004    6.3358031929698004   -6.3358031929698004
     6.3358031929698004   -6.3358031929698004   -6.3358031929698004
   In   Sr
    16    13
Direct
  0.7005419615355066  0.0000000000000000  0.0000000000000000
  0.3553415505000785  0.1775870001072803  0.0000000000000000
  0.1775870001072803  0.3553415505000785  0.0000000000000000
  0.0000000000000000  0.7005419615355066  0.0000000000000000
  0.8224129998927197  0.8224129998927197  0.1777545503927982
  0.3553415505000785  0.0000000000000000  0.1775870001072803
  0.0000000000000000  0.3553415505000785  0.1775870001072803
  0.2994580384644934  0.2994580384644934  0.2994580384644934
  0.1775870001072803  0.0000000000000000  0.3553415505000785
  0.0000000000000000  0.1775870001072803  0.3553415505000785
  0.8222454496072018  0.6446584494999215  0.6446584494999215
  0.6446584494999215  0.8222454496072018  0.6446584494999215
  0.0000000000000000  0.0000000000000000  0.7005419615355066
  0.8224129998927197  0.1777545503927982  0.8224129998927197
  0.1777545503927982  0.8224129998927197  0.8224129998927197
  0.6446584494999215  0.6446584494999215  0.8222454496072018
  0.0000000000000000  0.0000000000000000  0.0000000000000000
  0.7304878420010823  0.4433931844304837  0.0000000000000000
  0.4433931844304837  0.7304878420010823  0.0000000000000000
  0.5566068155695163  0.5566068155695163  0.2870946575705986
  0.7129053424294014  0.2695121579989177  0.2695121579989177
  0.2695121579989177  0.7129053424294014  0.2695121579989177
  0.7304878420010823  0.0000000000000000  0.4433931844304837
  0.0000000000000000  0.7304878420010823  0.4433931844304837
  0.5566068155695163  0.2870946575705986  0.5566068155695163
  0.2870946575705986  0.5566068155695163  0.5566068155695163
  0.4433931844304837  0.0000000000000000  0.7304878420010823
  0.0000000000000000  0.4433931844304837  0.7304878420010823
  0.2695121579989177  0.2695121579989177  0.7129053424294014

  0.00000000E+00  0.00000000E+00  0.00000000E+00
  0.00000000E+00  0.00000000E+00  0.00000000E+00
  0.00000000E+00  0.00000000E+00  0.00000000E+00
  0.00000000E+00  0.00000000E+00  0.00000000E+00
  0.00000000E+00  0.00000000E+00  0.00000000E+00
  0.00000000E+00  0.00000000E+00  0.00000000E+00
  0.00000000E+00  0.00000000E+00  0.00000000E+00
  0.00000000E+00  0.00000000E+00  0.00000000E+00
  0.00000000E+00  0.00000000E+00  0.00000000E+00
  0.00000000E+00  0.00000000E+00  0.00000000E+00
  0.00000000E+00  0.00000000E+00  0.00000000E+00
  0.00000000E+00  0.00000000E+00  0.00000000E+00
  0.00000000E+00  0.00000000E+00  0.00000000E+00
  0.00000000E+00  0.00000000E+00  0.00000000E+00
  0.00000000E+00  0.00000000E+00  0.00000000E+00
  0.00000000E+00  0.00000000E+00  0.00000000E+00
  0.00000000E+00  0.00000000E+00  0.00000000E+00
  0.00000000E+00  0.00000000E+00  0.00000000E+00
  0.00000000E+00  0.00000000E+00  0.00000000E+00
  0.00000000E+00  0.00000000E+00  0.00000000E+00
  0.00000000E+00  0.00000000E+00  0.00000000E+00
  0.00000000E+00  0.00000000E+00  0.00000000E+00
  0.00000000E+00  0.00000000E+00  0.00000000E+00
  0.00000000E+00  0.00000000E+00  0.00000000E+00
  0.00000000E+00  0.00000000E+00  0.00000000E+00
  0.00000000E+00  0.00000000E+00  0.00000000E+00
  0.00000000E+00  0.00000000E+00  0.00000000E+00
  0.00000000E+00  0.00000000E+00  0.00000000E+00
  0.00000000E+00  0.00000000E+00  0.00000000E+00
