Ba1 Tl8                                 
   1.0000000000000000     
    11.0384030643411979   -0.0081120875518404    0.0000000000000000
    -5.5262271289675384    9.5554432585252886    0.0000000000000000
     0.0000000000000000    0.0000000000000000    3.3836537508680542
   Tl   Ba
     8     1
Direct
  0.3473812939057268  0.1736519664669203  0.0000000000000000
  0.8265096754453367  0.1734889175626790  0.0000000000000000
  0.6670583225576365  0.3329425186214152  0.0000000000000000
  0.1736597679660221  0.3473780623163805  0.0000000000000000
  0.8263402320339779  0.6526219376836195  0.0000000000000000
  0.3329416774423635  0.6670574813785848  0.0000000000000000
  0.1734903245546633  0.8265110824373210  0.0000000000000000
  0.6526187060942732  0.8263480335330797  0.0000000000000000
  0.0000000000000000  0.0000000000000000  0.5000000000000000

  0.00000000E+00  0.00000000E+00  0.00000000E+00
  0.00000000E+00  0.00000000E+00  0.00000000E+00
  0.00000000E+00  0.00000000E+00  0.00000000E+00
  0.00000000E+00  0.00000000E+00  0.00000000E+00
  0.00000000E+00  0.00000000E+00  0.00000000E+00
  0.00000000E+00  0.00000000E+00  0.00000000E+00
  0.00000000E+00  0.00000000E+00  0.00000000E+00
  0.00000000E+00  0.00000000E+00  0.00000000E+00
  0.00000000E+00  0.00000000E+00  0.00000000E+00
