Al8 Cl14                                
   1.00000000000000     
     3.5294253366561641   -6.1102040280427001   -0.0020748802367292
    -3.5294253366561641   -6.1102040280427001   -0.0020748802367292
     0.0000000000000000    4.0676954973789750  -14.7131742106888765
   Cl   Al
    14     8
Direct
  0.3424631545503942  0.3424631545503942  0.0270624339802268
  0.8887579046660434  0.3910057039266519  0.1699769618457196
  0.3910057039266519  0.8887579046660434  0.1699769618457196
  0.8887026093568124  0.8887026093568124  0.1700196497456190
  0.6238133594862205  0.1579685111613784  0.4058092381552072
  0.1579685111613784  0.6238133594862205  0.4058092381552072
  0.6241090050061260  0.6241090050061260  0.4056954840498719
  0.3761250637609663  0.3761250637609663  0.5942979372473971
  0.8423111353780044  0.3763068944037045  0.5941209632424744
  0.3763068944037045  0.8423111353780044  0.5941209632424744
  0.1114850629267252  0.1114850629267252  0.8298558352795453
  0.6092888094568778  0.1116533545384755  0.8300549232525398
  0.1116533545384755  0.6092888094568778  0.8300549232525398
  0.6571572475556025  0.6571572475556025  0.9728935805058399
  0.0009580348361879  0.0009580348361879  0.0003089202205118
  0.7058238636631486  0.7058238636631486  0.1188356254397576
  0.4170688553691022  0.4170688553691022  0.2527184499273858
  0.1579905690570271  0.1579905690570271  0.4752327794531936
  0.5001173638109364  0.5001173638109364  0.5000129372133699
  0.8414847297300625  0.8414847297300625  0.5246180682296426
  0.5818100262881671  0.5818100262881671  0.7471720534414388
  0.2943987410713689  0.2943987410713689  0.8810520722743647
 
  0.00000000E+00  0.00000000E+00  0.00000000E+00
  0.00000000E+00  0.00000000E+00  0.00000000E+00
  0.00000000E+00  0.00000000E+00  0.00000000E+00
  0.00000000E+00  0.00000000E+00  0.00000000E+00
  0.00000000E+00  0.00000000E+00  0.00000000E+00
  0.00000000E+00  0.00000000E+00  0.00000000E+00
  0.00000000E+00  0.00000000E+00  0.00000000E+00
  0.00000000E+00  0.00000000E+00  0.00000000E+00
  0.00000000E+00  0.00000000E+00  0.00000000E+00
  0.00000000E+00  0.00000000E+00  0.00000000E+00
  0.00000000E+00  0.00000000E+00  0.00000000E+00
  0.00000000E+00  0.00000000E+00  0.00000000E+00
  0.00000000E+00  0.00000000E+00  0.00000000E+00
  0.00000000E+00  0.00000000E+00  0.00000000E+00
  0.00000000E+00  0.00000000E+00  0.00000000E+00
  0.00000000E+00  0.00000000E+00  0.00000000E+00
  0.00000000E+00  0.00000000E+00  0.00000000E+00
  0.00000000E+00  0.00000000E+00  0.00000000E+00
  0.00000000E+00  0.00000000E+00  0.00000000E+00
  0.00000000E+00  0.00000000E+00  0.00000000E+00
  0.00000000E+00  0.00000000E+00  0.00000000E+00
  0.00000000E+00  0.00000000E+00  0.00000000E+00
