Ca1 Al3 Cl6                             
   1.00000000000000     
     7.2099600931628620    0.0027069155136610   -0.0199086397287595
     0.0027069155136610    7.2099600931628611   -0.0199086397287595
     3.5922644747659174    3.5922644747659174    5.0784367547524889
   Cl   Ca   Al
     6     1     3
Direct
  0.7327490745177201  0.2672509254822799  0.0000000000000000
  0.2689434521953871  0.2689434521953871  0.9965380671457567
  0.2672509254822799  0.7327490745177201  0.0000000000000000
  0.7310565478046129  0.7310565478046129  0.0034619328542433
  0.7324541525941797  0.7324541525941797  0.5343623710740957
  0.2675458474058203  0.2675458474058203  0.4656376289259043
  0.0000000000000000  0.0000000000000000  0.0000000000000000
  0.5000000000000000  0.5000000000000000  0.0000000000000000
  0.2508357434337256  0.7491642565662744  0.5000000000000000
  0.7491642565662744  0.2508357434337256  0.5000000000000000
 
  0.00000000E+00  0.00000000E+00  0.00000000E+00
  0.00000000E+00  0.00000000E+00  0.00000000E+00
  0.00000000E+00  0.00000000E+00  0.00000000E+00
  0.00000000E+00  0.00000000E+00  0.00000000E+00
  0.00000000E+00  0.00000000E+00  0.00000000E+00
  0.00000000E+00  0.00000000E+00  0.00000000E+00
  0.00000000E+00  0.00000000E+00  0.00000000E+00
  0.00000000E+00  0.00000000E+00  0.00000000E+00
  0.00000000E+00  0.00000000E+00  0.00000000E+00
  0.00000000E+00  0.00000000E+00  0.00000000E+00
