Sr2 Tl10                                
   1.0000000000000000     
     3.3118843950968500   -5.8837238729584964    0.0000000000000000
     3.3118843950968491    5.8837238729584964    0.0000000000000000
     0.0000000000000000    0.0000000000000000   10.6227677808280720
   Sr   Tl
     2    10
Direct
  0.0000000000000000  0.0000000000000000  0.0000000000000000
  0.0000000000000000  0.0000000000000000  0.5000000000000000
  0.7210116817524010  0.4016126613659523  0.0000000000000000
  0.2789883182475990  0.5983873386340477  0.0000000000000000
  0.5000000000000000  0.0000000000000000  0.2122706519656035
  0.5000000000000000  0.5000000000000000  0.2500000000000000
  0.0000000000000000  0.5000000000000000  0.2877293480343965
  0.5983873386340477  0.2789883182475990  0.5000000000000000
  0.4016126613659523  0.7210116817524010  0.5000000000000000
  0.0000000000000000  0.5000000000000000  0.7122706519656035
  0.5000000000000000  0.5000000000000000  0.7500000000000000
  0.5000000000000000  0.0000000000000000  0.7877293480343965

  0.00000000E+00  0.00000000E+00  0.00000000E+00
  0.00000000E+00  0.00000000E+00  0.00000000E+00
  0.00000000E+00  0.00000000E+00  0.00000000E+00
  0.00000000E+00  0.00000000E+00  0.00000000E+00
  0.00000000E+00  0.00000000E+00  0.00000000E+00
  0.00000000E+00  0.00000000E+00  0.00000000E+00
  0.00000000E+00  0.00000000E+00  0.00000000E+00
  0.00000000E+00  0.00000000E+00  0.00000000E+00
  0.00000000E+00  0.00000000E+00  0.00000000E+00
  0.00000000E+00  0.00000000E+00  0.00000000E+00
  0.00000000E+00  0.00000000E+00  0.00000000E+00
  0.00000000E+00  0.00000000E+00  0.00000000E+00
