Mg15 Tl1                                
   1.0000000000000000     
     3.1544300446956020   -5.4636334000721174    0.0000000000000000
     3.1544300446956020    5.4636334000721174    0.0000000000000000
    -0.0000000000000000    0.0000000000000000   10.6426388459642745
   Mg   Tl
    15     1
Direct
  0.3333330000000032  0.6666669999999968  0.5000000000000000
  0.8331362532506716  0.6662725065013007  0.0000000000000000
  0.8332628720552719  0.6665247441104256  0.5000000000000000
  0.8331362532506219  0.1668637467493781  0.0000000000000000
  0.8332628720551511  0.1667371279448489  0.5000000000000000
  0.3337274934986993  0.1668637467493284  0.0000000000000000
  0.3334752558895744  0.1667371279447281  0.5000000000000000
  0.6693010404975439  0.8346510202477404  0.2533637266055848
  0.6693010404975439  0.8346510202477404  0.7466362733944152
  0.1653489797501990  0.8346510202498010  0.2533637266055848
  0.1653489797501990  0.8346510202498010  0.7466362733944152
  0.1653489797522596  0.3306989595024561  0.2533637266055848
  0.1653489797522596  0.3306989595024561  0.7466362733944152
  0.6666669999999968  0.3333330000000032  0.2516672740487422
  0.6666669999999968  0.3333330000000032  0.7483327259512578
  0.3333330000000032  0.6666669999999968  0.0000000000000000

  0.00000000E+00  0.00000000E+00  0.00000000E+00
  0.00000000E+00  0.00000000E+00  0.00000000E+00
  0.00000000E+00  0.00000000E+00  0.00000000E+00
  0.00000000E+00  0.00000000E+00  0.00000000E+00
  0.00000000E+00  0.00000000E+00  0.00000000E+00
  0.00000000E+00  0.00000000E+00  0.00000000E+00
  0.00000000E+00  0.00000000E+00  0.00000000E+00
  0.00000000E+00  0.00000000E+00  0.00000000E+00
  0.00000000E+00  0.00000000E+00  0.00000000E+00
  0.00000000E+00  0.00000000E+00  0.00000000E+00
  0.00000000E+00  0.00000000E+00  0.00000000E+00
  0.00000000E+00  0.00000000E+00  0.00000000E+00
  0.00000000E+00  0.00000000E+00  0.00000000E+00
  0.00000000E+00  0.00000000E+00  0.00000000E+00
  0.00000000E+00  0.00000000E+00  0.00000000E+00
  0.00000000E+00  0.00000000E+00  0.00000000E+00
