Ba4 In2 I10                             
   1.0000000000000000     
     9.0902463970648348   -4.8085100294393355   -0.1336653501973105
     9.0886327447493986    4.8055993427122505   -0.1345345218297348
    -4.9718970975219694    0.0000898888587094    8.2281810861069520
   I    In   Ba
    10     2     4
Direct
  0.5000208199339653  0.9997874950153474  0.9998889924891472
  0.0085494608919561  0.2085548905007002  0.0080527564586603
  0.5082858574361779  0.7089413086788738  0.2086038765031901
  0.2909523652749471  0.4916734650543333  0.2910817646239110
  0.7913068257313256  0.9914391182791533  0.4918267531040357
  0.9999759666928583  0.4999519234500411  0.4999192710632059
  0.2088022668707055  0.0082770259443805  0.5080521668300833
  0.7091790556424726  0.5075351044147567  0.7081611335970592
  0.4918079768678396  0.2908310875546718  0.7911746828036428
  0.9915554771663366  0.7911811386545367  0.9918697097959566
  0.7507804249725964  0.2497815554752307  0.2506960609791520
  0.2486722898721752  0.7527777643788767  0.7510569625633110
  0.8451890965129252  0.6545631852819156  0.1545803724890078
  0.3453749494252989  0.1549920241317153  0.3454662168229063
  0.6548245567639128  0.8447473271920174  0.6546439759793827
  0.1550226099444956  0.3452655859934382  0.8452253038973581

  0.00000000E+00  0.00000000E+00  0.00000000E+00
  0.00000000E+00  0.00000000E+00  0.00000000E+00
  0.00000000E+00  0.00000000E+00  0.00000000E+00
  0.00000000E+00  0.00000000E+00  0.00000000E+00
  0.00000000E+00  0.00000000E+00  0.00000000E+00
  0.00000000E+00  0.00000000E+00  0.00000000E+00
  0.00000000E+00  0.00000000E+00  0.00000000E+00
  0.00000000E+00  0.00000000E+00  0.00000000E+00
  0.00000000E+00  0.00000000E+00  0.00000000E+00
  0.00000000E+00  0.00000000E+00  0.00000000E+00
  0.00000000E+00  0.00000000E+00  0.00000000E+00
  0.00000000E+00  0.00000000E+00  0.00000000E+00
  0.00000000E+00  0.00000000E+00  0.00000000E+00
  0.00000000E+00  0.00000000E+00  0.00000000E+00
  0.00000000E+00  0.00000000E+00  0.00000000E+00
  0.00000000E+00  0.00000000E+00  0.00000000E+00
