In                                      
   1.00000000000000     
    -3.2282518320064173    0.0000000000000000    0.0000000000000004
     0.0000000000000000   -3.2282518320064169    0.0000000000000002
     1.6141259160032093    1.6141259160032080    2.6310692731299836
   In
     1
Direct
  0.0000000000000000  0.0000000000000000  0.0000000000000000
 
  0.00000000E+00  0.00000000E+00  0.00000000E+00
