Ca2 In2 F10                             
   1.0000000000000000     
     5.2170078264159647   -0.0446540847680301    1.8336446258349357
     1.0996976154713747    5.0999827752010525    1.8336447537120906
    -0.2295991682137425   -0.1837490520578456    7.9251394608054042
   Ca   In   F 
     2     2    10
Direct
  0.4658440521169069  0.5341559480304809  0.2499999999480380
  0.5341559478830931  0.4658440519695191  0.7500000000519620
  0.0000000000000000  0.0000000000000000  0.5000000000000000
  0.0000000000000000  0.0000000000000000  0.0000000000000000
  0.8437557044372639  0.6828203432438755  0.6372893438240581
  0.3171796593563556  0.1562432933288491  0.8627106560977182
  0.1562432955627528  0.3171796567561245  0.3627116561759465
  0.6828203406436444  0.8437557066711534  0.1372893439022747
  0.8918361792038709  0.1081638201836839  0.7500000003886313
  0.1081638207961362  0.8918361798163161  0.2499999996113687
  0.7419819394244129  0.3576003893218171  0.0216060525753505
  0.6423996090646327  0.2580180587288936  0.4783939495520073
  0.2580180605755871  0.6423996106781829  0.9783939474246495
  0.3576003909353673  0.7419819412711064  0.5216060504479856

  0.00000000E+00  0.00000000E+00  0.00000000E+00
  0.00000000E+00  0.00000000E+00  0.00000000E+00
  0.00000000E+00  0.00000000E+00  0.00000000E+00
  0.00000000E+00  0.00000000E+00  0.00000000E+00
  0.00000000E+00  0.00000000E+00  0.00000000E+00
  0.00000000E+00  0.00000000E+00  0.00000000E+00
  0.00000000E+00  0.00000000E+00  0.00000000E+00
  0.00000000E+00  0.00000000E+00  0.00000000E+00
  0.00000000E+00  0.00000000E+00  0.00000000E+00
  0.00000000E+00  0.00000000E+00  0.00000000E+00
  0.00000000E+00  0.00000000E+00  0.00000000E+00
  0.00000000E+00  0.00000000E+00  0.00000000E+00
  0.00000000E+00  0.00000000E+00  0.00000000E+00
  0.00000000E+00  0.00000000E+00  0.00000000E+00
