Ba13 Tl14                               
   1.0000000000000000     
     6.4508668914795173    6.4508668914795200    6.4513800146561993
     6.4508668914795173   -6.4513800146561993   -6.4508668914795191
    -6.4513800146561993    6.4508668914795200   -6.4508668914795191
   Tl   Ba
    14    13
Direct
  0.3124923785745324  0.9999737455046471  0.9999737455046471
  0.6875076214254676  0.0000262544953529  0.0000262544953529
  0.3404534855632662  0.3404534855632662  0.0000137907104758
  0.9999737455046471  0.3124923785745324  0.9999737455046471
  0.0000262544953529  0.6875076214254676  0.0000262544953529
  0.6595465144367338  0.6595465144367338  0.9999862092895242
  0.3404534855632662  0.0000137907104758  0.3404534855632662
  0.0000137907104758  0.3404534855632662  0.3404534855632662
  0.9999737455046471  0.9999737455046471  0.3124923785745324
  0.3125699174641241  0.3125699174641241  0.3125699174641241
  0.0000262544953529  0.0000262544953529  0.6875076214254676
  0.6874300825358759  0.6874300825358759  0.6874300825358759
  0.6595465144367338  0.9999862092895242  0.6595465144367338
  0.9999862092895242  0.6595465144367338  0.6595465144367338
  0.0000000000000000  0.0000000000000000  0.0000000000000000
  0.6916011522533623  0.3083988477466377  0.0000000000000000
  0.3083988477466377  0.6916011522533623  0.0000000000000000
  0.6916201508965187  0.6916201508965187  0.3831954536428910
  0.6916011522533623  0.0000000000000000  0.3083988477466377
  0.0000000000000000  0.6916011522533623  0.3083988477466377
  0.6168045463571090  0.3083798491034813  0.3083798491034813
  0.3083798491034813  0.6168045463571090  0.3083798491034813
  0.3083988477466377  0.0000000000000000  0.6916011522533623
  0.6916201508965187  0.3831954536428910  0.6916201508965187
  0.0000000000000000  0.3083988477466377  0.6916011522533623
  0.3831954536428910  0.6916201508965187  0.6916201508965187
  0.3083798491034813  0.3083798491034813  0.6168045463571090

  0.00000000E+00  0.00000000E+00  0.00000000E+00
  0.00000000E+00  0.00000000E+00  0.00000000E+00
  0.00000000E+00  0.00000000E+00  0.00000000E+00
  0.00000000E+00  0.00000000E+00  0.00000000E+00
  0.00000000E+00  0.00000000E+00  0.00000000E+00
  0.00000000E+00  0.00000000E+00  0.00000000E+00
  0.00000000E+00  0.00000000E+00  0.00000000E+00
  0.00000000E+00  0.00000000E+00  0.00000000E+00
  0.00000000E+00  0.00000000E+00  0.00000000E+00
  0.00000000E+00  0.00000000E+00  0.00000000E+00
  0.00000000E+00  0.00000000E+00  0.00000000E+00
  0.00000000E+00  0.00000000E+00  0.00000000E+00
  0.00000000E+00  0.00000000E+00  0.00000000E+00
  0.00000000E+00  0.00000000E+00  0.00000000E+00
  0.00000000E+00  0.00000000E+00  0.00000000E+00
  0.00000000E+00  0.00000000E+00  0.00000000E+00
  0.00000000E+00  0.00000000E+00  0.00000000E+00
  0.00000000E+00  0.00000000E+00  0.00000000E+00
  0.00000000E+00  0.00000000E+00  0.00000000E+00
  0.00000000E+00  0.00000000E+00  0.00000000E+00
  0.00000000E+00  0.00000000E+00  0.00000000E+00
  0.00000000E+00  0.00000000E+00  0.00000000E+00
  0.00000000E+00  0.00000000E+00  0.00000000E+00
  0.00000000E+00  0.00000000E+00  0.00000000E+00
  0.00000000E+00  0.00000000E+00  0.00000000E+00
  0.00000000E+00  0.00000000E+00  0.00000000E+00
  0.00000000E+00  0.00000000E+00  0.00000000E+00
