Mg3Tl5                                  
   1.0000000000000000     
     7.7034627471714217   -4.4485692310390448    0.0000000000000000
     7.7034627471714217    4.4485692310390448   -0.0000000000000000
     0.0000000000000000   -0.0000000000000000    6.3760339887079445
   Mg   Tl
     6    10
Direct
  0.4026047836302737  0.9997863373092031  0.2500000000000000
  0.5972815570599366  0.4027184429400634  0.2500000000000000
  0.0002136626907969  0.5973952163697263  0.2500000000000000
  0.5973952163697263  0.0002136626907969  0.7500000000000000
  0.9997863373092031  0.4026047836302737  0.7500000000000000
  0.4027184429400634  0.5972815570599366  0.7500000000000000
  0.3332880223592554  0.3332880223592554  0.0000000000000000
  0.6667119776407446  0.6667119776407446  0.0000000000000000
  0.7668125165162252  0.0001422543178506  0.2500000000000000
  0.9998577456821494  0.2331874834837677  0.2500000000000000
  0.2333427785766986  0.7666572214233014  0.2500000000000000
  0.3332880223592554  0.3332880223592554  0.5000000000000000
  0.6667119776407446  0.6667119776407446  0.5000000000000000
  0.2331874834837677  0.9998577456821494  0.7500000000000000
  0.7666572214233014  0.2333427785766986  0.7500000000000000
  0.0001422543178506  0.7668125165162252  0.7500000000000000

  0.00000000E+00  0.00000000E+00  0.00000000E+00
  0.00000000E+00  0.00000000E+00  0.00000000E+00
  0.00000000E+00  0.00000000E+00  0.00000000E+00
  0.00000000E+00  0.00000000E+00  0.00000000E+00
  0.00000000E+00  0.00000000E+00  0.00000000E+00
  0.00000000E+00  0.00000000E+00  0.00000000E+00
  0.00000000E+00  0.00000000E+00  0.00000000E+00
  0.00000000E+00  0.00000000E+00  0.00000000E+00
  0.00000000E+00  0.00000000E+00  0.00000000E+00
  0.00000000E+00  0.00000000E+00  0.00000000E+00
  0.00000000E+00  0.00000000E+00  0.00000000E+00
  0.00000000E+00  0.00000000E+00  0.00000000E+00
  0.00000000E+00  0.00000000E+00  0.00000000E+00
  0.00000000E+00  0.00000000E+00  0.00000000E+00
  0.00000000E+00  0.00000000E+00  0.00000000E+00
  0.00000000E+00  0.00000000E+00  0.00000000E+00
