Sr16 Tl12 I1                            
   1.0000000000000000     
     8.6187419029965771   -4.9760808573879478    3.5162478876242562
     0.3358472484809304   10.9160684317027243    4.0663963105155849
    -9.2855743292443691   -5.7484294167781655    4.0663767485743207
   Tl   I    Sr
    12     1    16
Direct
  0.8083756537937603  0.5855353562753649  0.0000172138859895
  0.5686227197758100  0.7295775074280826  0.0001895582602529
  0.3498412414487717  0.3780463188256888  0.1885124371315570
  0.1612388010018933  0.8113299020213773  0.1895669722620852
  0.8388043059111823  0.2701325301677002  0.2701325488759423
  0.3498412431426061  0.1885124417803823  0.3780463077604495
  0.2227453991890798  0.4144227921259045  0.4144227841864918
  0.8083756598400385  0.0000172220982719  0.5855353677600519
  0.9718316463326815  0.8102600695600444  0.6219039612271047
  0.5686227023188906  0.0001895386405550  0.7295774568051385
  0.9718316382070356  0.6219039395275985  0.8102600671297964
  0.1612388076548399  0.1895669869999494  0.8113299182826879
  0.4785603202600512  0.0002435405177010  0.0002435371300535
  0.9447006888639464  0.2151705415718439  0.9999451775966079
  0.5552087728855994  0.2946167609932004  0.9998810747096130
  0.2387971163623064  0.5494163389381086  0.9999584667806189
  0.1777923288291063  0.9999376872049481  0.9999386884906869
  0.7322896067271927  0.7128272684540349  0.2849580055250058
  0.5552088053343383  0.9998821056621310  0.2946168301486765
  0.0193290674116184  0.5719459437490713  0.2873398119154018
  0.9447006795203450  0.9999451637634422  0.2151705190604858
  0.6891849559452226  0.4503743658048975  0.4503743909091824
  0.4473238944695694  0.7151528928801554  0.4280151380944375
  0.0193290719798540  0.2873398407687660  0.5719459522662973
  0.2387971035081478  0.9999584458585886  0.5494162979296249
  0.7296045365113741  0.7849691473165521  0.7849691609813192
  0.7322896106270065  0.2849579968103200  0.7128272871349708
  0.2613897379519585  0.7057532364924413  0.7057531998535680
  0.4473238841957539  0.4280151177628539  0.7151528679059211

  0.00000000E+00  0.00000000E+00  0.00000000E+00
  0.00000000E+00  0.00000000E+00  0.00000000E+00
  0.00000000E+00  0.00000000E+00  0.00000000E+00
  0.00000000E+00  0.00000000E+00  0.00000000E+00
  0.00000000E+00  0.00000000E+00  0.00000000E+00
  0.00000000E+00  0.00000000E+00  0.00000000E+00
  0.00000000E+00  0.00000000E+00  0.00000000E+00
  0.00000000E+00  0.00000000E+00  0.00000000E+00
  0.00000000E+00  0.00000000E+00  0.00000000E+00
  0.00000000E+00  0.00000000E+00  0.00000000E+00
  0.00000000E+00  0.00000000E+00  0.00000000E+00
  0.00000000E+00  0.00000000E+00  0.00000000E+00
  0.00000000E+00  0.00000000E+00  0.00000000E+00
  0.00000000E+00  0.00000000E+00  0.00000000E+00
  0.00000000E+00  0.00000000E+00  0.00000000E+00
  0.00000000E+00  0.00000000E+00  0.00000000E+00
  0.00000000E+00  0.00000000E+00  0.00000000E+00
  0.00000000E+00  0.00000000E+00  0.00000000E+00
  0.00000000E+00  0.00000000E+00  0.00000000E+00
  0.00000000E+00  0.00000000E+00  0.00000000E+00
  0.00000000E+00  0.00000000E+00  0.00000000E+00
  0.00000000E+00  0.00000000E+00  0.00000000E+00
  0.00000000E+00  0.00000000E+00  0.00000000E+00
  0.00000000E+00  0.00000000E+00  0.00000000E+00
  0.00000000E+00  0.00000000E+00  0.00000000E+00
  0.00000000E+00  0.00000000E+00  0.00000000E+00
  0.00000000E+00  0.00000000E+00  0.00000000E+00
  0.00000000E+00  0.00000000E+00  0.00000000E+00
  0.00000000E+00  0.00000000E+00  0.00000000E+00
