Ba40 In4                                
   1.0000000000000000     
     0.0000000000000000   11.0146879061785423   11.0146879061785423
    11.0146879061785423    0.0000000000000000   11.0146879061785423
    11.0146879061785423   11.0146879061785423   -0.0000000000000000
   Ba   In
    40     4
Direct
  0.6174929953144073  0.6174929953144073  0.8825070046855927
  0.3674929953144073  0.6325070046855927  0.6325070046855927
  0.6325070046855927  0.3674929953144073  0.3674929953144073
  0.3674929953144073  0.3674929953144073  0.6325070046855927
  0.3674929953144073  0.6325070046855927  0.3674929953144073
  0.6325070046855927  0.3674929953144073  0.6325070046855927
  0.8825070046855927  0.6174929953144073  0.8825070046855927
  0.8825070046855927  0.6174929953144073  0.6174929953144073
  0.6174929953144073  0.8825070046855927  0.8825070046855927
  0.6174929953144073  0.8825070046855927  0.6174929953144073
  0.6325070046855927  0.6325070046855927  0.3674929953144073
  0.8825070046855927  0.8825070046855927  0.6174929953144073
  0.7927828598920499  0.0698843537962972  0.3445489264196056
  0.4572171401079501  0.4572171401079501  0.1801156462037028
  0.1801156462037028  0.9054510735803944  0.4572171401079501
  0.4572171401079501  0.9054510735803944  0.4572171401079501
  0.9054510735803944  0.4572171401079501  0.1801156462037028
  0.9054510735803944  0.4572171401079501  0.4572171401079501
  0.1801156462037028  0.4572171401079501  0.4572171401079501
  0.3445489264196056  0.0698843537962972  0.7927828598920499
  0.7927828598920499  0.0698843537962972  0.7927828598920499
  0.0698843537962972  0.7927828598920499  0.3445489264196056
  0.7927828598920499  0.7927828598920499  0.3445489264196056
  0.0698843537962972  0.3445489264196056  0.7927828598920499
  0.3445489264196056  0.7927828598920499  0.0698843537962972
  0.7927828598920499  0.7927828598920499  0.0698843537962972
  0.7927828598920499  0.3445489264196056  0.7927828598920499
  0.1801156462037028  0.4572171401079501  0.9054510735803944
  0.4572171401079501  0.4572171401079501  0.9054510735803944
  0.4572171401079501  0.9054510735803944  0.1801156462037028
  0.4572171401079501  0.1801156462037028  0.9054510735803944
  0.9054510735803944  0.1801156462037028  0.4572171401079501
  0.4572171401079501  0.1801156462037028  0.4572171401079501
  0.3445489264196056  0.7927828598920499  0.7927828598920499
  0.0698843537962972  0.7927828598920499  0.7927828598920499
  0.7927828598920499  0.3445489264196056  0.0698843537962972
  0.1250000000000000  0.1250000000000000  0.1250000000000000
  0.6250000000000000  0.1250000000000000  0.1250000000000000
  0.1250000000000000  0.1250000000000000  0.6250000000000000
  0.1250000000000000  0.6250000000000000  0.1250000000000000
  0.6250000000000000  0.6250000000000000  0.6250000000000000
  0.1250000000000000  0.6250000000000000  0.6250000000000000
  0.6250000000000000  0.6250000000000000  0.1250000000000000
  0.6250000000000000  0.1250000000000000  0.6250000000000000

  0.00000000E+00  0.00000000E+00  0.00000000E+00
  0.00000000E+00  0.00000000E+00  0.00000000E+00
  0.00000000E+00  0.00000000E+00  0.00000000E+00
  0.00000000E+00  0.00000000E+00  0.00000000E+00
  0.00000000E+00  0.00000000E+00  0.00000000E+00
  0.00000000E+00  0.00000000E+00  0.00000000E+00
  0.00000000E+00  0.00000000E+00  0.00000000E+00
  0.00000000E+00  0.00000000E+00  0.00000000E+00
  0.00000000E+00  0.00000000E+00  0.00000000E+00
  0.00000000E+00  0.00000000E+00  0.00000000E+00
  0.00000000E+00  0.00000000E+00  0.00000000E+00
  0.00000000E+00  0.00000000E+00  0.00000000E+00
  0.00000000E+00  0.00000000E+00  0.00000000E+00
  0.00000000E+00  0.00000000E+00  0.00000000E+00
  0.00000000E+00  0.00000000E+00  0.00000000E+00
  0.00000000E+00  0.00000000E+00  0.00000000E+00
  0.00000000E+00  0.00000000E+00  0.00000000E+00
  0.00000000E+00  0.00000000E+00  0.00000000E+00
  0.00000000E+00  0.00000000E+00  0.00000000E+00
  0.00000000E+00  0.00000000E+00  0.00000000E+00
  0.00000000E+00  0.00000000E+00  0.00000000E+00
  0.00000000E+00  0.00000000E+00  0.00000000E+00
  0.00000000E+00  0.00000000E+00  0.00000000E+00
  0.00000000E+00  0.00000000E+00  0.00000000E+00
  0.00000000E+00  0.00000000E+00  0.00000000E+00
  0.00000000E+00  0.00000000E+00  0.00000000E+00
  0.00000000E+00  0.00000000E+00  0.00000000E+00
  0.00000000E+00  0.00000000E+00  0.00000000E+00
  0.00000000E+00  0.00000000E+00  0.00000000E+00
  0.00000000E+00  0.00000000E+00  0.00000000E+00
  0.00000000E+00  0.00000000E+00  0.00000000E+00
  0.00000000E+00  0.00000000E+00  0.00000000E+00
  0.00000000E+00  0.00000000E+00  0.00000000E+00
  0.00000000E+00  0.00000000E+00  0.00000000E+00
  0.00000000E+00  0.00000000E+00  0.00000000E+00
  0.00000000E+00  0.00000000E+00  0.00000000E+00
  0.00000000E+00  0.00000000E+00  0.00000000E+00
  0.00000000E+00  0.00000000E+00  0.00000000E+00
  0.00000000E+00  0.00000000E+00  0.00000000E+00
  0.00000000E+00  0.00000000E+00  0.00000000E+00
  0.00000000E+00  0.00000000E+00  0.00000000E+00
  0.00000000E+00  0.00000000E+00  0.00000000E+00
  0.00000000E+00  0.00000000E+00  0.00000000E+00
  0.00000000E+00  0.00000000E+00  0.00000000E+00
