Be4 Al4 Cl20                            
   1.0000000000000000     
    11.2713451340803097    0.0000000000000002    0.0000000000000005
    -0.0000000000000009    6.4422557316203832    0.0000000000000003
     0.0000000000000009    0.0000000000000001   12.9644998665960998
   Be   Al   Cl
     4     4    20
Direct
  0.4227477933388073  0.3914835020780245  0.3892696585908837
  0.9227477933388002  0.1085164979219755  0.6107303414091092
  0.5772522066611927  0.8914835020780245  0.1107303414091163
  0.0772522066611856  0.6085164979219755  0.8892696585908908
  0.1711493986813721  0.0451930280328128  0.4682729431271184
  0.6711493986813721  0.4548069719671872  0.5317270568728745
  0.8288506013186279  0.5451930280328128  0.0317270568728745
  0.3288506013186279  0.9548069719671872  0.9682729431271184
  0.7852586159500632  0.5385704298225491  0.4117976106952739
  0.2852586159500490  0.9614295701774509  0.5882023893047261
  0.2147413840499439  0.0385704298225491  0.0882023893047261
  0.7147413840499368  0.4614295701774438  0.9117976106952739
  0.0863887042631362  0.8276131267848257  0.3736041521841997
  0.5863887042631362  0.6723868732151743  0.6263958478158003
  0.9136112957368638  0.3276131267848257  0.1263958478158003
  0.4136112957368638  0.1723868732151743  0.8736041521841997
  0.9668483478498260  0.7773136496120330  0.9744928913845214
  0.4668483478498260  0.7226863503879670  0.0255071086154786
  0.0331516521501811  0.2773136496120401  0.5255071086154786
  0.5331516521501740  0.2226863503879599  0.4744928913845214
  0.7349671579182981  0.7658657284753829  0.1431810754292968
  0.2349671579182910  0.7341342715246171  0.8568189245706961
  0.2650328420817090  0.2658657284753829  0.3568189245707032
  0.7650328420817019  0.2341342715246171  0.6431810754293039
  0.0418592297142837  0.3455072433621567  0.8400552063524316
  0.5418592297142837  0.1544927566378433  0.1599447936475613
  0.9581407702857163  0.8455072433621496  0.6599447936475684
  0.4581407702857163  0.6544927566378504  0.3400552063524387

  0.00000000E+00  0.00000000E+00  0.00000000E+00
  0.00000000E+00  0.00000000E+00  0.00000000E+00
  0.00000000E+00  0.00000000E+00  0.00000000E+00
  0.00000000E+00  0.00000000E+00  0.00000000E+00
  0.00000000E+00  0.00000000E+00  0.00000000E+00
  0.00000000E+00  0.00000000E+00  0.00000000E+00
  0.00000000E+00  0.00000000E+00  0.00000000E+00
  0.00000000E+00  0.00000000E+00  0.00000000E+00
  0.00000000E+00  0.00000000E+00  0.00000000E+00
  0.00000000E+00  0.00000000E+00  0.00000000E+00
  0.00000000E+00  0.00000000E+00  0.00000000E+00
  0.00000000E+00  0.00000000E+00  0.00000000E+00
  0.00000000E+00  0.00000000E+00  0.00000000E+00
  0.00000000E+00  0.00000000E+00  0.00000000E+00
  0.00000000E+00  0.00000000E+00  0.00000000E+00
  0.00000000E+00  0.00000000E+00  0.00000000E+00
  0.00000000E+00  0.00000000E+00  0.00000000E+00
  0.00000000E+00  0.00000000E+00  0.00000000E+00
  0.00000000E+00  0.00000000E+00  0.00000000E+00
  0.00000000E+00  0.00000000E+00  0.00000000E+00
  0.00000000E+00  0.00000000E+00  0.00000000E+00
  0.00000000E+00  0.00000000E+00  0.00000000E+00
  0.00000000E+00  0.00000000E+00  0.00000000E+00
  0.00000000E+00  0.00000000E+00  0.00000000E+00
  0.00000000E+00  0.00000000E+00  0.00000000E+00
  0.00000000E+00  0.00000000E+00  0.00000000E+00
  0.00000000E+00  0.00000000E+00  0.00000000E+00
  0.00000000E+00  0.00000000E+00  0.00000000E+00
