Be4 B4 F20                              
   1.0000000000000000     
     0.0000000000000000    5.1301724725366782   -0.0520017744306512
     8.1604027530935088    0.0000000000000000    0.0000000000000000
     0.0000000000000000   -0.0647663024754807   -6.3201804323757651
   Be   B    F 
     4     4    20
Direct
  0.5000031573645956  0.5124038208441775  0.4480438202240862
  0.4999968426354044  0.0124038208441775  0.5519561797759209
  0.0000239939103324  0.1463228625734629  0.9668036240055642
  0.9999760060896676  0.6463228625734629  0.0331963759944287
  0.4999823656466305  0.7472157482032600  0.0724803158682477
  0.5000176343533695  0.2472157482032600  0.9275196841317523
  0.0000114464926497  0.6726083119029340  0.5070445052088175
  0.9999885535073574  0.1726083119029340  0.4929554947911896
  0.2229621454144919  0.0715673872296918  0.4484328538307309
  0.2230077881857753  0.5715788985050523  0.5515695063858459
  0.7769922118142247  0.0715788985050523  0.4484304936141470
  0.7242662940239555  0.7193712451059753  0.9452669855401865
  0.0000161167191663  0.4733687825529103  0.9998986135059056
  0.5000176314935345  0.8951638874021413  0.1626712101949011
  0.0000153065304858  0.2096440208569419  0.7171233383142095
  0.4999853460182848  0.6119263628785845  0.2232918173920595
  0.9999838832808265  0.9733687825529103  0.0001013864940944
  0.0000075809724649  0.8087887669981413  0.6216558458894212
  0.4999823685064655  0.3951638874021342  0.8373287898050847
  0.7770378545855081  0.5715673872296989  0.5515671461692691
  0.5000047398478102  0.8382419308718880  0.5785189491140557
  0.7243480242147626  0.2193969540748100  0.0547268079839967
  0.9999924190275280  0.3087887669981413  0.3783441541105788
  0.9999846934695142  0.7096440208569348  0.2828766616857905
  0.2757337059760303  0.2193712451059753  0.0547330144598064
  0.2756519757852374  0.7193969540748100  0.9452731920160033
  0.5000146539817152  0.1119263628785845  0.7767081826079405
  0.4999952601521898  0.3382419308718880  0.4214810508859443

  0.00000000E+00  0.00000000E+00  0.00000000E+00
  0.00000000E+00  0.00000000E+00  0.00000000E+00
  0.00000000E+00  0.00000000E+00  0.00000000E+00
  0.00000000E+00  0.00000000E+00  0.00000000E+00
  0.00000000E+00  0.00000000E+00  0.00000000E+00
  0.00000000E+00  0.00000000E+00  0.00000000E+00
  0.00000000E+00  0.00000000E+00  0.00000000E+00
  0.00000000E+00  0.00000000E+00  0.00000000E+00
  0.00000000E+00  0.00000000E+00  0.00000000E+00
  0.00000000E+00  0.00000000E+00  0.00000000E+00
  0.00000000E+00  0.00000000E+00  0.00000000E+00
  0.00000000E+00  0.00000000E+00  0.00000000E+00
  0.00000000E+00  0.00000000E+00  0.00000000E+00
  0.00000000E+00  0.00000000E+00  0.00000000E+00
  0.00000000E+00  0.00000000E+00  0.00000000E+00
  0.00000000E+00  0.00000000E+00  0.00000000E+00
  0.00000000E+00  0.00000000E+00  0.00000000E+00
  0.00000000E+00  0.00000000E+00  0.00000000E+00
  0.00000000E+00  0.00000000E+00  0.00000000E+00
  0.00000000E+00  0.00000000E+00  0.00000000E+00
  0.00000000E+00  0.00000000E+00  0.00000000E+00
  0.00000000E+00  0.00000000E+00  0.00000000E+00
  0.00000000E+00  0.00000000E+00  0.00000000E+00
  0.00000000E+00  0.00000000E+00  0.00000000E+00
  0.00000000E+00  0.00000000E+00  0.00000000E+00
  0.00000000E+00  0.00000000E+00  0.00000000E+00
  0.00000000E+00  0.00000000E+00  0.00000000E+00
  0.00000000E+00  0.00000000E+00  0.00000000E+00
