Sr1 Tl8                                 
   1.0000000000000000     
    10.8787300337213875    0.0006700033310560    0.0000000000000000
    -5.4387850360048029    9.4215896879299290    0.0000000000000000
     0.0000000000000000    0.0000000000000000    3.3755949613039569
   Tl   Sr
     8     1
Direct
  0.3427355355225004  0.1714044404196997  0.0000000000000000
  0.8286308499821757  0.1713691412105831  0.0000000000000000
  0.6666934666173603  0.3333066656307651  0.0000000000000000
  0.1714044369353758  0.3427355075714118  0.0000000000000000
  0.8285955630646242  0.6572644924285882  0.0000000000000000
  0.3333065333826397  0.6666933343692421  0.0000000000000000
  0.1713691500178243  0.8286308587894169  0.0000000000000000
  0.6572644644774996  0.8285955595803003  0.0000000000000000
  0.0000000000000000  0.0000000000000000  0.5000000000000000

  0.00000000E+00  0.00000000E+00  0.00000000E+00
  0.00000000E+00  0.00000000E+00  0.00000000E+00
  0.00000000E+00  0.00000000E+00  0.00000000E+00
  0.00000000E+00  0.00000000E+00  0.00000000E+00
  0.00000000E+00  0.00000000E+00  0.00000000E+00
  0.00000000E+00  0.00000000E+00  0.00000000E+00
  0.00000000E+00  0.00000000E+00  0.00000000E+00
  0.00000000E+00  0.00000000E+00  0.00000000E+00
  0.00000000E+00  0.00000000E+00  0.00000000E+00
