Mg2 In8                                 
   1.00000000000000     
     0.9033487541452477    4.5457736202346117   -0.0681436266981550
     6.2084513441181457   -1.2282216051991299   -0.0275493920833347
    -2.3005299979710010   -2.4236999812510920   -8.8179813525624677
   In   Mg
     8     2
Direct
  0.8039409965056592  0.6466597525307520  0.1026944637796987
  0.8061415663042055  0.1489992928880355  0.1082609817273124
  0.4015291245110149  0.9493763943731750  0.2998261870901189
  0.0042263488866610  0.2537699245309639  0.5025316963378543
  0.9957631469880823  0.7463624979513170  0.4974904558490394
  0.5984635417148070  0.0506861603475031  0.7001815502943032
  0.1938699426355370  0.8510733548242513  0.8917752611337733
  0.1960662752465723  0.3533879908691517  0.8973005923308008
  0.3993112672389643  0.4493256948546787  0.3017814759375241
  0.6006877899684824  0.5507589368301637  0.6982573355195854
 
  0.00000000E+00  0.00000000E+00  0.00000000E+00
  0.00000000E+00  0.00000000E+00  0.00000000E+00
  0.00000000E+00  0.00000000E+00  0.00000000E+00
  0.00000000E+00  0.00000000E+00  0.00000000E+00
  0.00000000E+00  0.00000000E+00  0.00000000E+00
  0.00000000E+00  0.00000000E+00  0.00000000E+00
  0.00000000E+00  0.00000000E+00  0.00000000E+00
  0.00000000E+00  0.00000000E+00  0.00000000E+00
  0.00000000E+00  0.00000000E+00  0.00000000E+00
  0.00000000E+00  0.00000000E+00  0.00000000E+00
