BaI                                     
   1.00000000000000     
     2.2958702007317187    1.3260794574683419    4.7695306466261798
    -2.2958702007317187    1.3260794574683419    4.7695306466261798
     0.0000000000000000   -2.6500693349771640    4.7692269005874195
   Ba   I 
     1     1
Direct
  0.0000000000000000  0.0000000000000000  0.0000000000000000
  0.5000000000000000  0.5000000000000000  0.5000000000000000
 
  0.00000000E+00  0.00000000E+00  0.00000000E+00
  0.00000000E+00  0.00000000E+00  0.00000000E+00
