Be18 B11                                
   1.00000000000000     
     5.3126782262948584    3.8008586808461478   -0.1461892205503411
    -5.3126782262948584    3.8008586808461478   -0.1461892205503411
     0.0000000000000000    3.5763078305045166    5.0085675070714331
   Be   B 
    18    11
Direct
  0.0144842961118101  0.0144842961118101  0.9990375745981979
  0.3227235079250335  0.6492877095669201  0.9925901955678640
  0.9937750007697517  0.3232199132570983  0.0018252465083535
  0.3232199132570983  0.9937750007697517  0.0018252465083535
  0.6492877095669201  0.3227235079250335  0.9925901955678640
  0.3567817694994346  0.3567817694994346  0.8557214155105228
  0.6790996129322409  0.6790996129322409  0.7072170936459514
  0.6335595673528971  0.0011327744217908  0.6768094785473906
  0.0011327744217908  0.6335595673528971  0.6768094785473906
  0.0067009373527256  0.0067009373527256  0.6268683355038434
  0.3461599997070621  0.6682759134797180  0.6449198578274533
  0.6682759134797180  0.3461599997070621  0.6449198578274533
  0.9979997187583365  0.3321972553182491  0.3761848750471017
  0.3321972553182491  0.9979997187583365  0.3761848750471017
  0.6834570817636703  0.6834570817636703  0.3198618067794285
  0.3422043307974434  0.6837160806639204  0.3078862158839399
  0.6837160806639204  0.3422043307974434  0.3078862158839399
  0.3480677248586161  0.3480677248586161  0.3119484915024771
  0.6652870971714648  0.8347581052944264  0.9810974765349414
  0.8347581052944264  0.6652870971714648  0.9810974765349414
  0.8302970673738912  0.1753766306947426  0.8101645433632783
  0.1753766306947426  0.8302970673738912  0.8101645433632783
  0.1688078686461623  0.3480032954754577  0.6412128917823807
  0.3480032954754577  0.1688078686461623  0.6412128917823807
  0.8170225873154351  0.9919646173029619  0.3664076009786896
  0.9919646173029619  0.8170225873154351  0.3664076009786896
  0.6477771444155280  0.9953266050095948  0.1815197291382233
  0.9953266050095948  0.6477771444155280  0.1815197291382233
  0.1425357867636095  0.1425357867636095  0.2181100601003578
 
  0.00000000E+00  0.00000000E+00  0.00000000E+00
  0.00000000E+00  0.00000000E+00  0.00000000E+00
  0.00000000E+00  0.00000000E+00  0.00000000E+00
  0.00000000E+00  0.00000000E+00  0.00000000E+00
  0.00000000E+00  0.00000000E+00  0.00000000E+00
  0.00000000E+00  0.00000000E+00  0.00000000E+00
  0.00000000E+00  0.00000000E+00  0.00000000E+00
  0.00000000E+00  0.00000000E+00  0.00000000E+00
  0.00000000E+00  0.00000000E+00  0.00000000E+00
  0.00000000E+00  0.00000000E+00  0.00000000E+00
  0.00000000E+00  0.00000000E+00  0.00000000E+00
  0.00000000E+00  0.00000000E+00  0.00000000E+00
  0.00000000E+00  0.00000000E+00  0.00000000E+00
  0.00000000E+00  0.00000000E+00  0.00000000E+00
  0.00000000E+00  0.00000000E+00  0.00000000E+00
  0.00000000E+00  0.00000000E+00  0.00000000E+00
  0.00000000E+00  0.00000000E+00  0.00000000E+00
  0.00000000E+00  0.00000000E+00  0.00000000E+00
  0.00000000E+00  0.00000000E+00  0.00000000E+00
  0.00000000E+00  0.00000000E+00  0.00000000E+00
  0.00000000E+00  0.00000000E+00  0.00000000E+00
  0.00000000E+00  0.00000000E+00  0.00000000E+00
  0.00000000E+00  0.00000000E+00  0.00000000E+00
  0.00000000E+00  0.00000000E+00  0.00000000E+00
  0.00000000E+00  0.00000000E+00  0.00000000E+00
  0.00000000E+00  0.00000000E+00  0.00000000E+00
  0.00000000E+00  0.00000000E+00  0.00000000E+00
  0.00000000E+00  0.00000000E+00  0.00000000E+00
  0.00000000E+00  0.00000000E+00  0.00000000E+00
