Mg4 Br6                                 
   1.00000000000000     
    -6.6941271563713096    0.1913618924284818    1.3571320250119647
     3.3467560158013443   -5.9659767097098060    0.1533642469643108
    -4.9494547513263525    1.3532879045707380    9.4930070390463914
   Mg   Br
     4     6
Direct
  0.6667604661125068  0.3331252775629352  0.9999489940543285
  0.6710842675409552  0.0005655940422784  0.3325201108552847
  0.3290167490805231  0.9995253547159919  0.6674523721578822
  0.3333273989116847  0.6669647503560228  0.0000307450841248
  0.8181816956708019  0.3557570924657938  0.1842931219885102
  0.4636066250025337  0.6453876617008802  0.1839067133046015
  0.1728712411262947  0.0005050951426071  0.1854856406306240
  0.8272296837935968  0.9995807470070162  0.8144624864898518
  0.5364392245395067  0.3546710340264880  0.8161026361337704
  0.1818826482216167  0.6443173929799926  0.8156971793010328
 
  0.00000000E+00  0.00000000E+00  0.00000000E+00
  0.00000000E+00  0.00000000E+00  0.00000000E+00
  0.00000000E+00  0.00000000E+00  0.00000000E+00
  0.00000000E+00  0.00000000E+00  0.00000000E+00
  0.00000000E+00  0.00000000E+00  0.00000000E+00
  0.00000000E+00  0.00000000E+00  0.00000000E+00
  0.00000000E+00  0.00000000E+00  0.00000000E+00
  0.00000000E+00  0.00000000E+00  0.00000000E+00
  0.00000000E+00  0.00000000E+00  0.00000000E+00
  0.00000000E+00  0.00000000E+00  0.00000000E+00
