Be1 Ga2 I6                              
   1.00000000000000     
     4.1337539696210577    3.6084819197894964    6.4859757404471150
    -4.1337539696210577    3.6084819197894964    6.4859757404471150
     0.0000000000000001   -4.3496649909198917    5.4129570863144814
   Be   I    Ga
     1     6     2
Direct
  0.0000000000000000  0.0000000000000000  0.0000000000000000
  0.7892864941739930  0.7892864941739930  0.2210889738982686
  0.7798318015788084  0.2534534721594000  0.2321749480153059
  0.2534534721594000  0.7798318015788084  0.2321749480153059
  0.2107135058259999  0.2107135058259999  0.7789110261017314
  0.7465465278406000  0.2201681984211916  0.7678250519846941
  0.2201681984211916  0.7465465278406000  0.7678250519846941
  0.1669597030359071  0.1669597030359071  0.2072234542800828
  0.8330402969640929  0.8330402969640929  0.7927765457199172
 
  0.00000000E+00  0.00000000E+00  0.00000000E+00
  0.00000000E+00  0.00000000E+00  0.00000000E+00
  0.00000000E+00  0.00000000E+00  0.00000000E+00
  0.00000000E+00  0.00000000E+00  0.00000000E+00
  0.00000000E+00  0.00000000E+00  0.00000000E+00
  0.00000000E+00  0.00000000E+00  0.00000000E+00
  0.00000000E+00  0.00000000E+00  0.00000000E+00
  0.00000000E+00  0.00000000E+00  0.00000000E+00
  0.00000000E+00  0.00000000E+00  0.00000000E+00
