Mg16 Al16 Cl80                          
   1.0000000000000000     
    17.1154641978119884   -0.0000001353242594    0.0000000000000013
     0.0000001353242583   17.1154641978119884    0.0000000000000013
     0.0000000000000001    0.0000000000000001   11.9765100026776228
   Mg   Al   Cl
    16    16    80
Direct
  0.4636619418250376  0.7521523030257384  0.5104035707502774
  0.2521523030257313  0.0363380581749695  0.0104035707502774
  0.7478476969742616  0.9636619418250447  0.0104035707502774
  0.5363380581749553  0.2478476969742545  0.5104035707502774
  0.2525689418081924  0.0181877262503107  0.6356859239874169
  0.5181877262503107  0.2474310581918147  0.1356859239874098
  0.4818122737496893  0.7525689418081853  0.1356859239874098
  0.7474310581918147  0.9818122737496893  0.6356859239874169
  0.9636619418250447  0.2521523030257313  0.0104035707502774
  0.7521523030257384  0.5363380581749553  0.5104035707502774
  0.2478476969742545  0.4636619418250376  0.5104035707502774
  0.0363380581749695  0.7478476969742616  0.0104035707502774
  0.7525689418081853  0.5181877262503107  0.1356859239874098
  0.0181877262503107  0.7474310581918147  0.6356859239874169
  0.9818122737496893  0.2525689418081924  0.6356859239874169
  0.2474310581918147  0.4818122737496893  0.1356859239874098
  0.0000000000000000  0.0000000000000000  0.5039353123340646
  0.0000000000000000  0.0000000000000000  0.9987077412294596
  0.5000000000000000  0.0000000000000000  0.1288640851076224
  0.5000000000000000  0.0000000000000000  0.6288640851076224
  0.3054194494746909  0.2608591407826424  0.0584560330929591
  0.7608591407826424  0.1945805505253091  0.5584560330929520
  0.2391408592173576  0.8054194494746909  0.5584560330929520
  0.6945805505253091  0.7391408592173576  0.0584560330929591
  0.5000000000000000  0.5000000000000000  0.0039353123340433
  0.5000000000000000  0.5000000000000000  0.4987077412294667
  0.0000000000000000  0.5000000000000000  0.6288640851076224
  0.0000000000000000  0.5000000000000000  0.1288640851076224
  0.8054194494746909  0.7608591407826424  0.5584560330929520
  0.2608591407826424  0.6945805505253091  0.0584560330929591
  0.7391408592173576  0.3054194494746909  0.0584560330929591
  0.1945805505253091  0.2391408592173576  0.5584560330929520
  0.0000000000000000  0.0000000000000000  0.8218400996091759
  0.0000000000000000  0.0000000000000000  0.3268576309241809
  0.1258965203723648  0.0405747553015061  0.5482220823703088
  0.5405747553014990  0.3741034796276352  0.0482220823703159
  0.4594252446984939  0.6258965203723719  0.0482220823703159
  0.8741034796276281  0.9594252446985010  0.5482220823703088
  0.1296022080538961  0.9712442969361632  0.0505739494519162
  0.4712442969361632  0.3703977919460968  0.5505739494519091
  0.5287557030638368  0.6296022080539032  0.5505739494519091
  0.8703977919460968  0.0287557030638368  0.0505739494519162
  0.5000000000000000  0.0000000000000000  0.8047921373357951
  0.5000000000000000  0.0000000000000000  0.3047921373358022
  0.4806304365722909  0.1178462059393794  0.0520358121096152
  0.6178462059393794  0.0193695634277091  0.5520358121096365
  0.3821537940606206  0.9806304365722767  0.5520358121096365
  0.5193695634277233  0.8821537940606206  0.0520358121096152
  0.4788285868301543  0.1426303341724804  0.6075189346001011
  0.6426303341724804  0.0211714131698386  0.1075189346000940
  0.3573696658275125  0.9788285868301543  0.1075189346000940
  0.5211714131698457  0.8573696658275196  0.6075189346001011
  0.3677003433605961  0.2505998310651165  0.9080337332677999
  0.7505998310651094  0.1322996566393968  0.4080337332677999
  0.2494001689348906  0.8677003433606103  0.4080337332677999
  0.6322996566393897  0.7494001689348906  0.9080337332677999
  0.3825605024396808  0.2759339056365420  0.2028587674282747
  0.7759339056365491  0.1174394975603263  0.7028587674282747
  0.2240660943634509  0.8825605024396808  0.7028587674282747
  0.6174394975603192  0.7240660943634509  0.2028587674282747
  0.2643639901950934  0.0681166544973237  0.8211002650013484
  0.5681166544973308  0.2356360098049066  0.3211002650013484
  0.4318833455026763  0.7643639901950792  0.3211002650013484
  0.7356360098049208  0.9318833455026692  0.8211002650013484
  0.2343934324619923  0.1588502737325399  0.1086041848195052
  0.6588502737325399  0.2656065675380006  0.6086041848194981
  0.3411497262674601  0.7343934324619852  0.6086041848194981
  0.7656065675380148  0.8411497262674601  0.1086041848195052
  0.7148771092846431  0.8492644491630514  0.5496871858745891
  0.3492644491630514  0.7851228907153569  0.0496871858745820
  0.6507355508369486  0.2148771092846431  0.0496871858745820
  0.2851228907153498  0.1507355508369486  0.5496871858745891
  0.5000000000000000  0.5000000000000000  0.3218400996091830
  0.5000000000000000  0.5000000000000000  0.8268576309241737
  0.6258965203723719  0.5405747553014990  0.0482220823703159
  0.0405747553015061  0.8741034796276281  0.5482220823703088
  0.9594252446985010  0.1258965203723648  0.5482220823703088
  0.3741034796276352  0.4594252446984939  0.0482220823703159
  0.6296022080539032  0.4712442969361632  0.5505739494519091
  0.9712442969361632  0.8703977919460968  0.0505739494519162
  0.0287557030638368  0.1296022080538961  0.0505739494519162
  0.3703977919460968  0.5287557030638368  0.5505739494519091
  0.0000000000000000  0.5000000000000000  0.3047921373358022
  0.0000000000000000  0.5000000000000000  0.8047921373357951
  0.9806304365722767  0.6178462059393794  0.5520358121096365
  0.1178462059393794  0.5193695634277233  0.0520358121096152
  0.8821537940606206  0.4806304365722909  0.0520358121096152
  0.0193695634277091  0.3821537940606206  0.5520358121096365
  0.9788285868301543  0.6426303341724804  0.1075189346000940
  0.1426303341724804  0.5211714131698457  0.6075189346001011
  0.8573696658275196  0.4788285868301543  0.6075189346001011
  0.0211714131698386  0.3573696658275125  0.1075189346000940
  0.8677003433606103  0.7505998310651094  0.4080337332677999
  0.2505998310651165  0.6322996566393897  0.9080337332677999
  0.7494001689348906  0.3677003433605961  0.9080337332677999
  0.1322996566393968  0.2494001689348906  0.4080337332677999
  0.8825605024396808  0.7759339056365491  0.7028587674282747
  0.2759339056365420  0.6174394975603192  0.2028587674282747
  0.7240660943634509  0.3825605024396808  0.2028587674282747
  0.1174394975603263  0.2240660943634509  0.7028587674282747
  0.7643639901950792  0.5681166544973308  0.3211002650013484
  0.0681166544973237  0.7356360098049208  0.8211002650013484
  0.9318833455026692  0.2643639901950934  0.8211002650013484
  0.2356360098049066  0.4318833455026763  0.3211002650013484
  0.7343934324619852  0.6588502737325399  0.6086041848194981
  0.1588502737325399  0.7656065675380148  0.1086041848195052
  0.8411497262674601  0.2343934324619923  0.1086041848195052
  0.2656065675380006  0.3411497262674601  0.6086041848194981
  0.2148771092846431  0.3492644491630514  0.0496871858745820
  0.8492644491630514  0.2851228907153498  0.5496871858745891
  0.1507355508369486  0.7148771092846431  0.5496871858745891
  0.7851228907153569  0.6507355508369486  0.0496871858745820

  0.00000000E+00  0.00000000E+00  0.00000000E+00
  0.00000000E+00  0.00000000E+00  0.00000000E+00
  0.00000000E+00  0.00000000E+00  0.00000000E+00
  0.00000000E+00  0.00000000E+00  0.00000000E+00
  0.00000000E+00  0.00000000E+00  0.00000000E+00
  0.00000000E+00  0.00000000E+00  0.00000000E+00
  0.00000000E+00  0.00000000E+00  0.00000000E+00
  0.00000000E+00  0.00000000E+00  0.00000000E+00
  0.00000000E+00  0.00000000E+00  0.00000000E+00
  0.00000000E+00  0.00000000E+00  0.00000000E+00
  0.00000000E+00  0.00000000E+00  0.00000000E+00
  0.00000000E+00  0.00000000E+00  0.00000000E+00
  0.00000000E+00  0.00000000E+00  0.00000000E+00
  0.00000000E+00  0.00000000E+00  0.00000000E+00
  0.00000000E+00  0.00000000E+00  0.00000000E+00
  0.00000000E+00  0.00000000E+00  0.00000000E+00
  0.00000000E+00  0.00000000E+00  0.00000000E+00
  0.00000000E+00  0.00000000E+00  0.00000000E+00
  0.00000000E+00  0.00000000E+00  0.00000000E+00
  0.00000000E+00  0.00000000E+00  0.00000000E+00
  0.00000000E+00  0.00000000E+00  0.00000000E+00
  0.00000000E+00  0.00000000E+00  0.00000000E+00
  0.00000000E+00  0.00000000E+00  0.00000000E+00
  0.00000000E+00  0.00000000E+00  0.00000000E+00
  0.00000000E+00  0.00000000E+00  0.00000000E+00
  0.00000000E+00  0.00000000E+00  0.00000000E+00
  0.00000000E+00  0.00000000E+00  0.00000000E+00
  0.00000000E+00  0.00000000E+00  0.00000000E+00
  0.00000000E+00  0.00000000E+00  0.00000000E+00
  0.00000000E+00  0.00000000E+00  0.00000000E+00
  0.00000000E+00  0.00000000E+00  0.00000000E+00
  0.00000000E+00  0.00000000E+00  0.00000000E+00
  0.00000000E+00  0.00000000E+00  0.00000000E+00
  0.00000000E+00  0.00000000E+00  0.00000000E+00
  0.00000000E+00  0.00000000E+00  0.00000000E+00
  0.00000000E+00  0.00000000E+00  0.00000000E+00
  0.00000000E+00  0.00000000E+00  0.00000000E+00
  0.00000000E+00  0.00000000E+00  0.00000000E+00
  0.00000000E+00  0.00000000E+00  0.00000000E+00
  0.00000000E+00  0.00000000E+00  0.00000000E+00
  0.00000000E+00  0.00000000E+00  0.00000000E+00
  0.00000000E+00  0.00000000E+00  0.00000000E+00
  0.00000000E+00  0.00000000E+00  0.00000000E+00
  0.00000000E+00  0.00000000E+00  0.00000000E+00
  0.00000000E+00  0.00000000E+00  0.00000000E+00
  0.00000000E+00  0.00000000E+00  0.00000000E+00
  0.00000000E+00  0.00000000E+00  0.00000000E+00
  0.00000000E+00  0.00000000E+00  0.00000000E+00
  0.00000000E+00  0.00000000E+00  0.00000000E+00
  0.00000000E+00  0.00000000E+00  0.00000000E+00
  0.00000000E+00  0.00000000E+00  0.00000000E+00
  0.00000000E+00  0.00000000E+00  0.00000000E+00
  0.00000000E+00  0.00000000E+00  0.00000000E+00
  0.00000000E+00  0.00000000E+00  0.00000000E+00
  0.00000000E+00  0.00000000E+00  0.00000000E+00
  0.00000000E+00  0.00000000E+00  0.00000000E+00
  0.00000000E+00  0.00000000E+00  0.00000000E+00
  0.00000000E+00  0.00000000E+00  0.00000000E+00
  0.00000000E+00  0.00000000E+00  0.00000000E+00
  0.00000000E+00  0.00000000E+00  0.00000000E+00
  0.00000000E+00  0.00000000E+00  0.00000000E+00
  0.00000000E+00  0.00000000E+00  0.00000000E+00
  0.00000000E+00  0.00000000E+00  0.00000000E+00
  0.00000000E+00  0.00000000E+00  0.00000000E+00
  0.00000000E+00  0.00000000E+00  0.00000000E+00
  0.00000000E+00  0.00000000E+00  0.00000000E+00
  0.00000000E+00  0.00000000E+00  0.00000000E+00
  0.00000000E+00  0.00000000E+00  0.00000000E+00
  0.00000000E+00  0.00000000E+00  0.00000000E+00
  0.00000000E+00  0.00000000E+00  0.00000000E+00
  0.00000000E+00  0.00000000E+00  0.00000000E+00
  0.00000000E+00  0.00000000E+00  0.00000000E+00
  0.00000000E+00  0.00000000E+00  0.00000000E+00
  0.00000000E+00  0.00000000E+00  0.00000000E+00
  0.00000000E+00  0.00000000E+00  0.00000000E+00
  0.00000000E+00  0.00000000E+00  0.00000000E+00
  0.00000000E+00  0.00000000E+00  0.00000000E+00
  0.00000000E+00  0.00000000E+00  0.00000000E+00
  0.00000000E+00  0.00000000E+00  0.00000000E+00
  0.00000000E+00  0.00000000E+00  0.00000000E+00
  0.00000000E+00  0.00000000E+00  0.00000000E+00
  0.00000000E+00  0.00000000E+00  0.00000000E+00
  0.00000000E+00  0.00000000E+00  0.00000000E+00
  0.00000000E+00  0.00000000E+00  0.00000000E+00
  0.00000000E+00  0.00000000E+00  0.00000000E+00
  0.00000000E+00  0.00000000E+00  0.00000000E+00
  0.00000000E+00  0.00000000E+00  0.00000000E+00
  0.00000000E+00  0.00000000E+00  0.00000000E+00
  0.00000000E+00  0.00000000E+00  0.00000000E+00
  0.00000000E+00  0.00000000E+00  0.00000000E+00
  0.00000000E+00  0.00000000E+00  0.00000000E+00
  0.00000000E+00  0.00000000E+00  0.00000000E+00
  0.00000000E+00  0.00000000E+00  0.00000000E+00
  0.00000000E+00  0.00000000E+00  0.00000000E+00
  0.00000000E+00  0.00000000E+00  0.00000000E+00
  0.00000000E+00  0.00000000E+00  0.00000000E+00
  0.00000000E+00  0.00000000E+00  0.00000000E+00
  0.00000000E+00  0.00000000E+00  0.00000000E+00
  0.00000000E+00  0.00000000E+00  0.00000000E+00
  0.00000000E+00  0.00000000E+00  0.00000000E+00
  0.00000000E+00  0.00000000E+00  0.00000000E+00
  0.00000000E+00  0.00000000E+00  0.00000000E+00
  0.00000000E+00  0.00000000E+00  0.00000000E+00
  0.00000000E+00  0.00000000E+00  0.00000000E+00
  0.00000000E+00  0.00000000E+00  0.00000000E+00
  0.00000000E+00  0.00000000E+00  0.00000000E+00
  0.00000000E+00  0.00000000E+00  0.00000000E+00
  0.00000000E+00  0.00000000E+00  0.00000000E+00
  0.00000000E+00  0.00000000E+00  0.00000000E+00
  0.00000000E+00  0.00000000E+00  0.00000000E+00
  0.00000000E+00  0.00000000E+00  0.00000000E+00
  0.00000000E+00  0.00000000E+00  0.00000000E+00
