Tl2 Br1                                 
   1.0000000000000000     
    -0.0000000000000000    3.9442770304171599    3.9442770304171599
     3.9442770304171599   -0.0000000000000000    3.9442770304171599
     3.9442770304171599    3.9442770304171599    0.0000000000000000
   Br   Tl
     1     2
Direct
  0.0000000000000000  0.0000000000000000  0.0000000000000000
  0.2500000000000000  0.2500000000000000  0.2500000000000000
  0.7500000000000000  0.7500000000000000  0.7500000000000000

  0.00000000E+00  0.00000000E+00  0.00000000E+00
  0.00000000E+00  0.00000000E+00  0.00000000E+00
  0.00000000E+00  0.00000000E+00  0.00000000E+00
