Ba1                                     
   1.00000000000000     
     3.9151670876740359    0.0000000134199126    2.2604221857197198
     1.3050564018979061    3.6912563997977368    2.2604221857087095
    -0.0000000223355310   -0.0000000146073797    4.5208454366222242
   Ba
     1
Direct
  0.0000000000000000  0.0000000000000000  0.0000000000000000
 
  0.00000000E+00  0.00000000E+00  0.00000000E+00
