Sr1 Ga5                                 
   1.00000000000000     
    -3.8702115814375566    2.1533735996581131   -0.0167042894294411
    -0.6721531191502997   -5.9170886139330774    0.4261190762726897
    -1.3540924370609773    2.3153862568435417    5.4100016840096394
   Ga   Sr
     5     1
Direct
  0.8292943052163864  0.7958376908236247  0.1382304990532361
  0.4894443661832213  0.7845631490811016  0.8055545852793173
  0.3475860980049319  0.0108297730017313  0.3162910469707825
  0.1721288795273068  0.1356761493533156  0.7887787733742613
  0.6568261180759478  0.3178022011031132  0.0017876985293697
  0.0029392329921976  0.4552910366371421  0.4493573967930615
 
  0.00000000E+00  0.00000000E+00  0.00000000E+00
  0.00000000E+00  0.00000000E+00  0.00000000E+00
  0.00000000E+00  0.00000000E+00  0.00000000E+00
  0.00000000E+00  0.00000000E+00  0.00000000E+00
  0.00000000E+00  0.00000000E+00  0.00000000E+00
  0.00000000E+00  0.00000000E+00  0.00000000E+00
