Be1 Al5                                 
   1.00000000000000     
     5.0776016784297218    0.0453253818945879    0.0000000000000000
    -2.4999848517625400    4.4201238200889232    0.0000000000000000
     0.0000000000000000    0.0000000000000000    4.7848363190434906
   Al   Be
     5     1
Direct
  0.6678658920387406  0.3321277467424508  0.0000000000000000
  0.3321341079612594  0.6678722532575492  0.0000000000000000
  0.5000000000000000  0.0000000000000000  0.5000000000000000
  0.0000000000000000  0.5000000000000000  0.5000000000000000
  0.5000000000000000  0.5000000000000000  0.5000000000000000
  0.0000000000000000  0.0000000000000000  0.0000000000000000
 
  0.00000000E+00  0.00000000E+00  0.00000000E+00
  0.00000000E+00  0.00000000E+00  0.00000000E+00
  0.00000000E+00  0.00000000E+00  0.00000000E+00
  0.00000000E+00  0.00000000E+00  0.00000000E+00
  0.00000000E+00  0.00000000E+00  0.00000000E+00
  0.00000000E+00  0.00000000E+00  0.00000000E+00
