Tl3Cl2                                  
   1.0000000000000000     
    -6.7063288694609628    0.0047021122972332    0.0230390587189645
     3.3572416432135248   -5.8079062193021436   -0.0226970733765855
    -3.3846051503396426    1.9547549127237280    8.7047572998851592
   Cl   Tl
     4     6
Direct
  0.3186141784515613  0.6815382754038026  0.0405888175358555
  0.1815838073767111  0.8187001768005828  0.4594773013842683
  0.8184620044268840  0.1812078075198471  0.5405764923489542
  0.6812676120107923  0.3184105042056444  0.9594881663982449
  0.2494938172316239  0.1326938658781884  0.2511256404643447
  0.8657939393073804  0.3658909898805973  0.2501631589280677
  0.6328166503624431  0.7495123611782688  0.2488190975247804
  0.3671870074334862  0.2505042059623577  0.7511593895655864
  0.1341413329756520  0.6341948089920919  0.7500562416930947
  0.7506396504234658  0.8673470041786118  0.7488456941568202

  0.00000000E+00  0.00000000E+00  0.00000000E+00
  0.00000000E+00  0.00000000E+00  0.00000000E+00
  0.00000000E+00  0.00000000E+00  0.00000000E+00
  0.00000000E+00  0.00000000E+00  0.00000000E+00
  0.00000000E+00  0.00000000E+00  0.00000000E+00
  0.00000000E+00  0.00000000E+00  0.00000000E+00
  0.00000000E+00  0.00000000E+00  0.00000000E+00
  0.00000000E+00  0.00000000E+00  0.00000000E+00
  0.00000000E+00  0.00000000E+00  0.00000000E+00
  0.00000000E+00  0.00000000E+00  0.00000000E+00
