Ca4 Al4 F20                             
   1.0000000000000000     
     4.6635513263253348    0.0000000000000000    0.0000000000000003
    -0.0000000000000003    5.2442281709647380    0.0000000000000003
    -0.0000000000000000   -0.0000000000000000   13.0241287101555532
   Ca   Al   F 
     4     4    20
Direct
  0.7438593179935680  0.3611742929436090  0.3388858993653017
  0.2438593179935680  0.1388257070563910  0.6611141006346983
  0.2561406820064249  0.8611742929436090  0.1611141006346983
  0.7561406820064249  0.6388257070563910  0.8388858993653017
  0.1750760749471283  0.8471133838145377  0.4070757191386178
  0.6750760749471283  0.6528866161854623  0.5929242808613751
  0.8249239250528717  0.3471133838145377  0.0929242808613751
  0.3249239250528717  0.1528866161854623  0.9070757191386178
  0.8991351951985038  0.6453851973882649  0.4770427006461944
  0.3991351951984967  0.8546148026117351  0.5229572993538056
  0.1008648048014962  0.1453851973882649  0.0229572993538056
  0.6008648048014962  0.3546148026117351  0.9770427006461944
  0.9422761303799803  0.8071041067150659  0.2966158260926832
  0.4422761303799803  0.6928958932849341  0.7033841739073168
  0.0577238696200197  0.3071041067150659  0.2033841739073168
  0.5577238696200197  0.1928958932849341  0.7966158260926832
  0.9994829118988022  0.6253693877595765  0.0508001429252403
  0.4994829118988022  0.8746306122404235  0.9491998570747597
  0.0005170881011978  0.1253693877595765  0.4491998570747597
  0.5005170881011978  0.3746306122404235  0.5508001429252403
  0.5767737279509006  0.5239977906046178  0.1711478381788680
  0.0767737279509006  0.9760022093953822  0.8288521618211320
  0.4232262720490994  0.0239977906046178  0.3288521618211320
  0.9232262720490994  0.4760022093953822  0.6711478381788680
  0.1648932170986370  0.4434008399898346  0.8683906057036026
  0.6648932170986370  0.0565991600101654  0.1316093942963974
  0.8351067829013630  0.9434008399898346  0.6316093942963974
  0.3351067829013630  0.5565991600101654  0.3683906057036026

  0.00000000E+00  0.00000000E+00  0.00000000E+00
  0.00000000E+00  0.00000000E+00  0.00000000E+00
  0.00000000E+00  0.00000000E+00  0.00000000E+00
  0.00000000E+00  0.00000000E+00  0.00000000E+00
  0.00000000E+00  0.00000000E+00  0.00000000E+00
  0.00000000E+00  0.00000000E+00  0.00000000E+00
  0.00000000E+00  0.00000000E+00  0.00000000E+00
  0.00000000E+00  0.00000000E+00  0.00000000E+00
  0.00000000E+00  0.00000000E+00  0.00000000E+00
  0.00000000E+00  0.00000000E+00  0.00000000E+00
  0.00000000E+00  0.00000000E+00  0.00000000E+00
  0.00000000E+00  0.00000000E+00  0.00000000E+00
  0.00000000E+00  0.00000000E+00  0.00000000E+00
  0.00000000E+00  0.00000000E+00  0.00000000E+00
  0.00000000E+00  0.00000000E+00  0.00000000E+00
  0.00000000E+00  0.00000000E+00  0.00000000E+00
  0.00000000E+00  0.00000000E+00  0.00000000E+00
  0.00000000E+00  0.00000000E+00  0.00000000E+00
  0.00000000E+00  0.00000000E+00  0.00000000E+00
  0.00000000E+00  0.00000000E+00  0.00000000E+00
  0.00000000E+00  0.00000000E+00  0.00000000E+00
  0.00000000E+00  0.00000000E+00  0.00000000E+00
  0.00000000E+00  0.00000000E+00  0.00000000E+00
  0.00000000E+00  0.00000000E+00  0.00000000E+00
  0.00000000E+00  0.00000000E+00  0.00000000E+00
  0.00000000E+00  0.00000000E+00  0.00000000E+00
  0.00000000E+00  0.00000000E+00  0.00000000E+00
  0.00000000E+00  0.00000000E+00  0.00000000E+00
