Be8 B50                                 
   1.00000000000000     
     9.2300832481415860    0.0000000000000000    0.0000000000000000
     0.0000000000000000    5.1479716430777804    0.0057679918229214
     0.0000000000000000    5.1241152295991244    8.9051260052725318
   Be   B 
     8    50
Direct
  0.6908244323265009  0.0645088104822591  0.3699039085163847
  0.3091755676734991  0.0645088104822591  0.8699039085163847
  0.1543597332159692  0.2470885107915564  0.6911729999604361
  0.8456402667840308  0.2470885107915564  0.1911729999604361
  0.3091755676734991  0.9354911895177409  0.6300960914836153
  0.6908244323265009  0.9354911895177409  0.1300960914836153
  0.8456402667840308  0.7529114892084436  0.3088270000395639
  0.1543597332159692  0.7529114892084436  0.8088270000395639
  0.6686477083902886  0.5801741601632315  0.5686762524777151
  0.3313522916097114  0.5801741601632315  0.0686762524777151
  0.1613249184060379  0.2404163938654520  0.4191986111307955
  0.8386750815939621  0.2404163938654520  0.9191986111307955
  0.3313522916097114  0.4198258398367685  0.4313237475222849
  0.6686477083902886  0.4198258398367685  0.9313237475222849
  0.8386750815939621  0.7595836061345480  0.5808013888692045
  0.1613249184060379  0.7595836061345480  0.0808013888692045
  0.0817829720927747  0.9826268975796424  0.1675269287949916
  0.6152978801320828  0.8251206959273105  0.8372371366818996
  0.9182170279072253  0.9826268975796424  0.6675269287949916
  0.3847021198679172  0.8251206959273105  0.3372371366818996
  0.9182170279072253  0.0173731024203576  0.8324730712050084
  0.3847021198679172  0.1748793040726895  0.1627628633181004
  0.0817829720927747  0.0173731024203576  0.3324730712050084
  0.6152978801320828  0.1748793040726895  0.6627628633181004
  0.6498614587010962  0.6884543560656837  0.3505902281710505
  0.3501385412989038  0.6884543560656837  0.8505902281710505
  0.1054304114821818  0.0073713719827211  0.6098053640975678
  0.8945695885178182  0.0073713719827211  0.1098053640975678
  0.3501385412989038  0.3115456439343163  0.6494097718289495
  0.6498614587010962  0.3115456439343163  0.1494097718289495
  0.8945695885178182  0.9926286280172789  0.3901946359024322
  0.1054304114821818  0.9926286280172789  0.8901946359024322
  0.5049224229192149  0.4902776625518399  0.6688683534502644
  0.4950775770807851  0.4902776625518399  0.1688683534502644
  0.9841731715161544  0.3300640236673544  0.3332029537169561
  0.0158268284838456  0.3300640236673544  0.8332029537169561
  0.4950775770807851  0.5097223374481601  0.3311316465497356
  0.5049224229192149  0.5097223374481601  0.8311316465497356
  0.0158268284838456  0.6699359763326456  0.6667970462830439
  0.9841731715161544  0.6699359763326456  0.1667970462830439
  0.1652156741114155  0.1615883446744277  0.9898108266342405
  0.6677687203629574  0.6688816361427783  0.0213710946958230
  0.8347843258885845  0.1615883446744277  0.4898108266342405
  0.3322312796370426  0.6688816361427783  0.5213710946958230
  0.8347843258885845  0.8384116553255723  0.0101891733657595
  0.3322312796370426  0.3311183638572217  0.9786289053041770
  0.1652156741114155  0.8384116553255723  0.5101891733657595
  0.6677687203629574  0.3311183638572217  0.4786289053041770
  0.5055036615644113  0.8499628138357167  0.4851833177253937
  0.4944963384355887  0.8499628138357167  0.9851833177253937
  0.9995239620731908  0.3293994468132979  0.5037818179676776
  0.0004760379268092  0.3293994468132979  0.0037818179676776
  0.4944963384355887  0.1500371861642833  0.5148166822746063
  0.5055036615644113  0.1500371861642833  0.0148166822746063
  0.0004760379268092  0.6706005531867021  0.4962181820323224
  0.9995239620731908  0.6706005531867021  0.9962181820323224
  0.5443476011431301  0.0000000000000000  0.2500000000000000
  0.4556523988568699  0.0000000000000000  0.7500000000000000
 
  0.00000000E+00  0.00000000E+00  0.00000000E+00
  0.00000000E+00  0.00000000E+00  0.00000000E+00
  0.00000000E+00  0.00000000E+00  0.00000000E+00
  0.00000000E+00  0.00000000E+00  0.00000000E+00
  0.00000000E+00  0.00000000E+00  0.00000000E+00
  0.00000000E+00  0.00000000E+00  0.00000000E+00
  0.00000000E+00  0.00000000E+00  0.00000000E+00
  0.00000000E+00  0.00000000E+00  0.00000000E+00
  0.00000000E+00  0.00000000E+00  0.00000000E+00
  0.00000000E+00  0.00000000E+00  0.00000000E+00
  0.00000000E+00  0.00000000E+00  0.00000000E+00
  0.00000000E+00  0.00000000E+00  0.00000000E+00
  0.00000000E+00  0.00000000E+00  0.00000000E+00
  0.00000000E+00  0.00000000E+00  0.00000000E+00
  0.00000000E+00  0.00000000E+00  0.00000000E+00
  0.00000000E+00  0.00000000E+00  0.00000000E+00
  0.00000000E+00  0.00000000E+00  0.00000000E+00
  0.00000000E+00  0.00000000E+00  0.00000000E+00
  0.00000000E+00  0.00000000E+00  0.00000000E+00
  0.00000000E+00  0.00000000E+00  0.00000000E+00
  0.00000000E+00  0.00000000E+00  0.00000000E+00
  0.00000000E+00  0.00000000E+00  0.00000000E+00
  0.00000000E+00  0.00000000E+00  0.00000000E+00
  0.00000000E+00  0.00000000E+00  0.00000000E+00
  0.00000000E+00  0.00000000E+00  0.00000000E+00
  0.00000000E+00  0.00000000E+00  0.00000000E+00
  0.00000000E+00  0.00000000E+00  0.00000000E+00
  0.00000000E+00  0.00000000E+00  0.00000000E+00
  0.00000000E+00  0.00000000E+00  0.00000000E+00
  0.00000000E+00  0.00000000E+00  0.00000000E+00
  0.00000000E+00  0.00000000E+00  0.00000000E+00
  0.00000000E+00  0.00000000E+00  0.00000000E+00
  0.00000000E+00  0.00000000E+00  0.00000000E+00
  0.00000000E+00  0.00000000E+00  0.00000000E+00
  0.00000000E+00  0.00000000E+00  0.00000000E+00
  0.00000000E+00  0.00000000E+00  0.00000000E+00
  0.00000000E+00  0.00000000E+00  0.00000000E+00
  0.00000000E+00  0.00000000E+00  0.00000000E+00
  0.00000000E+00  0.00000000E+00  0.00000000E+00
  0.00000000E+00  0.00000000E+00  0.00000000E+00
  0.00000000E+00  0.00000000E+00  0.00000000E+00
  0.00000000E+00  0.00000000E+00  0.00000000E+00
  0.00000000E+00  0.00000000E+00  0.00000000E+00
  0.00000000E+00  0.00000000E+00  0.00000000E+00
  0.00000000E+00  0.00000000E+00  0.00000000E+00
  0.00000000E+00  0.00000000E+00  0.00000000E+00
  0.00000000E+00  0.00000000E+00  0.00000000E+00
  0.00000000E+00  0.00000000E+00  0.00000000E+00
  0.00000000E+00  0.00000000E+00  0.00000000E+00
  0.00000000E+00  0.00000000E+00  0.00000000E+00
  0.00000000E+00  0.00000000E+00  0.00000000E+00
  0.00000000E+00  0.00000000E+00  0.00000000E+00
  0.00000000E+00  0.00000000E+00  0.00000000E+00
  0.00000000E+00  0.00000000E+00  0.00000000E+00
  0.00000000E+00  0.00000000E+00  0.00000000E+00
  0.00000000E+00  0.00000000E+00  0.00000000E+00
  0.00000000E+00  0.00000000E+00  0.00000000E+00
  0.00000000E+00  0.00000000E+00  0.00000000E+00
