Be2 Ga2 Cl6                             
   1.00000000000000     
     6.6556212939606310    0.0040945174083266    0.0000000000000000
    -3.3237913891385991    5.7662004659487014    0.0000000000000000
     0.0000000000000000    0.0000000000000000    5.5694974663951262
   Cl   Be   Ga
     6     2     2
Direct
  0.1547755198606211  0.3104073654715336  0.2500000000000000
  0.1550274390929545  0.8449714975278226  0.2500000000000000
  0.6895951344907374  0.8452167648518270  0.2500000000000000
  0.3104048655092626  0.1547832351481730  0.7500000000000000
  0.8449725609070455  0.1550285024721774  0.7500000000000000
  0.8452244801393789  0.6895926345284664  0.7500000000000000
  0.0000000000000000  0.0000000000000000  0.0000000000000000
  0.0000000000000000  0.0000000000000000  0.5000000000000000
  0.6669088937255054  0.3330928515099956  0.2500000000000000
  0.3330911062744946  0.6669071484900044  0.7500000000000000
 
  0.00000000E+00  0.00000000E+00  0.00000000E+00
  0.00000000E+00  0.00000000E+00  0.00000000E+00
  0.00000000E+00  0.00000000E+00  0.00000000E+00
  0.00000000E+00  0.00000000E+00  0.00000000E+00
  0.00000000E+00  0.00000000E+00  0.00000000E+00
  0.00000000E+00  0.00000000E+00  0.00000000E+00
  0.00000000E+00  0.00000000E+00  0.00000000E+00
  0.00000000E+00  0.00000000E+00  0.00000000E+00
  0.00000000E+00  0.00000000E+00  0.00000000E+00
  0.00000000E+00  0.00000000E+00  0.00000000E+00
