Be4 B10 I2                              
   1.00000000000000     
     5.3922993899088469   -0.4993753826836569   -0.2099142359689000
    -3.5272870235581828    9.9436721822780747   -1.8882687011170813
    -2.3579654870677524   -5.1381865574169607    6.0194764238315432
   I    Be   B 
     2     4    10
Direct
  0.0798450474766454  0.3212470681233199  0.3654059197955135
  0.0473802819309128  0.8815789985347493  0.8854584776072087
  0.9642490095814225  0.6407546505392929  0.2584700104133617
  0.5435490915287602  0.3588161241312591  0.1397025635949944
  0.5599581304948629  0.8235507216521398  0.6107762501484615
  0.0021280741507610  0.2352192526257326  0.8795080842273748
  0.0663785146271536  0.1402361737624744  0.0074499987495500
  0.5089113338659743  0.5633752209679415  0.1164777600841944
  0.2218046799936531  0.5597744274116039  0.1875331079012454
  0.5693334143070317  0.7962442114947379  0.3292900652828976
  0.9305533235636432  0.8411774477695531  0.3854113857072434
  0.0471110616823012  0.5025133778244566  0.3128407405536677
  0.9658937723235823  0.0537502856325105  0.5537484744231023
  0.3447751888734274  0.1082760741172066  0.6509392442171489
  0.7572213899547577  0.3422700609929521  0.9656152843616965
  0.3909076856450895  0.3310159044200489  0.8511726329323253
 
  0.00000000E+00  0.00000000E+00  0.00000000E+00
  0.00000000E+00  0.00000000E+00  0.00000000E+00
  0.00000000E+00  0.00000000E+00  0.00000000E+00
  0.00000000E+00  0.00000000E+00  0.00000000E+00
  0.00000000E+00  0.00000000E+00  0.00000000E+00
  0.00000000E+00  0.00000000E+00  0.00000000E+00
  0.00000000E+00  0.00000000E+00  0.00000000E+00
  0.00000000E+00  0.00000000E+00  0.00000000E+00
  0.00000000E+00  0.00000000E+00  0.00000000E+00
  0.00000000E+00  0.00000000E+00  0.00000000E+00
  0.00000000E+00  0.00000000E+00  0.00000000E+00
  0.00000000E+00  0.00000000E+00  0.00000000E+00
  0.00000000E+00  0.00000000E+00  0.00000000E+00
  0.00000000E+00  0.00000000E+00  0.00000000E+00
  0.00000000E+00  0.00000000E+00  0.00000000E+00
  0.00000000E+00  0.00000000E+00  0.00000000E+00
