CaCl2                                   
   1.00000000000000     
     6.4591588803750790    0.0000000000000000    0.0000000000000000
     0.0000000000000000    6.4591588803750790    0.0000000000000000
     0.0000000000000000    0.0000000000000000    4.2053740010787131
   Ca   Cl
     2     4
Direct
  0.0000000000000000  0.0000000000000000  0.0000000000000000
  0.5000000000000000  0.5000000000000000  0.5000000000000000
  0.3038418411896444  0.3038418411896444  0.0000000000000000
  0.6961581588103556  0.6961581588103556  0.0000000000000000
  0.8038418411896444  0.1961581588103556  0.5000000000000000
  0.1961581588103556  0.8038418411896444  0.5000000000000000
 
  0.00000000E+00  0.00000000E+00  0.00000000E+00
  0.00000000E+00  0.00000000E+00  0.00000000E+00
  0.00000000E+00  0.00000000E+00  0.00000000E+00
  0.00000000E+00  0.00000000E+00  0.00000000E+00
  0.00000000E+00  0.00000000E+00  0.00000000E+00
  0.00000000E+00  0.00000000E+00  0.00000000E+00
