Be2 Ga2 Cl10                            
   1.00000000000000     
     5.9137528765103244   -1.1548441131598870    2.2831751159775400
     0.1691793382731765    6.0230815275258420    2.2831754327640645
     0.0381283045625897    0.0305172025391180    9.1016855276696518
   Be   Ga   Cl
     2     2    10
Direct
  0.6338720912757054  0.3661279081641808  0.2500000005057643
  0.3661279087242946  0.6338720918358192  0.7499999994942357
  0.0000000000000000  0.0000000000000000  0.5000000000000000
  0.0000000000000000  0.0000000000000000  0.0000000000000000
  0.7171613729208772  0.6723219736406776  0.6608632699327828
  0.3276780344062047  0.2828376199925060  0.8391367293614991
  0.2828376270791253  0.3276780263593224  0.3391377300672218
  0.6723219655937953  0.7171613800074965  0.1608632706385009
  0.9080728643083589  0.0919271336641287  0.7500000008692993
  0.0919271356916411  0.9080728663358713  0.2499999991307007
  0.7603144212966484  0.2750049452581038  0.0503229518784849
  0.7249950498190714  0.2396855726700764  0.4496770562918826
  0.2396855787033516  0.7249950547418891  0.9496770481215151
  0.2750049501809286  0.7603144273299236  0.5503229437081174
 
  0.00000000E+00  0.00000000E+00  0.00000000E+00
  0.00000000E+00  0.00000000E+00  0.00000000E+00
  0.00000000E+00  0.00000000E+00  0.00000000E+00
  0.00000000E+00  0.00000000E+00  0.00000000E+00
  0.00000000E+00  0.00000000E+00  0.00000000E+00
  0.00000000E+00  0.00000000E+00  0.00000000E+00
  0.00000000E+00  0.00000000E+00  0.00000000E+00
  0.00000000E+00  0.00000000E+00  0.00000000E+00
  0.00000000E+00  0.00000000E+00  0.00000000E+00
  0.00000000E+00  0.00000000E+00  0.00000000E+00
  0.00000000E+00  0.00000000E+00  0.00000000E+00
  0.00000000E+00  0.00000000E+00  0.00000000E+00
  0.00000000E+00  0.00000000E+00  0.00000000E+00
  0.00000000E+00  0.00000000E+00  0.00000000E+00
