Mg1 Ga12                                
   1.00000000000000     
    -4.9730019507888734    4.9730019507888734    2.6104478039127699
     4.9730019507888734   -4.9730019507888734    2.6104478039127699
     4.9730019507888734    4.9730019507888734   -2.6104478039127699
   Ga   Mg
    12     1
Direct
  0.5000000000000000  0.0000000000000000  0.0000000000000000
  0.0000000000000000  0.5000000000000000  0.0000000000000000
  0.7001049864053073  0.5000000000000000  0.2001049864053073
  0.5000000000000000  0.7001049864053073  0.2001049864053073
  0.3557158839995935  0.0000000000000000  0.3557158839995935
  0.0000000000000000  0.3557158839995935  0.3557158839995935
  0.0000000000000000  0.0000000000000000  0.5000000000000000
  0.5000000000000000  0.5000000000000000  0.5000000000000000
  0.6442841160004065  0.0000000000000000  0.6442841160004065
  0.0000000000000000  0.6442841160004065  0.6442841160004065
  0.5000000000000000  0.2998950135946927  0.7998950135946927
  0.2998950135946927  0.5000000000000000  0.7998950135946927
  0.0000000000000000  0.0000000000000000  0.0000000000000000
 
  0.00000000E+00  0.00000000E+00  0.00000000E+00
  0.00000000E+00  0.00000000E+00  0.00000000E+00
  0.00000000E+00  0.00000000E+00  0.00000000E+00
  0.00000000E+00  0.00000000E+00  0.00000000E+00
  0.00000000E+00  0.00000000E+00  0.00000000E+00
  0.00000000E+00  0.00000000E+00  0.00000000E+00
  0.00000000E+00  0.00000000E+00  0.00000000E+00
  0.00000000E+00  0.00000000E+00  0.00000000E+00
  0.00000000E+00  0.00000000E+00  0.00000000E+00
  0.00000000E+00  0.00000000E+00  0.00000000E+00
  0.00000000E+00  0.00000000E+00  0.00000000E+00
  0.00000000E+00  0.00000000E+00  0.00000000E+00
  0.00000000E+00  0.00000000E+00  0.00000000E+00
