Ba4 In4 Cl20                            
   1.0000000000000000     
     6.8022708123492741   -0.0000000000000000    0.0000000000000003
    -0.0000000000000003    7.3276115491766118    0.0000000000000003
    -0.0000000000000005   -0.0000000000000000   16.7248139838854186
   Ba   In   Cl
     4     4    20
Direct
  0.7499855057592200  0.6628080418111040  0.6644554060343566
  0.2499855057592200  0.8371919581888960  0.3355445939656434
  0.2500144942407800  0.1628080418111040  0.8355445939656434
  0.7500144942407800  0.3371919581888960  0.1644554060343566
  0.3243567620086623  0.1155460100218235  0.5881544531486398
  0.8243567620086623  0.3844539899781765  0.4118455468513602
  0.6756432379913377  0.6155460100218235  0.9118455468513602
  0.1756432379913377  0.8844539899781765  0.0881544531486398
  0.9876419058910244  0.6377989621111695  0.4839841754172767
  0.4876419058910244  0.8622010378888305  0.5160158245827233
  0.0123580941089756  0.1377989621111695  0.0160158245827233
  0.5123580941089756  0.3622010378888305  0.9839841754172767
  0.6178327643071171  0.5941090646324909  0.3236640069261369
  0.1178327643071171  0.9058909353675091  0.6763359930738631
  0.3821672356928829  0.0941090646324909  0.1763359930738559
  0.8821672356928829  0.4058909353675091  0.8236640069261369
  0.1626037758984751  0.3752807241545781  0.6558103089349316
  0.6626037758984751  0.1247192758454219  0.3441896910650684
  0.8373962241015249  0.8752807241545781  0.8441896910650684
  0.3373962241015249  0.6247192758454219  0.1558103089349316
  0.5765280882588328  0.0888720336241491  0.6995636515213377
  0.0765280882588328  0.4111279663758509  0.3004363484786694
  0.4234719117411672  0.5888720336241491  0.8004363484786623
  0.9234719117411672  0.9111279663758509  0.1995636515213306
  0.5788990376953862  0.3719011261098188  0.5303528305859757
  0.0788990376953791  0.1280988738901812  0.4696471694140172
  0.4211009623046209  0.8719011261098188  0.9696471694140243
  0.9211009623046138  0.6280988738901812  0.0303528305859757

  0.00000000E+00  0.00000000E+00  0.00000000E+00
  0.00000000E+00  0.00000000E+00  0.00000000E+00
  0.00000000E+00  0.00000000E+00  0.00000000E+00
  0.00000000E+00  0.00000000E+00  0.00000000E+00
  0.00000000E+00  0.00000000E+00  0.00000000E+00
  0.00000000E+00  0.00000000E+00  0.00000000E+00
  0.00000000E+00  0.00000000E+00  0.00000000E+00
  0.00000000E+00  0.00000000E+00  0.00000000E+00
  0.00000000E+00  0.00000000E+00  0.00000000E+00
  0.00000000E+00  0.00000000E+00  0.00000000E+00
  0.00000000E+00  0.00000000E+00  0.00000000E+00
  0.00000000E+00  0.00000000E+00  0.00000000E+00
  0.00000000E+00  0.00000000E+00  0.00000000E+00
  0.00000000E+00  0.00000000E+00  0.00000000E+00
  0.00000000E+00  0.00000000E+00  0.00000000E+00
  0.00000000E+00  0.00000000E+00  0.00000000E+00
  0.00000000E+00  0.00000000E+00  0.00000000E+00
  0.00000000E+00  0.00000000E+00  0.00000000E+00
  0.00000000E+00  0.00000000E+00  0.00000000E+00
  0.00000000E+00  0.00000000E+00  0.00000000E+00
  0.00000000E+00  0.00000000E+00  0.00000000E+00
  0.00000000E+00  0.00000000E+00  0.00000000E+00
  0.00000000E+00  0.00000000E+00  0.00000000E+00
  0.00000000E+00  0.00000000E+00  0.00000000E+00
  0.00000000E+00  0.00000000E+00  0.00000000E+00
  0.00000000E+00  0.00000000E+00  0.00000000E+00
  0.00000000E+00  0.00000000E+00  0.00000000E+00
  0.00000000E+00  0.00000000E+00  0.00000000E+00
