Ba1 Ga2 F6                              
   1.00000000000000     
     2.5399624095949815    5.3702524988255238    6.6095760563392290
    -2.5399624095949811    5.3702524988255238    6.6095760563392290
    -0.0000000000000001   -0.6842815507335077    4.6130237127529385
   Ba   F    Ga
     1     6     2
Direct
  0.0000000000000000  0.0000000000000000  0.0000000000000000
  0.6246797367430688  0.6246797367430688  0.6460770606895636
  0.8696488590980493  0.3365446449762288  0.1915129903589019
  0.3365446449762288  0.8696488590980493  0.1915129903589019
  0.3753202632569383  0.3753202632569383  0.3539229393104293
  0.6634553550237641  0.1303511409019436  0.8084870096411052
  0.1303511409019436  0.6634553550237641  0.8084870096411052
  0.3145782579444614  0.3145782579444614  0.8665536280329889
  0.6854217420555386  0.6854217420555386  0.1334463719670111
 
  0.00000000E+00  0.00000000E+00  0.00000000E+00
  0.00000000E+00  0.00000000E+00  0.00000000E+00
  0.00000000E+00  0.00000000E+00  0.00000000E+00
  0.00000000E+00  0.00000000E+00  0.00000000E+00
  0.00000000E+00  0.00000000E+00  0.00000000E+00
  0.00000000E+00  0.00000000E+00  0.00000000E+00
  0.00000000E+00  0.00000000E+00  0.00000000E+00
  0.00000000E+00  0.00000000E+00  0.00000000E+00
  0.00000000E+00  0.00000000E+00  0.00000000E+00
