Ba3I                                    
   1.00000000000000     
     5.9066308957126168    0.0000000000000000    0.0000000000000001
     0.0000000000000000    5.9066308957126168    0.0000000000000000
     0.0000000000000000    0.0000000000000000    5.9066308957126168
   Ba   I 
     3     1
Direct
  0.5000000000000000  0.0000000000000000  0.5000000000000000
  0.5000000000000000  0.5000000000000000  0.0000000000000000
  0.0000000000000000  0.5000000000000000  0.5000000000000000
  0.0000000000000000  0.0000000000000000  0.0000000000000000
 
  0.00000000E+00  0.00000000E+00  0.00000000E+00
  0.00000000E+00  0.00000000E+00  0.00000000E+00
  0.00000000E+00  0.00000000E+00  0.00000000E+00
  0.00000000E+00  0.00000000E+00  0.00000000E+00
