Ca7 B10                                 
   1.00000000000000     
     2.3313852998267253   -4.0411441350528303   -0.0030317975860651
    -4.6654209636832551   -0.0015303102755789    0.0030703364299223
     2.3424054136269215   -1.3525362032016051  -12.8527650223389287
   B    Ca
    10     7
Direct
  0.2567235769943821  0.7433279441052321  0.2336787976958803
  0.8249669329599030  0.5577527637732018  0.2938957706974747
  0.4422984598471018  0.1750840627970760  0.2938958049247518
  0.4421350622287079  0.5579153432019766  0.2939384556991342
  0.2108101695499798  0.7892408281845675  0.3705441479218265
  0.7892369013614342  0.2108065559737042  0.6294783597239189
  0.5579113578190729  0.4421305284856416  0.7060851745834995
  0.5577491957523435  0.8249636067109662  0.7061277095985190
  0.1750790954873622  0.4422940837802471  0.7061276583725373
  0.7433232358742998  0.2567190693281063  0.7663461054645353
  0.6378482402942822  0.3622033165489285  0.0874922265585880
  0.9412359861639246  0.0588160842989680  0.1793499104022729
  0.8672488243782155  0.1327999768730450  0.4011429398254833
  0.5000225725380432  0.5000230806433095  0.5000121227597560
  0.1327966326540775  0.8672458357708095  0.5988800025859646
  0.0588116999580208  0.9412315137847642  0.8206733961786483
  0.3622020561388624  0.6378454057394407  0.9125314170072087
 
  0.00000000E+00  0.00000000E+00  0.00000000E+00
  0.00000000E+00  0.00000000E+00  0.00000000E+00
  0.00000000E+00  0.00000000E+00  0.00000000E+00
  0.00000000E+00  0.00000000E+00  0.00000000E+00
  0.00000000E+00  0.00000000E+00  0.00000000E+00
  0.00000000E+00  0.00000000E+00  0.00000000E+00
  0.00000000E+00  0.00000000E+00  0.00000000E+00
  0.00000000E+00  0.00000000E+00  0.00000000E+00
  0.00000000E+00  0.00000000E+00  0.00000000E+00
  0.00000000E+00  0.00000000E+00  0.00000000E+00
  0.00000000E+00  0.00000000E+00  0.00000000E+00
  0.00000000E+00  0.00000000E+00  0.00000000E+00
  0.00000000E+00  0.00000000E+00  0.00000000E+00
  0.00000000E+00  0.00000000E+00  0.00000000E+00
  0.00000000E+00  0.00000000E+00  0.00000000E+00
  0.00000000E+00  0.00000000E+00  0.00000000E+00
  0.00000000E+00  0.00000000E+00  0.00000000E+00
