Ca4 Tl10 F2                             
   1.0000000000000000     
     8.6636194434341665    0.0436409091391723    0.0491951846470450
    -4.3038288077960756    7.5954122228932945   -0.1062536220706357
    -4.2824297595408263   -2.6742414604890588    7.1554220649234308
   F    Ca   Tl
     2     4    10
Direct
  0.9151399908138487  0.3418934043550195  0.4485368549295998
  0.8996362880308837  0.8451549784315162  0.9260171954787779
  0.8086385653653423  0.6360980876884028  0.0482001111440127
  0.5773821115953268  0.1281992202201110  0.3228998970803829
  0.6493954955793484  0.8410025016460168  0.6831041898694679
  0.1598518492873637  0.3435829517994193  0.6934519252692155
  0.9886491462693812  0.1792789667381953  0.1841616753516178
  0.4769851879155809  0.7925260334687820  0.9682270395253667
  0.2504485363745417  0.6444025513489393  0.1912902413377111
  0.4615571909502307  0.4353277518376828  0.1896589098219437
  0.8278600288035989  0.8887596469625052  0.4112631292189235
  0.9888172612957931  0.6772998481151049  0.6852676972439156
  0.2508212956015896  0.9307617930269032  0.4816899440596245
  0.4720043581866165  0.3812155570543183  0.5576993031705229
  0.8235558876196336  0.2909396694727420  0.8127696421869501
  0.4492568063109061  0.1433570378343276  0.8955622443119609

  0.00000000E+00  0.00000000E+00  0.00000000E+00
  0.00000000E+00  0.00000000E+00  0.00000000E+00
  0.00000000E+00  0.00000000E+00  0.00000000E+00
  0.00000000E+00  0.00000000E+00  0.00000000E+00
  0.00000000E+00  0.00000000E+00  0.00000000E+00
  0.00000000E+00  0.00000000E+00  0.00000000E+00
  0.00000000E+00  0.00000000E+00  0.00000000E+00
  0.00000000E+00  0.00000000E+00  0.00000000E+00
  0.00000000E+00  0.00000000E+00  0.00000000E+00
  0.00000000E+00  0.00000000E+00  0.00000000E+00
  0.00000000E+00  0.00000000E+00  0.00000000E+00
  0.00000000E+00  0.00000000E+00  0.00000000E+00
  0.00000000E+00  0.00000000E+00  0.00000000E+00
  0.00000000E+00  0.00000000E+00  0.00000000E+00
  0.00000000E+00  0.00000000E+00  0.00000000E+00
  0.00000000E+00  0.00000000E+00  0.00000000E+00
