Sr1 In1 F3                              
   1.0000000000000000     
     4.6888155516903174    0.0000000000000000    0.0000000000000000
     0.0000000000000000    4.6888155516903174    0.0000000000000000
    -0.0000000000000000    0.0000000000000000    4.6888155516903174
   Sr   F    In
     1     3     1
Direct
  0.0000000000000000  0.0000000000000000  0.0000000000000000
  0.5000000000000000  0.0000000000000000  0.0000000000000000
  0.0000000000000000  0.5000000000000000  0.0000000000000000
  0.0000000000000000  0.0000000000000000  0.5000000000000000
  0.5000000000000000  0.5000000000000000  0.5000000000000000

  0.00000000E+00  0.00000000E+00  0.00000000E+00
  0.00000000E+00  0.00000000E+00  0.00000000E+00
  0.00000000E+00  0.00000000E+00  0.00000000E+00
  0.00000000E+00  0.00000000E+00  0.00000000E+00
  0.00000000E+00  0.00000000E+00  0.00000000E+00
