Ba2 B6                                  
   1.00000000000000     
     6.2671520159499714   -0.0081763248223605    0.0000000000000000
    -3.1406568502227303    5.4237574906968877    0.0000000000000000
     0.0000000000000000    0.0000000000000000    3.4373295567269233
   B    Ba
     6     2
Direct
  0.1068485955008285  0.1835664699736128  0.2500000000000000
  0.8163509230291766  0.8930309257638669  0.2500000000000000
  0.0974602118687713  0.9023604466043835  0.2500000000000000
  0.8931514044991715  0.8164335300263872  0.7500000000000000
  0.1836490769708234  0.1069690742361331  0.7500000000000000
  0.9025397881312287  0.0976395533956165  0.7500000000000000
  0.3329283461381252  0.6670915000668600  0.7500000000000000
  0.6670716538618748  0.3329084999331400  0.2500000000000000
 
  0.00000000E+00  0.00000000E+00  0.00000000E+00
  0.00000000E+00  0.00000000E+00  0.00000000E+00
  0.00000000E+00  0.00000000E+00  0.00000000E+00
  0.00000000E+00  0.00000000E+00  0.00000000E+00
  0.00000000E+00  0.00000000E+00  0.00000000E+00
  0.00000000E+00  0.00000000E+00  0.00000000E+00
  0.00000000E+00  0.00000000E+00  0.00000000E+00
  0.00000000E+00  0.00000000E+00  0.00000000E+00
