Tl1                                     
   1.00000000000000     
     3.0611779554974259   -0.0000000158670661    1.7673712368495318
     1.0203926430233246    2.8861071985478994    1.7673712368947210
    -0.0000000365063187   -0.0000000215607898    3.5347445996052280
   Tl
     1
Direct
  0.0000000000000000  0.0000000000000000  0.0000000000000000
 
  0.00000000E+00  0.00000000E+00  0.00000000E+00
