Ca4 B4 Br20                             
   1.0000000000000000     
     7.9165817340715163   -0.0000000000000001    0.0000000000000006
    -0.0000000000000006    7.2009516410515904    0.0000000000000005
     0.0000000000000007    0.0000000000000002   19.2216321102876364
   Ca   B    Br
     4     4    20
Direct
  0.7778885442743331  0.5165795034868381  0.7478847144903469
  0.2778885442743331  0.9834204965131619  0.2521152855096531
  0.2221114557256669  0.0165795034868381  0.7521152855096531
  0.7221114557256669  0.4834204965131619  0.2478847144903469
  0.5278199671468826  0.1962514999708205  0.6257147947647894
  0.0278199671468826  0.3037485000291795  0.3742852052352106
  0.4721800328531174  0.6962514999708205  0.8742852052352106
  0.9721800328531174  0.8037485000291795  0.1257147947647894
  0.0879818704011868  0.5066759423179974  0.4378775422753947
  0.5879818704011868  0.9933240576820026  0.5621224577246053
  0.9120181295988132  0.0066759423179974  0.0621224577246053
  0.4120181295988132  0.4933240576820026  0.9378775422753947
  0.4903335440193857  0.7197131545246194  0.3135753776490731
  0.9903335440193857  0.7802868454753806  0.6864246223509198
  0.5096664559806143  0.2197131545246194  0.1864246223509198
  0.0096664559806143  0.2802868454753806  0.8135753776490731
  0.2731065925373670  0.2471068695148446  0.6248418150906829
  0.7731065925373670  0.2528931304851554  0.3751581849093171
  0.7268934074626330  0.7471068695148446  0.8751581849093171
  0.2268934074626330  0.7528931304851554  0.1248418150906829
  0.5901025585265387  0.1271047165649222  0.7289237881099595
  0.0901025585265387  0.3728952834350778  0.2710762118900405
  0.4098974414734613  0.6271047165649222  0.7710762118900405
  0.9098974414734613  0.8728952834350778  0.2289237881099595
  0.6573879346067244  0.4349225562785364  0.6038290165154834
  0.1573879346067244  0.0650774437214636  0.3961709834845166
  0.3426120653932756  0.9349225562785435  0.8961709834845166
  0.8426120653932756  0.5650774437214565  0.1038290165154834

  0.00000000E+00  0.00000000E+00  0.00000000E+00
  0.00000000E+00  0.00000000E+00  0.00000000E+00
  0.00000000E+00  0.00000000E+00  0.00000000E+00
  0.00000000E+00  0.00000000E+00  0.00000000E+00
  0.00000000E+00  0.00000000E+00  0.00000000E+00
  0.00000000E+00  0.00000000E+00  0.00000000E+00
  0.00000000E+00  0.00000000E+00  0.00000000E+00
  0.00000000E+00  0.00000000E+00  0.00000000E+00
  0.00000000E+00  0.00000000E+00  0.00000000E+00
  0.00000000E+00  0.00000000E+00  0.00000000E+00
  0.00000000E+00  0.00000000E+00  0.00000000E+00
  0.00000000E+00  0.00000000E+00  0.00000000E+00
  0.00000000E+00  0.00000000E+00  0.00000000E+00
  0.00000000E+00  0.00000000E+00  0.00000000E+00
  0.00000000E+00  0.00000000E+00  0.00000000E+00
  0.00000000E+00  0.00000000E+00  0.00000000E+00
  0.00000000E+00  0.00000000E+00  0.00000000E+00
  0.00000000E+00  0.00000000E+00  0.00000000E+00
  0.00000000E+00  0.00000000E+00  0.00000000E+00
  0.00000000E+00  0.00000000E+00  0.00000000E+00
  0.00000000E+00  0.00000000E+00  0.00000000E+00
  0.00000000E+00  0.00000000E+00  0.00000000E+00
  0.00000000E+00  0.00000000E+00  0.00000000E+00
  0.00000000E+00  0.00000000E+00  0.00000000E+00
  0.00000000E+00  0.00000000E+00  0.00000000E+00
  0.00000000E+00  0.00000000E+00  0.00000000E+00
  0.00000000E+00  0.00000000E+00  0.00000000E+00
  0.00000000E+00  0.00000000E+00  0.00000000E+00
