Ba3 Tl33                                
   1.0000000000000000     
    10.6459023521694043    0.0000000000000000    0.0000000000000000
     0.0000000000000000   10.6459023521694025   -0.0000000000000000
    -0.0000000000000000   -0.0000000000000000   10.6459023521694025
   Ba   Tl
     3    33
Direct
  0.5000000000000000  0.0000000000000000  0.0000000000000000
  0.0000000000000000  0.5000000000000000  0.0000000000000000
  0.0000000000000000  0.0000000000000000  0.5000000000000000
  0.3459364256125355  0.3459364256125355  0.0000000000000000
  0.6540635743874645  0.3459364256125355  0.0000000000000000
  0.3459364256125355  0.6540635743874645  0.0000000000000000
  0.6540635743874645  0.6540635743874645  0.0000000000000000
  0.1594738767601740  0.1594738767601740  0.1594738767601740
  0.8405261232398260  0.1594738767601740  0.1594738767601740
  0.1594738767601740  0.8405261232398260  0.1594738767601740
  0.8405261232398260  0.8405261232398260  0.1594738767601740
  0.5000000000000000  0.2666893845857956  0.2666893845857956
  0.2666893845857956  0.5000000000000000  0.2666893845857956
  0.7333106154142044  0.5000000000000000  0.2666893845857956
  0.5000000000000000  0.7333106154142044  0.2666893845857956
  0.3459364256125355  0.0000000000000000  0.3459364256125355
  0.6540635743874645  0.0000000000000000  0.3459364256125355
  0.0000000000000000  0.3459364256125355  0.3459364256125355
  0.0000000000000000  0.6540635743874645  0.3459364256125355
  0.2666893845857956  0.2666893845857956  0.5000000000000000
  0.7333106154142044  0.2666893845857956  0.5000000000000000
  0.5000000000000000  0.5000000000000000  0.5000000000000000
  0.2666893845857956  0.7333106154142044  0.5000000000000000
  0.7333106154142044  0.7333106154142044  0.5000000000000000
  0.3459364256125355  0.0000000000000000  0.6540635743874645
  0.6540635743874645  0.0000000000000000  0.6540635743874645
  0.0000000000000000  0.3459364256125355  0.6540635743874645
  0.0000000000000000  0.6540635743874645  0.6540635743874645
  0.5000000000000000  0.2666893845857956  0.7333106154142044
  0.2666893845857956  0.5000000000000000  0.7333106154142044
  0.7333106154142044  0.5000000000000000  0.7333106154142044
  0.5000000000000000  0.7333106154142044  0.7333106154142044
  0.1594738767601740  0.1594738767601740  0.8405261232398260
  0.8405261232398260  0.1594738767601740  0.8405261232398260
  0.1594738767601740  0.8405261232398260  0.8405261232398260
  0.8405261232398260  0.8405261232398260  0.8405261232398260

  0.00000000E+00  0.00000000E+00  0.00000000E+00
  0.00000000E+00  0.00000000E+00  0.00000000E+00
  0.00000000E+00  0.00000000E+00  0.00000000E+00
  0.00000000E+00  0.00000000E+00  0.00000000E+00
  0.00000000E+00  0.00000000E+00  0.00000000E+00
  0.00000000E+00  0.00000000E+00  0.00000000E+00
  0.00000000E+00  0.00000000E+00  0.00000000E+00
  0.00000000E+00  0.00000000E+00  0.00000000E+00
  0.00000000E+00  0.00000000E+00  0.00000000E+00
  0.00000000E+00  0.00000000E+00  0.00000000E+00
  0.00000000E+00  0.00000000E+00  0.00000000E+00
  0.00000000E+00  0.00000000E+00  0.00000000E+00
  0.00000000E+00  0.00000000E+00  0.00000000E+00
  0.00000000E+00  0.00000000E+00  0.00000000E+00
  0.00000000E+00  0.00000000E+00  0.00000000E+00
  0.00000000E+00  0.00000000E+00  0.00000000E+00
  0.00000000E+00  0.00000000E+00  0.00000000E+00
  0.00000000E+00  0.00000000E+00  0.00000000E+00
  0.00000000E+00  0.00000000E+00  0.00000000E+00
  0.00000000E+00  0.00000000E+00  0.00000000E+00
  0.00000000E+00  0.00000000E+00  0.00000000E+00
  0.00000000E+00  0.00000000E+00  0.00000000E+00
  0.00000000E+00  0.00000000E+00  0.00000000E+00
  0.00000000E+00  0.00000000E+00  0.00000000E+00
  0.00000000E+00  0.00000000E+00  0.00000000E+00
  0.00000000E+00  0.00000000E+00  0.00000000E+00
  0.00000000E+00  0.00000000E+00  0.00000000E+00
  0.00000000E+00  0.00000000E+00  0.00000000E+00
  0.00000000E+00  0.00000000E+00  0.00000000E+00
  0.00000000E+00  0.00000000E+00  0.00000000E+00
  0.00000000E+00  0.00000000E+00  0.00000000E+00
  0.00000000E+00  0.00000000E+00  0.00000000E+00
  0.00000000E+00  0.00000000E+00  0.00000000E+00
  0.00000000E+00  0.00000000E+00  0.00000000E+00
  0.00000000E+00  0.00000000E+00  0.00000000E+00
  0.00000000E+00  0.00000000E+00  0.00000000E+00
