Ca28 B11                                
   1.00000000000000     
     4.8581215877769788    0.0000000905786922   -0.4200374380625514
    -0.0708638287745228    6.6809735831760895   -0.8196016305211422
     0.1509632825583552    0.2969562299532598   30.0503875493617763
   Ca   B 
    28    11
Direct
  0.8261423294271850  0.6517850620457395  0.6522846597617331
  0.2411380408768480  0.0316965209669036  0.4822770814222537
  0.2182910243154197  0.4506719504199594  0.4365820488008509
  0.8620551573606718  0.0811821732813058  0.7241103145419387
  0.1379448428933046  0.3570718587402766  0.2758896854582531
  0.6007231139915277  0.2584967483719325  0.2014472275920411
  0.3515633767810513  0.4095033976647642  0.7031267527937928
  0.2944879807224439  0.4125194804580161  0.5889759609571072
  0.7588619593715862  0.5494194395438186  0.5177229185779666
  0.9600104377261687  0.5606274904584012  0.9200208754895911
  0.7817089756766009  0.0140899016209133  0.5634179511991277
  0.5793695688170288  0.6823082801140004  0.1587391380697696
  0.7055120196738685  0.8235435195000562  0.4110240390432409
  0.6808903710027039  0.3391379315659577  0.3617797423472950
  0.9383701357907128  0.9900778997848718  0.8767402716786776
  0.3191096286824404  0.9773581892188545  0.6382202576524705
  0.1164141625083062  0.8702294793525525  0.2328293250754783
  0.0616298641052992  0.1133376281060379  0.1232597283212300
  0.5000000001834337  0.6678878990725465  0.0000000000001350
  0.0000000005117258  0.9992765667106767  0.0000000000004121
  0.0399895621096960  0.6406066149673606  0.0799791245102881
  0.4712200911432589  0.2112254788763650  0.9424401828854485
  0.5287799081372313  0.2687852959893036  0.0575588171139358
  0.1738576695738061  0.9995004022825782  0.3477153402374569
  0.6484366241138844  0.7063766448727407  0.2968732472069533
  0.8835858373756977  0.6374001542763352  0.7671706749244152
  0.3992768862053993  0.0570505207777856  0.7985527724081294
  0.4206304309039552  0.5235691420458934  0.8412608619299817
  0.0918896529016209  0.4777371365728413  0.1837793057622648
  0.0000000000129745  0.3903003577188500  0.0000000000000071
  0.2756279359223157  0.7740324613962670  0.5512558720305734
  0.3589144540583860  0.8092024522753150  0.7178289081528959
  0.6410855458725422  0.0913735441220567  0.2821710918470686
  0.9081103471534817  0.2939578308107258  0.8162206942377637
  0.7243720639322220  0.2227765893660845  0.4487441279693556
  0.1776329507140062  0.6106593131545139  0.3552659013569794
  0.5412692724906236  0.8917333882607323  0.0825375448209869
  0.4587307276309858  0.8091958434393689  0.9174624551790771
  0.8223670493295927  0.2553934117972716  0.6447340986430561
 
  0.00000000E+00  0.00000000E+00  0.00000000E+00
  0.00000000E+00  0.00000000E+00  0.00000000E+00
  0.00000000E+00  0.00000000E+00  0.00000000E+00
  0.00000000E+00  0.00000000E+00  0.00000000E+00
  0.00000000E+00  0.00000000E+00  0.00000000E+00
  0.00000000E+00  0.00000000E+00  0.00000000E+00
  0.00000000E+00  0.00000000E+00  0.00000000E+00
  0.00000000E+00  0.00000000E+00  0.00000000E+00
  0.00000000E+00  0.00000000E+00  0.00000000E+00
  0.00000000E+00  0.00000000E+00  0.00000000E+00
  0.00000000E+00  0.00000000E+00  0.00000000E+00
  0.00000000E+00  0.00000000E+00  0.00000000E+00
  0.00000000E+00  0.00000000E+00  0.00000000E+00
  0.00000000E+00  0.00000000E+00  0.00000000E+00
  0.00000000E+00  0.00000000E+00  0.00000000E+00
  0.00000000E+00  0.00000000E+00  0.00000000E+00
  0.00000000E+00  0.00000000E+00  0.00000000E+00
  0.00000000E+00  0.00000000E+00  0.00000000E+00
  0.00000000E+00  0.00000000E+00  0.00000000E+00
  0.00000000E+00  0.00000000E+00  0.00000000E+00
  0.00000000E+00  0.00000000E+00  0.00000000E+00
  0.00000000E+00  0.00000000E+00  0.00000000E+00
  0.00000000E+00  0.00000000E+00  0.00000000E+00
  0.00000000E+00  0.00000000E+00  0.00000000E+00
  0.00000000E+00  0.00000000E+00  0.00000000E+00
  0.00000000E+00  0.00000000E+00  0.00000000E+00
  0.00000000E+00  0.00000000E+00  0.00000000E+00
  0.00000000E+00  0.00000000E+00  0.00000000E+00
  0.00000000E+00  0.00000000E+00  0.00000000E+00
  0.00000000E+00  0.00000000E+00  0.00000000E+00
  0.00000000E+00  0.00000000E+00  0.00000000E+00
  0.00000000E+00  0.00000000E+00  0.00000000E+00
  0.00000000E+00  0.00000000E+00  0.00000000E+00
  0.00000000E+00  0.00000000E+00  0.00000000E+00
  0.00000000E+00  0.00000000E+00  0.00000000E+00
  0.00000000E+00  0.00000000E+00  0.00000000E+00
  0.00000000E+00  0.00000000E+00  0.00000000E+00
  0.00000000E+00  0.00000000E+00  0.00000000E+00
  0.00000000E+00  0.00000000E+00  0.00000000E+00
