Ba16 Tl12 Cl1                           
   1.0000000000000000     
     9.7044388327709559   -5.6039969180220082    3.9583369791555945
    -0.0513232985572856   11.0588229183140676    3.8739257495658195
    -9.6001474795288200   -5.4847352852428068    3.8739240484165198
   Tl   Cl   Ba
    12     1    16
Direct
  0.8021799646959806  0.6077012413647438  0.9994057757860304
  0.6101020037389944  0.8129647713180503  0.9996407744694338
  0.3816801132161416  0.3948332748696686  0.2258607817853999
  0.1565554741372921  0.7757272813719780  0.1695964399848151
  0.7971222919285736  0.1868295741201322  0.1871240310155358
  0.3805017300448696  0.2236144814058250  0.3942972639737263
  0.1947963434906228  0.3934201117523841  0.3931060038391436
  0.8027408199817359  0.0001030583421908  0.6078667982140260
  0.9865081475810769  0.8298601872941802  0.6057813878110139
  0.6106562571182934  0.0005538133993497  0.8136137046856291
  0.9864554057053994  0.6056945236738756  0.8294546382632291
  0.1567718559258537  0.1702298296598030  0.7762044077838155
  0.4246202858475101  0.0000930609796441  0.0000413545208104
  0.9871394192175060  0.2319765908611515  0.0006292462975352
  0.5269817815128377  0.2749547099964786  0.9999052346917452
  0.2628316630530776  0.5359856379350276  0.0001290796088611
  0.1747228499987656  0.9997924563820320  0.9997538546530080
  0.7075477034703681  0.7272806667754637  0.2747803407120770
  0.5273138086601392  0.9996905666787654  0.2747683643879668
  0.9797396857644145  0.5474264737312851  0.2721246252763905
  0.9867009968584455  0.0001609723527949  0.2317205533991924
  0.7272434624983291  0.4635716775446213  0.4638967937134382
  0.4327637538428704  0.7259447747032794  0.4525316366289331
  0.9803826771263502  0.2727167457547566  0.5475608669043908
  0.2622882567715124  0.9995817719002389  0.5358414426350606
  0.7540995038421414  0.7676829723021399  0.7672434516153714
  0.7075775551222208  0.2744809993804864  0.7271709072369674
  0.2524619048652141  0.7248894948489308  0.7247846293241977
  0.4327142839834508  0.4522392793007199  0.7251666107822601

  0.00000000E+00  0.00000000E+00  0.00000000E+00
  0.00000000E+00  0.00000000E+00  0.00000000E+00
  0.00000000E+00  0.00000000E+00  0.00000000E+00
  0.00000000E+00  0.00000000E+00  0.00000000E+00
  0.00000000E+00  0.00000000E+00  0.00000000E+00
  0.00000000E+00  0.00000000E+00  0.00000000E+00
  0.00000000E+00  0.00000000E+00  0.00000000E+00
  0.00000000E+00  0.00000000E+00  0.00000000E+00
  0.00000000E+00  0.00000000E+00  0.00000000E+00
  0.00000000E+00  0.00000000E+00  0.00000000E+00
  0.00000000E+00  0.00000000E+00  0.00000000E+00
  0.00000000E+00  0.00000000E+00  0.00000000E+00
  0.00000000E+00  0.00000000E+00  0.00000000E+00
  0.00000000E+00  0.00000000E+00  0.00000000E+00
  0.00000000E+00  0.00000000E+00  0.00000000E+00
  0.00000000E+00  0.00000000E+00  0.00000000E+00
  0.00000000E+00  0.00000000E+00  0.00000000E+00
  0.00000000E+00  0.00000000E+00  0.00000000E+00
  0.00000000E+00  0.00000000E+00  0.00000000E+00
  0.00000000E+00  0.00000000E+00  0.00000000E+00
  0.00000000E+00  0.00000000E+00  0.00000000E+00
  0.00000000E+00  0.00000000E+00  0.00000000E+00
  0.00000000E+00  0.00000000E+00  0.00000000E+00
  0.00000000E+00  0.00000000E+00  0.00000000E+00
  0.00000000E+00  0.00000000E+00  0.00000000E+00
  0.00000000E+00  0.00000000E+00  0.00000000E+00
  0.00000000E+00  0.00000000E+00  0.00000000E+00
  0.00000000E+00  0.00000000E+00  0.00000000E+00
  0.00000000E+00  0.00000000E+00  0.00000000E+00
