Al6 Br4                                 
   1.00000000000000     
    -4.6435707029567448   -0.0071443662784828   -0.2805082709037061
     2.3084744004960038   -4.0145036270088372    0.2412520247577893
    -1.5642988777525668    1.0678441130298770   17.7733507215223199
   Br   Al
     4     6
Direct
  0.2694531206331803  0.5395658720944141  0.1019808432167224
  0.2617952441931379  0.0852504286374796  0.4001182902112816
  0.7385052397631782  0.9143786268611009  0.5997729386356667
  0.7307736989171332  0.4607296661131031  0.8979260297282536
  0.2636659238889365  0.0638405014494268  0.2715241305037281
  0.9406852695949652  0.3946677800339842  0.2256818627360033
  0.5890960102658198  0.7188653496983903  0.2259413656818339
  0.4107649240122058  0.2812016785834999  0.7740445093472488
  0.0591101669062226  0.6053500355024966  0.7742041360226182
  0.7361504018252205  0.9361500610260975  0.7284058939166442
 
  0.00000000E+00  0.00000000E+00  0.00000000E+00
  0.00000000E+00  0.00000000E+00  0.00000000E+00
  0.00000000E+00  0.00000000E+00  0.00000000E+00
  0.00000000E+00  0.00000000E+00  0.00000000E+00
  0.00000000E+00  0.00000000E+00  0.00000000E+00
  0.00000000E+00  0.00000000E+00  0.00000000E+00
  0.00000000E+00  0.00000000E+00  0.00000000E+00
  0.00000000E+00  0.00000000E+00  0.00000000E+00
  0.00000000E+00  0.00000000E+00  0.00000000E+00
  0.00000000E+00  0.00000000E+00  0.00000000E+00
