Ca18 Tl11                               
   1.0000000000000000     
     8.7857251480203082   -5.5453589271613808    3.4198663194597394
    -0.3043665248189684   10.7579384710847705    3.6159667660041133
    -8.4998707677127214   -5.0648694814661601    3.4358165366982112
   Tl   Ca
    11    18
Direct
  0.6546615158625571  0.7726415563824887  0.0000870485368551
  0.3762533485191639  0.3830781543147879  0.1949633498835013
  0.8181656184139712  0.2135969286968589  0.1959595758279136
  0.2280653864821005  0.7950844866992810  0.2042785718489739
  0.3464372982014510  0.1656502365391219  0.3643864422861967
  0.2030900844425574  0.4041315616273238  0.3981304819501617
  0.8050461905975936  0.0060861064972855  0.6015789990191962
  0.9823671949383268  0.8015438994336321  0.6355713844187605
  0.0236828526553055  0.5911477576324913  0.7958030357367178
  0.6224685018388527  0.0177232808623842  0.8036086125491195
  0.1812348232154761  0.1879299367919458  0.8046209069352344
  0.2545796417896966  0.9774391509588369  0.0000978332298232
  0.5799050762850086  0.2891805613682479  0.9998421801612523
  0.9739052711149228  0.0672047783557375  0.0002885380817190
  0.8654600278057387  0.6479016460086626  0.0003110258154209
  0.9799998096625586  0.3690556772773448  0.0000354749461806
  0.3215962950024860  0.5697620779645831  0.9999460941741489
  0.7066033524217517  0.6907206715444971  0.2969404702767946
  0.5925559723642806  0.9757547447516899  0.2532784641907213
  0.0109651406124200  0.5877844312210883  0.3548155109635474
  0.0019757052408309  0.0217924135726051  0.3267979037935049
  0.4194121421719927  0.7293478659635610  0.4218416238937337
  0.6928547491413326  0.3976557905811404  0.4133000164963221
  0.2797631531067282  0.9841413906866734  0.5862748322802318
  0.9974993129040612  0.3079116186796114  0.5780963667239831
  0.6759325877309976  0.6954256303525668  0.6737855970808866
  0.6564225893055919  0.2335362387342528  0.6453897150256154
  0.3396274949530991  0.7228763986672320  0.7469933710093315
  0.4096708632191621  0.3939320078340529  0.7029765728641451

  0.00000000E+00  0.00000000E+00  0.00000000E+00
  0.00000000E+00  0.00000000E+00  0.00000000E+00
  0.00000000E+00  0.00000000E+00  0.00000000E+00
  0.00000000E+00  0.00000000E+00  0.00000000E+00
  0.00000000E+00  0.00000000E+00  0.00000000E+00
  0.00000000E+00  0.00000000E+00  0.00000000E+00
  0.00000000E+00  0.00000000E+00  0.00000000E+00
  0.00000000E+00  0.00000000E+00  0.00000000E+00
  0.00000000E+00  0.00000000E+00  0.00000000E+00
  0.00000000E+00  0.00000000E+00  0.00000000E+00
  0.00000000E+00  0.00000000E+00  0.00000000E+00
  0.00000000E+00  0.00000000E+00  0.00000000E+00
  0.00000000E+00  0.00000000E+00  0.00000000E+00
  0.00000000E+00  0.00000000E+00  0.00000000E+00
  0.00000000E+00  0.00000000E+00  0.00000000E+00
  0.00000000E+00  0.00000000E+00  0.00000000E+00
  0.00000000E+00  0.00000000E+00  0.00000000E+00
  0.00000000E+00  0.00000000E+00  0.00000000E+00
  0.00000000E+00  0.00000000E+00  0.00000000E+00
  0.00000000E+00  0.00000000E+00  0.00000000E+00
  0.00000000E+00  0.00000000E+00  0.00000000E+00
  0.00000000E+00  0.00000000E+00  0.00000000E+00
  0.00000000E+00  0.00000000E+00  0.00000000E+00
  0.00000000E+00  0.00000000E+00  0.00000000E+00
  0.00000000E+00  0.00000000E+00  0.00000000E+00
  0.00000000E+00  0.00000000E+00  0.00000000E+00
  0.00000000E+00  0.00000000E+00  0.00000000E+00
  0.00000000E+00  0.00000000E+00  0.00000000E+00
  0.00000000E+00  0.00000000E+00  0.00000000E+00
