Ba4 In10                                
   1.0000000000000000     
     5.3033202310571248    5.3033202310571248   -4.3034109329870907
     5.3033202310571248   -5.3033202310571248    4.3034109329870907
    -5.3033202310571248   -5.3033202310571248   -4.3034109329870907
   In   Ba
    10     4
Direct
  0.8244659262051073  0.3165405181838565  0.1410064443889567
  0.4920745919787421  0.3165405181838565  0.1755340737948927
  0.8589935556110433  0.6834594818161435  0.1755340737948927
  0.1787112486321192  0.0000000000000000  0.1787112486321192
  0.1755340737948927  0.3165405181838565  0.4920745919787421
  0.8244659262051073  0.6834594818161435  0.5079254080212579
  0.8212887513678808  0.0000000000000000  0.8212887513678808
  0.1410064443889567  0.3165405181838565  0.8244659262051073
  0.5079254080212579  0.6834594818161435  0.8244659262051073
  0.1755340737948927  0.6834594818161435  0.8589935556110433
  0.6929770980539232  0.0000000000000000  0.3070229019460768
  0.3070229019460768  0.6140458038921608  0.3070229019460768
  0.3070229019460768  0.0000000000000000  0.6929770980539232
  0.6929770980539232  0.3859541961078392  0.6929770980539232

  0.00000000E+00  0.00000000E+00  0.00000000E+00
  0.00000000E+00  0.00000000E+00  0.00000000E+00
  0.00000000E+00  0.00000000E+00  0.00000000E+00
  0.00000000E+00  0.00000000E+00  0.00000000E+00
  0.00000000E+00  0.00000000E+00  0.00000000E+00
  0.00000000E+00  0.00000000E+00  0.00000000E+00
  0.00000000E+00  0.00000000E+00  0.00000000E+00
  0.00000000E+00  0.00000000E+00  0.00000000E+00
  0.00000000E+00  0.00000000E+00  0.00000000E+00
  0.00000000E+00  0.00000000E+00  0.00000000E+00
  0.00000000E+00  0.00000000E+00  0.00000000E+00
  0.00000000E+00  0.00000000E+00  0.00000000E+00
  0.00000000E+00  0.00000000E+00  0.00000000E+00
  0.00000000E+00  0.00000000E+00  0.00000000E+00
