Ba4 In2 Br10                            
   1.0000000000000000     
     9.1247268151480174   -0.0035182602179533    0.0436900851152456
    -0.0037634324299586    9.2376285747186575    0.1027629240135223
     4.5925048273386881    4.6984456956507872    7.4525019677954996
   Br   In   Ba
    10     2     4
Direct
  0.9987879786045823  0.9819732699404611  0.0153480008931837
  0.4884059568692010  0.4837262850462309  0.0113675971759335
  0.5229851983560181  0.9997257566853150  0.2688693784426093
  0.9870375166536931  0.2056770684851230  0.2656131249175075
  0.7023257181039924  0.4976187575040711  0.2711986704518594
  0.2440102925371974  0.7046195816319667  0.2689269806136849
  0.7685249602876851  0.2685156059145228  0.7348152676036790
  0.2881179910975860  0.4769948295927051  0.7293050027135664
  0.0047779327988877  0.7691624401058093  0.7380277788962601
  0.4840596062278664  0.9762244817309949  0.7332950132907783
  0.3073837811629687  0.3287833062259011  0.4866298895100840
  0.6987270243197869  0.8276509183305976  0.4824035569917271
  0.3338966537952501  0.1441862872173800  0.0168417662692377
  0.8457362031037619  0.3475294429556186  0.9773144599935222
  0.1474648018617515  0.6419560048112416  0.0226739217300747
  0.6780583842197530  0.8459559638220497  0.9773695905063136

  0.00000000E+00  0.00000000E+00  0.00000000E+00
  0.00000000E+00  0.00000000E+00  0.00000000E+00
  0.00000000E+00  0.00000000E+00  0.00000000E+00
  0.00000000E+00  0.00000000E+00  0.00000000E+00
  0.00000000E+00  0.00000000E+00  0.00000000E+00
  0.00000000E+00  0.00000000E+00  0.00000000E+00
  0.00000000E+00  0.00000000E+00  0.00000000E+00
  0.00000000E+00  0.00000000E+00  0.00000000E+00
  0.00000000E+00  0.00000000E+00  0.00000000E+00
  0.00000000E+00  0.00000000E+00  0.00000000E+00
  0.00000000E+00  0.00000000E+00  0.00000000E+00
  0.00000000E+00  0.00000000E+00  0.00000000E+00
  0.00000000E+00  0.00000000E+00  0.00000000E+00
  0.00000000E+00  0.00000000E+00  0.00000000E+00
  0.00000000E+00  0.00000000E+00  0.00000000E+00
  0.00000000E+00  0.00000000E+00  0.00000000E+00
