Mg2 Al2 Br10                            
   1.00000000000000     
     7.2858706363553480   -3.4668093649324900   -1.2367453539041586
     7.2636120437163738    3.4468947784299169   -1.2122283698316183
    -7.1500080054903261    0.0395945504226878   11.9590360364162045
   Al   Mg   Br
     2     2    10
Direct
  0.0787647766633981  0.9537722222279257  0.9438277641397761
  0.9532395542126650  0.0755569164522498  0.4417320187795326
  0.3532911831442433  0.4755978537259153  0.3357195727466049
  0.4823886767601735  0.3566332161844343  0.8365053369950388
  0.2969853446874637  0.5972851675179669  0.0014486004707592
  0.2382590376998266  0.1341365785983015  0.1650402742163664
  0.7324789420784725  0.2539835766708904  0.2869174511080956
  0.9666349181094489  0.7252724715275107  0.3807128344412192
  0.3005375861951691  0.8611879284972090  0.3855975197409478
  0.6051308969922218  0.2938201747483475  0.5047279845552453
  0.1305238804093776  0.2594486375873828  0.6580237764038372
  0.2666477507298737  0.7463941731981976  0.7969316350076170
  0.7269042707766715  0.9593105568066562  0.8709106477895858
  0.8684131815409657  0.3078005262570400  0.8922045836053485
 
  0.00000000E+00  0.00000000E+00  0.00000000E+00
  0.00000000E+00  0.00000000E+00  0.00000000E+00
  0.00000000E+00  0.00000000E+00  0.00000000E+00
  0.00000000E+00  0.00000000E+00  0.00000000E+00
  0.00000000E+00  0.00000000E+00  0.00000000E+00
  0.00000000E+00  0.00000000E+00  0.00000000E+00
  0.00000000E+00  0.00000000E+00  0.00000000E+00
  0.00000000E+00  0.00000000E+00  0.00000000E+00
  0.00000000E+00  0.00000000E+00  0.00000000E+00
  0.00000000E+00  0.00000000E+00  0.00000000E+00
  0.00000000E+00  0.00000000E+00  0.00000000E+00
  0.00000000E+00  0.00000000E+00  0.00000000E+00
  0.00000000E+00  0.00000000E+00  0.00000000E+00
  0.00000000E+00  0.00000000E+00  0.00000000E+00
