Be4 Al8 I32                             
   1.00000000000000     
    -6.5788461147307977    6.5788461147307968   11.9569892701878846
     6.5788461147307977   -6.5788461147307968   11.9569892701878846
     6.5788461147307977    6.5788461147307968  -11.9569892701878846
   Be   Al   I 
     4     8    32
Direct
  0.0000000000000000  0.0000000000000000  0.0000000000000000
  0.7500000000000000  0.2500000000000000  0.5000000000000000
  0.2500000000000000  0.7500000000000000  0.5000000000000000
  0.5000000000000000  0.5000000000000000  0.0000000000000000
  0.5627914889297614  0.8750000000000000  0.1877914889297614
  0.1250000000000000  0.8127914889297614  0.1877914889297614
  0.1250000000000000  0.3127914889297614  0.6877914889297614
  0.6872085110702386  0.3750000000000000  0.8122085110702386
  0.6250000000000000  0.9372085110702386  0.8122085110702386
  0.0627914889297614  0.8750000000000000  0.6877914889297614
  0.1872085110702386  0.3750000000000000  0.3122085110702386
  0.6250000000000000  0.4372085110702386  0.3122085110702386
  0.6376775903186598  0.2393750066256644  0.2829944691854109
  0.1046831211332560  0.8876775903186598  0.8983025836930096
  0.7936194625597466  0.8953168788667512  0.7829944691854109
  0.3168413114839268  0.2668945036350863  0.2513043801568884
  0.8168413114839339  0.5655369313270384  0.0499478078488451
  0.8155369313270384  0.5668413114839339  0.5499478078488451
  0.1123224096813402  0.0106249933743356  0.2170055308145891
  0.9893750066256644  0.2063805374402534  0.1016974163069904
  0.4563805374402534  0.7393750066256644  0.6016974163069904
  0.2331054963649137  0.1831586885160732  0.7486956198431116
  0.0155891234782004  0.0655369313270384  0.7486956198431116
  0.9331586885160661  0.6844630686729616  0.4500521921511549
  0.9344630686729616  0.6831586885160661  0.9500521921511549
  0.1453168788667440  0.5436194625597466  0.2829944691854109
  0.2936194625597466  0.5106249933743356  0.8983025836930096
  0.6046831211332488  0.7063805374402534  0.2170055308145891
  0.7344108765217996  0.1844630686729616  0.7513043801568884
  0.2606249933743356  0.8623224096813402  0.7170055308145891
  0.4893750066256644  0.3876775903186598  0.7829944691854109
  0.9563805374402534  0.3546831211332560  0.7170055308145891
  0.3155369313270384  0.7655891234782004  0.2486956198431116
  0.4344630686729616  0.4844108765217996  0.2513043801568884
  0.6453168788667512  0.3623224096813402  0.6016974163069904
  0.6123224096813402  0.3953168788667440  0.1016974163069904
  0.2344108765217996  0.4831054963649137  0.5499478078488451
  0.4331586885160732  0.9831054963649137  0.2486956198431116
  0.1376775903186598  0.8546831211332488  0.3983025836930096
  0.5168945036350934  0.0668413114839268  0.7513043801568884
  0.5155891234782004  0.7668945036350934  0.9500521921511549
  0.0168945036350934  0.2655891234782004  0.4500521921511549
  0.7606249933743356  0.0436194625597466  0.3983025836930096
  0.7331054963649066  0.9844108765217996  0.0499478078488451
 
  0.00000000E+00  0.00000000E+00  0.00000000E+00
  0.00000000E+00  0.00000000E+00  0.00000000E+00
  0.00000000E+00  0.00000000E+00  0.00000000E+00
  0.00000000E+00  0.00000000E+00  0.00000000E+00
  0.00000000E+00  0.00000000E+00  0.00000000E+00
  0.00000000E+00  0.00000000E+00  0.00000000E+00
  0.00000000E+00  0.00000000E+00  0.00000000E+00
  0.00000000E+00  0.00000000E+00  0.00000000E+00
  0.00000000E+00  0.00000000E+00  0.00000000E+00
  0.00000000E+00  0.00000000E+00  0.00000000E+00
  0.00000000E+00  0.00000000E+00  0.00000000E+00
  0.00000000E+00  0.00000000E+00  0.00000000E+00
  0.00000000E+00  0.00000000E+00  0.00000000E+00
  0.00000000E+00  0.00000000E+00  0.00000000E+00
  0.00000000E+00  0.00000000E+00  0.00000000E+00
  0.00000000E+00  0.00000000E+00  0.00000000E+00
  0.00000000E+00  0.00000000E+00  0.00000000E+00
  0.00000000E+00  0.00000000E+00  0.00000000E+00
  0.00000000E+00  0.00000000E+00  0.00000000E+00
  0.00000000E+00  0.00000000E+00  0.00000000E+00
  0.00000000E+00  0.00000000E+00  0.00000000E+00
  0.00000000E+00  0.00000000E+00  0.00000000E+00
  0.00000000E+00  0.00000000E+00  0.00000000E+00
  0.00000000E+00  0.00000000E+00  0.00000000E+00
  0.00000000E+00  0.00000000E+00  0.00000000E+00
  0.00000000E+00  0.00000000E+00  0.00000000E+00
  0.00000000E+00  0.00000000E+00  0.00000000E+00
  0.00000000E+00  0.00000000E+00  0.00000000E+00
  0.00000000E+00  0.00000000E+00  0.00000000E+00
  0.00000000E+00  0.00000000E+00  0.00000000E+00
  0.00000000E+00  0.00000000E+00  0.00000000E+00
  0.00000000E+00  0.00000000E+00  0.00000000E+00
  0.00000000E+00  0.00000000E+00  0.00000000E+00
  0.00000000E+00  0.00000000E+00  0.00000000E+00
  0.00000000E+00  0.00000000E+00  0.00000000E+00
  0.00000000E+00  0.00000000E+00  0.00000000E+00
  0.00000000E+00  0.00000000E+00  0.00000000E+00
  0.00000000E+00  0.00000000E+00  0.00000000E+00
  0.00000000E+00  0.00000000E+00  0.00000000E+00
  0.00000000E+00  0.00000000E+00  0.00000000E+00
  0.00000000E+00  0.00000000E+00  0.00000000E+00
  0.00000000E+00  0.00000000E+00  0.00000000E+00
  0.00000000E+00  0.00000000E+00  0.00000000E+00
  0.00000000E+00  0.00000000E+00  0.00000000E+00
