Ba2 Tl7                                 
   1.0000000000000000     
     7.2402430094135566   -0.0003020577866517    0.0001432202130514
    -3.6197868675523224    6.2705790816225662   -0.0003451728058017
     0.0001168632358779   -0.0002622169246843    6.7878968550001169
   Tl   Ba
     7     2
Direct
  0.0000000000000000  0.0000000000000000  0.0000000000000000
  0.3584388818977260  0.1792324738280726  0.3304508670092190
  0.8207966784679570  0.1792375021984043  0.3304515780541024
  0.8207587830415264  0.6415174502804319  0.3303831287919436
  0.1792412169584736  0.3584825497195681  0.6696168712080564
  0.1792033215320430  0.8207624978015957  0.6695484219458976
  0.6415611181022740  0.8207675261719274  0.6695491329907810
  0.3333346026393116  0.6666645183059217  0.1628794796157536
  0.6666653973606884  0.3333354816940854  0.8371205203842393

  0.00000000E+00  0.00000000E+00  0.00000000E+00
  0.00000000E+00  0.00000000E+00  0.00000000E+00
  0.00000000E+00  0.00000000E+00  0.00000000E+00
  0.00000000E+00  0.00000000E+00  0.00000000E+00
  0.00000000E+00  0.00000000E+00  0.00000000E+00
  0.00000000E+00  0.00000000E+00  0.00000000E+00
  0.00000000E+00  0.00000000E+00  0.00000000E+00
  0.00000000E+00  0.00000000E+00  0.00000000E+00
  0.00000000E+00  0.00000000E+00  0.00000000E+00
