Ca4 Al2 Cl10                            
   1.00000000000000     
     7.8144516018551471    0.0003526767778717    0.0057228689787649
     0.0003526767778717    7.8144516018551471    0.0057228689787649
     3.9122490463204880    3.9122490463204880    6.6453192356460891
   Cl   Ca   Al
    10     4     2
Direct
  0.5000052483375441  0.9999989312430486  0.0000122318750826
  0.9999989312430486  0.5000052483375441  0.0000122318750826
  0.7203119619883509  0.0179268738604392  0.2609185886708829
  0.2210991296139042  0.2210991296139042  0.2604859890347981
  0.5180273093349328  0.5180273093349328  0.2614586930989091
  0.0179268738604392  0.7203119619883509  0.2609185886708829
  0.9820749168594176  0.2796835859384643  0.7390941940711429
  0.4819781094383515  0.4819781094383515  0.7385580586842480
  0.7789022642196883  0.7789022642196883  0.7395266806146665
  0.2796835859384643  0.9820749168594176  0.7390941940711429
  0.1605387602848438  0.1605387602848438  0.9999444259799546
  0.6604606099492756  0.3395570776120849  0.0000003105793240
  0.3395570776120849  0.6604606099492756  0.0000003105793240
  0.8394891720682622  0.8394891720682622  0.0000415178569213
  0.7497525079359519  0.2502935413154432  0.4999669921688223
  0.2502935413154432  0.7497525079359519  0.4999669921688223
 
  0.00000000E+00  0.00000000E+00  0.00000000E+00
  0.00000000E+00  0.00000000E+00  0.00000000E+00
  0.00000000E+00  0.00000000E+00  0.00000000E+00
  0.00000000E+00  0.00000000E+00  0.00000000E+00
  0.00000000E+00  0.00000000E+00  0.00000000E+00
  0.00000000E+00  0.00000000E+00  0.00000000E+00
  0.00000000E+00  0.00000000E+00  0.00000000E+00
  0.00000000E+00  0.00000000E+00  0.00000000E+00
  0.00000000E+00  0.00000000E+00  0.00000000E+00
  0.00000000E+00  0.00000000E+00  0.00000000E+00
  0.00000000E+00  0.00000000E+00  0.00000000E+00
  0.00000000E+00  0.00000000E+00  0.00000000E+00
  0.00000000E+00  0.00000000E+00  0.00000000E+00
  0.00000000E+00  0.00000000E+00  0.00000000E+00
  0.00000000E+00  0.00000000E+00  0.00000000E+00
  0.00000000E+00  0.00000000E+00  0.00000000E+00
