Ba2 In2 Cl6                             
   1.0000000000000000     
    -4.6563264031805716   -0.0581952898793082    0.0061280952761489
    -2.2396189569195313    7.2217806578815020    0.0008347364012049
     0.0138546019990746    0.0038071754348648  -11.3153465519279646
   Cl   Ba   In
     6     2     2
Direct
  0.1189163242064737  0.7306688771329917  0.0277829790194275
  0.4147387872089467  0.1755198680720014  0.2497966676578471
  0.1305826791575413  0.7332159945800498  0.4288689501604281
  0.8832912956060071  0.2693656646962026  0.5266878288720704
  0.5847699858200599  0.8247624889048097  0.7500788762958095
  0.8703968233202701  0.2670614280423464  0.9295227470814851
  0.4905677576339684  0.0085929464692782  0.9979036639869392
  0.5115671998083968  0.9910674646442814  0.4976233322169534
  0.8051969915903712  0.4575826250173662  0.2954442168807461
  0.1899721556479506  0.5421626424406583  0.7965907378282822

  0.00000000E+00  0.00000000E+00  0.00000000E+00
  0.00000000E+00  0.00000000E+00  0.00000000E+00
  0.00000000E+00  0.00000000E+00  0.00000000E+00
  0.00000000E+00  0.00000000E+00  0.00000000E+00
  0.00000000E+00  0.00000000E+00  0.00000000E+00
  0.00000000E+00  0.00000000E+00  0.00000000E+00
  0.00000000E+00  0.00000000E+00  0.00000000E+00
  0.00000000E+00  0.00000000E+00  0.00000000E+00
  0.00000000E+00  0.00000000E+00  0.00000000E+00
  0.00000000E+00  0.00000000E+00  0.00000000E+00
