Be3Al2                                  
   1.00000000000000     
     4.7526073335893075   -3.5538188187733670    0.0310235221584720
     4.7526562391400846    3.5536741472197768    0.0310112904496397
    -1.8491376333279375    0.0000623918149292    3.7956489867759085
   Al   Be
     4     6
Direct
  0.7118589482694446  0.4718447767201113  0.0886485118636529
  0.0131266908443379  0.8009908519024265  0.0889484643235789
  0.4718377395301587  0.7118646332136294  0.5886360599060367
  0.8010032204632012  0.0131612905620599  0.5889701680525050
  0.2979294274818045  0.4355967167782637  0.0384518989218776
  0.5271941927138926  0.0852763405680292  0.0182632461004744
  0.1200219341011319  0.1820410606721410  0.1077356753161709
  0.4355951151377937  0.2979282664418577  0.5384533956382924
  0.0852836248796933  0.5271876601790098  0.5182606701239081
  0.1820491065785532  0.1200084029624833  0.6077319097535110
 
  0.00000000E+00  0.00000000E+00  0.00000000E+00
  0.00000000E+00  0.00000000E+00  0.00000000E+00
  0.00000000E+00  0.00000000E+00  0.00000000E+00
  0.00000000E+00  0.00000000E+00  0.00000000E+00
  0.00000000E+00  0.00000000E+00  0.00000000E+00
  0.00000000E+00  0.00000000E+00  0.00000000E+00
  0.00000000E+00  0.00000000E+00  0.00000000E+00
  0.00000000E+00  0.00000000E+00  0.00000000E+00
  0.00000000E+00  0.00000000E+00  0.00000000E+00
  0.00000000E+00  0.00000000E+00  0.00000000E+00
