Ba2 B2 Cl10                             
   1.0000000000000000     
     4.8747487656837176   -0.0000000000000002    0.0000000000000003
    -0.0000000000000011   12.1816213547342205    0.0000000000000009
     0.0000000000000002    0.0000000000000004    9.5298315667725007
   Ba   B    Cl
     2     2    10
Direct
  0.0000000000000000  0.0000000000000000  0.5000000000000000
  0.5000000000000000  0.5000000000000000  0.0000000000000000
  0.5000000000000000  0.0000000000000000  0.0000000000000000
  0.0000000000000000  0.5000000000000000  0.5000000000000000
  0.5000000000000000  0.8498296063453736  0.5000000000000000
  0.5000000000000000  0.1501703936546264  0.5000000000000000
  0.5000000000000000  0.0000000000000000  0.1786452928280582
  0.5000000000000000  0.0000000000000000  0.8213547071719418
  0.0000000000000000  0.0000000000000000  0.0000000000000000
  0.0000000000000000  0.3498296063453736  0.0000000000000000
  0.0000000000000000  0.6501703936546264  0.0000000000000000
  0.0000000000000000  0.5000000000000000  0.6786452928280582
  0.0000000000000000  0.5000000000000000  0.3213547071719489
  0.5000000000000000  0.5000000000000000  0.5000000000000000

  0.00000000E+00  0.00000000E+00  0.00000000E+00
  0.00000000E+00  0.00000000E+00  0.00000000E+00
  0.00000000E+00  0.00000000E+00  0.00000000E+00
  0.00000000E+00  0.00000000E+00  0.00000000E+00
  0.00000000E+00  0.00000000E+00  0.00000000E+00
  0.00000000E+00  0.00000000E+00  0.00000000E+00
  0.00000000E+00  0.00000000E+00  0.00000000E+00
  0.00000000E+00  0.00000000E+00  0.00000000E+00
  0.00000000E+00  0.00000000E+00  0.00000000E+00
  0.00000000E+00  0.00000000E+00  0.00000000E+00
  0.00000000E+00  0.00000000E+00  0.00000000E+00
  0.00000000E+00  0.00000000E+00  0.00000000E+00
  0.00000000E+00  0.00000000E+00  0.00000000E+00
  0.00000000E+00  0.00000000E+00  0.00000000E+00
