Sr9 Al4                                 
   1.00000000000000     
     0.0095411288568409    0.0005601045405143    5.5878284795920550
    -6.7690706134798670    6.9237156157098569    2.7827349993371135
    -6.4661286981585038   -6.6188614447860381   -2.8050959204381782
   Sr   Al
     9     4
Direct
  0.4999989963943321  0.9999761558139610  0.9999742887629921
  0.8975144015173271  0.2903568983162685  0.0868656394723786
  0.3801686261461228  0.4994588515664944  0.2584871043653365
  0.1875925036828789  0.9305866685199362  0.3079417412037628
  0.8834081710100605  0.7186705373046109  0.4855530574892555
  0.1166059298078608  0.2812804849234425  0.5144028944338572
  0.8124376805119127  0.0693667130274207  0.6920216410413289
  0.6198157402397868  0.5004951513519913  0.7414617453436279
  0.1024608126848605  0.7095954770896071  0.9130768735280910
  0.7349829022436225  0.6623911066330024  0.1273706340606395
  0.5853549196940762  0.1601000747381960  0.3288395776601902
  0.4146689317442878  0.8398500358131216  0.6711227516465073
  0.2649903843228785  0.3375718449019232  0.8725820509920084
 
  0.00000000E+00  0.00000000E+00  0.00000000E+00
  0.00000000E+00  0.00000000E+00  0.00000000E+00
  0.00000000E+00  0.00000000E+00  0.00000000E+00
  0.00000000E+00  0.00000000E+00  0.00000000E+00
  0.00000000E+00  0.00000000E+00  0.00000000E+00
  0.00000000E+00  0.00000000E+00  0.00000000E+00
  0.00000000E+00  0.00000000E+00  0.00000000E+00
  0.00000000E+00  0.00000000E+00  0.00000000E+00
  0.00000000E+00  0.00000000E+00  0.00000000E+00
  0.00000000E+00  0.00000000E+00  0.00000000E+00
  0.00000000E+00  0.00000000E+00  0.00000000E+00
  0.00000000E+00  0.00000000E+00  0.00000000E+00
  0.00000000E+00  0.00000000E+00  0.00000000E+00
