ADDGRID = True
ALGO = Normal
AMIX = 0.2
BMIX = 0.001
EDIFF = 0.00001
EDIFFG = -0.01
ENCUT = 450
IBRION = 2
ISIF = 0
ISMEAR = 0
ISPIN = 1
IVDW = 11
LASPH = True
LCHARG = True
LORBIT = 10
LREAL = False
LWAVE = True
NCORE = 4
NELM = 50
NELMDL = -8
NELMIN = 4
NSW = 100
NWRITE = 2
POTIM = 0.5
PREC = Normal
SIGMA = 0.01
