Ca13 Tl16                               
   1.0000000000000000     
    -6.1142205879171430   -6.1142205879171430    6.1142205879171430
    -6.1142205879171430    6.1142205879171430   -6.1142205879171430
     6.1142205879171430   -6.1142205879171430   -6.1142205879171430
   Tl   Ca
    16    13
Direct
  0.6839148308601892  0.0000000000000000  0.0000000000000000
  0.3822371635662734  0.1920620367081654  0.0000000000000000
  0.1920620367081654  0.3822371635662734  0.0000000000000000
  0.0000000000000000  0.6839148308601892  0.0000000000000000
  0.8079379632918346  0.8079379632918346  0.1901751268581080
  0.3822371635662734  0.0000000000000000  0.1920620367081654
  0.0000000000000000  0.3822371635662734  0.1920620367081654
  0.3160851691398037  0.3160851691398037  0.3160851691398037
  0.1920620367081654  0.0000000000000000  0.3822371635662734
  0.0000000000000000  0.1920620367081654  0.3822371635662734
  0.8098248731418920  0.6177628364337266  0.6177628364337266
  0.6177628364337266  0.8098248731418920  0.6177628364337266
  0.0000000000000000  0.0000000000000000  0.6839148308601892
  0.8079379632918346  0.1901751268581080  0.8079379632918346
  0.1901751268581080  0.8079379632918346  0.8079379632918346
  0.6177628364337266  0.6177628364337266  0.8098248731418920
  0.0000000000000000  0.0000000000000000  0.0000000000000000
  0.7171002273386478  0.4342827260418076  0.0000000000000000
  0.4342827260418076  0.7171002273386478  0.0000000000000000
  0.5657172739581924  0.5657172739581924  0.2828175012968401
  0.7171824987031599  0.2828997726613522  0.2828997726613522
  0.2828997726613522  0.7171824987031599  0.2828997726613522
  0.7171002273386478  0.0000000000000000  0.4342827260418076
  0.0000000000000000  0.7171002273386478  0.4342827260418076
  0.5657172739581924  0.2828175012968401  0.5657172739581924
  0.2828175012968401  0.5657172739581924  0.5657172739581924
  0.4342827260418076  0.0000000000000000  0.7171002273386478
  0.0000000000000000  0.4342827260418076  0.7171002273386478
  0.2828997726613522  0.2828997726613522  0.7171824987031599

  0.00000000E+00  0.00000000E+00  0.00000000E+00
  0.00000000E+00  0.00000000E+00  0.00000000E+00
  0.00000000E+00  0.00000000E+00  0.00000000E+00
  0.00000000E+00  0.00000000E+00  0.00000000E+00
  0.00000000E+00  0.00000000E+00  0.00000000E+00
  0.00000000E+00  0.00000000E+00  0.00000000E+00
  0.00000000E+00  0.00000000E+00  0.00000000E+00
  0.00000000E+00  0.00000000E+00  0.00000000E+00
  0.00000000E+00  0.00000000E+00  0.00000000E+00
  0.00000000E+00  0.00000000E+00  0.00000000E+00
  0.00000000E+00  0.00000000E+00  0.00000000E+00
  0.00000000E+00  0.00000000E+00  0.00000000E+00
  0.00000000E+00  0.00000000E+00  0.00000000E+00
  0.00000000E+00  0.00000000E+00  0.00000000E+00
  0.00000000E+00  0.00000000E+00  0.00000000E+00
  0.00000000E+00  0.00000000E+00  0.00000000E+00
  0.00000000E+00  0.00000000E+00  0.00000000E+00
  0.00000000E+00  0.00000000E+00  0.00000000E+00
  0.00000000E+00  0.00000000E+00  0.00000000E+00
  0.00000000E+00  0.00000000E+00  0.00000000E+00
  0.00000000E+00  0.00000000E+00  0.00000000E+00
  0.00000000E+00  0.00000000E+00  0.00000000E+00
  0.00000000E+00  0.00000000E+00  0.00000000E+00
  0.00000000E+00  0.00000000E+00  0.00000000E+00
  0.00000000E+00  0.00000000E+00  0.00000000E+00
  0.00000000E+00  0.00000000E+00  0.00000000E+00
  0.00000000E+00  0.00000000E+00  0.00000000E+00
  0.00000000E+00  0.00000000E+00  0.00000000E+00
  0.00000000E+00  0.00000000E+00  0.00000000E+00
