Ca6 B4                                  
   1.00000000000000     
    -6.6944022263881138   -0.0008845995425326   -0.0030835644803805
     3.3468950929939179   -5.7974847711919839    0.0027171284901041
    -3.3505499084787540    1.9336455941782442    5.9512018999556817
   B    Ca
     4     6
Direct
  0.2937792778941386  0.7060228900824654  0.1185035605650313
  0.2060372204416296  0.7937587027867608  0.3814881947892701
  0.7940601755612846  0.2063073542758573  0.6184390289523520
  0.7063326340814839  0.2940533936181993  0.8814240392060952
  0.6385377667730125  0.7498890790191055  0.2500093064787663
  0.8613457033994933  0.3613384364591283  0.2499812477260477
  0.2499059442383569  0.1384974336292544  0.2499061715624649
  0.7501920700899163  0.8615879892380462  0.7500194662631259
  0.1387317934194954  0.6387328960920158  0.7499442356478170
  0.3615774141011912  0.2502118247991660  0.7499347488090464
 
  0.00000000E+00  0.00000000E+00  0.00000000E+00
  0.00000000E+00  0.00000000E+00  0.00000000E+00
  0.00000000E+00  0.00000000E+00  0.00000000E+00
  0.00000000E+00  0.00000000E+00  0.00000000E+00
  0.00000000E+00  0.00000000E+00  0.00000000E+00
  0.00000000E+00  0.00000000E+00  0.00000000E+00
  0.00000000E+00  0.00000000E+00  0.00000000E+00
  0.00000000E+00  0.00000000E+00  0.00000000E+00
  0.00000000E+00  0.00000000E+00  0.00000000E+00
  0.00000000E+00  0.00000000E+00  0.00000000E+00
