In8 F14                                 
   1.00000000000000     
     3.5030220343311536   -5.0488677731798584   -0.3584288235697830
    -3.5030220343311536   -5.0488677731798584   -0.3584288235697830
     0.0000000000000000    2.5644582477796138  -11.0575376090804252
   F    In
    14     8
Direct
  0.3743550474431956  0.3743550474431956  0.0314049628825686
  0.8104563573259327  0.2412542323858204  0.1596164574475409
  0.2412542323858204  0.8104563573259327  0.1596164574475409
  0.7774422558824341  0.7774422558824341  0.1907566868534829
  0.5744185590787225  0.1668486175602126  0.4270624968711871
  0.1668486175602126  0.5744185590787225  0.4270624968711871
  0.5836896072228654  0.5836896072228654  0.3378565203731867
  0.4342009817312942  0.4342009817312942  0.6683932828165524
  0.8601920508982417  0.4225357809122485  0.5750456490067180
  0.4225357809122485  0.8601920508982417  0.5750456490067180
  0.2068954922941657  0.2068954922941657  0.7921712057882928
  0.7274133689175812  0.1393374244860013  0.8514812303206156
  0.1393374244860013  0.7274133689175812  0.8514812303206156
  0.6103994280682983  0.6103994280682983  0.9635430664047959
  0.0946552683305342  0.0946552683305342  0.9891864082577655
  0.5701312478282645  0.5701312478282645  0.1468674277644766
  0.2525418184953310  0.2525418184953310  0.2722390703466502
  0.9604949302530841  0.9604949302530841  0.3323861951831191
  0.5130688675441988  0.5130688675441988  0.5039187265773393
  0.0217531979989474  0.0217531979989474  0.6290152103685571
  0.7451419616825135  0.7451419616825135  0.7644370659123538
  0.4135735036600749  0.4135735036600749  0.8511125031787685
 
  0.00000000E+00  0.00000000E+00  0.00000000E+00
  0.00000000E+00  0.00000000E+00  0.00000000E+00
  0.00000000E+00  0.00000000E+00  0.00000000E+00
  0.00000000E+00  0.00000000E+00  0.00000000E+00
  0.00000000E+00  0.00000000E+00  0.00000000E+00
  0.00000000E+00  0.00000000E+00  0.00000000E+00
  0.00000000E+00  0.00000000E+00  0.00000000E+00
  0.00000000E+00  0.00000000E+00  0.00000000E+00
  0.00000000E+00  0.00000000E+00  0.00000000E+00
  0.00000000E+00  0.00000000E+00  0.00000000E+00
  0.00000000E+00  0.00000000E+00  0.00000000E+00
  0.00000000E+00  0.00000000E+00  0.00000000E+00
  0.00000000E+00  0.00000000E+00  0.00000000E+00
  0.00000000E+00  0.00000000E+00  0.00000000E+00
  0.00000000E+00  0.00000000E+00  0.00000000E+00
  0.00000000E+00  0.00000000E+00  0.00000000E+00
  0.00000000E+00  0.00000000E+00  0.00000000E+00
  0.00000000E+00  0.00000000E+00  0.00000000E+00
  0.00000000E+00  0.00000000E+00  0.00000000E+00
  0.00000000E+00  0.00000000E+00  0.00000000E+00
  0.00000000E+00  0.00000000E+00  0.00000000E+00
  0.00000000E+00  0.00000000E+00  0.00000000E+00
