Mg4 B4 Cl12                             
   1.00000000000000     
     9.7868906776160998    0.0000000000000000   -0.0032981421276319
     0.0000000000000000    3.5913591386663168    0.0000000000000000
    -0.0052363060915335    0.0000000000000000   15.1103399089349324
   Cl   B    Mg
    12     4     4
Direct
  0.1928510342570888  0.2500000000000000  0.9878104928928764
  0.4728074455317284  0.7500000000000000  0.0964980736390117
  0.7674750501978878  0.2500000000000000  0.1950179561758603
  0.2667137019382437  0.2500000000000000  0.3049231252461269
  0.9725472959311503  0.7500000000000000  0.4036012076352335
  0.6929599840140099  0.2500000000000000  0.5123310705792719
  0.3072251296337072  0.7500000000000000  0.4875488384318416
  0.0274643435138557  0.2500000000000000  0.5965288115479623
  0.7328649394213613  0.7500000000000000  0.6950259604587856
  0.2323792998181844  0.7500000000000000  0.8051073861305511
  0.5272552305472615  0.2500000000000000  0.9035465003747021
  0.8071880931777713  0.7500000000000000  0.0122504065695779
  0.9064922187864113  0.7500000000000000  0.1449154049361283
  0.4059834916622691  0.7500000000000000  0.3549115418824940
  0.5937948674453040  0.2500000000000000  0.6448923511998856
  0.0934448446216365  0.2500000000000000  0.8552611819537503
  0.6383670865735738  0.2500000000000000  0.0549457332911487
  0.1381935151768872  0.2500000000000000  0.4450752779231451
  0.8618018181324345  0.7500000000000000  0.5550102401133046
  0.3616906096192309  0.7500000000000000  0.9451284390183403
 
  0.00000000E+00  0.00000000E+00  0.00000000E+00
  0.00000000E+00  0.00000000E+00  0.00000000E+00
  0.00000000E+00  0.00000000E+00  0.00000000E+00
  0.00000000E+00  0.00000000E+00  0.00000000E+00
  0.00000000E+00  0.00000000E+00  0.00000000E+00
  0.00000000E+00  0.00000000E+00  0.00000000E+00
  0.00000000E+00  0.00000000E+00  0.00000000E+00
  0.00000000E+00  0.00000000E+00  0.00000000E+00
  0.00000000E+00  0.00000000E+00  0.00000000E+00
  0.00000000E+00  0.00000000E+00  0.00000000E+00
  0.00000000E+00  0.00000000E+00  0.00000000E+00
  0.00000000E+00  0.00000000E+00  0.00000000E+00
  0.00000000E+00  0.00000000E+00  0.00000000E+00
  0.00000000E+00  0.00000000E+00  0.00000000E+00
  0.00000000E+00  0.00000000E+00  0.00000000E+00
  0.00000000E+00  0.00000000E+00  0.00000000E+00
  0.00000000E+00  0.00000000E+00  0.00000000E+00
  0.00000000E+00  0.00000000E+00  0.00000000E+00
  0.00000000E+00  0.00000000E+00  0.00000000E+00
  0.00000000E+00  0.00000000E+00  0.00000000E+00
