Sr1 B2 Cl10                             
   1.00000000000000     
     5.2622441018323949    3.5497619104411804    1.5971049464327725
    -5.2622441018323949    3.5497619104411804    1.5971049464327725
     0.0000000000000001    3.2377871841786230   12.7963238998173328
   Sr   B    Cl
     1     2    10
Direct
  0.5775984639091263  0.4224015360908737  0.0000000000000000
  0.9637844468428440  0.8684671472107084  0.6507773232805789
  0.1315328527892916  0.0362155531571560  0.3492226767194211
  0.0067875511614659  0.1798035177553245  0.5939180311121888
  0.8201964822446755  0.9932124488385341  0.4060819688878112
  0.6294205936956772  0.6135946839963324  0.7407097894690153
  0.3864053160036676  0.3705794063043228  0.2592902105309847
  0.8631986318607829  0.1368013681392171  0.0000000000000000
  0.1558899430308429  0.8441100569691571  0.5000000000000000
  0.6084964634638368  0.9189293493352437  0.9506086462173897
  0.0810706506647563  0.3915035365361490  0.0493913537826103
  0.1038729728495937  0.7842553685165754  0.7483953327157025
  0.2157446314834246  0.8961270271504063  0.2516046672843046
 
  0.00000000E+00  0.00000000E+00  0.00000000E+00
  0.00000000E+00  0.00000000E+00  0.00000000E+00
  0.00000000E+00  0.00000000E+00  0.00000000E+00
  0.00000000E+00  0.00000000E+00  0.00000000E+00
  0.00000000E+00  0.00000000E+00  0.00000000E+00
  0.00000000E+00  0.00000000E+00  0.00000000E+00
  0.00000000E+00  0.00000000E+00  0.00000000E+00
  0.00000000E+00  0.00000000E+00  0.00000000E+00
  0.00000000E+00  0.00000000E+00  0.00000000E+00
  0.00000000E+00  0.00000000E+00  0.00000000E+00
  0.00000000E+00  0.00000000E+00  0.00000000E+00
  0.00000000E+00  0.00000000E+00  0.00000000E+00
  0.00000000E+00  0.00000000E+00  0.00000000E+00
