Mg4 Tl2 Cl10                            
   1.00000000000000     
     8.1575391310111538   -0.7275529876210073   -1.2539657738996814
    -0.5972486613527532    7.1803235389337132    0.1585732514205711
     2.5773509345141594    3.2540705657152222    7.9819059461857043
   Cl   Mg   Tl
    10     4     2
Direct
  0.9372857886983326  0.8747193269594362  0.0552411504002066
  0.5426639827201427  0.5694827284241128  0.9654006941129367
  0.6679885615311179  0.1211428037764435  0.1820840052273383
  0.0803717734420744  0.3858394068056512  0.1507241306898948
  0.5856341835111891  0.5638987526682584  0.3822361125627936
  0.3310803963806705  0.8625695295759712  0.1108422016008603
  0.7017488040892275  0.1390655371239617  0.8148197529197319
  0.2562302688381166  0.3066139439375064  0.8224742569167347
  0.9525262691160421  0.5922786772548747  0.7907923856419785
  0.3338443288674569  0.9209901177159807  0.6778166353958284
  0.4823694322241607  0.2248583178005390  0.9689949742630972
  0.9454100960637533  0.2485491820067978  0.9698243680915652
  0.1507638414179411  0.7259029533603254  0.9346260310958669
  0.6233347467742973  0.7992821462884550  0.1077182773996839
  0.2381176525730950  0.3197130697454469  0.4839755361026263
  0.6703298737523724  0.8447935065562291  0.5824294875788496
 
  0.00000000E+00  0.00000000E+00  0.00000000E+00
  0.00000000E+00  0.00000000E+00  0.00000000E+00
  0.00000000E+00  0.00000000E+00  0.00000000E+00
  0.00000000E+00  0.00000000E+00  0.00000000E+00
  0.00000000E+00  0.00000000E+00  0.00000000E+00
  0.00000000E+00  0.00000000E+00  0.00000000E+00
  0.00000000E+00  0.00000000E+00  0.00000000E+00
  0.00000000E+00  0.00000000E+00  0.00000000E+00
  0.00000000E+00  0.00000000E+00  0.00000000E+00
  0.00000000E+00  0.00000000E+00  0.00000000E+00
  0.00000000E+00  0.00000000E+00  0.00000000E+00
  0.00000000E+00  0.00000000E+00  0.00000000E+00
  0.00000000E+00  0.00000000E+00  0.00000000E+00
  0.00000000E+00  0.00000000E+00  0.00000000E+00
  0.00000000E+00  0.00000000E+00  0.00000000E+00
  0.00000000E+00  0.00000000E+00  0.00000000E+00
