Be5 In1                                 
   1.00000000000000     
     0.0000000000000000    0.0000000000000000    3.6393179420546686
     3.9465802915945796    2.4517917494854600    0.0000000000000000
     0.1504318629569152    4.6432954437162000    0.0000000000000000
   In   Be
     1     5
Direct
  0.5000000000000000  0.6665028169521534  0.3335429609151390
  0.0000000000000000  0.1668612130710869  0.8331430872320738
  0.5000000000000000  0.3433327205671830  0.0103666144095129
  0.0000000000000000  0.1668485069420029  0.3331220052361061
  0.5000000000000000  0.9895989898584219  0.6566459103085975
  0.0000000000000000  0.6668787526091506  0.8331794218985706
 
  0.00000000E+00  0.00000000E+00  0.00000000E+00
  0.00000000E+00  0.00000000E+00  0.00000000E+00
  0.00000000E+00  0.00000000E+00  0.00000000E+00
  0.00000000E+00  0.00000000E+00  0.00000000E+00
  0.00000000E+00  0.00000000E+00  0.00000000E+00
  0.00000000E+00  0.00000000E+00  0.00000000E+00
