Tl29                                    
   1.00000000000000     
     6.1433904080752724    6.1433904080752724   -6.1433904080752724
     6.1433904080752724   -6.1433904080752724    6.1433904080752724
    -6.1433904080752724   -6.1433904080752724   -6.1433904080752724
   Tl
    29
Direct
  0.3675800809148342  0.0000000000000000  0.0000000000000000
  0.0000000000000000  0.0000000000000000  0.0000000000000000
  0.6007624398719642  0.3198097251767393  0.0000000000000000
  0.0000000000000000  0.3675800809148342  0.0000000000000000
  0.3198097251767393  0.6007624398719642  0.0000000000000000
  0.8105540492607588  0.6284868148283991  0.0000000000000000
  0.6284868148283991  0.8105540492607588  0.0000000000000000
  0.3715131851716009  0.3715131851716009  0.1820672344323739
  0.8179327655676261  0.1894459507392412  0.1894459507392412
  0.1894459507392412  0.8179327655676261  0.1894459507392412
  0.6801902748232607  0.6801902748232607  0.2809517146952274
  0.6007624398719642  0.0000000000000000  0.3198097251767393
  0.0000000000000000  0.6007624398719642  0.3198097251767393
  0.0000000000000000  0.0000000000000000  0.3675800809148342
  0.3715131851716009  0.1820672344323739  0.3715131851716009
  0.1820672344323739  0.3715131851716009  0.3715131851716009
  0.7190482853047726  0.3992375601280358  0.3992375601280358
  0.3992375601280358  0.7190482853047726  0.3992375601280358
  0.3198097251767393  0.0000000000000000  0.6007624398719642
  0.0000000000000000  0.3198097251767393  0.6007624398719642
  0.8105540492607588  0.0000000000000000  0.6284868148283991
  0.0000000000000000  0.8105540492607588  0.6284868148283991
  0.6324209190851633  0.6324209190851633  0.6324209190851633
  0.6801902748232607  0.2809517146952274  0.6801902748232607
  0.2809517146952274  0.6801902748232607  0.6801902748232607
  0.3992375601280358  0.3992375601280358  0.7190482853047726
  0.6284868148283991  0.0000000000000000  0.8105540492607588
  0.0000000000000000  0.6284868148283991  0.8105540492607588
  0.1894459507392412  0.1894459507392412  0.8179327655676261
 
  0.00000000E+00  0.00000000E+00  0.00000000E+00
  0.00000000E+00  0.00000000E+00  0.00000000E+00
  0.00000000E+00  0.00000000E+00  0.00000000E+00
  0.00000000E+00  0.00000000E+00  0.00000000E+00
  0.00000000E+00  0.00000000E+00  0.00000000E+00
  0.00000000E+00  0.00000000E+00  0.00000000E+00
  0.00000000E+00  0.00000000E+00  0.00000000E+00
  0.00000000E+00  0.00000000E+00  0.00000000E+00
  0.00000000E+00  0.00000000E+00  0.00000000E+00
  0.00000000E+00  0.00000000E+00  0.00000000E+00
  0.00000000E+00  0.00000000E+00  0.00000000E+00
  0.00000000E+00  0.00000000E+00  0.00000000E+00
  0.00000000E+00  0.00000000E+00  0.00000000E+00
  0.00000000E+00  0.00000000E+00  0.00000000E+00
  0.00000000E+00  0.00000000E+00  0.00000000E+00
  0.00000000E+00  0.00000000E+00  0.00000000E+00
  0.00000000E+00  0.00000000E+00  0.00000000E+00
  0.00000000E+00  0.00000000E+00  0.00000000E+00
  0.00000000E+00  0.00000000E+00  0.00000000E+00
  0.00000000E+00  0.00000000E+00  0.00000000E+00
  0.00000000E+00  0.00000000E+00  0.00000000E+00
  0.00000000E+00  0.00000000E+00  0.00000000E+00
  0.00000000E+00  0.00000000E+00  0.00000000E+00
  0.00000000E+00  0.00000000E+00  0.00000000E+00
  0.00000000E+00  0.00000000E+00  0.00000000E+00
  0.00000000E+00  0.00000000E+00  0.00000000E+00
  0.00000000E+00  0.00000000E+00  0.00000000E+00
  0.00000000E+00  0.00000000E+00  0.00000000E+00
  0.00000000E+00  0.00000000E+00  0.00000000E+00
