Ba18 Tl11                               
   1.0000000000000000     
     9.2345940061464908   -5.6397822336049162    3.4236793823189502
    -0.1812672024077052   11.7121179708835808    4.4393305170198616
    -9.7370031975620872   -5.7334807087862902    4.5190152290168353
   Tl   Ba
    11    18
Direct
  0.7048055336600783  0.8829519241927315  0.0132580256064543
  0.3790672479791013  0.4516005716932199  0.1812324611901843
  0.8545445320207037  0.2116206057423469  0.1754497734255835
  0.1602327178192837  0.8347986430117160  0.3188950680050482
  0.3358218282507721  0.0844689944527559  0.3001222872448110
  0.2319678892418437  0.4017971887180352  0.3692284295430781
  0.8479271818267691  0.0329201698758297  0.5895982869279592
  0.9920948236384532  0.6643492619420641  0.6424196225363730
  0.8058941691903030  0.4795782896554925  0.7365804196246586
  0.6917680000495920  0.0577512196590533  0.8708601520068768
  0.1898601477753417  0.2543597096840244  0.7968370178259008
  0.1814191153898577  0.7910726292894665  0.9894786904705910
  0.5283359404144079  0.2525622602322386  0.0052179760947766
  0.1035561974759389  0.1258114322341584  0.0462006808847164
  0.8311232288752564  0.6624219053021108  0.0290565519485781
  0.9981121414529639  0.3762721153718829  0.9598903174724711
  0.4353591013053730  0.5872470863985910  0.9840995718878318
  0.7567667866705179  0.7302980690188789  0.3517375829814782
  0.6144469839155420  0.0204348607747562  0.2595829251160069
  0.0023254097248468  0.5450390017343523  0.3370250382770550
  0.0259666014080224  0.0674786215413974  0.3386464802066982
  0.4117393447715898  0.7338557641855274  0.3810593911067883
  0.6102100611330457  0.3925444076663354  0.4022120126107609
  0.1637206393079751  0.9563956587243965  0.6358166745749259
  0.0014461860031432  0.3628577467073413  0.5896800386839871
  0.7652622274839018  0.7843480263594600  0.7191374618905755
  0.5823442812565034  0.1288724862100850  0.6146456168851415
  0.3703007724700313  0.7504805560577736  0.7225262886570434
  0.4237829094889420  0.3758477935640698  0.6395051563135894

  0.00000000E+00  0.00000000E+00  0.00000000E+00
  0.00000000E+00  0.00000000E+00  0.00000000E+00
  0.00000000E+00  0.00000000E+00  0.00000000E+00
  0.00000000E+00  0.00000000E+00  0.00000000E+00
  0.00000000E+00  0.00000000E+00  0.00000000E+00
  0.00000000E+00  0.00000000E+00  0.00000000E+00
  0.00000000E+00  0.00000000E+00  0.00000000E+00
  0.00000000E+00  0.00000000E+00  0.00000000E+00
  0.00000000E+00  0.00000000E+00  0.00000000E+00
  0.00000000E+00  0.00000000E+00  0.00000000E+00
  0.00000000E+00  0.00000000E+00  0.00000000E+00
  0.00000000E+00  0.00000000E+00  0.00000000E+00
  0.00000000E+00  0.00000000E+00  0.00000000E+00
  0.00000000E+00  0.00000000E+00  0.00000000E+00
  0.00000000E+00  0.00000000E+00  0.00000000E+00
  0.00000000E+00  0.00000000E+00  0.00000000E+00
  0.00000000E+00  0.00000000E+00  0.00000000E+00
  0.00000000E+00  0.00000000E+00  0.00000000E+00
  0.00000000E+00  0.00000000E+00  0.00000000E+00
  0.00000000E+00  0.00000000E+00  0.00000000E+00
  0.00000000E+00  0.00000000E+00  0.00000000E+00
  0.00000000E+00  0.00000000E+00  0.00000000E+00
  0.00000000E+00  0.00000000E+00  0.00000000E+00
  0.00000000E+00  0.00000000E+00  0.00000000E+00
  0.00000000E+00  0.00000000E+00  0.00000000E+00
  0.00000000E+00  0.00000000E+00  0.00000000E+00
  0.00000000E+00  0.00000000E+00  0.00000000E+00
  0.00000000E+00  0.00000000E+00  0.00000000E+00
  0.00000000E+00  0.00000000E+00  0.00000000E+00
