Sr4 B10                                 
   1.00000000000000     
     4.3683211790926499    4.3683211790926508   -2.8175242685253443
     4.3683211790926499   -4.3683211790926508    2.8175242685253443
    -4.3683211790926499   -4.3683211790926508   -2.8175242685253443
   B    Sr
    10     4
Direct
  0.8508701239134950  0.3940231783545300  0.2448933022680109
  0.5431530544410279  0.3940231783545300  0.1491298760865050
  0.7551066977319891  0.6059768216454700  0.1491298760865050
  0.1401673218759001  0.0000000000000000  0.1401673218759001
  0.1491298760865050  0.3940231783545300  0.5431530544410279
  0.8508701239134950  0.6059768216454700  0.4568469455589721
  0.8598326781240999  0.0000000000000000  0.8598326781240999
  0.2448933022680109  0.3940231783545300  0.8508701239134950
  0.4568469455589721  0.6059768216454700  0.8508701239134950
  0.1491298760865050  0.6059768216454700  0.7551066977319891
  0.6884533643372137  0.0000000000000000  0.3115466356627863
  0.3115466356627863  0.6230932713255655  0.3115466356627863
  0.3115466356627863  0.0000000000000000  0.6884533643372137
  0.6884533643372137  0.3769067286744345  0.6884533643372137
 
  0.00000000E+00  0.00000000E+00  0.00000000E+00
  0.00000000E+00  0.00000000E+00  0.00000000E+00
  0.00000000E+00  0.00000000E+00  0.00000000E+00
  0.00000000E+00  0.00000000E+00  0.00000000E+00
  0.00000000E+00  0.00000000E+00  0.00000000E+00
  0.00000000E+00  0.00000000E+00  0.00000000E+00
  0.00000000E+00  0.00000000E+00  0.00000000E+00
  0.00000000E+00  0.00000000E+00  0.00000000E+00
  0.00000000E+00  0.00000000E+00  0.00000000E+00
  0.00000000E+00  0.00000000E+00  0.00000000E+00
  0.00000000E+00  0.00000000E+00  0.00000000E+00
  0.00000000E+00  0.00000000E+00  0.00000000E+00
  0.00000000E+00  0.00000000E+00  0.00000000E+00
  0.00000000E+00  0.00000000E+00  0.00000000E+00
