Ba17 In11 Br1                           
   1.0000000000000000     
     9.4489645402485589   -5.4352783354489187    3.8620430347116943
     0.0396745508834583   10.9429777300665627    3.8786948941094712
    -9.3516751770501472   -5.4190048127653014    3.6410235782587881
   In   Br   Ba
    11     1    17
Direct
  0.6241524650635952  0.8711719706935028  0.9993473554751802
  0.3787184111409800  0.3700749237889056  0.2142931399645107
  0.1770140678358416  0.8033129815041775  0.1726835201191221
  0.8372767366926936  0.2004411596508504  0.1823691327975538
  0.1943438111868403  0.3655621839162606  0.3680138572895402
  0.3737112605581174  0.2002421648211410  0.3760399276200417
  0.9985624498913239  0.8254203784885519  0.6238483589652333
  0.8263722556732347  0.9978076869255190  0.6322466364842683
  0.6550470941657665  0.0183726269912086  0.8178775492131720
  0.0037037538707096  0.6306886303680201  0.8280658537042669
  0.1651509752469948  0.1575178999482816  0.7868167696056787
  0.7271299756853651  0.5433431819425394  0.0008525404469140
  0.0345773521310591  0.3403986018278147  0.0003347646886382
  0.3303714217995335  0.6165413210778183  0.9997678544655244
  0.3052095640544508  0.9718576778036194  0.0000946109794526
  0.5540288182226689  0.2564484251417696  0.9999856665932612
  0.0168150854840192  0.0267785354335786  0.9996077992234333
  0.6828591152238772  0.6831305130363035  0.2819513364644948
  0.9904659680525967  0.5810354905429591  0.2919153502422134
  0.6026170617236701  0.0164517111678535  0.3171224505043497
  0.9831012093655005  0.9803278034192928  0.2954748121056312
  0.4191105239531154  0.7227510131140349  0.4122584523906028
  0.7398755824535144  0.4354963763546209  0.4390134439928346
  0.3006533831072744  0.9971741974729156  0.5612188030232730
  0.0070254229464339  0.3100266180773872  0.5877362865500046
  0.6867942818288100  0.6849215613323167  0.7020316108441662
  0.2849394690806406  0.6992823036075393  0.6823809062681789
  0.6984845162550499  0.2888030357837152  0.7081475038378073
  0.4023019673063359  0.4027750257674541  0.7185037061406732

  0.00000000E+00  0.00000000E+00  0.00000000E+00
  0.00000000E+00  0.00000000E+00  0.00000000E+00
  0.00000000E+00  0.00000000E+00  0.00000000E+00
  0.00000000E+00  0.00000000E+00  0.00000000E+00
  0.00000000E+00  0.00000000E+00  0.00000000E+00
  0.00000000E+00  0.00000000E+00  0.00000000E+00
  0.00000000E+00  0.00000000E+00  0.00000000E+00
  0.00000000E+00  0.00000000E+00  0.00000000E+00
  0.00000000E+00  0.00000000E+00  0.00000000E+00
  0.00000000E+00  0.00000000E+00  0.00000000E+00
  0.00000000E+00  0.00000000E+00  0.00000000E+00
  0.00000000E+00  0.00000000E+00  0.00000000E+00
  0.00000000E+00  0.00000000E+00  0.00000000E+00
  0.00000000E+00  0.00000000E+00  0.00000000E+00
  0.00000000E+00  0.00000000E+00  0.00000000E+00
  0.00000000E+00  0.00000000E+00  0.00000000E+00
  0.00000000E+00  0.00000000E+00  0.00000000E+00
  0.00000000E+00  0.00000000E+00  0.00000000E+00
  0.00000000E+00  0.00000000E+00  0.00000000E+00
  0.00000000E+00  0.00000000E+00  0.00000000E+00
  0.00000000E+00  0.00000000E+00  0.00000000E+00
  0.00000000E+00  0.00000000E+00  0.00000000E+00
  0.00000000E+00  0.00000000E+00  0.00000000E+00
  0.00000000E+00  0.00000000E+00  0.00000000E+00
  0.00000000E+00  0.00000000E+00  0.00000000E+00
  0.00000000E+00  0.00000000E+00  0.00000000E+00
  0.00000000E+00  0.00000000E+00  0.00000000E+00
  0.00000000E+00  0.00000000E+00  0.00000000E+00
  0.00000000E+00  0.00000000E+00  0.00000000E+00
