Be4 B4 Br20                             
   1.0000000000000000     
     0.0000000000000000   10.5107049391028635   -0.8924278743818452
    14.0726540176162871    0.0000000000000000    0.0000000000000000
     0.0000000000000000    1.4201443213686007   -9.0172759576781747
   Be   B    Br
     4     4    20
Direct
  0.6185965434881879  0.3368323666111124  0.1740319938221120
  0.3814034565118263  0.8368323666111053  0.8259680061778880
  0.9074234185331349  0.9887946182128289  0.2077608972585026
  0.0925765814668580  0.4887946182128289  0.7922391027414974
  0.5301570619523162  0.8050381283711516  0.2473671825911836
  0.4698429380476838  0.3050381283711374  0.7526328174088164
  0.9506925025336770  0.6997637854078107  0.4933374555096748
  0.0493074974663230  0.1997637854078036  0.5066625444903252
  0.1660812208201534  0.0945407784450438  0.4877803162200820
  0.2128740313199131  0.4896354935296188  0.5925110254890242
  0.7871259686800869  0.9896354935296188  0.4074889745109687
  0.6853979137335031  0.7650328483706232  0.1066630014927981
  0.9729724851554025  0.4906665649936528  0.9922630519514399
  0.4453009549454734  0.9199112307909871  0.2129309335199281
  0.9440417406336010  0.2338450151587494  0.7000471034874067
  0.4592444281686099  0.7297877746173569  0.4215260710774800
  0.0270275148445975  0.9906665649936457  0.0077369480485601
  0.9626233548315639  0.7710365821650669  0.6676582369252060
  0.5546990450545266  0.4199112307909871  0.7870690664800719
  0.8339187791798466  0.5945407784450509  0.5122196837799180
  0.4261297243008286  0.9650974892210229  0.7492658222654001
  0.6634153903256674  0.2076163041050378  0.0991969201879428
  0.0373766451684361  0.2710365821650669  0.3323417630748011
  0.0559582593663990  0.7338450151587494  0.2999528965125933
  0.3146020862664898  0.2650328483706232  0.8933369985071948
  0.3365846096743326  0.7076163041050449  0.9008030798120643
  0.5407555718313830  0.2297877746173569  0.5784739289225200
  0.5738702756991714  0.4650974892210158  0.2507341777345999

  0.00000000E+00  0.00000000E+00  0.00000000E+00
  0.00000000E+00  0.00000000E+00  0.00000000E+00
  0.00000000E+00  0.00000000E+00  0.00000000E+00
  0.00000000E+00  0.00000000E+00  0.00000000E+00
  0.00000000E+00  0.00000000E+00  0.00000000E+00
  0.00000000E+00  0.00000000E+00  0.00000000E+00
  0.00000000E+00  0.00000000E+00  0.00000000E+00
  0.00000000E+00  0.00000000E+00  0.00000000E+00
  0.00000000E+00  0.00000000E+00  0.00000000E+00
  0.00000000E+00  0.00000000E+00  0.00000000E+00
  0.00000000E+00  0.00000000E+00  0.00000000E+00
  0.00000000E+00  0.00000000E+00  0.00000000E+00
  0.00000000E+00  0.00000000E+00  0.00000000E+00
  0.00000000E+00  0.00000000E+00  0.00000000E+00
  0.00000000E+00  0.00000000E+00  0.00000000E+00
  0.00000000E+00  0.00000000E+00  0.00000000E+00
  0.00000000E+00  0.00000000E+00  0.00000000E+00
  0.00000000E+00  0.00000000E+00  0.00000000E+00
  0.00000000E+00  0.00000000E+00  0.00000000E+00
  0.00000000E+00  0.00000000E+00  0.00000000E+00
  0.00000000E+00  0.00000000E+00  0.00000000E+00
  0.00000000E+00  0.00000000E+00  0.00000000E+00
  0.00000000E+00  0.00000000E+00  0.00000000E+00
  0.00000000E+00  0.00000000E+00  0.00000000E+00
  0.00000000E+00  0.00000000E+00  0.00000000E+00
  0.00000000E+00  0.00000000E+00  0.00000000E+00
  0.00000000E+00  0.00000000E+00  0.00000000E+00
  0.00000000E+00  0.00000000E+00  0.00000000E+00
