Mg13 B16                                
   1.00000000000000     
    -4.4761859535754080   -4.4761859535754080    4.4761859535754080
    -4.4761859535754080    4.4761859535754080   -4.4761859535754080
     4.4761859535754080   -4.4761859535754080   -4.4761859535754080
   B    Mg
    16    13
Direct
  0.7357231742396664  0.0000000000000000  0.0000000000000000
  0.2937983233950305  0.1458272919419343  0.0000000000000000
  0.1458272919419343  0.2937983233950305  0.0000000000000000
  0.0000000000000000  0.7357231742396664  0.0000000000000000
  0.8541727080580657  0.8541727080580657  0.1479710314531033
  0.2937983233950305  0.0000000000000000  0.1458272919419343
  0.0000000000000000  0.2937983233950305  0.1458272919419343
  0.2642768257603336  0.2642768257603336  0.2642768257603336
  0.1458272919419343  0.0000000000000000  0.2937983233950305
  0.0000000000000000  0.1458272919419343  0.2937983233950305
  0.8520289685468967  0.7062016766049695  0.7062016766049695
  0.7062016766049695  0.8520289685468967  0.7062016766049695
  0.0000000000000000  0.0000000000000000  0.7357231742396664
  0.8541727080580657  0.1479710314531033  0.8541727080580657
  0.1479710314531033  0.8541727080580657  0.8541727080580657
  0.7062016766049695  0.7062016766049695  0.8520289685468967
  0.0000000000000000  0.0000000000000000  0.0000000000000000
  0.7555193268637410  0.4562185394850218  0.0000000000000000
  0.4562185394850218  0.7555193268637410  0.0000000000000000
  0.5437814605149782  0.5437814605149782  0.2993007873787263
  0.7006992126212737  0.2444806731362590  0.2444806731362590
  0.2444806731362590  0.7006992126212737  0.2444806731362590
  0.7555193268637410  0.0000000000000000  0.4562185394850218
  0.0000000000000000  0.7555193268637410  0.4562185394850218
  0.5437814605149782  0.2993007873787263  0.5437814605149782
  0.2993007873787263  0.5437814605149782  0.5437814605149782
  0.4562185394850218  0.0000000000000000  0.7555193268637410
  0.0000000000000000  0.4562185394850218  0.7555193268637410
  0.2444806731362590  0.2444806731362590  0.7006992126212737
 
  0.00000000E+00  0.00000000E+00  0.00000000E+00
  0.00000000E+00  0.00000000E+00  0.00000000E+00
  0.00000000E+00  0.00000000E+00  0.00000000E+00
  0.00000000E+00  0.00000000E+00  0.00000000E+00
  0.00000000E+00  0.00000000E+00  0.00000000E+00
  0.00000000E+00  0.00000000E+00  0.00000000E+00
  0.00000000E+00  0.00000000E+00  0.00000000E+00
  0.00000000E+00  0.00000000E+00  0.00000000E+00
  0.00000000E+00  0.00000000E+00  0.00000000E+00
  0.00000000E+00  0.00000000E+00  0.00000000E+00
  0.00000000E+00  0.00000000E+00  0.00000000E+00
  0.00000000E+00  0.00000000E+00  0.00000000E+00
  0.00000000E+00  0.00000000E+00  0.00000000E+00
  0.00000000E+00  0.00000000E+00  0.00000000E+00
  0.00000000E+00  0.00000000E+00  0.00000000E+00
  0.00000000E+00  0.00000000E+00  0.00000000E+00
  0.00000000E+00  0.00000000E+00  0.00000000E+00
  0.00000000E+00  0.00000000E+00  0.00000000E+00
  0.00000000E+00  0.00000000E+00  0.00000000E+00
  0.00000000E+00  0.00000000E+00  0.00000000E+00
  0.00000000E+00  0.00000000E+00  0.00000000E+00
  0.00000000E+00  0.00000000E+00  0.00000000E+00
  0.00000000E+00  0.00000000E+00  0.00000000E+00
  0.00000000E+00  0.00000000E+00  0.00000000E+00
  0.00000000E+00  0.00000000E+00  0.00000000E+00
  0.00000000E+00  0.00000000E+00  0.00000000E+00
  0.00000000E+00  0.00000000E+00  0.00000000E+00
  0.00000000E+00  0.00000000E+00  0.00000000E+00
  0.00000000E+00  0.00000000E+00  0.00000000E+00
