Sr3 Tl11                                
   1.0000000000000000     
    -2.5497540525069171    6.2263117640283951    7.2386161289346767
     2.5500897168180328   -6.2769184378699476    7.2667249466255290
     2.5246580088145572    6.2667792352790492   -7.2666837534860740
   Tl   Sr
    11     3
Direct
  0.6676729922716120  0.4985905334061442  0.1670793873696752
  0.4377372130798634  0.1574853364117104  0.2857866588458862
  0.1278688969649764  0.8492339846510149  0.2858933521419686
  0.7368629194010055  0.3606092805870844  0.3716333080279739
  0.0108651225245993  0.6323922750796243  0.3692300739235748
  0.4998447849396328  0.9999977646244602  0.4998604521090826
  0.9887343200702006  0.3671382001364165  0.6308413093707088
  0.2639584162762461  0.6399659958077777  0.6285222800152326
  0.8719232445980793  0.1504216864161592  0.7141043940359211
  0.5628615890106161  0.8427979746643715  0.7144396335088956
  0.3318756269478982  0.5013965733757573  0.8325031090100197
  0.0006070208561368  0.0000195814380248  0.0005072256546299
  0.2948571052886990  0.2943256345385592  0.9980911230422649
  0.7048307477704512  0.7056251788629098  0.0015076929441591

  0.00000000E+00  0.00000000E+00  0.00000000E+00
  0.00000000E+00  0.00000000E+00  0.00000000E+00
  0.00000000E+00  0.00000000E+00  0.00000000E+00
  0.00000000E+00  0.00000000E+00  0.00000000E+00
  0.00000000E+00  0.00000000E+00  0.00000000E+00
  0.00000000E+00  0.00000000E+00  0.00000000E+00
  0.00000000E+00  0.00000000E+00  0.00000000E+00
  0.00000000E+00  0.00000000E+00  0.00000000E+00
  0.00000000E+00  0.00000000E+00  0.00000000E+00
  0.00000000E+00  0.00000000E+00  0.00000000E+00
  0.00000000E+00  0.00000000E+00  0.00000000E+00
  0.00000000E+00  0.00000000E+00  0.00000000E+00
  0.00000000E+00  0.00000000E+00  0.00000000E+00
  0.00000000E+00  0.00000000E+00  0.00000000E+00
