Mg7 B13                                 
   1.00000000000000     
     4.4923612236468911    0.0332677081468755   -0.2707414080033844
    -2.2231470448466961    3.9060614502051312    0.2727838038723580
    -0.7598010706691647    0.4279185250519636   12.5608508964473291
   B    Mg
    13     7
Direct
  0.3438027597386366  0.6291625907980603  0.1109988338902710
  0.1550574780624530  0.2072989274471411  0.1874500358096256
  0.1556937442814075  0.8159645874901855  0.1891827528481755
  0.7649090328064361  0.8165054320395058  0.1872789874340768
  0.3708288878553958  0.6019013980995851  0.2468731703095912
  0.8727520247283849  0.2685098006114330  0.4834177118089045
  0.1790799649865988  0.6199401367214605  0.5129438174689227
  0.5220048910362678  0.9468553098369554  0.4937257212775918
  0.6061439439412055  0.3681106224117627  0.7618068870720620
  0.2127041453910294  0.1516529062774055  0.8224340637485952
  0.8247419406643957  0.1513355402748005  0.8223373226057547
  0.8239767202135582  0.7627495899207162  0.8218661975326356
  0.6369138940670069  0.3382266110731820  0.8961108750453519
  0.9921523056354999  0.9805077154821120  0.0029988453589098
  0.6756198777293463  0.2991940612685866  0.0849415631834276
  0.6801882863236841  0.2704355648374133  0.2975117992026739
  0.0187971015138970  0.9320819767033086  0.3859728840432410
  0.5779068721005416  0.4402734542829947  0.5734147425313267
  0.2800748245784135  0.7357195805255614  0.7019290072848960
  0.3066533043458364  0.6635761938978391  0.9172047815439583
 
  0.00000000E+00  0.00000000E+00  0.00000000E+00
  0.00000000E+00  0.00000000E+00  0.00000000E+00
  0.00000000E+00  0.00000000E+00  0.00000000E+00
  0.00000000E+00  0.00000000E+00  0.00000000E+00
  0.00000000E+00  0.00000000E+00  0.00000000E+00
  0.00000000E+00  0.00000000E+00  0.00000000E+00
  0.00000000E+00  0.00000000E+00  0.00000000E+00
  0.00000000E+00  0.00000000E+00  0.00000000E+00
  0.00000000E+00  0.00000000E+00  0.00000000E+00
  0.00000000E+00  0.00000000E+00  0.00000000E+00
  0.00000000E+00  0.00000000E+00  0.00000000E+00
  0.00000000E+00  0.00000000E+00  0.00000000E+00
  0.00000000E+00  0.00000000E+00  0.00000000E+00
  0.00000000E+00  0.00000000E+00  0.00000000E+00
  0.00000000E+00  0.00000000E+00  0.00000000E+00
  0.00000000E+00  0.00000000E+00  0.00000000E+00
  0.00000000E+00  0.00000000E+00  0.00000000E+00
  0.00000000E+00  0.00000000E+00  0.00000000E+00
  0.00000000E+00  0.00000000E+00  0.00000000E+00
  0.00000000E+00  0.00000000E+00  0.00000000E+00
