MgIn2                                   
   1.00000000000000     
    -5.0020782402269655    2.8684419731595554   -0.3931386035386527
     0.0019159931526059   -5.7333413674595963   -0.0096988806092553
    -1.2157652046496148    2.8767919950966085    5.1735946038772092
   In   Mg
     4     2
Direct
  0.6653549266415055  0.3500743343453294  0.0008592086067480
  0.0010309326978017  0.0172799073980912  0.9997094266544977
  0.1647860511525820  0.1488679228455396  0.4991611718360147
  0.5008568921145198  0.8182533681540392  0.5011825960127112
  0.3343157140646085  0.6806308923660112  0.9996903847676464
  0.8336554833289753  0.4855635748909961  0.4998672121223819
 
  0.00000000E+00  0.00000000E+00  0.00000000E+00
  0.00000000E+00  0.00000000E+00  0.00000000E+00
  0.00000000E+00  0.00000000E+00  0.00000000E+00
  0.00000000E+00  0.00000000E+00  0.00000000E+00
  0.00000000E+00  0.00000000E+00  0.00000000E+00
  0.00000000E+00  0.00000000E+00  0.00000000E+00
