Mg2 Ga2 I6                              
   1.00000000000000     
     7.9650222049907473    0.0019984088654529    0.0000000000000000
    -3.9807775627950268    6.9000706461637549    0.0000000000000000
     0.0000000000000000    0.0000000000000000    6.9631724543742646
   I    Mg   Ga
     6     2     2
Direct
  0.1685889942848959  0.3374115280599952  0.2500000000000000
  0.1688911308300334  0.8312035570155061  0.2500000000000000
  0.6624514791818896  0.8309065181791695  0.2500000000000000
  0.3375485208181104  0.1690934818208305  0.7500000000000000
  0.8311088691699666  0.1687964429844939  0.7500000000000000
  0.8314110057151041  0.6625884719400048  0.7500000000000000
  0.0000000000000000  0.0000000000000000  0.0000000000000000
  0.0000000000000000  0.0000000000000000  0.5000000000000000
  0.6666984617100482  0.3333370328592480  0.2500000000000000
  0.3333015382899518  0.6666629671407520  0.7500000000000000
 
  0.00000000E+00  0.00000000E+00  0.00000000E+00
  0.00000000E+00  0.00000000E+00  0.00000000E+00
  0.00000000E+00  0.00000000E+00  0.00000000E+00
  0.00000000E+00  0.00000000E+00  0.00000000E+00
  0.00000000E+00  0.00000000E+00  0.00000000E+00
  0.00000000E+00  0.00000000E+00  0.00000000E+00
  0.00000000E+00  0.00000000E+00  0.00000000E+00
  0.00000000E+00  0.00000000E+00  0.00000000E+00
  0.00000000E+00  0.00000000E+00  0.00000000E+00
  0.00000000E+00  0.00000000E+00  0.00000000E+00
