Ca4 Tl4 F20                             
   1.0000000000000000     
     0.0000000000000000    5.3245144764319106   -0.1161306185037358
     8.6607398819571735    0.0000000000000000    0.0000000000000000
     0.0000000000000000    0.0287344370239929   -7.9346665967955570
   Ca   Tl   F 
     4     4    20
Direct
  0.5009519430704898  0.2717322396151829  0.3703785519477876
  0.4990480569295102  0.7717322396151758  0.6296214480522124
  0.9833095819445532  0.0192645877902038  0.1753370961538607
  0.0166904180554397  0.5192645877902038  0.8246629038461393
  0.5144020669227558  0.6923085794365065  0.0847935134255380
  0.4855979330772442  0.1923085794365065  0.9152064865744620
  0.9964962235209569  0.5830197773882944  0.3750012893348256
  0.0035037764790431  0.0830197773882944  0.6249987106651744
  0.2521575019744446  0.0567358873991068  0.4030738253290949
  0.2579000360361050  0.5565478590910260  0.5825452369589854
  0.7420999639638879  0.0565478590910260  0.4174547630410075
  0.7520483893619314  0.7227813550868163  0.8607936925432966
  0.8701110832316559  0.5407229386491395  0.1113248321215039
  0.5872600802078622  0.9497029755617064  0.0802904093253218
  0.8390068815578289  0.2811496001372973  0.7746831952736457
  0.6721262213536292  0.7519421286816197  0.3445123761714228
  0.1298889167683441  0.0407229386491466  0.8886751678784961
  0.0641127959583230  0.8326915348556483  0.5878241220093656
  0.4127399197921378  0.4497029755617064  0.9197095906746782
  0.7478424980255625  0.5567358873991139  0.5969261746709051
  0.6171483112628664  0.0061314392761815  0.7364582133997502
  0.7421091493193543  0.2328680770312559  0.1198524046876557
  0.9358872040416770  0.3326915348556483  0.4121758779906344
  0.1609931184421711  0.7811496001372973  0.2253168047263543
  0.2479516106380615  0.2227813550868163  0.1392063074566963
  0.2578908506806457  0.7328680770312559  0.8801475953123443
  0.3278737786463708  0.2519421286816197  0.6554876238285772
  0.3828516887371336  0.5061314392761815  0.2635417866002498

  0.00000000E+00  0.00000000E+00  0.00000000E+00
  0.00000000E+00  0.00000000E+00  0.00000000E+00
  0.00000000E+00  0.00000000E+00  0.00000000E+00
  0.00000000E+00  0.00000000E+00  0.00000000E+00
  0.00000000E+00  0.00000000E+00  0.00000000E+00
  0.00000000E+00  0.00000000E+00  0.00000000E+00
  0.00000000E+00  0.00000000E+00  0.00000000E+00
  0.00000000E+00  0.00000000E+00  0.00000000E+00
  0.00000000E+00  0.00000000E+00  0.00000000E+00
  0.00000000E+00  0.00000000E+00  0.00000000E+00
  0.00000000E+00  0.00000000E+00  0.00000000E+00
  0.00000000E+00  0.00000000E+00  0.00000000E+00
  0.00000000E+00  0.00000000E+00  0.00000000E+00
  0.00000000E+00  0.00000000E+00  0.00000000E+00
  0.00000000E+00  0.00000000E+00  0.00000000E+00
  0.00000000E+00  0.00000000E+00  0.00000000E+00
  0.00000000E+00  0.00000000E+00  0.00000000E+00
  0.00000000E+00  0.00000000E+00  0.00000000E+00
  0.00000000E+00  0.00000000E+00  0.00000000E+00
  0.00000000E+00  0.00000000E+00  0.00000000E+00
  0.00000000E+00  0.00000000E+00  0.00000000E+00
  0.00000000E+00  0.00000000E+00  0.00000000E+00
  0.00000000E+00  0.00000000E+00  0.00000000E+00
  0.00000000E+00  0.00000000E+00  0.00000000E+00
  0.00000000E+00  0.00000000E+00  0.00000000E+00
  0.00000000E+00  0.00000000E+00  0.00000000E+00
  0.00000000E+00  0.00000000E+00  0.00000000E+00
  0.00000000E+00  0.00000000E+00  0.00000000E+00
