Ga1 F6                                  
   1.00000000000000     
     0.8364526486013356    1.8420189647812919    4.2473771202371609
    -2.7248128127588775    1.9048060867693026    5.2559874468629451
    -0.9025913374311364   -3.1211651770935154    4.5152991402231653
   F    Ga
     6     1
Direct
  0.1797904358494335  0.1606607298102034  0.8971250052767914
  0.3675766839406620  0.4372704493788149  0.9438230798105138
  0.9188349613673097  0.9416503272774150  0.4386408758978959
  0.9315119623834676  0.1628300970968510  0.5183025991383445
  0.6661137893989277  0.6399553506647919  0.9310480549450588
  0.9190569568748543  0.7244972766156579  0.3415312307330396
  0.0175152101853442  0.9335357691562294  0.9299291541983408
 
  0.00000000E+00  0.00000000E+00  0.00000000E+00
  0.00000000E+00  0.00000000E+00  0.00000000E+00
  0.00000000E+00  0.00000000E+00  0.00000000E+00
  0.00000000E+00  0.00000000E+00  0.00000000E+00
  0.00000000E+00  0.00000000E+00  0.00000000E+00
  0.00000000E+00  0.00000000E+00  0.00000000E+00
  0.00000000E+00  0.00000000E+00  0.00000000E+00
