Mg8 Al2                                 
   1.00000000000000     
    -5.1744851112651205   -5.1744851112651213    0.0000000000000000
    -5.1744851112651205    0.0000000000000000   -5.1744851112651213
     0.0000000000000000   -5.1744851112651213   -5.1744851112651213
   Mg   Al
     8     2
Direct
  0.6025056993865121  0.6025056993865121  0.6025056993865121
  0.1924839018404541  0.6025056993865121  0.6025056993865121
  0.6025056993865121  0.1924839018404541  0.6025056993865121
  0.5575160981595531  0.1474943006134879  0.1474943006134879
  0.1474943006134879  0.1474943006134879  0.1474943006134879
  0.6025056993865121  0.6025056993865121  0.1924839018404541
  0.1474943006134879  0.5575160981595531  0.1474943006134879
  0.1474943006134879  0.1474943006134879  0.5575160981595531
  0.0000000000000000  0.0000000000000000  0.0000000000000000
  0.7500000000000000  0.7500000000000000  0.7500000000000000
 
  0.00000000E+00  0.00000000E+00  0.00000000E+00
  0.00000000E+00  0.00000000E+00  0.00000000E+00
  0.00000000E+00  0.00000000E+00  0.00000000E+00
  0.00000000E+00  0.00000000E+00  0.00000000E+00
  0.00000000E+00  0.00000000E+00  0.00000000E+00
  0.00000000E+00  0.00000000E+00  0.00000000E+00
  0.00000000E+00  0.00000000E+00  0.00000000E+00
  0.00000000E+00  0.00000000E+00  0.00000000E+00
  0.00000000E+00  0.00000000E+00  0.00000000E+00
  0.00000000E+00  0.00000000E+00  0.00000000E+00
