Be16 Al16 Cl80                          
   1.0000000000000000     
    17.8002924186805700    0.0000340803433297    0.0000000000000014
    -0.0000340803433312   17.8002924186805700    0.0000000000000014
     0.0000000000000001    0.0000000000000001   12.4417288826333792
   Be   Al   Cl
    16    16    80
Direct
  0.5823923236835569  0.8200466773201569  0.6053913132507489
  0.3200466773201640  0.9176076763164431  0.1053913132507418
  0.6799533226798289  0.0823923236835569  0.1053913132507418
  0.4176076763164431  0.1799533226798289  0.6053913132507489
  0.1428329950690710  0.1217896138621981  0.4693296138640690
  0.6217896138621839  0.3571670049309290  0.9693296138640619
  0.3782103861378019  0.6428329950690781  0.9693296138640619
  0.8571670049309219  0.8782103861378161  0.4693296138640690
  0.0823923236835569  0.3200466773201640  0.1053913132507418
  0.8200466773201569  0.4176076763164431  0.6053913132507489
  0.1799533226798289  0.5823923236835569  0.6053913132507489
  0.9176076763164431  0.6799533226798289  0.1053913132507418
  0.6428329950690781  0.6217896138621839  0.9693296138640619
  0.1217896138621981  0.8571670049309219  0.4693296138640690
  0.8782103861378161  0.1428329950690710  0.4693296138640690
  0.3571670049309290  0.3782103861378019  0.9693296138640619
  0.0000000000000000  0.0000000000000000  0.5931347367216233
  0.0000000000000000  0.0000000000000000  0.0380475351733338
  0.5000000000000000  0.0000000000000000  0.9660877975896440
  0.5000000000000000  0.0000000000000000  0.4660877975896440
  0.4024513726875369  0.1857689649029055  0.8853705043749400
  0.6857689649029410  0.0975486273124773  0.3853705043749542
  0.3142310350971016  0.9024513726875227  0.3853705043749542
  0.5975486273124773  0.8142310350970590  0.8853705043749400
  0.5000000000000000  0.5000000000000000  0.0931347367216233
  0.5000000000000000  0.5000000000000000  0.5380475351733338
  0.0000000000000000  0.5000000000000000  0.4660877975896440
  0.0000000000000000  0.5000000000000000  0.9660877975896440
  0.9024513726875227  0.6857689649029410  0.3853705043749542
  0.1857689649029055  0.5975486273124773  0.8853705043749400
  0.8142310350970590  0.4024513726875369  0.8853705043749400
  0.0975486273124773  0.3142310350971016  0.3853705043749542
  0.0000000000000000  0.0000000000000000  0.7641310675993296
  0.0000000000000000  0.0000000000000000  0.4194441847503043
  0.1303383675495269  0.0594395559697816  0.5953988111911386
  0.5594395559697816  0.3696616324504731  0.0953988111911315
  0.4405604440302255  0.6303383675495198  0.0953988111911315
  0.8696616324504802  0.9405604440302184  0.5953988111911386
  0.1249291751041710  0.0117047851149223  0.0401383554058157
  0.5117047851149223  0.3750708248958290  0.5401383554058299
  0.4882952148850848  0.6249291751041852  0.5401383554058299
  0.8750708248958148  0.9882952148850777  0.0401383554058157
  0.5000000000000000  0.0000000000000000  0.7967524327494573
  0.5000000000000000  0.0000000000000000  0.2967524327494786
  0.4991741467874036  0.1344868837927748  0.9747799815623921
  0.6344868837927820  0.0008258532126035  0.4747799815624134
  0.3655131162072323  0.9991741467873965  0.4747799815624134
  0.5008258532126035  0.8655131162072180  0.9747799815623921
  0.5027820680577335  0.1067582086145080  0.5679679067232897
  0.6067582086145151  0.9972179319422665  0.0679679067232755
  0.3932417913854991  0.0027820680577122  0.0679679067232755
  0.4972179319422807  0.8932417913854849  0.5679679067232897
  0.4494606685721223  0.2381850248438653  0.7378585242188223
  0.7381850248438724  0.0505393314278848  0.2378585242188365
  0.2618149751561276  0.9494606685721223  0.2378585242188365
  0.5505393314278777  0.7618149751561276  0.7378585242188223
  0.3312385728519587  0.1930495179724616  0.5286675144450399
  0.6930495179724616  0.1687614271480413  0.0286675144450470
  0.3069504820275384  0.8312385728519587  0.0286675144450470
  0.6687614271480413  0.8069504820275384  0.5286675144450399
  0.3140088625851192  0.1142741726101875  0.8467901751050562
  0.6142741726101946  0.1859911374148808  0.3467901751050562
  0.3857258273898125  0.8140088625851121  0.3467901751050562
  0.6859911374148879  0.8857258273898054  0.8467901751050562
  0.1787484960817523  0.1076425055660479  0.3320707378114136
  0.6076425055660408  0.3212515039182477  0.8320707378114065
  0.3923574944339450  0.6787484960817451  0.8320707378114065
  0.8212515039182549  0.8923574944339592  0.3320707378114136
  0.8806858479326252  0.7681942709615583  0.5139708158166130
  0.2681942709615512  0.6193141520673606  0.0139708158166201
  0.7318057290384417  0.3806858479326252  0.0139708158166201
  0.1193141520673677  0.2318057290384488  0.5139708158166130
  0.5000000000000000  0.5000000000000000  0.2641310675993225
  0.5000000000000000  0.5000000000000000  0.9194441847502901
  0.6303383675495198  0.5594395559697816  0.0953988111911315
  0.0594395559697816  0.8696616324504802  0.5953988111911386
  0.9405604440302184  0.1303383675495269  0.5953988111911386
  0.3696616324504731  0.4405604440302255  0.0953988111911315
  0.6249291751041852  0.5117047851149223  0.5401383554058299
  0.0117047851149223  0.8750708248958148  0.0401383554058157
  0.9882952148850777  0.1249291751041710  0.0401383554058157
  0.3750708248958290  0.4882952148850848  0.5401383554058299
  0.0000000000000000  0.5000000000000000  0.2967524327494786
  0.0000000000000000  0.5000000000000000  0.7967524327494573
  0.9991741467873965  0.6344868837927820  0.4747799815624134
  0.1344868837927748  0.5008258532126035  0.9747799815623921
  0.8655131162072180  0.4991741467874036  0.9747799815623921
  0.0008258532126035  0.3655131162072323  0.4747799815624134
  0.0027820680577122  0.6067582086145151  0.0679679067232755
  0.1067582086145080  0.4972179319422807  0.5679679067232897
  0.8932417913854849  0.5027820680577335  0.5679679067232897
  0.9972179319422665  0.3932417913854991  0.0679679067232755
  0.9494606685721223  0.7381850248438724  0.2378585242188365
  0.2381850248438653  0.5505393314278777  0.7378585242188223
  0.7618149751561276  0.4494606685721223  0.7378585242188223
  0.0505393314278848  0.2618149751561276  0.2378585242188365
  0.8312385728519587  0.6930495179724616  0.0286675144450470
  0.1930495179724616  0.6687614271480413  0.5286675144450399
  0.8069504820275384  0.3312385728519587  0.5286675144450399
  0.1687614271480413  0.3069504820275384  0.0286675144450470
  0.8140088625851121  0.6142741726101946  0.3467901751050562
  0.1142741726101875  0.6859911374148879  0.8467901751050562
  0.8857258273898054  0.3140088625851192  0.8467901751050562
  0.1859911374148808  0.3857258273898125  0.3467901751050562
  0.6787484960817451  0.6076425055660408  0.8320707378114065
  0.1076425055660479  0.8212515039182549  0.3320707378114136
  0.8923574944339592  0.1787484960817523  0.3320707378114136
  0.3212515039182477  0.3923574944339450  0.8320707378114065
  0.3806858479326252  0.2681942709615512  0.0139708158166201
  0.7681942709615583  0.1193141520673677  0.5139708158166130
  0.2318057290384488  0.8806858479326252  0.5139708158166130
  0.6193141520673606  0.7318057290384417  0.0139708158166201

  0.00000000E+00  0.00000000E+00  0.00000000E+00
  0.00000000E+00  0.00000000E+00  0.00000000E+00
  0.00000000E+00  0.00000000E+00  0.00000000E+00
  0.00000000E+00  0.00000000E+00  0.00000000E+00
  0.00000000E+00  0.00000000E+00  0.00000000E+00
  0.00000000E+00  0.00000000E+00  0.00000000E+00
  0.00000000E+00  0.00000000E+00  0.00000000E+00
  0.00000000E+00  0.00000000E+00  0.00000000E+00
  0.00000000E+00  0.00000000E+00  0.00000000E+00
  0.00000000E+00  0.00000000E+00  0.00000000E+00
  0.00000000E+00  0.00000000E+00  0.00000000E+00
  0.00000000E+00  0.00000000E+00  0.00000000E+00
  0.00000000E+00  0.00000000E+00  0.00000000E+00
  0.00000000E+00  0.00000000E+00  0.00000000E+00
  0.00000000E+00  0.00000000E+00  0.00000000E+00
  0.00000000E+00  0.00000000E+00  0.00000000E+00
  0.00000000E+00  0.00000000E+00  0.00000000E+00
  0.00000000E+00  0.00000000E+00  0.00000000E+00
  0.00000000E+00  0.00000000E+00  0.00000000E+00
  0.00000000E+00  0.00000000E+00  0.00000000E+00
  0.00000000E+00  0.00000000E+00  0.00000000E+00
  0.00000000E+00  0.00000000E+00  0.00000000E+00
  0.00000000E+00  0.00000000E+00  0.00000000E+00
  0.00000000E+00  0.00000000E+00  0.00000000E+00
  0.00000000E+00  0.00000000E+00  0.00000000E+00
  0.00000000E+00  0.00000000E+00  0.00000000E+00
  0.00000000E+00  0.00000000E+00  0.00000000E+00
  0.00000000E+00  0.00000000E+00  0.00000000E+00
  0.00000000E+00  0.00000000E+00  0.00000000E+00
  0.00000000E+00  0.00000000E+00  0.00000000E+00
  0.00000000E+00  0.00000000E+00  0.00000000E+00
  0.00000000E+00  0.00000000E+00  0.00000000E+00
  0.00000000E+00  0.00000000E+00  0.00000000E+00
  0.00000000E+00  0.00000000E+00  0.00000000E+00
  0.00000000E+00  0.00000000E+00  0.00000000E+00
  0.00000000E+00  0.00000000E+00  0.00000000E+00
  0.00000000E+00  0.00000000E+00  0.00000000E+00
  0.00000000E+00  0.00000000E+00  0.00000000E+00
  0.00000000E+00  0.00000000E+00  0.00000000E+00
  0.00000000E+00  0.00000000E+00  0.00000000E+00
  0.00000000E+00  0.00000000E+00  0.00000000E+00
  0.00000000E+00  0.00000000E+00  0.00000000E+00
  0.00000000E+00  0.00000000E+00  0.00000000E+00
  0.00000000E+00  0.00000000E+00  0.00000000E+00
  0.00000000E+00  0.00000000E+00  0.00000000E+00
  0.00000000E+00  0.00000000E+00  0.00000000E+00
  0.00000000E+00  0.00000000E+00  0.00000000E+00
  0.00000000E+00  0.00000000E+00  0.00000000E+00
  0.00000000E+00  0.00000000E+00  0.00000000E+00
  0.00000000E+00  0.00000000E+00  0.00000000E+00
  0.00000000E+00  0.00000000E+00  0.00000000E+00
  0.00000000E+00  0.00000000E+00  0.00000000E+00
  0.00000000E+00  0.00000000E+00  0.00000000E+00
  0.00000000E+00  0.00000000E+00  0.00000000E+00
  0.00000000E+00  0.00000000E+00  0.00000000E+00
  0.00000000E+00  0.00000000E+00  0.00000000E+00
  0.00000000E+00  0.00000000E+00  0.00000000E+00
  0.00000000E+00  0.00000000E+00  0.00000000E+00
  0.00000000E+00  0.00000000E+00  0.00000000E+00
  0.00000000E+00  0.00000000E+00  0.00000000E+00
  0.00000000E+00  0.00000000E+00  0.00000000E+00
  0.00000000E+00  0.00000000E+00  0.00000000E+00
  0.00000000E+00  0.00000000E+00  0.00000000E+00
  0.00000000E+00  0.00000000E+00  0.00000000E+00
  0.00000000E+00  0.00000000E+00  0.00000000E+00
  0.00000000E+00  0.00000000E+00  0.00000000E+00
  0.00000000E+00  0.00000000E+00  0.00000000E+00
  0.00000000E+00  0.00000000E+00  0.00000000E+00
  0.00000000E+00  0.00000000E+00  0.00000000E+00
  0.00000000E+00  0.00000000E+00  0.00000000E+00
  0.00000000E+00  0.00000000E+00  0.00000000E+00
  0.00000000E+00  0.00000000E+00  0.00000000E+00
  0.00000000E+00  0.00000000E+00  0.00000000E+00
  0.00000000E+00  0.00000000E+00  0.00000000E+00
  0.00000000E+00  0.00000000E+00  0.00000000E+00
  0.00000000E+00  0.00000000E+00  0.00000000E+00
  0.00000000E+00  0.00000000E+00  0.00000000E+00
  0.00000000E+00  0.00000000E+00  0.00000000E+00
  0.00000000E+00  0.00000000E+00  0.00000000E+00
  0.00000000E+00  0.00000000E+00  0.00000000E+00
  0.00000000E+00  0.00000000E+00  0.00000000E+00
  0.00000000E+00  0.00000000E+00  0.00000000E+00
  0.00000000E+00  0.00000000E+00  0.00000000E+00
  0.00000000E+00  0.00000000E+00  0.00000000E+00
  0.00000000E+00  0.00000000E+00  0.00000000E+00
  0.00000000E+00  0.00000000E+00  0.00000000E+00
  0.00000000E+00  0.00000000E+00  0.00000000E+00
  0.00000000E+00  0.00000000E+00  0.00000000E+00
  0.00000000E+00  0.00000000E+00  0.00000000E+00
  0.00000000E+00  0.00000000E+00  0.00000000E+00
  0.00000000E+00  0.00000000E+00  0.00000000E+00
  0.00000000E+00  0.00000000E+00  0.00000000E+00
  0.00000000E+00  0.00000000E+00  0.00000000E+00
  0.00000000E+00  0.00000000E+00  0.00000000E+00
  0.00000000E+00  0.00000000E+00  0.00000000E+00
  0.00000000E+00  0.00000000E+00  0.00000000E+00
  0.00000000E+00  0.00000000E+00  0.00000000E+00
  0.00000000E+00  0.00000000E+00  0.00000000E+00
  0.00000000E+00  0.00000000E+00  0.00000000E+00
  0.00000000E+00  0.00000000E+00  0.00000000E+00
  0.00000000E+00  0.00000000E+00  0.00000000E+00
  0.00000000E+00  0.00000000E+00  0.00000000E+00
  0.00000000E+00  0.00000000E+00  0.00000000E+00
  0.00000000E+00  0.00000000E+00  0.00000000E+00
  0.00000000E+00  0.00000000E+00  0.00000000E+00
  0.00000000E+00  0.00000000E+00  0.00000000E+00
  0.00000000E+00  0.00000000E+00  0.00000000E+00
  0.00000000E+00  0.00000000E+00  0.00000000E+00
  0.00000000E+00  0.00000000E+00  0.00000000E+00
  0.00000000E+00  0.00000000E+00  0.00000000E+00
  0.00000000E+00  0.00000000E+00  0.00000000E+00
  0.00000000E+00  0.00000000E+00  0.00000000E+00
