Be16 Tl12 F1                            
   1.0000000000000000     
     6.4412049922146037   -3.7334927642105060    4.1706859507608316
     1.1618637118420192    8.2133862392693988    3.1796492796415778
    -6.5501607607633110   -5.1039992186241463    3.1615424854420011
   Tl   F    Be
    12     1    16
Direct
  0.4704746055528304  0.3429730092819270  0.9567155511734455
  0.6860227797990106  0.7668345423295762  0.0556332581982275
  0.5376433795432618  0.6120026214578331  0.3756297539163072
  0.0922593306720429  0.8816948608960899  0.1367884218329820
  0.6770014279548562  0.2438313033348081  0.2437330855831661
  0.5377187040405431  0.3756515381087269  0.6118288488744383
  0.0964979278648670  0.3600491447344609  0.3601194848484397
  0.4705962990296513  0.9567753552970473  0.3427798329466754
  0.1626784419556415  0.8028001591095375  0.4983707063350948
  0.6859643535277300  0.0557862016934436  0.7668882046621519
  0.1626846372732658  0.4983832398883976  0.8028158795244806
  0.0923070441451941  0.1366121340590141  0.8816995781428929
  0.3668582477853590  0.8401720528054426  0.8401043547630564
  0.4419185475258729  0.8279812908498059  0.6827877405025049
  0.8754993247867375  0.5603782176237075  0.0712360785940191
  0.8749252053948311  0.0511000943835214  0.0511212660786100
  0.8792589937918365  0.3234664998097330  0.0682163559085751
  0.8761872405847058  0.8195675988343609  0.3303730568233476
  0.4418526406299534  0.6826435894329634  0.8279022368078799
  0.8625951747774110  0.5674280884101464  0.3145221315235815
  0.8790315114842713  0.0681363600952167  0.3234467588591770
  0.8635302768160713  0.8095443269120750  0.5669181496732136
  0.8555967843578713  0.5730438138409397  0.5730869063844395
  0.8754838924934347  0.0711831958864835  0.5604103353181458
  0.8626543969833733  0.3145074123640939  0.5674523890403620
  0.9433996586084987  0.8218139228643935  0.8218690428562994
  0.8763563855706167  0.3303615246229370  0.8196562033129311
  0.6886252740612804  0.7383612244466846  0.7383307851780216
  0.8635775129889680  0.5669176766265949  0.8095656023375213

  0.00000000E+00  0.00000000E+00  0.00000000E+00
  0.00000000E+00  0.00000000E+00  0.00000000E+00
  0.00000000E+00  0.00000000E+00  0.00000000E+00
  0.00000000E+00  0.00000000E+00  0.00000000E+00
  0.00000000E+00  0.00000000E+00  0.00000000E+00
  0.00000000E+00  0.00000000E+00  0.00000000E+00
  0.00000000E+00  0.00000000E+00  0.00000000E+00
  0.00000000E+00  0.00000000E+00  0.00000000E+00
  0.00000000E+00  0.00000000E+00  0.00000000E+00
  0.00000000E+00  0.00000000E+00  0.00000000E+00
  0.00000000E+00  0.00000000E+00  0.00000000E+00
  0.00000000E+00  0.00000000E+00  0.00000000E+00
  0.00000000E+00  0.00000000E+00  0.00000000E+00
  0.00000000E+00  0.00000000E+00  0.00000000E+00
  0.00000000E+00  0.00000000E+00  0.00000000E+00
  0.00000000E+00  0.00000000E+00  0.00000000E+00
  0.00000000E+00  0.00000000E+00  0.00000000E+00
  0.00000000E+00  0.00000000E+00  0.00000000E+00
  0.00000000E+00  0.00000000E+00  0.00000000E+00
  0.00000000E+00  0.00000000E+00  0.00000000E+00
  0.00000000E+00  0.00000000E+00  0.00000000E+00
  0.00000000E+00  0.00000000E+00  0.00000000E+00
  0.00000000E+00  0.00000000E+00  0.00000000E+00
  0.00000000E+00  0.00000000E+00  0.00000000E+00
  0.00000000E+00  0.00000000E+00  0.00000000E+00
  0.00000000E+00  0.00000000E+00  0.00000000E+00
  0.00000000E+00  0.00000000E+00  0.00000000E+00
  0.00000000E+00  0.00000000E+00  0.00000000E+00
  0.00000000E+00  0.00000000E+00  0.00000000E+00
