Ba8 B4 Cl28                             
   1.00000000000000     
    -8.1006205164597098    0.0000000000000000    0.3966052492935964
     0.7469209260616835    0.0000000000000000   -9.3585672617665772
     0.0000000000000000  -16.7294785708469860    0.0000000000000000
   Ba   B    Cl
     8     4    28
Direct
  0.0639947529074192  0.9333625850994167  0.7879000367349960
  0.9360052470925808  0.0666374149005833  0.2120999632650040
  0.9360052470925808  0.5666374149005833  0.2879000367349960
  0.0639947529074192  0.4333625850994167  0.7120999632650040
  0.5435411091072808  0.7167596760490937  0.5773423146726770
  0.4564588908927121  0.2832403239509063  0.4226576853273230
  0.4564588908927121  0.7832403239509063  0.0773423146726770
  0.5435411091072808  0.2167596760490937  0.9226576853273230
  0.7650878990057137  0.6238121402356640  0.9020677787854368
  0.2349121009942863  0.3761878597643360  0.0979322212145632
  0.2349121009942863  0.8761878597643360  0.4020677787854368
  0.7650878990057137  0.1238121402356640  0.5979322212145632
  0.1298007719935939  0.8016423320739818  0.1665033212649121
  0.8701992280064061  0.1983576679260182  0.8334966787350879
  0.8701992280064061  0.6983576679260182  0.6665033212649121
  0.1298007719935939  0.3016423320739818  0.3334966787350879
  0.6265474332426635  0.0192762780286699  0.6704633878176409
  0.3734525667573365  0.9807237219713301  0.3295366121823591
  0.3734525667573365  0.4807237219713301  0.1704633878176409
  0.6265474332426635  0.5192762780286699  0.8295366121823591
  0.3063421308706040  0.7214433644529308  0.7225247292335197
  0.6936578691293960  0.2785566355470692  0.2774752707664803
  0.6936578691293960  0.7785566355470692  0.2225247292335197
  0.3063421308706040  0.2214433644529308  0.7774752707664803
  0.3089205447039802  0.9328372341270068  0.9331743616587573
  0.6910794552960127  0.0671627658729932  0.0668256383412427
  0.6910794552960127  0.5671627658729932  0.4331743616587573
  0.3089205447039802  0.4328372341270068  0.5668256383412427
  0.0108578998430886  0.8880237614374167  0.3792605036101051
  0.9891421001569114  0.1119762385625833  0.6207394963898949
  0.9891421001569114  0.6119762385625833  0.8792605036101051
  0.0108578998430886  0.3880237614374167  0.1207394963898949
  0.2809047768682831  0.9481471134895898  0.5053173127461577
  0.7190952231317169  0.0518528865104102  0.4946826872538423
  0.7190952231317169  0.5518528865104102  0.0053173127461577
  0.2809047768682831  0.4481471134895898  0.9946826872538423
  0.7326273225295523  0.8163766764202833  0.8991509820414052
  0.2673726774704477  0.1836233235797167  0.1008490179585948
  0.2673726774704477  0.6836233235797167  0.3991509820414052
  0.7326273225295523  0.3163766764202833  0.6008490179585948
 
  0.00000000E+00  0.00000000E+00  0.00000000E+00
  0.00000000E+00  0.00000000E+00  0.00000000E+00
  0.00000000E+00  0.00000000E+00  0.00000000E+00
  0.00000000E+00  0.00000000E+00  0.00000000E+00
  0.00000000E+00  0.00000000E+00  0.00000000E+00
  0.00000000E+00  0.00000000E+00  0.00000000E+00
  0.00000000E+00  0.00000000E+00  0.00000000E+00
  0.00000000E+00  0.00000000E+00  0.00000000E+00
  0.00000000E+00  0.00000000E+00  0.00000000E+00
  0.00000000E+00  0.00000000E+00  0.00000000E+00
  0.00000000E+00  0.00000000E+00  0.00000000E+00
  0.00000000E+00  0.00000000E+00  0.00000000E+00
  0.00000000E+00  0.00000000E+00  0.00000000E+00
  0.00000000E+00  0.00000000E+00  0.00000000E+00
  0.00000000E+00  0.00000000E+00  0.00000000E+00
  0.00000000E+00  0.00000000E+00  0.00000000E+00
  0.00000000E+00  0.00000000E+00  0.00000000E+00
  0.00000000E+00  0.00000000E+00  0.00000000E+00
  0.00000000E+00  0.00000000E+00  0.00000000E+00
  0.00000000E+00  0.00000000E+00  0.00000000E+00
  0.00000000E+00  0.00000000E+00  0.00000000E+00
  0.00000000E+00  0.00000000E+00  0.00000000E+00
  0.00000000E+00  0.00000000E+00  0.00000000E+00
  0.00000000E+00  0.00000000E+00  0.00000000E+00
  0.00000000E+00  0.00000000E+00  0.00000000E+00
  0.00000000E+00  0.00000000E+00  0.00000000E+00
  0.00000000E+00  0.00000000E+00  0.00000000E+00
  0.00000000E+00  0.00000000E+00  0.00000000E+00
  0.00000000E+00  0.00000000E+00  0.00000000E+00
  0.00000000E+00  0.00000000E+00  0.00000000E+00
  0.00000000E+00  0.00000000E+00  0.00000000E+00
  0.00000000E+00  0.00000000E+00  0.00000000E+00
  0.00000000E+00  0.00000000E+00  0.00000000E+00
  0.00000000E+00  0.00000000E+00  0.00000000E+00
  0.00000000E+00  0.00000000E+00  0.00000000E+00
  0.00000000E+00  0.00000000E+00  0.00000000E+00
  0.00000000E+00  0.00000000E+00  0.00000000E+00
  0.00000000E+00  0.00000000E+00  0.00000000E+00
  0.00000000E+00  0.00000000E+00  0.00000000E+00
  0.00000000E+00  0.00000000E+00  0.00000000E+00
