Sr1 Tl2 Br10                            
   1.0000000000000000     
     4.7450756328013757    6.5941497681104728   -0.2081213850693361
    -4.7450756328013757    6.5941497681104728   -0.2081213850693361
     0.0000000000000000    4.3876553876807876    9.2187736188545095
   Sr   Tl   Br
     1     2    10
Direct
  0.5865096345070597  0.4134903654929403  0.0000000000000000
  0.0135919098474844  0.8435184278647867  0.7965913221663428
  0.1564815721352133  0.9864080901525156  0.2034086778336572
  0.0273209817319682  0.3774527891625112  0.5809988237699670
  0.6225472108374888  0.9726790182680318  0.4190011762300330
  0.8734294836475982  0.5741204463464058  0.0138535731217360
  0.4258795536535942  0.1265705163524018  0.9861464268782640
  0.9315183302018752  0.0684816697981248  0.0000000000000000
  0.0625332008234167  0.9374667991765833  0.5000000000000000
  0.7246743908004660  0.5391657986516947  0.6608985021065337
  0.4608342013483053  0.2753256091995340  0.3391014978934663
  0.3915235004182378  0.7328449699527226  0.7967265115271971
  0.2671550300472774  0.6084764995817622  0.2032734884728029

  0.00000000E+00  0.00000000E+00  0.00000000E+00
  0.00000000E+00  0.00000000E+00  0.00000000E+00
  0.00000000E+00  0.00000000E+00  0.00000000E+00
  0.00000000E+00  0.00000000E+00  0.00000000E+00
  0.00000000E+00  0.00000000E+00  0.00000000E+00
  0.00000000E+00  0.00000000E+00  0.00000000E+00
  0.00000000E+00  0.00000000E+00  0.00000000E+00
  0.00000000E+00  0.00000000E+00  0.00000000E+00
  0.00000000E+00  0.00000000E+00  0.00000000E+00
  0.00000000E+00  0.00000000E+00  0.00000000E+00
  0.00000000E+00  0.00000000E+00  0.00000000E+00
  0.00000000E+00  0.00000000E+00  0.00000000E+00
  0.00000000E+00  0.00000000E+00  0.00000000E+00
