Be2I3                                   
   1.00000000000000     
    -7.0190396510706670   -0.0014521063184646   -0.1037248816219256
     3.5072981511097052   -6.0693498057959303    0.2398777899887016
    -3.4176675532117406    1.8178362675987894    9.0539478715247625
   Be   I 
     4     6
Direct
  0.9575112319916101  0.0263870651182074  0.1129666820447426
  0.5871454907026887  0.3873120251576125  0.2236954630141952
  0.4138593280804415  0.6132098757330553  0.7762875486126148
  0.0380391014529593  0.9732372273578278  0.8871777670592493
  0.5942953886618625  0.7274173346672370  0.2406171156409016
  0.2451816761118124  0.0692725058683905  0.2407576702773113
  0.9024235286422311  0.3783727167334590  0.2428303258749622
  0.0976580258062185  0.6218236649082343  0.7588278184246420
  0.7581478226316634  0.9288093976556482  0.7532073171322580
  0.4056384059185021  0.2740581868003176  0.7636322919191372
 
  0.00000000E+00  0.00000000E+00  0.00000000E+00
  0.00000000E+00  0.00000000E+00  0.00000000E+00
  0.00000000E+00  0.00000000E+00  0.00000000E+00
  0.00000000E+00  0.00000000E+00  0.00000000E+00
  0.00000000E+00  0.00000000E+00  0.00000000E+00
  0.00000000E+00  0.00000000E+00  0.00000000E+00
  0.00000000E+00  0.00000000E+00  0.00000000E+00
  0.00000000E+00  0.00000000E+00  0.00000000E+00
  0.00000000E+00  0.00000000E+00  0.00000000E+00
  0.00000000E+00  0.00000000E+00  0.00000000E+00
