Sr17 B12                                
   1.00000000000000     
    -6.9227944926716445   -6.9227944926716445    6.9568402279852029
    -6.9227944926716436    6.9568402279852029   -6.9227944926716436
     6.9568402279852029   -6.9227944926716445   -6.9227944926716436
   B    Sr
    12    17
Direct
  0.2352141713988871  0.0013078346250168  0.9201207683086849
  0.0013078346250168  0.2352141713988871  0.9201207683086849
  0.8838771771705751  0.8838771771705751  0.0840888268621001
  0.2352141713988871  0.9201207683086849  0.0013078346250168
  0.9201207683086849  0.2352141713988871  0.0013078346250168
  0.0013078346250168  0.9201207683086849  0.2352141713988871
  0.9201207683086849  0.0013078346250168  0.2352141713988871
  0.9220794926263238  0.8343078063000533  0.8343078063000533
  0.8343078063000533  0.9220794926263238  0.8343078063000533
  0.8838771771705751  0.0840888268621001  0.8838771771705751
  0.0840888268621001  0.8838771771705751  0.8838771771705751
  0.8343078063000533  0.8343078063000533  0.9220794926263238
  0.0877044373838274  0.0877044373838274  0.0877044373838274
  0.7592932907310512  0.0457304118256801  0.0457304118256801
  0.7494959261024761  0.3397554894912744  0.9715568025113939
  0.0457304118256801  0.7592932907310512  0.0457304118256801
  0.3397554894912744  0.7494959261024761  0.9715568025113939
  0.7274482596428840  0.7274482596428840  0.5313025088760028
  0.4951106597858370  0.1562071348243563  0.1562071348243563
  0.1562071348243563  0.4951106597858370  0.1562071348243563
  0.3903772193322865  0.3903772193322865  0.3903772193322865
  0.7494959261024761  0.9715568025113939  0.3397554894912744
  0.9715568025113939  0.7494959261024761  0.3397554894912744
  0.7274482596428840  0.5313025088760028  0.7274482596428840
  0.5313025088760028  0.7274482596428840  0.7274482596428840
  0.0457304118256801  0.0457304118256801  0.7592932907310512
  0.3397554894912744  0.9715568025113939  0.7494959261024761
  0.9715568025113939  0.3397554894912744  0.7494959261024761
  0.1562071348243563  0.1562071348243563  0.4951106597858370
 
  0.00000000E+00  0.00000000E+00  0.00000000E+00
  0.00000000E+00  0.00000000E+00  0.00000000E+00
  0.00000000E+00  0.00000000E+00  0.00000000E+00
  0.00000000E+00  0.00000000E+00  0.00000000E+00
  0.00000000E+00  0.00000000E+00  0.00000000E+00
  0.00000000E+00  0.00000000E+00  0.00000000E+00
  0.00000000E+00  0.00000000E+00  0.00000000E+00
  0.00000000E+00  0.00000000E+00  0.00000000E+00
  0.00000000E+00  0.00000000E+00  0.00000000E+00
  0.00000000E+00  0.00000000E+00  0.00000000E+00
  0.00000000E+00  0.00000000E+00  0.00000000E+00
  0.00000000E+00  0.00000000E+00  0.00000000E+00
  0.00000000E+00  0.00000000E+00  0.00000000E+00
  0.00000000E+00  0.00000000E+00  0.00000000E+00
  0.00000000E+00  0.00000000E+00  0.00000000E+00
  0.00000000E+00  0.00000000E+00  0.00000000E+00
  0.00000000E+00  0.00000000E+00  0.00000000E+00
  0.00000000E+00  0.00000000E+00  0.00000000E+00
  0.00000000E+00  0.00000000E+00  0.00000000E+00
  0.00000000E+00  0.00000000E+00  0.00000000E+00
  0.00000000E+00  0.00000000E+00  0.00000000E+00
  0.00000000E+00  0.00000000E+00  0.00000000E+00
  0.00000000E+00  0.00000000E+00  0.00000000E+00
  0.00000000E+00  0.00000000E+00  0.00000000E+00
  0.00000000E+00  0.00000000E+00  0.00000000E+00
  0.00000000E+00  0.00000000E+00  0.00000000E+00
  0.00000000E+00  0.00000000E+00  0.00000000E+00
  0.00000000E+00  0.00000000E+00  0.00000000E+00
  0.00000000E+00  0.00000000E+00  0.00000000E+00
