Be4 Tl4 Cl20                            
   1.0000000000000000     
     0.0000000000000000    8.4859888248332407   -0.6355601842845978
    11.5259353120043802    0.0000000000000000    0.0000000000000000
     0.0000000000000000    0.2183057202199937  -10.4361819381881755
   Be   Tl   Cl
     4     4    20
Direct
  0.2898117597208696  0.4215453978819355  0.3803789172439593
  0.7101882402791304  0.9215453978819355  0.6196210827560478
  0.9787170220181665  0.9327791455059113  0.2401711679261922
  0.0212829779818478  0.4327791455059113  0.7598288320738078
  0.7863406216372795  0.7338645460056767  0.9227017402521014
  0.2136593783627276  0.2338645460056767  0.0772982597479057
  0.0381363950364531  0.6769071807923979  0.4651316312598297
  0.9618636049635469  0.1769071807923837  0.5348683687401774
  0.3757481144293138  0.9672220368997486  0.1518815250237395
  0.3138910295807307  0.5059150710824483  0.5341267419771043
  0.6861089704192693  0.0059150710824412  0.4658732580228886
  0.0668428979867954  0.5650097656716824  0.8616880409674579
  0.1011027412458958  0.2793515623384906  0.7923161303203941
  0.5350976877164939  0.9853040008365141  0.9932583323894022
  0.8718643416395651  0.4453742823614988  0.6292673463448182
  0.6818634529554970  0.7552360060203114  0.6320355682839960
  0.8988972587540971  0.7793515623384835  0.2076838696796131
  0.1164693351794099  0.8976921973093184  0.7378801142607045
  0.4649023122835061  0.4853040008365141  0.0067416676105978
  0.6242518855706791  0.4672220368997557  0.8481184749762605
  0.7889833415576817  0.0022999860318649  0.7655053724990779
  0.6626805713795392  0.3290978012622077  0.3008803085990124
  0.8835306648205901  0.3976921973093255  0.2621198857392883
  0.1281356583604278  0.9453742823614988  0.3707326536551747
  0.9331571020131975  0.0650097656716824  0.1383119590325421
  0.3373194286204821  0.8290978012622077  0.6991196914009805
  0.3181365470445030  0.2552360060203114  0.3679644317160111
  0.2110166584423112  0.5022999860318791  0.2344946275009221

  0.00000000E+00  0.00000000E+00  0.00000000E+00
  0.00000000E+00  0.00000000E+00  0.00000000E+00
  0.00000000E+00  0.00000000E+00  0.00000000E+00
  0.00000000E+00  0.00000000E+00  0.00000000E+00
  0.00000000E+00  0.00000000E+00  0.00000000E+00
  0.00000000E+00  0.00000000E+00  0.00000000E+00
  0.00000000E+00  0.00000000E+00  0.00000000E+00
  0.00000000E+00  0.00000000E+00  0.00000000E+00
  0.00000000E+00  0.00000000E+00  0.00000000E+00
  0.00000000E+00  0.00000000E+00  0.00000000E+00
  0.00000000E+00  0.00000000E+00  0.00000000E+00
  0.00000000E+00  0.00000000E+00  0.00000000E+00
  0.00000000E+00  0.00000000E+00  0.00000000E+00
  0.00000000E+00  0.00000000E+00  0.00000000E+00
  0.00000000E+00  0.00000000E+00  0.00000000E+00
  0.00000000E+00  0.00000000E+00  0.00000000E+00
  0.00000000E+00  0.00000000E+00  0.00000000E+00
  0.00000000E+00  0.00000000E+00  0.00000000E+00
  0.00000000E+00  0.00000000E+00  0.00000000E+00
  0.00000000E+00  0.00000000E+00  0.00000000E+00
  0.00000000E+00  0.00000000E+00  0.00000000E+00
  0.00000000E+00  0.00000000E+00  0.00000000E+00
  0.00000000E+00  0.00000000E+00  0.00000000E+00
  0.00000000E+00  0.00000000E+00  0.00000000E+00
  0.00000000E+00  0.00000000E+00  0.00000000E+00
  0.00000000E+00  0.00000000E+00  0.00000000E+00
  0.00000000E+00  0.00000000E+00  0.00000000E+00
  0.00000000E+00  0.00000000E+00  0.00000000E+00
