Al1                                     
   1.00000000000000     
     2.8570970493797607   -0.0000000000000230   -0.0000000000000163
     1.4285485246398404    2.4743186258351400    0.0000000000000060
     1.4285485246398404    0.8247728753117323    2.3328099722026874
   Al
     1
Direct
  0.0000000000000000  0.0000000000000000  0.0000000000000000
 
  0.00000000E+00  0.00000000E+00  0.00000000E+00
