Ca2 B2 Br10                             
   1.00000000000000     
     7.1162006186266282   -6.2693136990999410    1.0230548058212325
     7.1162006186266282    6.2693136990999410    1.0230548058212325
    -3.3670602236466709    0.0000000000000000    7.1103199154944887
   Ca   Br   B 
     2    10     2
Direct
  0.5393836881921317  0.4594852984509359  0.2414439768883483
  0.4594852984509359  0.5393836881921317  0.7414439768883483
  0.2983603141285087  0.4591125353297301  0.9615470696507344
  0.2383082024558973  0.9458360039861233  0.1746371062310246
  0.8270284956337974  0.2406798812889832  0.2479201008335821
  0.7964756442321104  0.9540564052665061  0.4057441881418100
  0.5458559861532279  0.6981794727739441  0.5218821032821310
  0.4591125353297301  0.2983603141285087  0.4615470696507415
  0.9458360039861233  0.2383082024558973  0.6746371062310246
  0.2406798812889832  0.8270284956337974  0.7479201008335821
  0.9540564052665061  0.7964756442321104  0.9057441881418029
  0.6981794727739441  0.5458559861532279  0.0218821032821310
  0.1424202236574246  0.8544178484506801  0.9468254549723838
  0.8544178484506801  0.1424202236574246  0.4468254549723838
 
  0.00000000E+00  0.00000000E+00  0.00000000E+00
  0.00000000E+00  0.00000000E+00  0.00000000E+00
  0.00000000E+00  0.00000000E+00  0.00000000E+00
  0.00000000E+00  0.00000000E+00  0.00000000E+00
  0.00000000E+00  0.00000000E+00  0.00000000E+00
  0.00000000E+00  0.00000000E+00  0.00000000E+00
  0.00000000E+00  0.00000000E+00  0.00000000E+00
  0.00000000E+00  0.00000000E+00  0.00000000E+00
  0.00000000E+00  0.00000000E+00  0.00000000E+00
  0.00000000E+00  0.00000000E+00  0.00000000E+00
  0.00000000E+00  0.00000000E+00  0.00000000E+00
  0.00000000E+00  0.00000000E+00  0.00000000E+00
  0.00000000E+00  0.00000000E+00  0.00000000E+00
  0.00000000E+00  0.00000000E+00  0.00000000E+00
