Sr4 In2 F10                             
   1.0000000000000000     
    -3.4891087498263720    3.4891087498263720    5.5405250940188076
     3.4891087498263720   -3.4891087498263720    5.5405250940188076
     3.4891087498263720    3.4891087498263720   -5.5405250940188076
   Sr   In   F 
     4     2    10
Direct
  0.8393376506493198  0.3393376506493198  0.1786753012986537
  0.3393376506493198  0.1606623493506731  0.5000000000000000
  0.1606623493506731  0.6606623493506802  0.8213246987013463
  0.6606623493506802  0.8393376506493198  0.5000000000000000
  0.2500000000000000  0.2500000000000000  0.0000000000000000
  0.7500000000000000  0.7500000000000000  0.0000000000000000
  0.5000000000000000  0.5000000000000000  0.0000000000000000
  0.0000000000000000  0.0000000000000000  0.0000000000000000
  0.5184252420240867  0.0184252420240867  0.7872886282271878
  0.0184252420240867  0.2311366137968847  0.5000000000000000
  0.7311366137968847  0.5184252420240867  0.5000000000000000
  0.9815747579759133  0.7688633862031153  0.5000000000000000
  0.2688633862031153  0.4815747579759133  0.5000000000000000
  0.7688633862031153  0.2688633862031153  0.7872886282271878
  0.4815747579759133  0.9815747579759133  0.2127113717728122
  0.2311366137968847  0.7311366137968847  0.2127113717728122

  0.00000000E+00  0.00000000E+00  0.00000000E+00
  0.00000000E+00  0.00000000E+00  0.00000000E+00
  0.00000000E+00  0.00000000E+00  0.00000000E+00
  0.00000000E+00  0.00000000E+00  0.00000000E+00
  0.00000000E+00  0.00000000E+00  0.00000000E+00
  0.00000000E+00  0.00000000E+00  0.00000000E+00
  0.00000000E+00  0.00000000E+00  0.00000000E+00
  0.00000000E+00  0.00000000E+00  0.00000000E+00
  0.00000000E+00  0.00000000E+00  0.00000000E+00
  0.00000000E+00  0.00000000E+00  0.00000000E+00
  0.00000000E+00  0.00000000E+00  0.00000000E+00
  0.00000000E+00  0.00000000E+00  0.00000000E+00
  0.00000000E+00  0.00000000E+00  0.00000000E+00
  0.00000000E+00  0.00000000E+00  0.00000000E+00
  0.00000000E+00  0.00000000E+00  0.00000000E+00
  0.00000000E+00  0.00000000E+00  0.00000000E+00
