Ga3I                                    
   1.00000000000000     
    -2.2220313638608102    2.2220313638608102    5.3867384755314154
     2.2220313638608102   -2.2220313638608102    5.3867384755314154
     2.2220313638608102    2.2220313638608102   -5.3867384755314154
   Ga   I 
     3     1
Direct
  0.7500000000000000  0.2500000000000000  0.5000000000000000
  0.2500000000000000  0.7500000000000000  0.5000000000000000
  0.5000000000000000  0.5000000000000000  0.0000000000000000
  0.0000000000000000  0.0000000000000000  0.0000000000000000
 
  0.00000000E+00  0.00000000E+00  0.00000000E+00
  0.00000000E+00  0.00000000E+00  0.00000000E+00
  0.00000000E+00  0.00000000E+00  0.00000000E+00
  0.00000000E+00  0.00000000E+00  0.00000000E+00
