BeF                                     
   1.00000000000000     
     1.2449205488771360   -2.1590626766919629   -0.0000578605815912
     1.2449205488771360    2.1590626766919629    0.0000578605815912
     0.0000000000000000    0.0001505670292451    8.2246297623462592
   Be   F 
     2     2
Direct
  0.9998577348650528  0.0001422651349472  0.9921442743530449
  0.3331559086411957  0.6668440913588043  0.4922790238843717
  0.9996486204788226  0.0003513795211774  0.3830451683523179
  0.3333377360149115  0.6666622639850885  0.8829625334102715
 
  0.00000000E+00  0.00000000E+00  0.00000000E+00
  0.00000000E+00  0.00000000E+00  0.00000000E+00
  0.00000000E+00  0.00000000E+00  0.00000000E+00
  0.00000000E+00  0.00000000E+00  0.00000000E+00
