Mg4 Tl10 Br2                            
   1.0000000000000000     
     8.6964126359786569    0.0030054291873414    0.0452001307963004
     0.0047357986645014    8.2571858775033693    0.0129158379408192
     4.3849004738588420    4.1375532836386970    6.6187653468827632
   Br   Mg   Tl
     2     4    10
Direct
  0.7488461669499031  0.7516804736486051  0.5009877177629605
  0.2492990501718069  0.2471593616710237  0.5013571210498000
  0.3567180620978903  0.1441431012193064  0.0005505275858013
  0.8567240240533494  0.3556044440742170  0.9996248655558091
  0.1444196614718649  0.6447400351807318  0.9983720128089502
  0.6430895602960618  0.8559436824546509  0.0006508704084069
  0.9995827261709280  0.9992199618380653  0.0010090208494518
  0.4995591786224054  0.4997776067918451  0.0009918697012878
  0.4957872111969337  0.9925994437814438  0.3175982390987642
  0.9968462733804060  0.1914448992976716  0.3155551891806354
  0.6887053446177589  0.4960544576397083  0.3123518864339019
  0.1872095666213269  0.6909724730263846  0.3131814279596128
  0.8126924181486856  0.3092061673727073  0.6860667997174588
  0.3131538893218959  0.5038280659307190  0.6854072493644381
  0.0027725304648314  0.8090874650677051  0.6832706514133022
  0.5044943364139698  0.0084383610052328  0.6830245511094262

  0.00000000E+00  0.00000000E+00  0.00000000E+00
  0.00000000E+00  0.00000000E+00  0.00000000E+00
  0.00000000E+00  0.00000000E+00  0.00000000E+00
  0.00000000E+00  0.00000000E+00  0.00000000E+00
  0.00000000E+00  0.00000000E+00  0.00000000E+00
  0.00000000E+00  0.00000000E+00  0.00000000E+00
  0.00000000E+00  0.00000000E+00  0.00000000E+00
  0.00000000E+00  0.00000000E+00  0.00000000E+00
  0.00000000E+00  0.00000000E+00  0.00000000E+00
  0.00000000E+00  0.00000000E+00  0.00000000E+00
  0.00000000E+00  0.00000000E+00  0.00000000E+00
  0.00000000E+00  0.00000000E+00  0.00000000E+00
  0.00000000E+00  0.00000000E+00  0.00000000E+00
  0.00000000E+00  0.00000000E+00  0.00000000E+00
  0.00000000E+00  0.00000000E+00  0.00000000E+00
  0.00000000E+00  0.00000000E+00  0.00000000E+00
