Sr4 B10 I2                              
   1.00000000000000     
     7.2712474047532725   -0.4668902669995880    2.7728879715970765
    -4.3207743679294657    7.2952761646283282    0.1127041148469790
    -1.4846961137237555   -1.8247387832794797    5.3893046871045298
   I    Sr   B 
     2     4    10
Direct
  0.9601838127844999  0.0889972239927417  0.3818755688257554
  0.1760231115225466  0.9565234120914994  0.8471410095151413
  0.9641690931474542  0.6642369143167102  0.3379745911025651
  0.4817429290811077  0.1652223307741210  0.3518638050181622
  0.5738794611062943  0.8997061700207425  0.7848592330961424
  0.1520028671343567  0.3613666383691552  0.8472533738018413
  0.5170659432358491  0.5247010885721295  0.5047880409403049
  0.4629738252668645  0.6689445519888153  0.1337673957511996
  0.3738483567674749  0.7722704248940815  0.3064799124051305
  0.5458541861734787  0.5191703561456222  0.2144633383405647
  0.4132615480332262  0.6308997275451276  0.4208198370218739
  0.7685244355192964  0.3213707952591847  0.9699640512438350
  0.6272566875765477  0.4951131087714842  0.6994539698733249
  0.5768556238594940  0.5902618339663519  0.9595199191539550
  0.7601212779182518  0.3989506066928428  0.7490425031944454
  0.6462368408732573  0.4420648165993697  0.9905334507157590
 
  0.00000000E+00  0.00000000E+00  0.00000000E+00
  0.00000000E+00  0.00000000E+00  0.00000000E+00
  0.00000000E+00  0.00000000E+00  0.00000000E+00
  0.00000000E+00  0.00000000E+00  0.00000000E+00
  0.00000000E+00  0.00000000E+00  0.00000000E+00
  0.00000000E+00  0.00000000E+00  0.00000000E+00
  0.00000000E+00  0.00000000E+00  0.00000000E+00
  0.00000000E+00  0.00000000E+00  0.00000000E+00
  0.00000000E+00  0.00000000E+00  0.00000000E+00
  0.00000000E+00  0.00000000E+00  0.00000000E+00
  0.00000000E+00  0.00000000E+00  0.00000000E+00
  0.00000000E+00  0.00000000E+00  0.00000000E+00
  0.00000000E+00  0.00000000E+00  0.00000000E+00
  0.00000000E+00  0.00000000E+00  0.00000000E+00
  0.00000000E+00  0.00000000E+00  0.00000000E+00
  0.00000000E+00  0.00000000E+00  0.00000000E+00
