Ca1 Tl4                                 
   1.0000000000000000     
    -3.2570094333610728   -3.3009041532923957   -0.0169048781126235
     3.2570094333610728   -3.3009041532923957    0.0169048781126235
    -3.0643527685764451    0.0000000000000000    7.7646201893401123
   Ca   Tl
     1     4
Direct
  0.0000000000000000  0.0000000000000000  0.0000000000000000
  0.4011171929941995  0.5988828070058005  0.1988776897265154
  0.2467593494037388  0.2467593494037388  0.5000000000000000
  0.7532406505962612  0.7532406505962612  0.5000000000000000
  0.5988828070058005  0.4011171929941995  0.8011223102734846

  0.00000000E+00  0.00000000E+00  0.00000000E+00
  0.00000000E+00  0.00000000E+00  0.00000000E+00
  0.00000000E+00  0.00000000E+00  0.00000000E+00
  0.00000000E+00  0.00000000E+00  0.00000000E+00
  0.00000000E+00  0.00000000E+00  0.00000000E+00
