Mg8 Al4 Cl28                            
   1.00000000000000     
     7.0319262144875099    0.0052252651830313    1.2512730964093293
     0.0130839712973158   15.4753242551733958   -0.0090159110784719
     1.7648680432656887   -0.0062159273195537    9.6523509253069957
   Cl   Al   Mg
    28     4     8
Direct
  0.2302388768367507  0.8512795881861450  0.0083338125870043
  0.5863040267167605  0.5846337345792634  0.0442255207619908
  0.1062153564556994  0.6041623473875646  0.9823898421231618
  0.3170797275396140  0.0498748482909974  0.1542122424250678
  0.0763131098634702  0.2640404899973348  0.2014434965319154
  0.4999238786708133  0.2468593594563444  0.2657472011963549
  0.7912773988397532  0.9903899165179126  0.1993769340908145
  0.2095723703351666  0.4900420387452513  0.3002384640365250
  0.4989161957352835  0.7467919039094184  0.2364090131327572
  0.9248242736632406  0.7641171879903368  0.2966653150016114
  0.6823369382765279  0.5498556867058326  0.3461512585260778
  0.8935732470595212  0.1045128213031887  0.5180680931344526
  0.4127530303610882  0.0842965607384158  0.4561180847963655
  0.7729040366931343  0.3514188189463283  0.4912101466982861
  0.2270482370799343  0.6485960368614130  0.5087958554097582
  0.5873099369999153  0.9156947400700588  0.5438576269927395
  0.1064771786741900  0.8954759400169081  0.4819016162639684
  0.3176550723898117  0.4501660044123170  0.6538766926871986
  0.0752240932609638  0.2358739293833594  0.7032987499159589
  0.5010970114655038  0.2532268405483435  0.7636203070038192
  0.7904519684080640  0.5099673449857605  0.6997629187475027
  0.2087756582924598  0.0096003618350480  0.8005921859501655
  0.5001381631734105  0.7531342244038584  0.7342381318914875
  0.9237285482452222  0.7359726482115008  0.7985975726097436
  0.6829742339294569  0.9501211226709287  0.8457650082649906
  0.8938049639116059  0.3958360980961473  0.0176379453483761
  0.4137336960929261  0.4153942858071105  0.9557895640952481
  0.7698390205621806  0.1487157923294760  0.9916471012155625
  0.5698931500604800  0.1012741025237531  0.2168428440862868
  0.4292773993992540  0.6012365896401377  0.2835926448427344
  0.5707282295262175  0.3987856660283668  0.7164182474969749
  0.4301672724668322  0.8987224415512287  0.7831314867822528
  0.8217487868860900  0.6987273755009369  0.0611707604887854
  0.9234117100859081  0.4189921106991292  0.2504960412004635
  0.0778321887037734  0.9191594854626572  0.2488577995211116
  0.1774726188580615  0.1988591324288933  0.4403860598509226
  0.8225836668400532  0.8011335905810313  0.5596028932848824
  0.9222207809136904  0.0808367087265793  0.7511099629802871
  0.0765892988875549  0.5810293993324365  0.7495306666980355
  0.1783046478396244  0.3012927251383175  0.9388898913283725
 
  0.00000000E+00  0.00000000E+00  0.00000000E+00
  0.00000000E+00  0.00000000E+00  0.00000000E+00
  0.00000000E+00  0.00000000E+00  0.00000000E+00
  0.00000000E+00  0.00000000E+00  0.00000000E+00
  0.00000000E+00  0.00000000E+00  0.00000000E+00
  0.00000000E+00  0.00000000E+00  0.00000000E+00
  0.00000000E+00  0.00000000E+00  0.00000000E+00
  0.00000000E+00  0.00000000E+00  0.00000000E+00
  0.00000000E+00  0.00000000E+00  0.00000000E+00
  0.00000000E+00  0.00000000E+00  0.00000000E+00
  0.00000000E+00  0.00000000E+00  0.00000000E+00
  0.00000000E+00  0.00000000E+00  0.00000000E+00
  0.00000000E+00  0.00000000E+00  0.00000000E+00
  0.00000000E+00  0.00000000E+00  0.00000000E+00
  0.00000000E+00  0.00000000E+00  0.00000000E+00
  0.00000000E+00  0.00000000E+00  0.00000000E+00
  0.00000000E+00  0.00000000E+00  0.00000000E+00
  0.00000000E+00  0.00000000E+00  0.00000000E+00
  0.00000000E+00  0.00000000E+00  0.00000000E+00
  0.00000000E+00  0.00000000E+00  0.00000000E+00
  0.00000000E+00  0.00000000E+00  0.00000000E+00
  0.00000000E+00  0.00000000E+00  0.00000000E+00
  0.00000000E+00  0.00000000E+00  0.00000000E+00
  0.00000000E+00  0.00000000E+00  0.00000000E+00
  0.00000000E+00  0.00000000E+00  0.00000000E+00
  0.00000000E+00  0.00000000E+00  0.00000000E+00
  0.00000000E+00  0.00000000E+00  0.00000000E+00
  0.00000000E+00  0.00000000E+00  0.00000000E+00
  0.00000000E+00  0.00000000E+00  0.00000000E+00
  0.00000000E+00  0.00000000E+00  0.00000000E+00
  0.00000000E+00  0.00000000E+00  0.00000000E+00
  0.00000000E+00  0.00000000E+00  0.00000000E+00
  0.00000000E+00  0.00000000E+00  0.00000000E+00
  0.00000000E+00  0.00000000E+00  0.00000000E+00
  0.00000000E+00  0.00000000E+00  0.00000000E+00
  0.00000000E+00  0.00000000E+00  0.00000000E+00
  0.00000000E+00  0.00000000E+00  0.00000000E+00
  0.00000000E+00  0.00000000E+00  0.00000000E+00
  0.00000000E+00  0.00000000E+00  0.00000000E+00
  0.00000000E+00  0.00000000E+00  0.00000000E+00
