Ba22 B14                                
   1.00000000000000     
     0.0000000000000000    8.1632557686370699    8.1632557686370699
     8.1632557686370699    0.0000000000000000    8.1632557686370699
     8.1632557686370699    8.1632557686370699    0.0000000000000000
   Ba   B 
    22    14
Direct
  0.6639174539454018  0.3360825460545982  0.0000000000000000
  0.6639174539454018  0.0000000000000000  0.0000000000000000
  0.0852409191150088  0.6382530269616709  0.6382530269616709
  0.0000000000000000  0.6639174539454018  0.3360825460545982
  0.0000000000000000  0.3360825460545982  0.6639174539454018
  0.3617469730383291  0.3617469730383291  0.3617469730383291
  0.0000000000000000  0.6639174539454018  0.0000000000000000
  0.6382530269616709  0.6382530269616709  0.0852409191150088
  0.0000000000000000  0.0000000000000000  0.6639174539454018
  0.6382530269616709  0.0852409191150088  0.6382530269616709
  0.0000000000000000  0.0000000000000000  0.3360825460545982
  0.3360825460545982  0.0000000000000000  0.0000000000000000
  0.0000000000000000  0.3360825460545982  0.0000000000000000
  0.6639174539454018  0.0000000000000000  0.3360825460545982
  0.5000000000000000  0.5000000000000000  0.5000000000000000
  0.3617469730383291  0.9147590808849912  0.3617469730383291
  0.3617469730383291  0.3617469730383291  0.9147590808849912
  0.3360825460545982  0.6639174539454018  0.0000000000000000
  0.3360825460545982  0.0000000000000000  0.6639174539454018
  0.6382530269616709  0.6382530269616709  0.6382530269616709
  0.0000000000000000  0.0000000000000000  0.0000000000000000
  0.9147590808849912  0.3617469730383291  0.3617469730383291
  0.2595262904796485  0.2595262904796485  0.7404737095203515
  0.7404737095203515  0.7404737095203515  0.2595262904796485
  0.7886268944831656  0.6341193165504961  0.7886268944831656
  0.7404737095203515  0.2595262904796485  0.2595262904796485
  0.3658806834494968  0.2113731055168344  0.2113731055168344
  0.2595262904796485  0.7404737095203515  0.7404737095203515
  0.2113731055168344  0.2113731055168344  0.2113731055168344
  0.2113731055168344  0.3658806834494968  0.2113731055168344
  0.6341193165504961  0.7886268944831656  0.7886268944831656
  0.7886268944831656  0.7886268944831656  0.7886268944831656
  0.7404737095203515  0.2595262904796485  0.7404737095203515
  0.2113731055168344  0.2113731055168344  0.3658806834494968
  0.2595262904796485  0.7404737095203515  0.2595262904796485
  0.7886268944831656  0.7886268944831656  0.6341193165504961
 
  0.00000000E+00  0.00000000E+00  0.00000000E+00
  0.00000000E+00  0.00000000E+00  0.00000000E+00
  0.00000000E+00  0.00000000E+00  0.00000000E+00
  0.00000000E+00  0.00000000E+00  0.00000000E+00
  0.00000000E+00  0.00000000E+00  0.00000000E+00
  0.00000000E+00  0.00000000E+00  0.00000000E+00
  0.00000000E+00  0.00000000E+00  0.00000000E+00
  0.00000000E+00  0.00000000E+00  0.00000000E+00
  0.00000000E+00  0.00000000E+00  0.00000000E+00
  0.00000000E+00  0.00000000E+00  0.00000000E+00
  0.00000000E+00  0.00000000E+00  0.00000000E+00
  0.00000000E+00  0.00000000E+00  0.00000000E+00
  0.00000000E+00  0.00000000E+00  0.00000000E+00
  0.00000000E+00  0.00000000E+00  0.00000000E+00
  0.00000000E+00  0.00000000E+00  0.00000000E+00
  0.00000000E+00  0.00000000E+00  0.00000000E+00
  0.00000000E+00  0.00000000E+00  0.00000000E+00
  0.00000000E+00  0.00000000E+00  0.00000000E+00
  0.00000000E+00  0.00000000E+00  0.00000000E+00
  0.00000000E+00  0.00000000E+00  0.00000000E+00
  0.00000000E+00  0.00000000E+00  0.00000000E+00
  0.00000000E+00  0.00000000E+00  0.00000000E+00
  0.00000000E+00  0.00000000E+00  0.00000000E+00
  0.00000000E+00  0.00000000E+00  0.00000000E+00
  0.00000000E+00  0.00000000E+00  0.00000000E+00
  0.00000000E+00  0.00000000E+00  0.00000000E+00
  0.00000000E+00  0.00000000E+00  0.00000000E+00
  0.00000000E+00  0.00000000E+00  0.00000000E+00
  0.00000000E+00  0.00000000E+00  0.00000000E+00
  0.00000000E+00  0.00000000E+00  0.00000000E+00
  0.00000000E+00  0.00000000E+00  0.00000000E+00
  0.00000000E+00  0.00000000E+00  0.00000000E+00
  0.00000000E+00  0.00000000E+00  0.00000000E+00
  0.00000000E+00  0.00000000E+00  0.00000000E+00
  0.00000000E+00  0.00000000E+00  0.00000000E+00
  0.00000000E+00  0.00000000E+00  0.00000000E+00
