Al3Br                                   
   1.00000000000000     
    -2.1307634028718296    2.1307634028718296    4.7466324994535452
     2.1307634028718296   -2.1307634028718296    4.7466324994535452
     2.1307634028718296    2.1307634028718296   -4.7466324994535452
   Al   Br
     3     1
Direct
  0.5000000000000000  0.5000000000000000  0.0000000000000000
  0.7500000000000000  0.2500000000000000  0.5000000000000000
  0.2500000000000000  0.7500000000000000  0.5000000000000000
  0.0000000000000000  0.0000000000000000  0.0000000000000000
 
  0.00000000E+00  0.00000000E+00  0.00000000E+00
  0.00000000E+00  0.00000000E+00  0.00000000E+00
  0.00000000E+00  0.00000000E+00  0.00000000E+00
  0.00000000E+00  0.00000000E+00  0.00000000E+00
