Mg2 B2 F10                              
   1.00000000000000     
     4.3954780970675529   -0.0076486555739425    1.7214926909937216
     0.9557718267110643    4.2903128926691476    1.7214926187223318
     0.0268470629387692    0.0214871747084490    6.7929996500167649
   Mg   B    F 
     2     2    10
Direct
  0.4546824315561082  0.5453175684323455  0.2500000000058122
  0.5453175684438918  0.4546824315676545  0.7499999999941878
  0.0000000000000000  0.0000000000000000  0.5000000000000000
  0.0000000000000000  0.0000000000000000  0.0000000000000000
  0.8136345254591930  0.7531113730315937  0.6173611168162907
  0.2468886271791604  0.1863644743517128  0.8826388831717580
  0.1863644745408095  0.2468886269684063  0.3826398831837210
  0.7531113728208396  0.8136345256482898  0.1173611168282420
  0.9171670105965859  0.0828329893933315  0.7499999999862652
  0.0828329894034141  0.9171670106066685  0.2500000000137348
  0.7375047331926936  0.3129027660634804  0.0306293294484803
  0.6870972338379104  0.2624952666340334  0.4693706707027445
  0.2624952668073064  0.6870972339365196  0.9693706705515197
  0.3129027661620896  0.7375047333659666  0.5306293292972555
 
  0.00000000E+00  0.00000000E+00  0.00000000E+00
  0.00000000E+00  0.00000000E+00  0.00000000E+00
  0.00000000E+00  0.00000000E+00  0.00000000E+00
  0.00000000E+00  0.00000000E+00  0.00000000E+00
  0.00000000E+00  0.00000000E+00  0.00000000E+00
  0.00000000E+00  0.00000000E+00  0.00000000E+00
  0.00000000E+00  0.00000000E+00  0.00000000E+00
  0.00000000E+00  0.00000000E+00  0.00000000E+00
  0.00000000E+00  0.00000000E+00  0.00000000E+00
  0.00000000E+00  0.00000000E+00  0.00000000E+00
  0.00000000E+00  0.00000000E+00  0.00000000E+00
  0.00000000E+00  0.00000000E+00  0.00000000E+00
  0.00000000E+00  0.00000000E+00  0.00000000E+00
  0.00000000E+00  0.00000000E+00  0.00000000E+00
