Ca4 Al2 Br10                            
   1.00000000000000     
     8.7424807400039786   -0.1301572392625056    0.7573422884434879
    -0.0930054684919887    8.1017665448720049   -0.0201299696872971
     4.9862923539279960    3.9077578562579434    8.0150754950405823
   Br   Ca   Al
    10     4     2
Direct
  0.9965367224637802  0.0031461389026148  0.0008348116393506
  0.5016200699892295  0.5001905041446051  0.0001096408230623
  0.5365674666006370  0.0208853599864085  0.2931811616145907
  0.0206847149163067  0.2007806326781250  0.2810416292587519
  0.7488064022031224  0.5084980345175012  0.2151172218685531
  0.2530662497950118  0.7904612630813332  0.2084050303668690
  0.7456155794116981  0.2088724678115668  0.7924068869043381
  0.2562247831209135  0.4932958255546538  0.7822809719705219
  0.9823450737498334  0.7994881089332182  0.7173616095126150
  0.4577797510407535  0.9799542130742154  0.7111930672348876
  0.3336665848416800  0.1781034015420815  0.9681198860034073
  0.8369880702911559  0.3646416114912014  0.9637498007341989
  0.1664739154031807  0.6302565490856296  0.0376482607741551
  0.6665539446282978  0.8196359876524753  0.0293715321821466
  0.2576736892399865  0.1270553533271652  0.5600812680512206
  0.7390969823043960  0.8744345482172093  0.4390972210613313
 
  0.00000000E+00  0.00000000E+00  0.00000000E+00
  0.00000000E+00  0.00000000E+00  0.00000000E+00
  0.00000000E+00  0.00000000E+00  0.00000000E+00
  0.00000000E+00  0.00000000E+00  0.00000000E+00
  0.00000000E+00  0.00000000E+00  0.00000000E+00
  0.00000000E+00  0.00000000E+00  0.00000000E+00
  0.00000000E+00  0.00000000E+00  0.00000000E+00
  0.00000000E+00  0.00000000E+00  0.00000000E+00
  0.00000000E+00  0.00000000E+00  0.00000000E+00
  0.00000000E+00  0.00000000E+00  0.00000000E+00
  0.00000000E+00  0.00000000E+00  0.00000000E+00
  0.00000000E+00  0.00000000E+00  0.00000000E+00
  0.00000000E+00  0.00000000E+00  0.00000000E+00
  0.00000000E+00  0.00000000E+00  0.00000000E+00
  0.00000000E+00  0.00000000E+00  0.00000000E+00
  0.00000000E+00  0.00000000E+00  0.00000000E+00
