MgInBr3                                 
   1.0000000000000000     
     9.7669452882270260    0.0000000000000000   -0.0005257205278265
     0.0000000000000000    4.0036111135466488    0.0000000000000000
    -0.0010839497513522    0.0000000000000000   15.6905648896948584
   Br   In   Mg
    12     4     4
Direct
  0.1776935880279709  0.2500000000000000  0.0027282347234063
  0.4796583399788332  0.7500000000000000  0.0988508098750884
  0.7670110376060322  0.2500000000000000  0.2063509642458001
  0.2671576930563617  0.2500000000000000  0.2937505765335473
  0.9796890404157210  0.7500000000000000  0.4011424126824465
  0.6776881863133752  0.2500000000000000  0.4974339626124404
  0.3222405011451386  0.7500000000000000  0.5027132333346458
  0.0204026423876513  0.2500000000000000  0.5988295273050639
  0.7329164622130691  0.7500000000000000  0.7062876283735520
  0.2327591489679222  0.7500000000000000  0.7937862732705838
  0.5202317406728625  0.2500000000000000  0.9012147486758195
  0.8223179679239436  0.7500000000000000  0.9974813568385059
  0.0096230503078658  0.7500000000000000  0.1731984884228694
  0.5098184870196860  0.7500000000000000  0.3266851002033562
  0.4902614949550852  0.2500000000000000  0.6731627631720585
  0.9901385489341905  0.2500000000000000  0.8267162919888804
  0.6587691261359865  0.2500000000000000  0.0525135428601331
  0.1588207771850563  0.2500000000000000  0.4474658970058769
  0.8412266375789912  0.7500000000000000  0.5524840774217168
  0.3410755291742404  0.7500000000000000  0.9475341104542210

  0.00000000E+00  0.00000000E+00  0.00000000E+00
  0.00000000E+00  0.00000000E+00  0.00000000E+00
  0.00000000E+00  0.00000000E+00  0.00000000E+00
  0.00000000E+00  0.00000000E+00  0.00000000E+00
  0.00000000E+00  0.00000000E+00  0.00000000E+00
  0.00000000E+00  0.00000000E+00  0.00000000E+00
  0.00000000E+00  0.00000000E+00  0.00000000E+00
  0.00000000E+00  0.00000000E+00  0.00000000E+00
  0.00000000E+00  0.00000000E+00  0.00000000E+00
  0.00000000E+00  0.00000000E+00  0.00000000E+00
  0.00000000E+00  0.00000000E+00  0.00000000E+00
  0.00000000E+00  0.00000000E+00  0.00000000E+00
  0.00000000E+00  0.00000000E+00  0.00000000E+00
  0.00000000E+00  0.00000000E+00  0.00000000E+00
  0.00000000E+00  0.00000000E+00  0.00000000E+00
  0.00000000E+00  0.00000000E+00  0.00000000E+00
  0.00000000E+00  0.00000000E+00  0.00000000E+00
  0.00000000E+00  0.00000000E+00  0.00000000E+00
  0.00000000E+00  0.00000000E+00  0.00000000E+00
  0.00000000E+00  0.00000000E+00  0.00000000E+00
