Be4 B4 Cl20                             
   1.0000000000000000     
     0.0000000000000000    9.3431542770842615   -0.6017766723147397
    12.3901571641103754    0.0000000000000000    0.0000000000000000
     0.0000000000000000    0.4246060311117207   -9.1756918735647996
   Be   B    Cl
     4     4    20
Direct
  0.4757276829160801  0.3577961822287037  0.3645897701199132
  0.5242723170839270  0.8577961822287037  0.6354102298800868
  0.9851134796066603  0.0685470795420855  0.1975041395691264
  0.0148865203933468  0.5685470795420926  0.8024958604308736
  0.5043569789561673  0.8212764441975153  0.0887423724197447
  0.4956430210438327  0.3212764441975153  0.9112576275802553
  0.9926295747141509  0.6077933373749715  0.5200927859355673
  0.0073704252858491  0.1077933373749715  0.4799072140644327
  0.1279980746575760  0.0338452997773189  0.5772942070722351
  0.1174034531940435  0.5061724037328261  0.6211246688560763
  0.8825965468059565  0.0061724037328261  0.3788753311439166
  0.6839951532552604  0.7837613224307418  0.0874319859606345
  0.0332328664036723  0.5449666423854538  0.9959849897612330
  0.4389085505476729  0.9352853281202087  0.1862765662686314
  0.9003694822943018  0.2095920547225276  0.5730808448798541
  0.5077585825044224  0.7314787692600504  0.5411687722587999
  0.9667671335963277  0.0449666423854538  0.0040150102387742
  0.8884768308171900  0.6682622777010110  0.7057530392406903
  0.5610914494523271  0.4352853281202087  0.8137234337313686
  0.8720019253424240  0.5338452997773260  0.4227057929277649
  0.5489347904473121  0.9846726291073935  0.7256113163623894
  0.6110148509350850  0.2441492094191773  0.0068909397444727
  0.1115231691828100  0.1682622777010110  0.2942469607593026
  0.0996305177056982  0.7095920547225276  0.4269191551201459
  0.3160048467447325  0.2837613224307418  0.9125680140393584
  0.3889851490649150  0.7441492094191773  0.9931090602555344
  0.4922414174955776  0.2314787692600504  0.4588312277412001
  0.4510652095526879  0.4846726291073935  0.2743886836376106

  0.00000000E+00  0.00000000E+00  0.00000000E+00
  0.00000000E+00  0.00000000E+00  0.00000000E+00
  0.00000000E+00  0.00000000E+00  0.00000000E+00
  0.00000000E+00  0.00000000E+00  0.00000000E+00
  0.00000000E+00  0.00000000E+00  0.00000000E+00
  0.00000000E+00  0.00000000E+00  0.00000000E+00
  0.00000000E+00  0.00000000E+00  0.00000000E+00
  0.00000000E+00  0.00000000E+00  0.00000000E+00
  0.00000000E+00  0.00000000E+00  0.00000000E+00
  0.00000000E+00  0.00000000E+00  0.00000000E+00
  0.00000000E+00  0.00000000E+00  0.00000000E+00
  0.00000000E+00  0.00000000E+00  0.00000000E+00
  0.00000000E+00  0.00000000E+00  0.00000000E+00
  0.00000000E+00  0.00000000E+00  0.00000000E+00
  0.00000000E+00  0.00000000E+00  0.00000000E+00
  0.00000000E+00  0.00000000E+00  0.00000000E+00
  0.00000000E+00  0.00000000E+00  0.00000000E+00
  0.00000000E+00  0.00000000E+00  0.00000000E+00
  0.00000000E+00  0.00000000E+00  0.00000000E+00
  0.00000000E+00  0.00000000E+00  0.00000000E+00
  0.00000000E+00  0.00000000E+00  0.00000000E+00
  0.00000000E+00  0.00000000E+00  0.00000000E+00
  0.00000000E+00  0.00000000E+00  0.00000000E+00
  0.00000000E+00  0.00000000E+00  0.00000000E+00
  0.00000000E+00  0.00000000E+00  0.00000000E+00
  0.00000000E+00  0.00000000E+00  0.00000000E+00
  0.00000000E+00  0.00000000E+00  0.00000000E+00
  0.00000000E+00  0.00000000E+00  0.00000000E+00
