Sr16 Ga12 Cl1                           
   1.00000000000000     
     8.7992028776461488   -5.0802738075431559    3.5953443280634145
    -0.0020346240525433   10.1503313698579269    3.5862204433987985
    -8.7914013767091568   -5.0729946462767055    3.5862440975697996
   Ga   Cl   Sr
    12     1    16
Direct
  0.8157417266118827  0.6147762964538970  0.9999565313234910
  0.6173530162837153  0.8223367091221547  0.0000112344344245
  0.3707863336690664  0.3874802909929755  0.2319132480081691
  0.1388209361100792  0.7679455574320926  0.1554015827584010
  0.7950845875360883  0.1781334654715536  0.1781334660583838
  0.3707863241560716  0.2319132537344117  0.3874802581914025
  0.2008593831432535  0.3853105678663908  0.3853105575450257
  0.8157417339623407  0.9999565411067977  0.6147763193756361
  0.9833813435568359  0.8441662140093484  0.6120807035818530
  0.6173530184096592  0.0000112334290279  0.8223367097985488
  0.9833813325054734  0.6120806635752203  0.8441662091634896
  0.1388209568380816  0.1554016169543289  0.7679455952062000
  0.4324937081480726  0.0000732771856633  0.0000732750489121
  0.9875249144641174  0.2199802472920425  0.0000905176396699
  0.5178787794399042  0.2815951794605809  0.9998873438213849
  0.2580184596107102  0.5306983840907762  0.0001039772803750
  0.1783330528034952  0.9999209011839909  0.9999219005450755
  0.7144858776969372  0.7327488815463994  0.2728873778052900
  0.5178788221407302  0.9998883837351187  0.2815952589512918
  0.9818896131065742  0.5405143242657999  0.2674669247286445
  0.9875249340541572  0.0000905338208597  0.2199802835483311
  0.7268630618076557  0.4689536198027469  0.4689536371441179
  0.4417012394784123  0.7269971991466662  0.4599656609833005
  0.9818896020343146  0.2674669149868620  0.5405143078854238
  0.2580184402991677  0.0001039612227629  0.5306983461992942
  0.7679575863674373  0.7801492042258076  0.7801491876702613
  0.7144858859565915  0.2728873951578876  0.7327488891952214
  0.2364440875621341  0.7184545291942754  0.7184544886421165
  0.4417012422470066  0.4599656535336010  0.7269972074662334
 
  0.00000000E+00  0.00000000E+00  0.00000000E+00
  0.00000000E+00  0.00000000E+00  0.00000000E+00
  0.00000000E+00  0.00000000E+00  0.00000000E+00
  0.00000000E+00  0.00000000E+00  0.00000000E+00
  0.00000000E+00  0.00000000E+00  0.00000000E+00
  0.00000000E+00  0.00000000E+00  0.00000000E+00
  0.00000000E+00  0.00000000E+00  0.00000000E+00
  0.00000000E+00  0.00000000E+00  0.00000000E+00
  0.00000000E+00  0.00000000E+00  0.00000000E+00
  0.00000000E+00  0.00000000E+00  0.00000000E+00
  0.00000000E+00  0.00000000E+00  0.00000000E+00
  0.00000000E+00  0.00000000E+00  0.00000000E+00
  0.00000000E+00  0.00000000E+00  0.00000000E+00
  0.00000000E+00  0.00000000E+00  0.00000000E+00
  0.00000000E+00  0.00000000E+00  0.00000000E+00
  0.00000000E+00  0.00000000E+00  0.00000000E+00
  0.00000000E+00  0.00000000E+00  0.00000000E+00
  0.00000000E+00  0.00000000E+00  0.00000000E+00
  0.00000000E+00  0.00000000E+00  0.00000000E+00
  0.00000000E+00  0.00000000E+00  0.00000000E+00
  0.00000000E+00  0.00000000E+00  0.00000000E+00
  0.00000000E+00  0.00000000E+00  0.00000000E+00
  0.00000000E+00  0.00000000E+00  0.00000000E+00
  0.00000000E+00  0.00000000E+00  0.00000000E+00
  0.00000000E+00  0.00000000E+00  0.00000000E+00
  0.00000000E+00  0.00000000E+00  0.00000000E+00
  0.00000000E+00  0.00000000E+00  0.00000000E+00
  0.00000000E+00  0.00000000E+00  0.00000000E+00
  0.00000000E+00  0.00000000E+00  0.00000000E+00
