Ca2 In2 Cl10                            
   1.00000000000000     
     6.6014474762835613    0.0474488827286158    2.4953314719111335
     1.4929509615763761    6.4305871833981962    2.4953314620042941
     0.0195581737569859    0.0156545047519789    9.8983818455957380
   Ca   In   Cl
     2     2    10
Direct
  0.4521081895128489  0.5478918104919472  0.2499999999955236
  0.5478918104871511  0.4521081895080528  0.7500000000044764
  0.0000000000000000  0.0000000000000000  0.5000000000000000
  0.0000000000000000  0.0000000000000000  0.0000000000000000
  0.7750763630069528  0.7439051164788069  0.6268875918382406
  0.2560948835688777  0.2249226369483281  0.8731124081600825
  0.2249226369930497  0.2560948835211931  0.3731134081617640
  0.7439051164311223  0.7750763630516744  0.1268875918399175
  0.8993506929163217  0.1006493070435681  0.7500000000004547
  0.1006493070836783  0.8993506929564319  0.2499999999995453
  0.7037913636160553  0.3175789290048385  0.0330291554687676
  0.6824210709394265  0.2962086363631897  0.4669708445707457
  0.2962086363839447  0.6824210709951615  0.9669708445312324
  0.3175789290605735  0.7037913636368103  0.5330291554292543
 
  0.00000000E+00  0.00000000E+00  0.00000000E+00
  0.00000000E+00  0.00000000E+00  0.00000000E+00
  0.00000000E+00  0.00000000E+00  0.00000000E+00
  0.00000000E+00  0.00000000E+00  0.00000000E+00
  0.00000000E+00  0.00000000E+00  0.00000000E+00
  0.00000000E+00  0.00000000E+00  0.00000000E+00
  0.00000000E+00  0.00000000E+00  0.00000000E+00
  0.00000000E+00  0.00000000E+00  0.00000000E+00
  0.00000000E+00  0.00000000E+00  0.00000000E+00
  0.00000000E+00  0.00000000E+00  0.00000000E+00
  0.00000000E+00  0.00000000E+00  0.00000000E+00
  0.00000000E+00  0.00000000E+00  0.00000000E+00
  0.00000000E+00  0.00000000E+00  0.00000000E+00
  0.00000000E+00  0.00000000E+00  0.00000000E+00
