Ba17 Ga12                               
   1.00000000000000     
    -6.3384653631082104   -6.3384653631082104    6.3465442079284582
    -6.3384653631082104    6.3465442079284582   -6.3384653631082104
     6.3465442079284582   -6.3384653631082104   -6.3384653631082104
   Ga   Ba
    12    17
Direct
  0.3753195277464272  0.1542562794889051  0.0000075901681740
  0.1542562794889051  0.3753195277464272  0.0000075901681740
  0.8450454752023688  0.8450454752023688  0.2202140417466438
  0.3753195277464272  0.0000075901681740  0.1542562794889051
  0.0000075901681740  0.3753195277464272  0.1542562794889051
  0.1542562794889051  0.0000075901681740  0.3753195277464272
  0.0000075901681740  0.1542562794889051  0.3753195277464272
  0.7790943327926598  0.6247358830095990  0.6247358830095990
  0.6247358830095990  0.7790943327926598  0.6247358830095990
  0.8450454752023688  0.2202140417466438  0.8450454752023688
  0.2202140417466438  0.8450454752023688  0.8450454752023688
  0.6247358830095990  0.6247358830095990  0.7790943327926598
  0.9993926861973463  0.9993926861973463  0.9993926861973463
  0.6920998583539060  0.0005933872080846  0.0005933872080846
  0.7054112748275614  0.4326794766724049  0.0000911043286820
  0.0005933872080846  0.6920998583539060  0.0005933872080846
  0.4326794766724049  0.7054112748275614  0.0000911043286820
  0.5669024707393859  0.5669024707393859  0.2718165926534510
  0.7277148274248120  0.2956864082742143  0.2956864082742143
  0.2956864082742143  0.7277148274248120  0.2956864082742143
  0.3082099054995524  0.3082099054995524  0.3082099054995524
  0.7054112748275614  0.0000911043286820  0.4326794766724049
  0.0000911043286820  0.7054112748275614  0.4326794766724049
  0.5669024707393859  0.2718165926534510  0.5669024707393859
  0.2718165926534510  0.5669024707393859  0.5669024707393859
  0.0005933872080846  0.0005933872080846  0.6920998583539060
  0.4326794766724049  0.0000911043286820  0.7054112748275614
  0.0000911043286820  0.4326794766724049  0.7054112748275614
  0.2956864082742143  0.2956864082742143  0.7277148274248120
 
  0.00000000E+00  0.00000000E+00  0.00000000E+00
  0.00000000E+00  0.00000000E+00  0.00000000E+00
  0.00000000E+00  0.00000000E+00  0.00000000E+00
  0.00000000E+00  0.00000000E+00  0.00000000E+00
  0.00000000E+00  0.00000000E+00  0.00000000E+00
  0.00000000E+00  0.00000000E+00  0.00000000E+00
  0.00000000E+00  0.00000000E+00  0.00000000E+00
  0.00000000E+00  0.00000000E+00  0.00000000E+00
  0.00000000E+00  0.00000000E+00  0.00000000E+00
  0.00000000E+00  0.00000000E+00  0.00000000E+00
  0.00000000E+00  0.00000000E+00  0.00000000E+00
  0.00000000E+00  0.00000000E+00  0.00000000E+00
  0.00000000E+00  0.00000000E+00  0.00000000E+00
  0.00000000E+00  0.00000000E+00  0.00000000E+00
  0.00000000E+00  0.00000000E+00  0.00000000E+00
  0.00000000E+00  0.00000000E+00  0.00000000E+00
  0.00000000E+00  0.00000000E+00  0.00000000E+00
  0.00000000E+00  0.00000000E+00  0.00000000E+00
  0.00000000E+00  0.00000000E+00  0.00000000E+00
  0.00000000E+00  0.00000000E+00  0.00000000E+00
  0.00000000E+00  0.00000000E+00  0.00000000E+00
  0.00000000E+00  0.00000000E+00  0.00000000E+00
  0.00000000E+00  0.00000000E+00  0.00000000E+00
  0.00000000E+00  0.00000000E+00  0.00000000E+00
  0.00000000E+00  0.00000000E+00  0.00000000E+00
  0.00000000E+00  0.00000000E+00  0.00000000E+00
  0.00000000E+00  0.00000000E+00  0.00000000E+00
  0.00000000E+00  0.00000000E+00  0.00000000E+00
  0.00000000E+00  0.00000000E+00  0.00000000E+00
