Mg2 Tl2 F10                             
   1.0000000000000000     
     3.8401041712512716   -0.0000000000000000    0.0000000000000002
    -0.0000000000000005    7.5078410677816585    0.0000000000000005
     0.0000000000000001   -0.0000000000000000    8.6292995501532985
   Mg   Tl   F 
     2     2    10
Direct
  0.0000000000000000  0.0000000000000000  0.5000000000000000
  0.5000000000000000  0.5000000000000000  0.0000000000000000
  0.5000000000000000  0.0000000000000000  0.0000000000000000
  0.0000000000000000  0.5000000000000000  0.5000000000000000
  0.5000000000000000  0.8363624730394577  0.5000000000000000
  0.5000000000000000  0.1636375269605423  0.5000000000000000
  0.5000000000000000  0.0000000000000000  0.2399290036229971
  0.5000000000000000  0.0000000000000000  0.7600709963769958
  0.0000000000000000  0.0000000000000000  0.0000000000000000
  0.0000000000000000  0.3363624730394577  0.0000000000000000
  0.0000000000000000  0.6636375269605423  0.0000000000000000
  0.0000000000000000  0.5000000000000000  0.7399290036230042
  0.0000000000000000  0.5000000000000000  0.2600709963769958
  0.5000000000000000  0.5000000000000000  0.5000000000000000

  0.00000000E+00  0.00000000E+00  0.00000000E+00
  0.00000000E+00  0.00000000E+00  0.00000000E+00
  0.00000000E+00  0.00000000E+00  0.00000000E+00
  0.00000000E+00  0.00000000E+00  0.00000000E+00
  0.00000000E+00  0.00000000E+00  0.00000000E+00
  0.00000000E+00  0.00000000E+00  0.00000000E+00
  0.00000000E+00  0.00000000E+00  0.00000000E+00
  0.00000000E+00  0.00000000E+00  0.00000000E+00
  0.00000000E+00  0.00000000E+00  0.00000000E+00
  0.00000000E+00  0.00000000E+00  0.00000000E+00
  0.00000000E+00  0.00000000E+00  0.00000000E+00
  0.00000000E+00  0.00000000E+00  0.00000000E+00
  0.00000000E+00  0.00000000E+00  0.00000000E+00
  0.00000000E+00  0.00000000E+00  0.00000000E+00
