Be18 In11                               
   1.00000000000000     
     5.8112979826717419    4.9382471267733523   -0.2117709362942715
    -5.8112979826717419    4.9382471267733523   -0.2117709362942715
     0.0000000000000000    4.6097860831154458    8.1469064205250330
   Be   In
    18    11
Direct
  0.1495837221383169  0.1495837221383169  0.8341777300621658
  0.3764714595220013  0.5720986003888413  0.9209210077075838
  0.1231184208243405  0.4544308622825213  0.8609489452784658
  0.4544308622825213  0.1231184208243405  0.8609489452784658
  0.5720986003888413  0.3764714595220013  0.9209210077075838
  0.4057272534754475  0.4057272534754475  0.7631465388393579
  0.6591788304833486  0.6591788304833486  0.7126395308783486
  0.5298193260448940  0.8889351443049804  0.7629839339948177
  0.8889351443049804  0.5298193260448940  0.7629839339948177
  0.0958215017774862  0.0958215017774862  0.6120299594748602
  0.4027532755853755  0.6922952028573803  0.6725345147520869
  0.6922952028573803  0.4027532755853755  0.6725345147520869
  0.1275291782666272  0.3090873388435753  0.3782847280969790
  0.3090873388435753  0.1275291782666272  0.3782847280969790
  0.5965761756693198  0.5965761756693198  0.5066681395847752
  0.2358429029541966  0.6035369390348251  0.2806097135697172
  0.6035369390348251  0.2358429029541966  0.2806097135697172
  0.4026157525250440  0.4026157525250440  0.1705394894886467
  0.5250904160864067  0.7907345970965380  0.0441953112766029
  0.7907345970965380  0.5250904160864067  0.0441953112766029
  0.8159601507313354  0.1531568984195602  0.8549822605883151
  0.1531568984195602  0.8159601507313354  0.8549822605883151
  0.1955438851226248  0.4658136330074640  0.5743345417656869
  0.4658136330074640  0.1955438851226248  0.5743345417656869
  0.8044965206757126  0.0535287054846947  0.4724233977555272
  0.0535287054846947  0.8044965206757126  0.4724233977555272
  0.5110019809345374  0.8761822457741175  0.3308375663961698
  0.8761822457741175  0.5110019809345374  0.3308375663961698
  0.1830690796884511  0.1830690796884511  0.0946877693079884
 
  0.00000000E+00  0.00000000E+00  0.00000000E+00
  0.00000000E+00  0.00000000E+00  0.00000000E+00
  0.00000000E+00  0.00000000E+00  0.00000000E+00
  0.00000000E+00  0.00000000E+00  0.00000000E+00
  0.00000000E+00  0.00000000E+00  0.00000000E+00
  0.00000000E+00  0.00000000E+00  0.00000000E+00
  0.00000000E+00  0.00000000E+00  0.00000000E+00
  0.00000000E+00  0.00000000E+00  0.00000000E+00
  0.00000000E+00  0.00000000E+00  0.00000000E+00
  0.00000000E+00  0.00000000E+00  0.00000000E+00
  0.00000000E+00  0.00000000E+00  0.00000000E+00
  0.00000000E+00  0.00000000E+00  0.00000000E+00
  0.00000000E+00  0.00000000E+00  0.00000000E+00
  0.00000000E+00  0.00000000E+00  0.00000000E+00
  0.00000000E+00  0.00000000E+00  0.00000000E+00
  0.00000000E+00  0.00000000E+00  0.00000000E+00
  0.00000000E+00  0.00000000E+00  0.00000000E+00
  0.00000000E+00  0.00000000E+00  0.00000000E+00
  0.00000000E+00  0.00000000E+00  0.00000000E+00
  0.00000000E+00  0.00000000E+00  0.00000000E+00
  0.00000000E+00  0.00000000E+00  0.00000000E+00
  0.00000000E+00  0.00000000E+00  0.00000000E+00
  0.00000000E+00  0.00000000E+00  0.00000000E+00
  0.00000000E+00  0.00000000E+00  0.00000000E+00
  0.00000000E+00  0.00000000E+00  0.00000000E+00
  0.00000000E+00  0.00000000E+00  0.00000000E+00
  0.00000000E+00  0.00000000E+00  0.00000000E+00
  0.00000000E+00  0.00000000E+00  0.00000000E+00
  0.00000000E+00  0.00000000E+00  0.00000000E+00
