CaIn                                    
   1.00000000000000     
     3.8661495605181107    0.0000000000000000    0.0000000000000000
     0.0000000000000000    3.8661495605181111    0.0000000000000000
     0.0000000000000000    0.0000000000000000    3.8661495605181111
   Ca   In
     1     1
Direct
  0.0000000000000000  0.0000000000000000  0.0000000000000000
  0.5000000000000000  0.5000000000000000  0.5000000000000000
 
  0.00000000E+00  0.00000000E+00  0.00000000E+00
  0.00000000E+00  0.00000000E+00  0.00000000E+00
