Ba5 Ga2                                 
   1.00000000000000     
     2.8360772489870714    1.6522163981356885   11.5493253866909491
    -2.8360772489870709    1.6522163981356883   11.5493253866909491
     0.0000000000000000   -3.2944611948618845   11.5466481355298409
   Ba   Ga
     5     2
Direct
  0.2253264420870167  0.2253264420870167  0.2230116444610246
  0.3774300714208749  0.3774300714208749  0.3741806299875208
  0.4999940957409095  0.4999940957409095  0.5000281454140776
  0.6225681854302607  0.6225681854302607  0.6257733274436816
  0.7746450314930016  0.7746450314930016  0.7769771809672008
  0.1038571025883641  0.1038571025883641  0.1092412226403709
  0.8962790712395474  0.8962790712395474  0.8908878490861341
 
  0.00000000E+00  0.00000000E+00  0.00000000E+00
  0.00000000E+00  0.00000000E+00  0.00000000E+00
  0.00000000E+00  0.00000000E+00  0.00000000E+00
  0.00000000E+00  0.00000000E+00  0.00000000E+00
  0.00000000E+00  0.00000000E+00  0.00000000E+00
  0.00000000E+00  0.00000000E+00  0.00000000E+00
  0.00000000E+00  0.00000000E+00  0.00000000E+00
