Mg2 Tl2 Br10                            
   1.00000000000000     
     6.0836561068768669   -0.8329794833512507    3.4478353954734526
     0.5204525440723149    6.1183214723852233    3.4478348176204388
    -0.8486802911984914   -0.6792061091169380   12.1171088192696121
   Mg   Tl   Br
     2     2    10
Direct
  0.3122883160399113  0.6877116859409327  0.2499999983176124
  0.6877116839600887  0.3122883140590673  0.7500000016823876
  0.0000000000000000  0.0000000000000000  0.5000000000000000
  0.0000000000000000  0.0000000000000000  0.0000000000000000
  0.2742541271558778  0.3379614618483586  0.8425976935215189
  0.6620385363868522  0.7257448699053839  0.6574023068739621
  0.7257448728441247  0.6620385381516414  0.1574033064784786
  0.3379614636131549  0.2742541300946186  0.3425976931260379
  0.9803171571048566  0.0196828407096135  0.7500000020506192
  0.0196828428951434  0.9803171592903865  0.2499999979493808
  0.3226777561928103  0.7225451214040461  0.0175762090790741
  0.2774548757893740  0.6773222408078041  0.4824237937700815
  0.6773222438071969  0.2774548785959539  0.9824237909209259
  0.7225451242106260  0.3226777591921959  0.5175762062299185
 
  0.00000000E+00  0.00000000E+00  0.00000000E+00
  0.00000000E+00  0.00000000E+00  0.00000000E+00
  0.00000000E+00  0.00000000E+00  0.00000000E+00
  0.00000000E+00  0.00000000E+00  0.00000000E+00
  0.00000000E+00  0.00000000E+00  0.00000000E+00
  0.00000000E+00  0.00000000E+00  0.00000000E+00
  0.00000000E+00  0.00000000E+00  0.00000000E+00
  0.00000000E+00  0.00000000E+00  0.00000000E+00
  0.00000000E+00  0.00000000E+00  0.00000000E+00
  0.00000000E+00  0.00000000E+00  0.00000000E+00
  0.00000000E+00  0.00000000E+00  0.00000000E+00
  0.00000000E+00  0.00000000E+00  0.00000000E+00
  0.00000000E+00  0.00000000E+00  0.00000000E+00
  0.00000000E+00  0.00000000E+00  0.00000000E+00
