Ba8 In2                                 
   1.0000000000000000     
     6.0951546119483728    0.0000000000000000   -0.0000000000000000
     0.0000000000000000    6.0951546119483728   -0.0000000000000000
    -0.0000000000000000   -0.0000000000000000   15.1204618294554560
   Ba   In
     8     2
Direct
  0.0000000000000000  0.0000000000000000  0.0000000000000000
  0.5000000000000000  0.5000000000000000  0.0000000000000000
  0.0000000000000000  0.0000000000000000  0.2725749794206891
  0.5000000000000000  0.5000000000000000  0.2725749794206891
  0.5000000000000000  0.0000000000000000  0.5085462487718004
  0.0000000000000000  0.5000000000000000  0.4914537512281996
  0.0000000000000000  0.0000000000000000  0.7274250205793109
  0.5000000000000000  0.5000000000000000  0.7274250205793109
  0.0000000000000000  0.5000000000000000  0.1432283616497401
  0.5000000000000000  0.0000000000000000  0.8567716383502599

  0.00000000E+00  0.00000000E+00  0.00000000E+00
  0.00000000E+00  0.00000000E+00  0.00000000E+00
  0.00000000E+00  0.00000000E+00  0.00000000E+00
  0.00000000E+00  0.00000000E+00  0.00000000E+00
  0.00000000E+00  0.00000000E+00  0.00000000E+00
  0.00000000E+00  0.00000000E+00  0.00000000E+00
  0.00000000E+00  0.00000000E+00  0.00000000E+00
  0.00000000E+00  0.00000000E+00  0.00000000E+00
  0.00000000E+00  0.00000000E+00  0.00000000E+00
  0.00000000E+00  0.00000000E+00  0.00000000E+00
