Mg4Ga3                                  
   1.00000000000000     
     5.2582820448768519    6.0729365226257928    0.0000000000000000
    -2.6309878620585905    7.5913406696119647    0.0000000000000000
     0.0000000000000000    0.0000000000000000    5.0041168575364985
   Ga   Mg
     6     8
Direct
  0.1449508696571158  0.2782660924351106  0.0000000000000000
  0.2909383255640066  0.5723124553407075  0.0000000000000000
  0.8510992116040228  0.7190789601660725  0.0000000000000000
  0.3791164040632893  0.1026404939944783  0.5000000000000000
  0.6724951929273573  0.6622527927762505  0.5000000000000000
  0.2326227041698345  0.8086315225993204  0.5000000000000000
  0.5508005410654917  0.1627344685746976  0.0000000000000000
  0.7346339201331915  0.4296734038944336  0.0000000000000000
  0.4288418026298615  0.8567874236274378  0.0000000000000000
  0.0015388601187567  0.9785072066292315  0.0000000000000000
  0.9732949010686269  0.2182403443162144  0.5000000000000000
  0.5223861195237234  0.4025951448299026  0.5000000000000000
  0.0949125912015489  0.5241605183542148  0.5000000000000000
  0.7894285562731582  0.9514191724619110  0.5000000000000000
 
  0.00000000E+00  0.00000000E+00  0.00000000E+00
  0.00000000E+00  0.00000000E+00  0.00000000E+00
  0.00000000E+00  0.00000000E+00  0.00000000E+00
  0.00000000E+00  0.00000000E+00  0.00000000E+00
  0.00000000E+00  0.00000000E+00  0.00000000E+00
  0.00000000E+00  0.00000000E+00  0.00000000E+00
  0.00000000E+00  0.00000000E+00  0.00000000E+00
  0.00000000E+00  0.00000000E+00  0.00000000E+00
  0.00000000E+00  0.00000000E+00  0.00000000E+00
  0.00000000E+00  0.00000000E+00  0.00000000E+00
  0.00000000E+00  0.00000000E+00  0.00000000E+00
  0.00000000E+00  0.00000000E+00  0.00000000E+00
  0.00000000E+00  0.00000000E+00  0.00000000E+00
  0.00000000E+00  0.00000000E+00  0.00000000E+00
