Mg1 Tl2 Cl10                            
   1.00000000000000     
     5.1122051637917023    5.2364119252949095    0.5333963390480190
    -5.1122051637917023    5.2364119252949095    0.5333963390480190
     0.0000000000000000    4.5461668010816148    8.8039580322071771
   Mg   Tl   Cl
     1     2    10
Direct
  0.3678196112644230  0.6321803887355770  0.0000000000000000
  0.9894104779863753  0.9729645741890636  0.7535953046913733
  0.0270354258109364  0.0105895220136247  0.2464046953086267
  0.4043857579542305  0.4307613988291976  0.6172524724698150
  0.5692386011708095  0.5956142420457695  0.3827475275301850
  0.7179656720378915  0.6570721268392674  0.9439971450162545
  0.3429278731607326  0.2820343279621085  0.0560028549837384
  0.9294408696905805  0.0705591303094195  0.0000000000000000
  0.1224649019148885  0.8775350980851115  0.5000000000000000
  0.8773810217420319  0.2809906161632085  0.6323028811366171
  0.7190093838367915  0.1226189782579681  0.3676971188633829
  0.3200931787996879  0.8431737753693866  0.7681352045445138
  0.1568262246306134  0.6799068212003121  0.2318647954554862
 
  0.00000000E+00  0.00000000E+00  0.00000000E+00
  0.00000000E+00  0.00000000E+00  0.00000000E+00
  0.00000000E+00  0.00000000E+00  0.00000000E+00
  0.00000000E+00  0.00000000E+00  0.00000000E+00
  0.00000000E+00  0.00000000E+00  0.00000000E+00
  0.00000000E+00  0.00000000E+00  0.00000000E+00
  0.00000000E+00  0.00000000E+00  0.00000000E+00
  0.00000000E+00  0.00000000E+00  0.00000000E+00
  0.00000000E+00  0.00000000E+00  0.00000000E+00
  0.00000000E+00  0.00000000E+00  0.00000000E+00
  0.00000000E+00  0.00000000E+00  0.00000000E+00
  0.00000000E+00  0.00000000E+00  0.00000000E+00
  0.00000000E+00  0.00000000E+00  0.00000000E+00
