Mg1 Ga2 Br10                            
   1.00000000000000     
     4.5627150139693491    6.5459144757403340    0.7606240003785403
    -4.5627150139693491    6.5459144757403340    0.7606240003785405
     0.0000000000000000    5.8939421180348823    9.2749696321544395
   Mg   Ga   Br
     1     2    10
Direct
  0.4993524355077739  0.5006475644922261  0.0000000000000000
  0.9130737448458959  0.0224506255102881  0.7158047679990531
  0.9775493744897119  0.0869262551541041  0.2841952320009469
  0.1717488404740024  0.0546195157603364  0.7448301645198754
  0.9453804842396636  0.8282511595259976  0.2551698354801175
  0.7367942000523939  0.7688478546456423  0.9443568084345983
  0.2311521453543577  0.2632057999476061  0.0556431915654017
  0.7718264402802575  0.2281735597197425  0.0000000000000000
  0.0924217963389466  0.9075782036610534  0.5000000000000000
  0.7255938690878665  0.3227028868544650  0.6316628567202969
  0.6772971131455350  0.2744061309121335  0.3683371432797031
  0.4935919622482388  0.6917834060646726  0.7338294267621777
  0.3082165939353274  0.5064080377517612  0.2661705732378223
 
  0.00000000E+00  0.00000000E+00  0.00000000E+00
  0.00000000E+00  0.00000000E+00  0.00000000E+00
  0.00000000E+00  0.00000000E+00  0.00000000E+00
  0.00000000E+00  0.00000000E+00  0.00000000E+00
  0.00000000E+00  0.00000000E+00  0.00000000E+00
  0.00000000E+00  0.00000000E+00  0.00000000E+00
  0.00000000E+00  0.00000000E+00  0.00000000E+00
  0.00000000E+00  0.00000000E+00  0.00000000E+00
  0.00000000E+00  0.00000000E+00  0.00000000E+00
  0.00000000E+00  0.00000000E+00  0.00000000E+00
  0.00000000E+00  0.00000000E+00  0.00000000E+00
  0.00000000E+00  0.00000000E+00  0.00000000E+00
  0.00000000E+00  0.00000000E+00  0.00000000E+00
