Sr12 Tl4 Br36                           
   1.0000000000000000     
    13.6623145806922093    0.4376410584333859    0.0003728051130320
     0.2517434758603275    7.7884317176176019   -0.0136732826382683
    -0.0003239455531849   -0.0369135600445873   17.7415272229439722
   Tl   Sr   Br
     4    12    36
Direct
  0.4906634607040345  0.2209172561371133  0.1873632273799259
  0.9881194680788141  0.2106551531796654  0.3132882437248483
  0.0107028436360537  0.7837341649758613  0.6867176739707546
  0.5105304048241095  0.7849424657514845  0.8133438654011087
  0.6687335446799523  0.8314166687368356  0.0420033621991536
  0.9862663636911293  0.2571449229783909  0.0870868165821506
  0.2267995991953242  0.7045943605410585  0.1505679590481535
  0.7312288683366290  0.6991708580178582  0.3471497368657737
  0.4880760645974931  0.2569182926289031  0.4127804037635698
  0.1763575855756869  0.8183043126858465  0.4600505788160092
  0.8256822988750656  0.1760392972493889  0.5407006674954431
  0.5140187196797896  0.7421157701959586  0.5879248249624354
  0.2706184485172116  0.2962021369829699  0.6517894065923642
  0.7708863554867165  0.2990684093614533  0.8486147431143962
  0.0121660376867112  0.7426519430203626  0.9125688800178295
  0.3285461091261084  0.1762139773249061  0.9588694711369001
  0.1419462913934169  0.4819353573465861  0.0101246367984018
  0.1475002804590204  0.9786553128147020  0.0103727145076391
  0.4275354222298660  0.9332742424392748  0.0947537710745721
  0.3936636235706104  0.4472440838818272  0.0789027248153218
  0.6490228497726420  0.2173956688991225  0.1008452916775369
  0.7736655047795580  0.7311895147951546  0.1824667879322988
  0.3342924571797070  0.2302236924808696  0.2741841690267037
  0.5761719747684282  0.9903025034071078  0.2985185377021651
  0.5562922792297442  0.4938407449448405  0.2860437603711858
  0.0590904252846656  0.9712562264737414  0.1996497843039435
  0.0648119032029939  0.4758320479852713  0.2150050142225766
  0.8311252289864512  0.2456311088259540  0.2273083933625486
  0.2730836530387606  0.7296057118030461  0.3147523231293405
  0.1490651662674622  0.1991169280909233  0.3972144827828288
  0.9198793973675805  0.9310188808605488  0.4045218966212474
  0.8974298445290927  0.4446960378170175  0.4229187364387244
  0.6442274423626060  0.4787237422046786  0.4892832223917338
  0.6455991331638202  0.9753858801225093  0.4909354504305128
  0.3542041674592866  0.0238719405910288  0.5101432701513247
  0.3575331336567871  0.5208820836579591  0.5102345313188508
  0.1046960664331920  0.5507668206305354  0.5779736568357308
  0.0776039161038611  0.0646854280689340  0.5946236946723431
  0.8510676728288615  0.7920638774881255  0.6014629723671234
  0.7253681589107686  0.2685801333745843  0.6843043483662399
  0.1673028087800006  0.7624067596182726  0.7733974369192609
  0.9398929551721622  0.5141984831707873  0.7844768567583245
  0.9319890238823518  0.0193555803847190  0.7994044747151676
  0.4388609024535270  0.5158706747851483  0.7146148359091740
  0.4339973531664540  0.0205745720994415  0.7009840008372237
  0.6679755883594396  0.7612323631487641  0.7274796269648007
  0.2267503305386356  0.2689781738578958  0.8162187284311173
  0.3505299791405250  0.7924943515580054  0.8982257350307279
  0.6043522691069327  0.5578068103803915  0.9228626829919264
  0.5741716671926440  0.0725313373502345  0.9047619254525472
  0.8521616292298049  0.0214999716953272  0.9901956094725435
  0.8575433273075248  0.5173629631786838  0.9886140541454864

  0.00000000E+00  0.00000000E+00  0.00000000E+00
  0.00000000E+00  0.00000000E+00  0.00000000E+00
  0.00000000E+00  0.00000000E+00  0.00000000E+00
  0.00000000E+00  0.00000000E+00  0.00000000E+00
  0.00000000E+00  0.00000000E+00  0.00000000E+00
  0.00000000E+00  0.00000000E+00  0.00000000E+00
  0.00000000E+00  0.00000000E+00  0.00000000E+00
  0.00000000E+00  0.00000000E+00  0.00000000E+00
  0.00000000E+00  0.00000000E+00  0.00000000E+00
  0.00000000E+00  0.00000000E+00  0.00000000E+00
  0.00000000E+00  0.00000000E+00  0.00000000E+00
  0.00000000E+00  0.00000000E+00  0.00000000E+00
  0.00000000E+00  0.00000000E+00  0.00000000E+00
  0.00000000E+00  0.00000000E+00  0.00000000E+00
  0.00000000E+00  0.00000000E+00  0.00000000E+00
  0.00000000E+00  0.00000000E+00  0.00000000E+00
  0.00000000E+00  0.00000000E+00  0.00000000E+00
  0.00000000E+00  0.00000000E+00  0.00000000E+00
  0.00000000E+00  0.00000000E+00  0.00000000E+00
  0.00000000E+00  0.00000000E+00  0.00000000E+00
  0.00000000E+00  0.00000000E+00  0.00000000E+00
  0.00000000E+00  0.00000000E+00  0.00000000E+00
  0.00000000E+00  0.00000000E+00  0.00000000E+00
  0.00000000E+00  0.00000000E+00  0.00000000E+00
  0.00000000E+00  0.00000000E+00  0.00000000E+00
  0.00000000E+00  0.00000000E+00  0.00000000E+00
  0.00000000E+00  0.00000000E+00  0.00000000E+00
  0.00000000E+00  0.00000000E+00  0.00000000E+00
  0.00000000E+00  0.00000000E+00  0.00000000E+00
  0.00000000E+00  0.00000000E+00  0.00000000E+00
  0.00000000E+00  0.00000000E+00  0.00000000E+00
  0.00000000E+00  0.00000000E+00  0.00000000E+00
  0.00000000E+00  0.00000000E+00  0.00000000E+00
  0.00000000E+00  0.00000000E+00  0.00000000E+00
  0.00000000E+00  0.00000000E+00  0.00000000E+00
  0.00000000E+00  0.00000000E+00  0.00000000E+00
  0.00000000E+00  0.00000000E+00  0.00000000E+00
  0.00000000E+00  0.00000000E+00  0.00000000E+00
  0.00000000E+00  0.00000000E+00  0.00000000E+00
  0.00000000E+00  0.00000000E+00  0.00000000E+00
  0.00000000E+00  0.00000000E+00  0.00000000E+00
  0.00000000E+00  0.00000000E+00  0.00000000E+00
  0.00000000E+00  0.00000000E+00  0.00000000E+00
  0.00000000E+00  0.00000000E+00  0.00000000E+00
  0.00000000E+00  0.00000000E+00  0.00000000E+00
  0.00000000E+00  0.00000000E+00  0.00000000E+00
  0.00000000E+00  0.00000000E+00  0.00000000E+00
  0.00000000E+00  0.00000000E+00  0.00000000E+00
  0.00000000E+00  0.00000000E+00  0.00000000E+00
  0.00000000E+00  0.00000000E+00  0.00000000E+00
  0.00000000E+00  0.00000000E+00  0.00000000E+00
  0.00000000E+00  0.00000000E+00  0.00000000E+00
