Ca21 B40                                
   1.00000000000000     
     3.9612547190649603   -6.8610943667492519    0.0000000000000000
     3.9612547190649603    6.8610943667492519    0.0000000000000000
     0.0000000000000000    0.0000000000000000   14.4512622788505158
   Ca   B 
    21    40
Direct
  0.9999999999855405  0.3172480321558666  0.3904791461171584
  0.6666669999999968  0.3333330000000032  0.3099618088703622
  0.6404134850549141  0.9999999997893596  0.7144546926094151
  0.3595865151557263  0.3595865151557263  0.7144546926094151
  0.0000000000000000  0.0000000000000000  0.0943725662257293
  0.0000000002322267  0.3036456637580045  0.6014340321315501
  0.3287784573364334  0.9999999999728288  0.0155147935776725
  0.9999999997893596  0.6404134850549141  0.7144546926094151
  0.6827519678585858  0.6827519678585858  0.3904791461171584
  0.3036456637580045  0.0000000002322267  0.6014340321315501
  0.3333330000000032  0.6666669999999968  0.1095579971005236
  0.9999999999876579  0.6605801795027020  0.9121674826700286
  0.6963543360097688  0.6963543360097688  0.6014340321315501
  0.3394198205096401  0.3394198205096401  0.9121674826700286
  0.6666669999999968  0.3333330000000032  0.1095579971005236
  0.3333330000000032  0.6666669999999968  0.3099618088703622
  0.9999999999728288  0.3287784573364334  0.0155147935776725
  0.3172480321558666  0.9999999999855405  0.3904791461171584
  0.6712215426907377  0.6712215426907377  0.0155147935776725
  0.6605801795027020  0.9999999999876579  0.9121674826700286
  0.0000000000000000  0.0000000000000000  0.2898726245150272
  0.3184517013705346  0.5290204801809111  0.5005557004059398
  0.1285300641700786  0.3333491825187522  0.1968962883193086
  0.4495405520218370  0.1195749787566243  0.8315084039323679
  0.7951808820709303  0.6666508182162616  0.1968962883193086
  0.4602064148497647  0.0000000003667893  0.1985208139697079
  0.0000000000000000  0.0000000000000000  0.4810410223114232
  0.3333330000000032  0.6666669999999968  0.8544225283877012
  0.2048191176136669  0.8714699354103033  0.1968962883193086
  0.2045587502150923  0.9999999997020694  0.8169596763939779
  0.0000000002736371  0.6648547527971473  0.2481508771067737
  0.3333491825187522  0.1285300641700786  0.1968962883193086
  0.3003306472620508  0.3003306472620508  0.4922389132999143
  0.7954412500828312  0.7954412500828312  0.8169596763939779
  0.6666669999999968  0.3333330000000032  0.8544225283877012
  0.9999999995484856  0.6996693531894635  0.4922389132999143
  0.5397935847834532  0.5397935847834532  0.1985208139697079
  0.7894312204347855  0.4709795190214763  0.5005557004059398
  0.5504594485531769  0.6700344264929754  0.8315084039323679
  0.0000000003667893  0.4602064148497647  0.1985208139697079
  0.8714699354103033  0.2048191176136669  0.1968962883193086
  0.9999999999987992  0.6680790031980735  0.1271923101890664
  0.3351452469292155  0.3351452469292155  0.2481508771067737
  0.3333330000000032  0.6666669999999968  0.6003217615730705
  0.9999999997020694  0.2045587502150923  0.8169596763939779
  0.6666669999999968  0.3333330000000032  0.6003217615730705
  0.1195749787566243  0.4495405520218370  0.8315084039323679
  0.4709795190214763  0.7894312204347855  0.5005557004059398
  0.2105687796079962  0.6815482993843034  0.5005557004059398
  0.6680790031980735  0.9999999999987992  0.1271923101890664
  0.3319209968031274  0.3319209968031274  0.1271923101890664
  0.8804250214851876  0.3299655726901989  0.8315084039323679
  0.6648547527971473  0.0000000002736371  0.2481508771067737
  0.5290204801809111  0.3184517013705346  0.5005557004059398
  0.6666508182162616  0.7951808820709303  0.1968962883193086
  0.6996693531894635  0.9999999995484856  0.4922389132999143
  0.6815482993843034  0.2105687796079962  0.5005557004059398
  0.3299655726901989  0.8804250214851876  0.8315084039323679
  0.0000000000000000  0.0000000000000000  0.8944110826230016
  0.6700344264929754  0.5504594485531769  0.8315084039323679
  0.0000000000000000  0.0000000000000000  0.7704389423200197
 
  0.00000000E+00  0.00000000E+00  0.00000000E+00
  0.00000000E+00  0.00000000E+00  0.00000000E+00
  0.00000000E+00  0.00000000E+00  0.00000000E+00
  0.00000000E+00  0.00000000E+00  0.00000000E+00
  0.00000000E+00  0.00000000E+00  0.00000000E+00
  0.00000000E+00  0.00000000E+00  0.00000000E+00
  0.00000000E+00  0.00000000E+00  0.00000000E+00
  0.00000000E+00  0.00000000E+00  0.00000000E+00
  0.00000000E+00  0.00000000E+00  0.00000000E+00
  0.00000000E+00  0.00000000E+00  0.00000000E+00
  0.00000000E+00  0.00000000E+00  0.00000000E+00
  0.00000000E+00  0.00000000E+00  0.00000000E+00
  0.00000000E+00  0.00000000E+00  0.00000000E+00
  0.00000000E+00  0.00000000E+00  0.00000000E+00
  0.00000000E+00  0.00000000E+00  0.00000000E+00
  0.00000000E+00  0.00000000E+00  0.00000000E+00
  0.00000000E+00  0.00000000E+00  0.00000000E+00
  0.00000000E+00  0.00000000E+00  0.00000000E+00
  0.00000000E+00  0.00000000E+00  0.00000000E+00
  0.00000000E+00  0.00000000E+00  0.00000000E+00
  0.00000000E+00  0.00000000E+00  0.00000000E+00
  0.00000000E+00  0.00000000E+00  0.00000000E+00
  0.00000000E+00  0.00000000E+00  0.00000000E+00
  0.00000000E+00  0.00000000E+00  0.00000000E+00
  0.00000000E+00  0.00000000E+00  0.00000000E+00
  0.00000000E+00  0.00000000E+00  0.00000000E+00
  0.00000000E+00  0.00000000E+00  0.00000000E+00
  0.00000000E+00  0.00000000E+00  0.00000000E+00
  0.00000000E+00  0.00000000E+00  0.00000000E+00
  0.00000000E+00  0.00000000E+00  0.00000000E+00
  0.00000000E+00  0.00000000E+00  0.00000000E+00
  0.00000000E+00  0.00000000E+00  0.00000000E+00
  0.00000000E+00  0.00000000E+00  0.00000000E+00
  0.00000000E+00  0.00000000E+00  0.00000000E+00
  0.00000000E+00  0.00000000E+00  0.00000000E+00
  0.00000000E+00  0.00000000E+00  0.00000000E+00
  0.00000000E+00  0.00000000E+00  0.00000000E+00
  0.00000000E+00  0.00000000E+00  0.00000000E+00
  0.00000000E+00  0.00000000E+00  0.00000000E+00
  0.00000000E+00  0.00000000E+00  0.00000000E+00
  0.00000000E+00  0.00000000E+00  0.00000000E+00
  0.00000000E+00  0.00000000E+00  0.00000000E+00
  0.00000000E+00  0.00000000E+00  0.00000000E+00
  0.00000000E+00  0.00000000E+00  0.00000000E+00
  0.00000000E+00  0.00000000E+00  0.00000000E+00
  0.00000000E+00  0.00000000E+00  0.00000000E+00
  0.00000000E+00  0.00000000E+00  0.00000000E+00
  0.00000000E+00  0.00000000E+00  0.00000000E+00
  0.00000000E+00  0.00000000E+00  0.00000000E+00
  0.00000000E+00  0.00000000E+00  0.00000000E+00
  0.00000000E+00  0.00000000E+00  0.00000000E+00
  0.00000000E+00  0.00000000E+00  0.00000000E+00
  0.00000000E+00  0.00000000E+00  0.00000000E+00
  0.00000000E+00  0.00000000E+00  0.00000000E+00
  0.00000000E+00  0.00000000E+00  0.00000000E+00
  0.00000000E+00  0.00000000E+00  0.00000000E+00
  0.00000000E+00  0.00000000E+00  0.00000000E+00
  0.00000000E+00  0.00000000E+00  0.00000000E+00
  0.00000000E+00  0.00000000E+00  0.00000000E+00
  0.00000000E+00  0.00000000E+00  0.00000000E+00
  0.00000000E+00  0.00000000E+00  0.00000000E+00
