Sr18 In11                               
   1.0000000000000000     
     9.8835188079177279   -5.9291793219536446    3.9616571994116394
    -0.3943582867141092   11.0349587249188943    3.6627652763108527
    -9.0753245674581375   -5.0542213035868446    3.2661631146492076
   In   Sr
    11    18
Direct
  0.7013509601484671  0.7998933959863948  0.9996543987333766
  0.3433251234757648  0.3798488639582942  0.1913990721580703
  0.8646323052489180  0.1732477385259017  0.1921458145729105
  0.2579195233727702  0.9184761132346395  0.2743633694633516
  0.3626792850228071  0.2404931863917383  0.4042492183568243
  0.2012882061269323  0.3909240207408473  0.4025582756673103
  0.7978726412935728  0.9879365680285801  0.5971486372811299
  0.9570605952794509  0.8355186911984873  0.5951913019811812
  0.9873896704795087  0.6466594729498496  0.7268895311016195
  0.6717745527752896  0.9807095335421252  0.8084335051642881
  0.1513817754731974  0.1875291377890136  0.8078449399057988
  0.2855582880178034  0.0117708840188513  0.0020000985695603
  0.6386546711764254  0.2477197452328497  0.0003722293910542
  0.9960525521671855  0.0074717362451580  0.9990861382045537
  0.8923369693477667  0.6321112182011177  0.9987069690066690
  0.9949038766974851  0.3159646381369399  0.9992444121169086
  0.2297839717101766  0.6401536632686557  0.0007258688078693
  0.6506161174901166  0.6493266569909650  0.2367800705814389
  0.6120845869346567  0.9735680482380147  0.2389052295297347
  0.0070546559052076  0.5718970006205382  0.3815572535086744
  0.0180415672998180  0.0183976181423375  0.3743452618358063
  0.3999151825592691  0.7370342111918617  0.4138824273495345
  0.6583693666782580  0.3645671101356527  0.3760116290000965
  0.2820267498083808  0.9884377739960897  0.6266611366778605
  0.9865542362270858  0.3233206497249625  0.5864087345570610
  0.6423942976808448  0.6438813441822901  0.6249963130718257
  0.6234553295540053  0.1879905327012565  0.6169792105590375
  0.3720072499001432  0.7334849523236073  0.7607155108001535
  0.4137176921486798  0.4117024943030074  0.7627434420462862

  0.00000000E+00  0.00000000E+00  0.00000000E+00
  0.00000000E+00  0.00000000E+00  0.00000000E+00
  0.00000000E+00  0.00000000E+00  0.00000000E+00
  0.00000000E+00  0.00000000E+00  0.00000000E+00
  0.00000000E+00  0.00000000E+00  0.00000000E+00
  0.00000000E+00  0.00000000E+00  0.00000000E+00
  0.00000000E+00  0.00000000E+00  0.00000000E+00
  0.00000000E+00  0.00000000E+00  0.00000000E+00
  0.00000000E+00  0.00000000E+00  0.00000000E+00
  0.00000000E+00  0.00000000E+00  0.00000000E+00
  0.00000000E+00  0.00000000E+00  0.00000000E+00
  0.00000000E+00  0.00000000E+00  0.00000000E+00
  0.00000000E+00  0.00000000E+00  0.00000000E+00
  0.00000000E+00  0.00000000E+00  0.00000000E+00
  0.00000000E+00  0.00000000E+00  0.00000000E+00
  0.00000000E+00  0.00000000E+00  0.00000000E+00
  0.00000000E+00  0.00000000E+00  0.00000000E+00
  0.00000000E+00  0.00000000E+00  0.00000000E+00
  0.00000000E+00  0.00000000E+00  0.00000000E+00
  0.00000000E+00  0.00000000E+00  0.00000000E+00
  0.00000000E+00  0.00000000E+00  0.00000000E+00
  0.00000000E+00  0.00000000E+00  0.00000000E+00
  0.00000000E+00  0.00000000E+00  0.00000000E+00
  0.00000000E+00  0.00000000E+00  0.00000000E+00
  0.00000000E+00  0.00000000E+00  0.00000000E+00
  0.00000000E+00  0.00000000E+00  0.00000000E+00
  0.00000000E+00  0.00000000E+00  0.00000000E+00
  0.00000000E+00  0.00000000E+00  0.00000000E+00
  0.00000000E+00  0.00000000E+00  0.00000000E+00
