Mg1 In2 F6                              
   1.00000000000000     
     3.4590202677992892    0.9076876781916853    3.9998551684367301
    -3.4590202677992892    0.9076876781916853    3.9998551684367301
     0.0000000000000000   -3.4189106604138182    4.5797894578362053
   Mg   F    In
     1     6     2
Direct
  0.0000000000000000  0.0000000000000000  0.0000000000000000
  0.6890918668221460  0.6890918668221460  0.2463731387251542
  0.7559221178906768  0.1172847787733176  0.3181719645376049
  0.1172847787733176  0.7559221178906768  0.3181719645376049
  0.3109081331778540  0.3109081331778540  0.7536268612748458
  0.8827152212266824  0.2440778821093232  0.6818280354623951
  0.2440778821093232  0.8827152212266824  0.6818280354623951
  0.6188981520779109  0.6188981520779109  0.6856011802867812
  0.3811018479220891  0.3811018479220891  0.3143988197132188
 
  0.00000000E+00  0.00000000E+00  0.00000000E+00
  0.00000000E+00  0.00000000E+00  0.00000000E+00
  0.00000000E+00  0.00000000E+00  0.00000000E+00
  0.00000000E+00  0.00000000E+00  0.00000000E+00
  0.00000000E+00  0.00000000E+00  0.00000000E+00
  0.00000000E+00  0.00000000E+00  0.00000000E+00
  0.00000000E+00  0.00000000E+00  0.00000000E+00
  0.00000000E+00  0.00000000E+00  0.00000000E+00
  0.00000000E+00  0.00000000E+00  0.00000000E+00
