Mg4 In4 F12                             
   1.00000000000000     
     7.6710960318780881    0.0000000000000000    0.0000885153509104
     0.0000000000000000    3.1034203650790939    0.0000000000000000
     0.0000051491749149    0.0000000000000000   12.1893932016306401
   F    In   Mg
    12     4     4
Direct
  0.1978335882060946  0.2500000000000000  0.9992728766090622
  0.4905677283815635  0.7500000000000000  0.0875941911602212
  0.7571838865285940  0.2500000000000000  0.1963671979950590
  0.2571878275317516  0.2500000000000000  0.3036630330663712
  0.9905660164868593  0.7500000000000000  0.4124355071187011
  0.6978294536952703  0.2500000000000000  0.5007646960545173
  0.3021154689589238  0.7500000000000000  0.4992706755262830
  0.0093834287684729  0.2500000000000000  0.5875950845773872
  0.7427602908300912  0.7500000000000000  0.6963683092579842
  0.2427599218496255  0.7500000000000000  0.8036667807829403
  0.5093884998843876  0.2500000000000000  0.9124350626428210
  0.8021240976657822  0.7500000000000000  0.0007633931991293
  0.0409817429057142  0.7500000000000000  0.1801225107427129
  0.5409825447907792  0.7500000000000000  0.3199124607654866
  0.4589673083608332  0.2500000000000000  0.6801213076812829
  0.9589660395932995  0.2500000000000000  0.8199124750286231
  0.6601826391180481  0.2500000000000000  0.0494809723153722
  0.1601812227353605  0.2500000000000000  0.4505505055385655
  0.8397679182176390  0.7500000000000000  0.5494818406954423
  0.3397703754909358  0.7500000000000000  0.9505511192420499
 
  0.00000000E+00  0.00000000E+00  0.00000000E+00
  0.00000000E+00  0.00000000E+00  0.00000000E+00
  0.00000000E+00  0.00000000E+00  0.00000000E+00
  0.00000000E+00  0.00000000E+00  0.00000000E+00
  0.00000000E+00  0.00000000E+00  0.00000000E+00
  0.00000000E+00  0.00000000E+00  0.00000000E+00
  0.00000000E+00  0.00000000E+00  0.00000000E+00
  0.00000000E+00  0.00000000E+00  0.00000000E+00
  0.00000000E+00  0.00000000E+00  0.00000000E+00
  0.00000000E+00  0.00000000E+00  0.00000000E+00
  0.00000000E+00  0.00000000E+00  0.00000000E+00
  0.00000000E+00  0.00000000E+00  0.00000000E+00
  0.00000000E+00  0.00000000E+00  0.00000000E+00
  0.00000000E+00  0.00000000E+00  0.00000000E+00
  0.00000000E+00  0.00000000E+00  0.00000000E+00
  0.00000000E+00  0.00000000E+00  0.00000000E+00
  0.00000000E+00  0.00000000E+00  0.00000000E+00
  0.00000000E+00  0.00000000E+00  0.00000000E+00
  0.00000000E+00  0.00000000E+00  0.00000000E+00
  0.00000000E+00  0.00000000E+00  0.00000000E+00
