Be4 B4 I20                              
   1.0000000000000000     
    17.9487480216352786    0.0000000000000000    0.0000000000000000
     0.0000000000000000    7.1308049291573967   -0.4964912488076295
     0.0000000000000000    2.1598743240357194   12.8253979702503891
   Be   B    I 
     4     4    20
Direct
  0.0127800188741176  0.4415498617818088  0.3259353703642134
  0.5127800188741176  0.5584501382181983  0.1740646296357866
  0.9872199811258824  0.5584501382181983  0.6740646296357866
  0.4872199811258824  0.4415498617818088  0.8259353703642134
  0.6612768564532630  0.2151090783358995  0.7063707943221047
  0.1612768564532630  0.7848909216640934  0.7936292056778953
  0.3387231435467442  0.7848909216640934  0.2936292056778882
  0.8387231435467370  0.2151090783358995  0.2063707943221118
  0.6111254464551052  0.2783623587285078  0.5609746439713419
  0.1111254464551052  0.7216376412714993  0.9390253560286581
  0.3888745535448948  0.7216376412714993  0.4390253560286581
  0.8888745535448948  0.2783623587285078  0.0609746439713419
  0.7264117004509671  0.1341876709532741  0.2263029827048584
  0.2264117004509671  0.8658123290467259  0.2736970172951416
  0.2735882995490329  0.8658123290467259  0.7736970172951487
  0.7735882995490329  0.1341876709532741  0.7263029827048513
  0.5957296983076930  0.2202193526602585  0.8481223519427417
  0.0957296983076930  0.7797806473397415  0.6518776480572583
  0.4042703016923070  0.7797806473397415  0.1518776480572583
  0.9042703016923070  0.2202193526602585  0.3481223519427417
  0.4982027465724386  0.6994717549737075  0.7138710246617066
  0.9982027465724315  0.3005282450262925  0.7861289753382934
  0.5017972534275685  0.3005282450262925  0.2861289753383005
  0.0017972534275614  0.6994717549737075  0.2138710246616995
  0.3978697798366682  0.3322386180415151  0.9373365534754043
  0.8978697798366682  0.6677613819584849  0.5626634465245957
  0.6021302201633318  0.6677613819584849  0.0626634465245957
  0.1021302201633318  0.3322386180415151  0.4373365534754043

  0.00000000E+00  0.00000000E+00  0.00000000E+00
  0.00000000E+00  0.00000000E+00  0.00000000E+00
  0.00000000E+00  0.00000000E+00  0.00000000E+00
  0.00000000E+00  0.00000000E+00  0.00000000E+00
  0.00000000E+00  0.00000000E+00  0.00000000E+00
  0.00000000E+00  0.00000000E+00  0.00000000E+00
  0.00000000E+00  0.00000000E+00  0.00000000E+00
  0.00000000E+00  0.00000000E+00  0.00000000E+00
  0.00000000E+00  0.00000000E+00  0.00000000E+00
  0.00000000E+00  0.00000000E+00  0.00000000E+00
  0.00000000E+00  0.00000000E+00  0.00000000E+00
  0.00000000E+00  0.00000000E+00  0.00000000E+00
  0.00000000E+00  0.00000000E+00  0.00000000E+00
  0.00000000E+00  0.00000000E+00  0.00000000E+00
  0.00000000E+00  0.00000000E+00  0.00000000E+00
  0.00000000E+00  0.00000000E+00  0.00000000E+00
  0.00000000E+00  0.00000000E+00  0.00000000E+00
  0.00000000E+00  0.00000000E+00  0.00000000E+00
  0.00000000E+00  0.00000000E+00  0.00000000E+00
  0.00000000E+00  0.00000000E+00  0.00000000E+00
  0.00000000E+00  0.00000000E+00  0.00000000E+00
  0.00000000E+00  0.00000000E+00  0.00000000E+00
  0.00000000E+00  0.00000000E+00  0.00000000E+00
  0.00000000E+00  0.00000000E+00  0.00000000E+00
  0.00000000E+00  0.00000000E+00  0.00000000E+00
  0.00000000E+00  0.00000000E+00  0.00000000E+00
  0.00000000E+00  0.00000000E+00  0.00000000E+00
  0.00000000E+00  0.00000000E+00  0.00000000E+00
