Be4 In4 Br2                             
   1.00000000000000     
     6.1005430637552864    1.6341495952655165    0.2963248701361719
    -1.0070022251044772    3.2584621239669511    0.3629295927370772
     0.2629786334061754    0.8367403913497017   10.2009637345038104
   In   Br   Be
     4     2     4
Direct
  0.3217747746893735  0.7153740239827613  0.1026253418565304
  0.3153475626528106  0.5317765469400442  0.4179687281086970
  0.6848602465414615  0.4683094416879143  0.5822233458528245
  0.6779671027852459  0.2845169457800907  0.8975405813235682
  0.7928603311481197  0.1119133673283770  0.2496231437620509
  0.2070061277101800  0.8879848389010832  0.7504590616602940
  0.9956007889564304  0.2153936781184811  0.0651338680627944
  0.0060823329210109  0.0207127034826442  0.3987592561443165
  0.9942935895279135  0.9794692494103998  0.6010175668033142
  0.0042071430674611  0.7845492043682256  0.9349291064256136
 
  0.00000000E+00  0.00000000E+00  0.00000000E+00
  0.00000000E+00  0.00000000E+00  0.00000000E+00
  0.00000000E+00  0.00000000E+00  0.00000000E+00
  0.00000000E+00  0.00000000E+00  0.00000000E+00
  0.00000000E+00  0.00000000E+00  0.00000000E+00
  0.00000000E+00  0.00000000E+00  0.00000000E+00
  0.00000000E+00  0.00000000E+00  0.00000000E+00
  0.00000000E+00  0.00000000E+00  0.00000000E+00
  0.00000000E+00  0.00000000E+00  0.00000000E+00
  0.00000000E+00  0.00000000E+00  0.00000000E+00
