Ca2 B2 I10                              
   1.00000000000000     
     7.1468485358226417   -0.6810377916330422    1.7825366034675401
     0.9016919025951208    7.1223726294450742    1.7825379203123644
    -1.4360803334908041   -1.1493069933076614   16.3269691309833611
   Ca   B    I 
     2     2    10
Direct
  0.3633415983091695  0.6366583992024388  0.2500000046336126
  0.6366584016908305  0.3633416007975612  0.7499999953663874
  0.0000000000000000  0.0000000000000000  0.5000000000000000
  0.0000000000000000  0.0000000000000000  0.0000000000000000
  0.6431667492537869  0.6299976356256707  0.5959125409594961
  0.3700023671422841  0.3568322491651301  0.9040874574607329
  0.3568322507462156  0.3700023643743293  0.4040884590405085
  0.6299976328577230  0.6431667508348653  0.0959125425392671
  0.9266052477013247  0.0733947520775686  0.7499999988401242
  0.0733947522986753  0.9266052479224314  0.2500000011598758
  0.8286210925453901  0.2113597528665068  0.0308785644823928
  0.7886402448441459  0.1713789110321287  0.4691214348003214
  0.1713789074546099  0.7886402471334861  0.9691214355176072
  0.2113597551558470  0.8286210889678713  0.5308785651996786
 
  0.00000000E+00  0.00000000E+00  0.00000000E+00
  0.00000000E+00  0.00000000E+00  0.00000000E+00
  0.00000000E+00  0.00000000E+00  0.00000000E+00
  0.00000000E+00  0.00000000E+00  0.00000000E+00
  0.00000000E+00  0.00000000E+00  0.00000000E+00
  0.00000000E+00  0.00000000E+00  0.00000000E+00
  0.00000000E+00  0.00000000E+00  0.00000000E+00
  0.00000000E+00  0.00000000E+00  0.00000000E+00
  0.00000000E+00  0.00000000E+00  0.00000000E+00
  0.00000000E+00  0.00000000E+00  0.00000000E+00
  0.00000000E+00  0.00000000E+00  0.00000000E+00
  0.00000000E+00  0.00000000E+00  0.00000000E+00
  0.00000000E+00  0.00000000E+00  0.00000000E+00
  0.00000000E+00  0.00000000E+00  0.00000000E+00
