Ca1 In13                                
   1.00000000000000     
     6.6187111447336191   -4.7084746017146939    0.0104628846205952
     6.6187111447336191    4.7084746017146939    0.0104628846205952
    -1.2843756975837350    0.0000000000000000    6.2709268072628790
   Ca   In
     1    13
Direct
  0.9999812077992942  0.9999812077992942  0.0000941533342669
  0.7752171397118630  0.7752171397118630  0.1325101510795079
  0.6066925803893071  0.2220288303047226  0.1827026067329030
  0.2220288303047226  0.6066925803893071  0.1827026067329030
  0.9915032491030189  0.3597429102287677  0.3137333544911414
  0.3597429102287677  0.9915032491030189  0.3137333544911414
  0.6055604303793132  0.6055604303793132  0.4018187841624368
  0.9999807713948599  0.9999807713948599  0.5000246428973298
  0.3944077047366932  0.3944077047366932  0.5980500826429278
  0.6401680146619881  0.0085306441756217  0.6862654435882476
  0.0085306441756217  0.6401680146619881  0.6862654435882476
  0.7779226568049040  0.3933104603349022  0.8173023845808061
  0.3933104603349022  0.7779226568049040  0.8173023845808061
  0.2248423999747473  0.2248423999747473  0.8674946070973135
 
  0.00000000E+00  0.00000000E+00  0.00000000E+00
  0.00000000E+00  0.00000000E+00  0.00000000E+00
  0.00000000E+00  0.00000000E+00  0.00000000E+00
  0.00000000E+00  0.00000000E+00  0.00000000E+00
  0.00000000E+00  0.00000000E+00  0.00000000E+00
  0.00000000E+00  0.00000000E+00  0.00000000E+00
  0.00000000E+00  0.00000000E+00  0.00000000E+00
  0.00000000E+00  0.00000000E+00  0.00000000E+00
  0.00000000E+00  0.00000000E+00  0.00000000E+00
  0.00000000E+00  0.00000000E+00  0.00000000E+00
  0.00000000E+00  0.00000000E+00  0.00000000E+00
  0.00000000E+00  0.00000000E+00  0.00000000E+00
  0.00000000E+00  0.00000000E+00  0.00000000E+00
  0.00000000E+00  0.00000000E+00  0.00000000E+00
