Sr2 Br8                                 
   1.00000000000000     
     4.7379369428457618    1.2004376513124917    0.3947792803165485
     2.2153117585363424   10.1568553010664040    2.1058224387519551
    -0.1945617342284911   -1.9894458531732762    8.0556869727608937
   Sr   Br
     2     8
Direct
  0.1936259936210334  0.0574000476245828  0.2568546638088947
  0.8063066206069394  0.9425472533614396  0.7427370651491429
  0.8578493105727674  0.8892347063157260  0.1194092620909188
  0.8770223657753391  0.3702280599384480  0.1215480605013965
  0.6802153145729122  0.5649838812122425  0.3148196427370280
  0.4120598819883554  0.8340208599839301  0.5303983343622818
  0.5882902233955889  0.1657597956220656  0.4694152792646946
  0.3199872066837415  0.4349892651316551  0.6854554963569868
  0.1225734034602226  0.6297233390597512  0.8786019137569383
  0.1420696793230789  0.1107127917501458  0.8803602819717042
 
  0.00000000E+00  0.00000000E+00  0.00000000E+00
  0.00000000E+00  0.00000000E+00  0.00000000E+00
  0.00000000E+00  0.00000000E+00  0.00000000E+00
  0.00000000E+00  0.00000000E+00  0.00000000E+00
  0.00000000E+00  0.00000000E+00  0.00000000E+00
  0.00000000E+00  0.00000000E+00  0.00000000E+00
  0.00000000E+00  0.00000000E+00  0.00000000E+00
  0.00000000E+00  0.00000000E+00  0.00000000E+00
  0.00000000E+00  0.00000000E+00  0.00000000E+00
  0.00000000E+00  0.00000000E+00  0.00000000E+00
