Ba21 Al40                               
   1.00000000000000     
     5.3035394047148952   -9.1859999299169495    0.0000000000000000
     5.3035394047148952    9.1859999299169495    0.0000000000000000
     0.0000000000000000    0.0000000000000000   17.3597103522071414
   Ba   Al
    21    40
Direct
  0.9999999999999787  0.3342099385399351  0.3912768640895052
  0.6666669999999968  0.3333330000000032  0.3198357895669872
  0.6722541155782906  0.9999999999999574  0.6807160184564935
  0.3277458844217520  0.3277458844217520  0.6807160184564935
  0.0000000000000000  0.0000000000000000  0.1077091424088721
  0.0000000000000142  0.3237830806816646  0.6077320757552940
  0.3281141819250522  0.0000000000000142  0.0042406605355154
  0.9999999999999574  0.6722541155782906  0.6807160184564935
  0.6657900614600862  0.6657900614600862  0.3912768640895052
  0.3237830806816646  0.0000000000000142  0.6077320757552940
  0.3333330000000032  0.6666669999999968  0.1052867373225936
  0.9999999999999787  0.6648297210443062  0.8927285110375394
  0.6762169193183212  0.6762169193183212  0.6077320757552940
  0.3351702789557152  0.3351702789557152  0.8927285110375394
  0.6666669999999968  0.3333330000000032  0.1052867373225936
  0.3333330000000032  0.6666669999999968  0.3198357895669872
  0.0000000000000142  0.3281141819250522  0.0042406605355154
  0.3342099385399351  0.9999999999999787  0.3912768640895052
  0.6718858180749336  0.6718858180749336  0.0042406605355154
  0.6648297210443062  0.9999999999999787  0.8927285110375394
  0.0000000000000000  0.0000000000000000  0.3233399486220208
  0.3347767839092768  0.5201765822485882  0.5101944269051515
  0.1543249706790562  0.3332383749101524  0.2098296405219671
  0.4997930961173509  0.1628556541067496  0.7847828834153674
  0.8210865957688966  0.6667616250898973  0.2098296405219671
  0.4891374870106091  0.0000000000000142  0.2114305399355771
  0.0000000000000000  0.0000000000000000  0.5335050235017960
  0.3333330000000032  0.6666669999999968  0.9025085233137489
  0.1789134042310536  0.8456750293209438  0.2098296405219671
  0.1942341704986816  0.9999999999999929  0.7952920049398813
  0.0000000000000000  0.6708877365647510  0.3271993550106558
  0.3332383749101524  0.1543249706790562  0.2098296405219671
  0.2427175586130446  0.2427175586130446  0.4775148474949233
  0.8057658295013255  0.8057658295013255  0.7952920049398813
  0.6666669999999968  0.3333330000000032  0.9025085233137489
  0.0000000000000284  0.7572824413869341  0.4775148474949233
  0.5108625129893767  0.5108625129893767  0.2114305399355771
  0.8146002016606744  0.4798234177514331  0.5101944269051515
  0.5002069038826633  0.6630625579893774  0.7847828834153674
  0.0000000000000142  0.4891374870106091  0.2114305399355771
  0.8456750293209438  0.1789134042310536  0.2098296405219671
  0.0000000000000142  0.6647993559085563  0.0972483275242197
  0.3291122634352490  0.3291122634352490  0.3271993550106558
  0.3333330000000032  0.6666669999999968  0.6523381158881847
  0.9999999999999929  0.1942341704986816  0.7952920049398813
  0.6666669999999968  0.3333330000000032  0.6523381158881847
  0.1628556541067496  0.4997930961173509  0.7847828834153674
  0.4798234177514331  0.8146002016606744  0.5101944269051515
  0.1853997983392901  0.6652232160907374  0.5101944269051515
  0.6647993559085563  0.0000000000000142  0.0972483275242197
  0.3352006440914295  0.3352006440914295  0.0972483275242197
  0.8371443458932717  0.3369374420105871  0.7847828834153674
  0.6708877365647510  0.0000000000000000  0.3271993550106558
  0.5201765822485882  0.3347767839092768  0.5101944269051515
  0.6667616250898973  0.8210865957688966  0.2098296405219671
  0.7572824413869341  0.0000000000000284  0.4775148474949233
  0.6652232160907374  0.1853997983392901  0.5101944269051515
  0.3369374420105871  0.8371443458932717  0.7847828834153674
  0.0000000000000000  0.0000000000000000  0.9019205640496111
  0.6630625579893774  0.5002069038826633  0.7847828834153674
  0.0000000000000000  0.0000000000000000  0.6923726698409709
 
  0.00000000E+00  0.00000000E+00  0.00000000E+00
  0.00000000E+00  0.00000000E+00  0.00000000E+00
  0.00000000E+00  0.00000000E+00  0.00000000E+00
  0.00000000E+00  0.00000000E+00  0.00000000E+00
  0.00000000E+00  0.00000000E+00  0.00000000E+00
  0.00000000E+00  0.00000000E+00  0.00000000E+00
  0.00000000E+00  0.00000000E+00  0.00000000E+00
  0.00000000E+00  0.00000000E+00  0.00000000E+00
  0.00000000E+00  0.00000000E+00  0.00000000E+00
  0.00000000E+00  0.00000000E+00  0.00000000E+00
  0.00000000E+00  0.00000000E+00  0.00000000E+00
  0.00000000E+00  0.00000000E+00  0.00000000E+00
  0.00000000E+00  0.00000000E+00  0.00000000E+00
  0.00000000E+00  0.00000000E+00  0.00000000E+00
  0.00000000E+00  0.00000000E+00  0.00000000E+00
  0.00000000E+00  0.00000000E+00  0.00000000E+00
  0.00000000E+00  0.00000000E+00  0.00000000E+00
  0.00000000E+00  0.00000000E+00  0.00000000E+00
  0.00000000E+00  0.00000000E+00  0.00000000E+00
  0.00000000E+00  0.00000000E+00  0.00000000E+00
  0.00000000E+00  0.00000000E+00  0.00000000E+00
  0.00000000E+00  0.00000000E+00  0.00000000E+00
  0.00000000E+00  0.00000000E+00  0.00000000E+00
  0.00000000E+00  0.00000000E+00  0.00000000E+00
  0.00000000E+00  0.00000000E+00  0.00000000E+00
  0.00000000E+00  0.00000000E+00  0.00000000E+00
  0.00000000E+00  0.00000000E+00  0.00000000E+00
  0.00000000E+00  0.00000000E+00  0.00000000E+00
  0.00000000E+00  0.00000000E+00  0.00000000E+00
  0.00000000E+00  0.00000000E+00  0.00000000E+00
  0.00000000E+00  0.00000000E+00  0.00000000E+00
  0.00000000E+00  0.00000000E+00  0.00000000E+00
  0.00000000E+00  0.00000000E+00  0.00000000E+00
  0.00000000E+00  0.00000000E+00  0.00000000E+00
  0.00000000E+00  0.00000000E+00  0.00000000E+00
  0.00000000E+00  0.00000000E+00  0.00000000E+00
  0.00000000E+00  0.00000000E+00  0.00000000E+00
  0.00000000E+00  0.00000000E+00  0.00000000E+00
  0.00000000E+00  0.00000000E+00  0.00000000E+00
  0.00000000E+00  0.00000000E+00  0.00000000E+00
  0.00000000E+00  0.00000000E+00  0.00000000E+00
  0.00000000E+00  0.00000000E+00  0.00000000E+00
  0.00000000E+00  0.00000000E+00  0.00000000E+00
  0.00000000E+00  0.00000000E+00  0.00000000E+00
  0.00000000E+00  0.00000000E+00  0.00000000E+00
  0.00000000E+00  0.00000000E+00  0.00000000E+00
  0.00000000E+00  0.00000000E+00  0.00000000E+00
  0.00000000E+00  0.00000000E+00  0.00000000E+00
  0.00000000E+00  0.00000000E+00  0.00000000E+00
  0.00000000E+00  0.00000000E+00  0.00000000E+00
  0.00000000E+00  0.00000000E+00  0.00000000E+00
  0.00000000E+00  0.00000000E+00  0.00000000E+00
  0.00000000E+00  0.00000000E+00  0.00000000E+00
  0.00000000E+00  0.00000000E+00  0.00000000E+00
  0.00000000E+00  0.00000000E+00  0.00000000E+00
  0.00000000E+00  0.00000000E+00  0.00000000E+00
  0.00000000E+00  0.00000000E+00  0.00000000E+00
  0.00000000E+00  0.00000000E+00  0.00000000E+00
  0.00000000E+00  0.00000000E+00  0.00000000E+00
  0.00000000E+00  0.00000000E+00  0.00000000E+00
  0.00000000E+00  0.00000000E+00  0.00000000E+00
