In4 I2                                  
   1.00000000000000     
     8.8099761097325580    0.0000000000000000    0.0000000000000000
     0.0000000000000000    8.8099761097325580    0.0000000000000000
     0.0000000000000000    0.0000000000000000    3.8151322625993873
   In   I 
     4     2
Direct
  0.2773544869757885  0.2773544869757885  0.0000000000000000
  0.7226455130242115  0.7226455130242115  0.0000000000000000
  0.7773544869757885  0.2226455130242115  0.5000000000000000
  0.2226455130242115  0.7773544869757885  0.5000000000000000
  0.0000000000000000  0.0000000000000000  0.0000000000000000
  0.5000000000000000  0.5000000000000000  0.5000000000000000
 
  0.00000000E+00  0.00000000E+00  0.00000000E+00
  0.00000000E+00  0.00000000E+00  0.00000000E+00
  0.00000000E+00  0.00000000E+00  0.00000000E+00
  0.00000000E+00  0.00000000E+00  0.00000000E+00
  0.00000000E+00  0.00000000E+00  0.00000000E+00
  0.00000000E+00  0.00000000E+00  0.00000000E+00
