Be1 Al3 F6                              
   1.00000000000000     
    -2.0943882813280452    6.7415645889500793    2.7079207478281688
     1.5725928852006306   -6.9297431523369184    1.5725928852006299
     2.7079207478281688    6.7415645889500766   -2.0943882813280452
   F    Be   Al
     6     1     3
Direct
  0.3406204755344930  0.4999735401443388  0.3406204755344930
  0.7603790508524426  0.0000000000000000  0.2396209491475503
  0.8444951682640394  0.5052104769539412  0.8444951682640394
  0.1555048317359606  0.4947895230460588  0.1555048317359606
  0.6593795244655070  0.5000264598556612  0.6593795244655070
  0.2396209491475503  0.0000000000000000  0.7603790508524426
  0.0000000000000000  0.0000000000000000  0.0000000000000000
  0.7977949037911998  0.5000000000000000  0.2022050962088002
  0.5000000000000000  0.0000000000000000  0.5000000000000000
  0.2022050962088002  0.5000000000000000  0.7977949037911998
 
  0.00000000E+00  0.00000000E+00  0.00000000E+00
  0.00000000E+00  0.00000000E+00  0.00000000E+00
  0.00000000E+00  0.00000000E+00  0.00000000E+00
  0.00000000E+00  0.00000000E+00  0.00000000E+00
  0.00000000E+00  0.00000000E+00  0.00000000E+00
  0.00000000E+00  0.00000000E+00  0.00000000E+00
  0.00000000E+00  0.00000000E+00  0.00000000E+00
  0.00000000E+00  0.00000000E+00  0.00000000E+00
  0.00000000E+00  0.00000000E+00  0.00000000E+00
  0.00000000E+00  0.00000000E+00  0.00000000E+00
