Mg28 Tl11                               
   1.0000000000000000     
     4.8745365255625641   -0.0000000006268467   -0.4192597301232323
    -0.0768484954749286    7.3587781655534812   -0.8934790016460021
    -0.2041173813200571   -0.5582733821973618   26.1734005802995071
   Mg   Tl
    28    11
Direct
  0.8206319435869389  0.8568011172226093  0.6412638870958602
  0.5659447075416892  0.2868674361676895  0.1318904149813420
  0.7222360855832690  0.2262629163930967  0.4444711712485940
  0.6377826913278284  0.2165497471624249  0.2755653825426023
  0.3158955360348017  0.1696006113323278  0.6317910722433950
  0.8670310591316621  0.6424616563146657  0.7340621180707458
  0.5414412591923110  0.6523566859284031  0.0828815184712965
  0.9999999999933848  0.6324597314189191  0.9999999999970157
  0.6174913682427672  0.6013058734191787  0.2349817366159073
  0.9185504027193545  0.4795684462427090  0.8371018053275066
  0.2592571343172878  0.2431827076279447  0.5185142687623596
  0.2777639144132635  0.7817917451388325  0.5555288287515623
  0.9006984069423680  0.0344447870674358  0.8013958139881083
  0.3622173086935874  0.9409853646234581  0.7244346174582290
  0.4585587407914886  0.5694751674566945  0.9171184815262805
  0.6841044639443012  0.5378095390899276  0.3682089277509135
  0.4340552924574936  0.1549770211686692  0.8681095850211804
  0.1329689408709527  0.9084005382509446  0.2659388819334652
  0.0993015930488355  0.2330489730688541  0.1986041860155368
  0.7878780514307877  0.4735177759378431  0.5757561030928358
  0.3825086317645372  0.3663241368176955  0.7650182633789200
  0.5000000000176570  0.2975599362434238  0.0000000000037517
  0.7407428656822788  0.7246694388635788  0.4814857312365746
  0.9552477967107933  0.8719210254988070  0.9104955935954209
  0.0814495973008178  0.6424666409204676  0.1628981946676973
  0.2121219485480523  0.8977616728226749  0.4242438969152786
  0.1793680564113913  0.2155372301383380  0.3587361129073656
  0.0447522033065937  0.9614264318796941  0.0895044063988735
  0.6734957067008693  0.9271101609986303  0.3469914134229271
  0.1479308737401013  0.5257280203342845  0.2958617474851550
  0.7766664318327159  0.0665738895026919  0.5533338636565048
  0.9642939963703938  0.2771476485543261  0.9285879927466496
  0.3265042933141373  0.5801197475695119  0.6530085865711328
  0.8520691262445723  0.2298652728760331  0.7041382525203019
  0.0357060036369603  0.3485606558398189  0.0714120072475097
  0.5893057624752700  0.9354103210254721  0.1786105249425134
  0.4106942375274443  0.7567997960820847  0.8213894750555824
  0.2233335681701547  0.5132400258680718  0.4466661363466145
  0.4999999999808722  0.9039091071317316  0.0000000000064659

  0.00000000E+00  0.00000000E+00  0.00000000E+00
  0.00000000E+00  0.00000000E+00  0.00000000E+00
  0.00000000E+00  0.00000000E+00  0.00000000E+00
  0.00000000E+00  0.00000000E+00  0.00000000E+00
  0.00000000E+00  0.00000000E+00  0.00000000E+00
  0.00000000E+00  0.00000000E+00  0.00000000E+00
  0.00000000E+00  0.00000000E+00  0.00000000E+00
  0.00000000E+00  0.00000000E+00  0.00000000E+00
  0.00000000E+00  0.00000000E+00  0.00000000E+00
  0.00000000E+00  0.00000000E+00  0.00000000E+00
  0.00000000E+00  0.00000000E+00  0.00000000E+00
  0.00000000E+00  0.00000000E+00  0.00000000E+00
  0.00000000E+00  0.00000000E+00  0.00000000E+00
  0.00000000E+00  0.00000000E+00  0.00000000E+00
  0.00000000E+00  0.00000000E+00  0.00000000E+00
  0.00000000E+00  0.00000000E+00  0.00000000E+00
  0.00000000E+00  0.00000000E+00  0.00000000E+00
  0.00000000E+00  0.00000000E+00  0.00000000E+00
  0.00000000E+00  0.00000000E+00  0.00000000E+00
  0.00000000E+00  0.00000000E+00  0.00000000E+00
  0.00000000E+00  0.00000000E+00  0.00000000E+00
  0.00000000E+00  0.00000000E+00  0.00000000E+00
  0.00000000E+00  0.00000000E+00  0.00000000E+00
  0.00000000E+00  0.00000000E+00  0.00000000E+00
  0.00000000E+00  0.00000000E+00  0.00000000E+00
  0.00000000E+00  0.00000000E+00  0.00000000E+00
  0.00000000E+00  0.00000000E+00  0.00000000E+00
  0.00000000E+00  0.00000000E+00  0.00000000E+00
  0.00000000E+00  0.00000000E+00  0.00000000E+00
  0.00000000E+00  0.00000000E+00  0.00000000E+00
  0.00000000E+00  0.00000000E+00  0.00000000E+00
  0.00000000E+00  0.00000000E+00  0.00000000E+00
  0.00000000E+00  0.00000000E+00  0.00000000E+00
  0.00000000E+00  0.00000000E+00  0.00000000E+00
  0.00000000E+00  0.00000000E+00  0.00000000E+00
  0.00000000E+00  0.00000000E+00  0.00000000E+00
  0.00000000E+00  0.00000000E+00  0.00000000E+00
  0.00000000E+00  0.00000000E+00  0.00000000E+00
  0.00000000E+00  0.00000000E+00  0.00000000E+00
