Ca2Ga                                   
   1.00000000000000     
     0.0000000000000000    3.6751051291394488    3.6751051291394488
     3.6751051291394488    0.0000000000000000    3.6751051291394488
     3.6751051291394488    3.6751051291394488    0.0000000000000000
   Ca   Ga
     2     1
Direct
  0.2500000000000000  0.2500000000000000  0.2500000000000000
  0.7500000000000000  0.7500000000000000  0.7500000000000000
  0.0000000000000000  0.0000000000000000  0.0000000000000000
 
  0.00000000E+00  0.00000000E+00  0.00000000E+00
  0.00000000E+00  0.00000000E+00  0.00000000E+00
  0.00000000E+00  0.00000000E+00  0.00000000E+00
