Be1 In13                                
   1.00000000000000     
     6.5544553649871933   -4.8529806867191896   -0.0442533941390965
     6.5544553649871933    4.8529806867191896   -0.0442533941390965
    -1.3177747175005916    0.0000000000000000    5.8398630852857920
   Be   In
     1    13
Direct
  0.9998544378588647  0.9998544378588647  0.0004783379072322
  0.7946154307138471  0.7946154307138471  0.1094219858424523
  0.6040318746861786  0.2204215415296744  0.1855933750750509
  0.2204215415296744  0.6040318746861786  0.1855933750750509
  0.9889585355674413  0.3372995076650156  0.3154702295840082
  0.3372995076650156  0.9889585355674413  0.3154702295840082
  0.6171861695513385  0.6171861695513385  0.3772156196340504
  0.0000735108695054  0.0000735108695054  0.5009082334885377
  0.3827553380719095  0.3827553380719095  0.6221950973533552
  0.6622581100408027  0.0109258959401757  0.6841820888975505
  0.0109258959401757  0.6622581100408027  0.6841820888975505
  0.7795201955877573  0.3963461199064824  0.8141095314887110
  0.3963461199064824  0.7795201955877573  0.8141095314887110
  0.2056423320110312  0.2056423320110312  0.8910702756837523
 
  0.00000000E+00  0.00000000E+00  0.00000000E+00
  0.00000000E+00  0.00000000E+00  0.00000000E+00
  0.00000000E+00  0.00000000E+00  0.00000000E+00
  0.00000000E+00  0.00000000E+00  0.00000000E+00
  0.00000000E+00  0.00000000E+00  0.00000000E+00
  0.00000000E+00  0.00000000E+00  0.00000000E+00
  0.00000000E+00  0.00000000E+00  0.00000000E+00
  0.00000000E+00  0.00000000E+00  0.00000000E+00
  0.00000000E+00  0.00000000E+00  0.00000000E+00
  0.00000000E+00  0.00000000E+00  0.00000000E+00
  0.00000000E+00  0.00000000E+00  0.00000000E+00
  0.00000000E+00  0.00000000E+00  0.00000000E+00
  0.00000000E+00  0.00000000E+00  0.00000000E+00
  0.00000000E+00  0.00000000E+00  0.00000000E+00
