Mg4 In4 F20                             
   1.0000000000000000     
     4.8112254295533052   -0.0000000000000000    0.0000000000000003
    -0.0000000000000003    5.5545008604219532    0.0000000000000003
     0.0000000000000000   -0.0000000000000000   12.8298792455970627
   Mg   In   F 
     4     4    20
Direct
  0.7491789028496427  0.6583473915820548  0.6016446741149792
  0.2491789028496427  0.8416526084179452  0.3983553258850208
  0.2508210971503573  0.1583473915820548  0.8983553258850208
  0.7508210971503573  0.3416526084179452  0.1016446741149792
  0.2599661762630987  0.1550394385239073  0.6199459955957423
  0.7599661762630987  0.3449605614760927  0.3800540044042577
  0.7400338237369013  0.6550394385239073  0.8800540044042577
  0.2400338237369013  0.8449605614760927  0.1199459955957423
  0.9163604669598158  0.6621741315179648  0.4539184160650862
  0.4163604669598158  0.8378258684820352  0.5460815839349138
  0.0836395330401842  0.1621741315179648  0.0460815839349138
  0.5836395330401842  0.3378258684820352  0.9539184160650862
  0.3976590209857562  0.5345687592798072  0.3579464376594075
  0.8976590209857562  0.9654312407201928  0.6420535623405854
  0.6023409790142438  0.0345687592798072  0.1420535623405854
  0.1023409790142438  0.4654312407201928  0.8579464376594075
  0.0803392194240331  0.4818758555311291  0.6401154645625269
  0.5803392194240331  0.0181241444688709  0.3598845354374731
  0.9196607805759669  0.9818758555311362  0.8598845354374731
  0.4196607805759669  0.5181241444688638  0.1401154645625269
  0.5792354878544899  0.5895269848523697  0.7360903719533596
  0.0792354878544899  0.9104730151476303  0.2639096280466546
  0.4207645121455101  0.0895269848523697  0.7639096280466404
  0.9207645121455101  0.4104730151476303  0.2360903719533596
  0.5918097421797839  0.3441124773533986  0.5442854328476798
  0.0918097421797839  0.1558875226466014  0.4557145671523202
  0.4081902578202161  0.8441124773533986  0.9557145671523202
  0.9081902578202090  0.6558875226466014  0.0442854328476798

  0.00000000E+00  0.00000000E+00  0.00000000E+00
  0.00000000E+00  0.00000000E+00  0.00000000E+00
  0.00000000E+00  0.00000000E+00  0.00000000E+00
  0.00000000E+00  0.00000000E+00  0.00000000E+00
  0.00000000E+00  0.00000000E+00  0.00000000E+00
  0.00000000E+00  0.00000000E+00  0.00000000E+00
  0.00000000E+00  0.00000000E+00  0.00000000E+00
  0.00000000E+00  0.00000000E+00  0.00000000E+00
  0.00000000E+00  0.00000000E+00  0.00000000E+00
  0.00000000E+00  0.00000000E+00  0.00000000E+00
  0.00000000E+00  0.00000000E+00  0.00000000E+00
  0.00000000E+00  0.00000000E+00  0.00000000E+00
  0.00000000E+00  0.00000000E+00  0.00000000E+00
  0.00000000E+00  0.00000000E+00  0.00000000E+00
  0.00000000E+00  0.00000000E+00  0.00000000E+00
  0.00000000E+00  0.00000000E+00  0.00000000E+00
  0.00000000E+00  0.00000000E+00  0.00000000E+00
  0.00000000E+00  0.00000000E+00  0.00000000E+00
  0.00000000E+00  0.00000000E+00  0.00000000E+00
  0.00000000E+00  0.00000000E+00  0.00000000E+00
  0.00000000E+00  0.00000000E+00  0.00000000E+00
  0.00000000E+00  0.00000000E+00  0.00000000E+00
  0.00000000E+00  0.00000000E+00  0.00000000E+00
  0.00000000E+00  0.00000000E+00  0.00000000E+00
  0.00000000E+00  0.00000000E+00  0.00000000E+00
  0.00000000E+00  0.00000000E+00  0.00000000E+00
  0.00000000E+00  0.00000000E+00  0.00000000E+00
  0.00000000E+00  0.00000000E+00  0.00000000E+00
