Sr6 Al4 I24                             
   1.00000000000000     
    13.7072758314916907    0.0005628627705523    0.0000000000000000
    -0.0006832152902275   13.8421043231866445    0.0000000000000000
     0.0000000000000000    0.0000000000000000    8.1975126788957997
   I    Al   Sr
    24     4     6
Direct
  0.6406523088877876  0.1571834813150588  0.0000000000000000
  0.1404766038950598  0.3427112861576447  0.0000000000000000
  0.8618907432337721  0.6602187598002942  0.0000000000000000
  0.3621502214614978  0.8395995682436848  0.0000000000000000
  0.4985018013672402  0.0006312203133092  0.2672100122408381
  0.9986623657077160  0.4995772316051301  0.2672153774084975
  0.2016584892920577  0.0966718901012840  0.2322022500715804
  0.8983397318907862  0.1950522660283340  0.2369837014459719
  0.3982073458728976  0.3049747386449653  0.2369853752810727
  0.7016940202705086  0.4032849642150040  0.2322206291009721
  0.2974947298952699  0.5951552251713608  0.2324300448418768
  0.6034503061271010  0.6940752026403629  0.2370851512644663
  0.1036757664921879  0.8059558753121152  0.2370943587022794
  0.7974859757662216  0.9046970647038748  0.2324613196436474
  0.2016584892920577  0.0966718901012840  0.7677977499284196
  0.8983397318907862  0.1950522660283340  0.7630162985540281
  0.3982073458728976  0.3049747386449653  0.7630146247189273
  0.7016940202705086  0.4032849642150040  0.7677793708990279
  0.2974947298952699  0.5951552251713608  0.7675699551581232
  0.6034503061271010  0.6940752026403629  0.7629148487355337
  0.1036757664921879  0.8059558753121152  0.7629056412977206
  0.7974859757662216  0.9046970647038748  0.7675386803563526
  0.4985018013672402  0.0006312203133092  0.7327899877591619
  0.9986623657077160  0.4995772316051301  0.7327846225915025
  0.2833083301413026  0.2302438393736139  0.0000000000000000
  0.7833976761647037  0.2697716758888333  0.0000000000000000
  0.2177116219300927  0.7293855177322186  0.0000000000000000
  0.7175373367868261  0.7705509500700103  0.0000000000000000
  0.0000157764091782  0.0010562474364804  0.0000000000000000
  0.4999311082775790  0.4990198850911298  0.0000000000000000
  0.6777093899531081  0.0482281144922680  0.5000000000000000
  0.1777854292525589  0.4515689529804305  0.5000000000000000
  0.8193971039650165  0.5486593801938753  0.5000000000000000
  0.3192952842775085  0.9512509837529777  0.5000000000000000
 
  0.00000000E+00  0.00000000E+00  0.00000000E+00
  0.00000000E+00  0.00000000E+00  0.00000000E+00
  0.00000000E+00  0.00000000E+00  0.00000000E+00
  0.00000000E+00  0.00000000E+00  0.00000000E+00
  0.00000000E+00  0.00000000E+00  0.00000000E+00
  0.00000000E+00  0.00000000E+00  0.00000000E+00
  0.00000000E+00  0.00000000E+00  0.00000000E+00
  0.00000000E+00  0.00000000E+00  0.00000000E+00
  0.00000000E+00  0.00000000E+00  0.00000000E+00
  0.00000000E+00  0.00000000E+00  0.00000000E+00
  0.00000000E+00  0.00000000E+00  0.00000000E+00
  0.00000000E+00  0.00000000E+00  0.00000000E+00
  0.00000000E+00  0.00000000E+00  0.00000000E+00
  0.00000000E+00  0.00000000E+00  0.00000000E+00
  0.00000000E+00  0.00000000E+00  0.00000000E+00
  0.00000000E+00  0.00000000E+00  0.00000000E+00
  0.00000000E+00  0.00000000E+00  0.00000000E+00
  0.00000000E+00  0.00000000E+00  0.00000000E+00
  0.00000000E+00  0.00000000E+00  0.00000000E+00
  0.00000000E+00  0.00000000E+00  0.00000000E+00
  0.00000000E+00  0.00000000E+00  0.00000000E+00
  0.00000000E+00  0.00000000E+00  0.00000000E+00
  0.00000000E+00  0.00000000E+00  0.00000000E+00
  0.00000000E+00  0.00000000E+00  0.00000000E+00
  0.00000000E+00  0.00000000E+00  0.00000000E+00
  0.00000000E+00  0.00000000E+00  0.00000000E+00
  0.00000000E+00  0.00000000E+00  0.00000000E+00
  0.00000000E+00  0.00000000E+00  0.00000000E+00
  0.00000000E+00  0.00000000E+00  0.00000000E+00
  0.00000000E+00  0.00000000E+00  0.00000000E+00
  0.00000000E+00  0.00000000E+00  0.00000000E+00
  0.00000000E+00  0.00000000E+00  0.00000000E+00
  0.00000000E+00  0.00000000E+00  0.00000000E+00
  0.00000000E+00  0.00000000E+00  0.00000000E+00
