Sr40 In4                                
   1.0000000000000000     
     0.0000000000000000   10.5845422856062452   10.5845422856062452
    10.5845422856062452   -0.0000000000000000   10.5845422856062452
    10.5845422856062452   10.5845422856062452   -0.0000000000000000
   Sr   In
    40     4
Direct
  0.6180191618032893  0.6180191618032893  0.8819808381967107
  0.3680191618032893  0.6319808381967107  0.6319808381967107
  0.6319808381967107  0.3680191618032893  0.3680191618032893
  0.3680191618032893  0.3680191618032893  0.6319808381967107
  0.3680191618032893  0.6319808381967107  0.3680191618032893
  0.6319808381967107  0.3680191618032893  0.6319808381967107
  0.8819808381967107  0.6180191618032893  0.8819808381967107
  0.8819808381967107  0.6180191618032893  0.6180191618032893
  0.6180191618032893  0.8819808381967107  0.8819808381967107
  0.6180191618032893  0.8819808381967107  0.6180191618032893
  0.6319808381967107  0.6319808381967107  0.3680191618032893
  0.8819808381967107  0.8819808381967107  0.6180191618032893
  0.7926346754635603  0.0698824186282678  0.3448472304446071
  0.4573653245364397  0.4573653245364397  0.1801175813717322
  0.1801175813717322  0.9051527695553929  0.4573653245364397
  0.4573653245364397  0.9051527695553929  0.4573653245364397
  0.9051527695553929  0.4573653245364397  0.1801175813717322
  0.9051527695553929  0.4573653245364397  0.4573653245364397
  0.1801175813717322  0.4573653245364397  0.4573653245364397
  0.3448472304446071  0.0698824186282678  0.7926346754635603
  0.7926346754635603  0.0698824186282678  0.7926346754635603
  0.0698824186282678  0.7926346754635603  0.3448472304446071
  0.7926346754635603  0.7926346754635603  0.3448472304446071
  0.0698824186282678  0.3448472304446071  0.7926346754635603
  0.3448472304446071  0.7926346754635603  0.0698824186282678
  0.7926346754635603  0.7926346754635603  0.0698824186282678
  0.7926346754635603  0.3448472304446071  0.7926346754635603
  0.1801175813717322  0.4573653245364397  0.9051527695553929
  0.4573653245364397  0.4573653245364397  0.9051527695553929
  0.4573653245364397  0.9051527695553929  0.1801175813717322
  0.4573653245364397  0.1801175813717322  0.9051527695553929
  0.9051527695553929  0.1801175813717322  0.4573653245364397
  0.4573653245364397  0.1801175813717322  0.4573653245364397
  0.3448472304446071  0.7926346754635603  0.7926346754635603
  0.0698824186282678  0.7926346754635603  0.7926346754635603
  0.7926346754635603  0.3448472304446071  0.0698824186282678
  0.1250000000000000  0.1250000000000000  0.1250000000000000
  0.6250000000000000  0.1250000000000000  0.1250000000000000
  0.1250000000000000  0.1250000000000000  0.6250000000000000
  0.1250000000000000  0.6250000000000000  0.1250000000000000
  0.6250000000000000  0.6250000000000000  0.6250000000000000
  0.1250000000000000  0.6250000000000000  0.6250000000000000
  0.6250000000000000  0.6250000000000000  0.1250000000000000
  0.6250000000000000  0.1250000000000000  0.6250000000000000

  0.00000000E+00  0.00000000E+00  0.00000000E+00
  0.00000000E+00  0.00000000E+00  0.00000000E+00
  0.00000000E+00  0.00000000E+00  0.00000000E+00
  0.00000000E+00  0.00000000E+00  0.00000000E+00
  0.00000000E+00  0.00000000E+00  0.00000000E+00
  0.00000000E+00  0.00000000E+00  0.00000000E+00
  0.00000000E+00  0.00000000E+00  0.00000000E+00
  0.00000000E+00  0.00000000E+00  0.00000000E+00
  0.00000000E+00  0.00000000E+00  0.00000000E+00
  0.00000000E+00  0.00000000E+00  0.00000000E+00
  0.00000000E+00  0.00000000E+00  0.00000000E+00
  0.00000000E+00  0.00000000E+00  0.00000000E+00
  0.00000000E+00  0.00000000E+00  0.00000000E+00
  0.00000000E+00  0.00000000E+00  0.00000000E+00
  0.00000000E+00  0.00000000E+00  0.00000000E+00
  0.00000000E+00  0.00000000E+00  0.00000000E+00
  0.00000000E+00  0.00000000E+00  0.00000000E+00
  0.00000000E+00  0.00000000E+00  0.00000000E+00
  0.00000000E+00  0.00000000E+00  0.00000000E+00
  0.00000000E+00  0.00000000E+00  0.00000000E+00
  0.00000000E+00  0.00000000E+00  0.00000000E+00
  0.00000000E+00  0.00000000E+00  0.00000000E+00
  0.00000000E+00  0.00000000E+00  0.00000000E+00
  0.00000000E+00  0.00000000E+00  0.00000000E+00
  0.00000000E+00  0.00000000E+00  0.00000000E+00
  0.00000000E+00  0.00000000E+00  0.00000000E+00
  0.00000000E+00  0.00000000E+00  0.00000000E+00
  0.00000000E+00  0.00000000E+00  0.00000000E+00
  0.00000000E+00  0.00000000E+00  0.00000000E+00
  0.00000000E+00  0.00000000E+00  0.00000000E+00
  0.00000000E+00  0.00000000E+00  0.00000000E+00
  0.00000000E+00  0.00000000E+00  0.00000000E+00
  0.00000000E+00  0.00000000E+00  0.00000000E+00
  0.00000000E+00  0.00000000E+00  0.00000000E+00
  0.00000000E+00  0.00000000E+00  0.00000000E+00
  0.00000000E+00  0.00000000E+00  0.00000000E+00
  0.00000000E+00  0.00000000E+00  0.00000000E+00
  0.00000000E+00  0.00000000E+00  0.00000000E+00
  0.00000000E+00  0.00000000E+00  0.00000000E+00
  0.00000000E+00  0.00000000E+00  0.00000000E+00
  0.00000000E+00  0.00000000E+00  0.00000000E+00
  0.00000000E+00  0.00000000E+00  0.00000000E+00
  0.00000000E+00  0.00000000E+00  0.00000000E+00
  0.00000000E+00  0.00000000E+00  0.00000000E+00
