Ca8 Tl4 F28                             
   1.0000000000000000     
     7.8563257920980432   -0.0006525731629890   -0.0192778254692943
    -0.0005490604875807    6.9111436234068915    0.0001749127818033
    -0.0253928782137184    0.0003863003877946   10.1900359994851080
   Tl   Ca   F 
     4     8    28
Direct
  0.3467550166723754  0.2817631740584901  0.0680708801592615
  0.8710284805095370  0.2008459207091420  0.4442920819825744
  0.1289987813265654  0.7008235328621097  0.5556834807489537
  0.6532516179629226  0.7817594582249399  0.9318933971035506
  0.8507781166095114  0.2316835708135727  0.0841689883473933
  0.3371126141782526  0.7645361572667682  0.2548279841266776
  0.8604791389711437  0.7170387030639276  0.2481757473796762
  0.3823304027079075  0.2551604909181435  0.4344550557012994
  0.6177485346003095  0.7551492866322960  0.5655303472671918
  0.1395411951466272  0.2169818071967171  0.7518079398004787
  0.6629206119076443  0.2645270979689585  0.7451581932220961
  0.1491921902316236  0.7315894536700611  0.9158394590472838
  0.4141806065646065  0.7265340729354079  0.0314461275313178
  0.7757457946468662  0.5592716743399464  0.0555156609990348
  0.7167940490580875  0.9402525111748190  0.1130796173015725
  0.0958441220551620  0.7859895236976300  0.1244237127960943
  0.0973361662379375  0.3808053213525042  0.1206076076266669
  0.3911333997871651  0.0805480327932457  0.2294735821105718
  0.4182563745759822  0.4476880215644030  0.2435657944115235
  0.9630590320727919  0.0522291771277850  0.2757402285581421
  0.7857893164456513  0.3839154966558027  0.2821138537249723
  0.6151122599327437  0.0786679927152392  0.4848892772676194
  0.6022333369824437  0.7497162027401316  0.3418987219776994
  0.1058720516971263  0.6064986509804484  0.3525398587588811
  0.2641930558969676  0.9414001938878016  0.4488912230263651
  0.8831824463919702  0.8156502707343734  0.4834392321918344
  0.1168893051881312  0.3155782662997240  0.5165259005331251
  0.8940921810684088  0.1065241437166620  0.6474469323834811
  0.7358306862177670  0.4414002233470100  0.5510596080510624
  0.3978047502343713  0.2497077773991876  0.6580769160973219
  0.3849026557283111  0.5787005572274566  0.5150846958418285
  0.0369601141411380  0.5521164893651473  0.7242132459811188
  0.2141642431017701  0.8838969567250530  0.7178757981395307
  0.6089965924018159  0.5805296018372843  0.7704858369746788
  0.5816909518435835  0.9476652547216773  0.7564115472367661
  0.9026980564856402  0.8806885015764152  0.8792607325729946
  0.9041923635532072  0.2859261832787823  0.8755784771376938
  0.2242892554927280  0.0592330713255080  0.9444577734049560
  0.2832911856432432  0.4402599376038978  0.8868551672283260
  0.5858289457298653  0.2265472394915093  0.9685393152483499

  0.00000000E+00  0.00000000E+00  0.00000000E+00
  0.00000000E+00  0.00000000E+00  0.00000000E+00
  0.00000000E+00  0.00000000E+00  0.00000000E+00
  0.00000000E+00  0.00000000E+00  0.00000000E+00
  0.00000000E+00  0.00000000E+00  0.00000000E+00
  0.00000000E+00  0.00000000E+00  0.00000000E+00
  0.00000000E+00  0.00000000E+00  0.00000000E+00
  0.00000000E+00  0.00000000E+00  0.00000000E+00
  0.00000000E+00  0.00000000E+00  0.00000000E+00
  0.00000000E+00  0.00000000E+00  0.00000000E+00
  0.00000000E+00  0.00000000E+00  0.00000000E+00
  0.00000000E+00  0.00000000E+00  0.00000000E+00
  0.00000000E+00  0.00000000E+00  0.00000000E+00
  0.00000000E+00  0.00000000E+00  0.00000000E+00
  0.00000000E+00  0.00000000E+00  0.00000000E+00
  0.00000000E+00  0.00000000E+00  0.00000000E+00
  0.00000000E+00  0.00000000E+00  0.00000000E+00
  0.00000000E+00  0.00000000E+00  0.00000000E+00
  0.00000000E+00  0.00000000E+00  0.00000000E+00
  0.00000000E+00  0.00000000E+00  0.00000000E+00
  0.00000000E+00  0.00000000E+00  0.00000000E+00
  0.00000000E+00  0.00000000E+00  0.00000000E+00
  0.00000000E+00  0.00000000E+00  0.00000000E+00
  0.00000000E+00  0.00000000E+00  0.00000000E+00
  0.00000000E+00  0.00000000E+00  0.00000000E+00
  0.00000000E+00  0.00000000E+00  0.00000000E+00
  0.00000000E+00  0.00000000E+00  0.00000000E+00
  0.00000000E+00  0.00000000E+00  0.00000000E+00
  0.00000000E+00  0.00000000E+00  0.00000000E+00
  0.00000000E+00  0.00000000E+00  0.00000000E+00
  0.00000000E+00  0.00000000E+00  0.00000000E+00
  0.00000000E+00  0.00000000E+00  0.00000000E+00
  0.00000000E+00  0.00000000E+00  0.00000000E+00
  0.00000000E+00  0.00000000E+00  0.00000000E+00
  0.00000000E+00  0.00000000E+00  0.00000000E+00
  0.00000000E+00  0.00000000E+00  0.00000000E+00
  0.00000000E+00  0.00000000E+00  0.00000000E+00
  0.00000000E+00  0.00000000E+00  0.00000000E+00
  0.00000000E+00  0.00000000E+00  0.00000000E+00
  0.00000000E+00  0.00000000E+00  0.00000000E+00
