Be10 Tl12                               
   1.0000000000000000     
    -3.1322614304629846   -5.4295289410038654    0.0000000000000000
    -3.1834903521233668    5.4605225616795616    0.0000000000000000
     0.0000000000000000    0.0000000000000000  -13.8297648770288077
   Be   Tl
    10    12
Direct
  0.6192364285091969  0.6636038579693420  0.2500000000000000
  0.2200771297300150  0.4666862886129479  0.2500000000000000
  0.4185397063468628  0.8618464161458874  0.2500000000000000
  0.0475189541485719  0.6697349499925309  0.7500000000000000
  0.2482546006374875  0.4714986503946079  0.7500000000000000
  0.4467160084658630  0.8666533298007550  0.7500000000000000
  0.9387905163991164  0.8759676396767802  0.0003676984064782
  0.9387905163991164  0.8759676396767802  0.4996323015935218
  0.7279746247616075  0.4573407868520931  0.9996797894707115
  0.7279746247616075  0.4573407868520931  0.5003202105292957
  0.7839263042842575  0.0620863301436430  0.1247756838576919
  0.3868117149697028  0.2678637659214829  0.1243169355894977
  0.0458319080712002  0.6647810815660620  0.1316752042580021
  0.7839263042842575  0.0620863301436430  0.3752243161423081
  0.3868117149697028  0.2678637659214829  0.3756830644105023
  0.0458319080712002  0.6647810815660620  0.3683247957419979
  0.2797431533028032  0.0654966940599380  0.6243385109807775
  0.8826083446412625  0.2712116397653332  0.6248079737778411
  0.6208420196510502  0.6685403155566263  0.6316675823204037
  0.2797431533028032  0.0654966940599380  0.8756614890192225
  0.8826083446412625  0.2712116397653332  0.8751920262221589
  0.6208420196510502  0.6685403155566263  0.8683324176795963

  0.00000000E+00  0.00000000E+00  0.00000000E+00
  0.00000000E+00  0.00000000E+00  0.00000000E+00
  0.00000000E+00  0.00000000E+00  0.00000000E+00
  0.00000000E+00  0.00000000E+00  0.00000000E+00
  0.00000000E+00  0.00000000E+00  0.00000000E+00
  0.00000000E+00  0.00000000E+00  0.00000000E+00
  0.00000000E+00  0.00000000E+00  0.00000000E+00
  0.00000000E+00  0.00000000E+00  0.00000000E+00
  0.00000000E+00  0.00000000E+00  0.00000000E+00
  0.00000000E+00  0.00000000E+00  0.00000000E+00
  0.00000000E+00  0.00000000E+00  0.00000000E+00
  0.00000000E+00  0.00000000E+00  0.00000000E+00
  0.00000000E+00  0.00000000E+00  0.00000000E+00
  0.00000000E+00  0.00000000E+00  0.00000000E+00
  0.00000000E+00  0.00000000E+00  0.00000000E+00
  0.00000000E+00  0.00000000E+00  0.00000000E+00
  0.00000000E+00  0.00000000E+00  0.00000000E+00
  0.00000000E+00  0.00000000E+00  0.00000000E+00
  0.00000000E+00  0.00000000E+00  0.00000000E+00
  0.00000000E+00  0.00000000E+00  0.00000000E+00
  0.00000000E+00  0.00000000E+00  0.00000000E+00
  0.00000000E+00  0.00000000E+00  0.00000000E+00
