Ga3Cl                                   
   1.00000000000000     
    -2.0585868232921678    2.0585868232921674    5.3178412450682666
     2.0585868232921674   -2.0585868232921678    5.3178412450682666
     2.0585868232921678    2.0585868232921678   -5.3178412450682666
   Cl   Ga
     1     3
Direct
  0.0000000000000000  0.0000000000000000  0.0000000000000000
  0.7500000000000000  0.2500000000000000  0.5000000000000000
  0.2500000000000000  0.7500000000000000  0.5000000000000000
  0.5000000000000000  0.5000000000000000  0.0000000000000000
 
  0.00000000E+00  0.00000000E+00  0.00000000E+00
  0.00000000E+00  0.00000000E+00  0.00000000E+00
  0.00000000E+00  0.00000000E+00  0.00000000E+00
  0.00000000E+00  0.00000000E+00  0.00000000E+00
