Mg1 Al13                                
   1.00000000000000     
     5.6929060992410081   -3.9361134042268255   -0.0173929881687291
     5.6929060992410081    3.9361134042268255   -0.0173929881687291
    -1.1277824660498112    0.0000000000000000    5.4539926257035471
   Mg   Al
     1    13
Direct
  0.9999911076535426  0.9999911076535426  0.9999990371386218
  0.7742672039562137  0.7742672039562137  0.1317565364550504
  0.6105069324123633  0.2307341730856578  0.1772452967550251
  0.2307341730856578  0.6105069324123633  0.1772452967550251
  0.0015056931050808  0.3653481560206799  0.2974270469576012
  0.3653481560206799  0.0015056931050808  0.2974270469576012
  0.6118116003268526  0.6118116003268526  0.4223984337556530
  0.9999940137259671  0.9999940137259671  0.4999998335057825
  0.3881720810482179  0.3881720810482179  0.5776054333078449
  0.6346358798387541  0.9984774115084036  0.7025682439160832
  0.9984774115084036  0.6346358798387541  0.7025682439160832
  0.7692501415648607  0.3894771836874824  0.8227561437622768
  0.3894771836874824  0.7692501415648607  0.8227561437622768
  0.2257174220659195  0.2257174220659195  0.8682472630550961
 
  0.00000000E+00  0.00000000E+00  0.00000000E+00
  0.00000000E+00  0.00000000E+00  0.00000000E+00
  0.00000000E+00  0.00000000E+00  0.00000000E+00
  0.00000000E+00  0.00000000E+00  0.00000000E+00
  0.00000000E+00  0.00000000E+00  0.00000000E+00
  0.00000000E+00  0.00000000E+00  0.00000000E+00
  0.00000000E+00  0.00000000E+00  0.00000000E+00
  0.00000000E+00  0.00000000E+00  0.00000000E+00
  0.00000000E+00  0.00000000E+00  0.00000000E+00
  0.00000000E+00  0.00000000E+00  0.00000000E+00
  0.00000000E+00  0.00000000E+00  0.00000000E+00
  0.00000000E+00  0.00000000E+00  0.00000000E+00
  0.00000000E+00  0.00000000E+00  0.00000000E+00
  0.00000000E+00  0.00000000E+00  0.00000000E+00
