Ca2 In2 Br10                            
   1.00000000000000     
    -5.7035186312045267   -4.2158345307478235    0.5665369681941392
     5.8048026516140023   -4.3560498579132547    0.0852679794599758
    -4.4743377528414481   -0.6946334881421629   10.0944479844950159
   In   Ca   Br
     2     2    10
Direct
  0.9844619060377298  0.9684453276263980  0.9556008971961845
  0.0112155815627730  0.0286119269585114  0.4906555931574488
  0.4887432291965155  0.4816808790439353  0.2898977496049682
  0.5301333150941545  0.5332104604443089  0.7164689065134695
  0.7485949651158634  0.6238554421020908  0.0350617053449511
  0.6539958126443253  0.1213180327854104  0.1302744596307406
  0.0838433851765288  0.2036293918008880  0.2916295820150694
  0.1985838325568565  0.7367993664784009  0.3304913201464856
  0.6267717583939643  0.7691239902527016  0.5014258521365704
  0.3929073657528193  0.2547833355442251  0.5087523170418962
  0.7971363672332572  0.2688558965189216  0.6958521028442206
  0.9475074551265550  0.8240262708076003  0.7124885878919471
  0.3323414379634428  0.8559473916351621  0.9115292253844771
  0.2036625881451926  0.3296122880014849  0.9295697010915731
 
  0.00000000E+00  0.00000000E+00  0.00000000E+00
  0.00000000E+00  0.00000000E+00  0.00000000E+00
  0.00000000E+00  0.00000000E+00  0.00000000E+00
  0.00000000E+00  0.00000000E+00  0.00000000E+00
  0.00000000E+00  0.00000000E+00  0.00000000E+00
  0.00000000E+00  0.00000000E+00  0.00000000E+00
  0.00000000E+00  0.00000000E+00  0.00000000E+00
  0.00000000E+00  0.00000000E+00  0.00000000E+00
  0.00000000E+00  0.00000000E+00  0.00000000E+00
  0.00000000E+00  0.00000000E+00  0.00000000E+00
  0.00000000E+00  0.00000000E+00  0.00000000E+00
  0.00000000E+00  0.00000000E+00  0.00000000E+00
  0.00000000E+00  0.00000000E+00  0.00000000E+00
  0.00000000E+00  0.00000000E+00  0.00000000E+00
