Be4 Ga4 Cl20                            
   1.0000000000000000     
     6.9766733933123222   -0.0000000000000002    0.0000000000000005
    -0.0000000000000008    9.2159281466165179    0.0000000000000006
     0.0000000000000004    0.0000000000000006   16.9632078023971076
   Be   Ga   Cl
     4     4    20
Direct
  0.0480865455813344  0.6338752641996308  0.5938729762451871
  0.5480865455813344  0.8661247358003692  0.4061270237548200
  0.9519134544186656  0.1338752641996308  0.9061270237548129
  0.4519134544186656  0.3661247358003692  0.0938729762451871
  0.2790435501004183  0.9889274465621440  0.5779188625897120
  0.7790435501004183  0.5110725534378560  0.4220811374102880
  0.7209564498995817  0.4889274465621511  0.9220811374102880
  0.2209564498995817  0.0110725534378489  0.0779188625897120
  0.0023645163808510  0.6727908307713832  0.4798557862002468
  0.5023645163808510  0.8272091692286168  0.5201442137997532
  0.9976354836191490  0.1727908307713832  0.0201442137997532
  0.4976354836191490  0.3272091692286168  0.9798557862002468
  0.6316240038656318  0.6914592090415255  0.3454829569507751
  0.1316240038656318  0.8085407909584745  0.6545170430492178
  0.3683759961343682  0.1914592090415255  0.1545170430492178
  0.8683759961343682  0.3085407909584745  0.8454829569507751
  0.0178959147843614  0.4579545204423994  0.6433398450520613
  0.5178959147843614  0.0420454795576077  0.3566601549479316
  0.9821040852156386  0.9579545204423923  0.8566601549479387
  0.4821040852156386  0.5420454795576077  0.1433398450520613
  0.4358350694648792  0.1194804014688913  0.6587314060546987
  0.9358350694648792  0.3805195985311087  0.3412685939453013
  0.5641649305351208  0.6194804014688913  0.8412685939453013
  0.0641649305351208  0.8805195985311087  0.1587314060546987
  0.5811684802818604  0.4306878526613005  0.5068123870396519
  0.0811684802818604  0.0693121473386995  0.4931876129603481
  0.4188315197181396  0.9306878526613005  0.9931876129603481
  0.9188315197181396  0.5693121473386995  0.0068123870396519

  0.00000000E+00  0.00000000E+00  0.00000000E+00
  0.00000000E+00  0.00000000E+00  0.00000000E+00
  0.00000000E+00  0.00000000E+00  0.00000000E+00
  0.00000000E+00  0.00000000E+00  0.00000000E+00
  0.00000000E+00  0.00000000E+00  0.00000000E+00
  0.00000000E+00  0.00000000E+00  0.00000000E+00
  0.00000000E+00  0.00000000E+00  0.00000000E+00
  0.00000000E+00  0.00000000E+00  0.00000000E+00
  0.00000000E+00  0.00000000E+00  0.00000000E+00
  0.00000000E+00  0.00000000E+00  0.00000000E+00
  0.00000000E+00  0.00000000E+00  0.00000000E+00
  0.00000000E+00  0.00000000E+00  0.00000000E+00
  0.00000000E+00  0.00000000E+00  0.00000000E+00
  0.00000000E+00  0.00000000E+00  0.00000000E+00
  0.00000000E+00  0.00000000E+00  0.00000000E+00
  0.00000000E+00  0.00000000E+00  0.00000000E+00
  0.00000000E+00  0.00000000E+00  0.00000000E+00
  0.00000000E+00  0.00000000E+00  0.00000000E+00
  0.00000000E+00  0.00000000E+00  0.00000000E+00
  0.00000000E+00  0.00000000E+00  0.00000000E+00
  0.00000000E+00  0.00000000E+00  0.00000000E+00
  0.00000000E+00  0.00000000E+00  0.00000000E+00
  0.00000000E+00  0.00000000E+00  0.00000000E+00
  0.00000000E+00  0.00000000E+00  0.00000000E+00
  0.00000000E+00  0.00000000E+00  0.00000000E+00
  0.00000000E+00  0.00000000E+00  0.00000000E+00
  0.00000000E+00  0.00000000E+00  0.00000000E+00
  0.00000000E+00  0.00000000E+00  0.00000000E+00
