Sr4 B2 F10                              
   1.00000000000000     
     7.7252219716143031   -0.0912828523573176   -0.0206364177292345
    -0.0912828523573173    7.7252219716142996   -0.0206364177292339
     3.8512243215276674    3.8512243215276669    3.8377786968862351
   F    Sr   B 
    10     4     2
Direct
  0.1960327972600808  0.7168437412803357  0.4451973848226345
  0.7168437412803357  0.1960327972600808  0.4451973848226345
  0.9216049153206001  0.1874030383867407  0.9545462243541607
  0.2294910257425755  0.2294910257425755  0.3409591770101201
  0.4907455664852094  0.4907455664852094  0.3408307026413340
  0.1874030383867407  0.9216049153206001  0.9545462243541607
  0.8995850501104812  0.4223994589779565  0.4463626862375634
  0.5761195992783854  0.5761195992783854  0.6543524678632267
  0.8318109359940848  0.8318109359940848  0.6511292056349447
  0.4223994589779565  0.8995850501104812  0.4463626862375634
  0.2036967397210745  0.2036967397210745  0.0029426345423857
  0.6859972889502544  0.3813378409537265  0.9966611339307434
  0.3813378409537265  0.6859972889502544  0.9966611339307363
  0.8552990961147486  0.8552990961147486  0.0028699853383003
  0.7041965724789065  0.1975363329449280  0.6606904841397423
  0.1975363329449280  0.7041965724789065  0.6606904841397423
 
  0.00000000E+00  0.00000000E+00  0.00000000E+00
  0.00000000E+00  0.00000000E+00  0.00000000E+00
  0.00000000E+00  0.00000000E+00  0.00000000E+00
  0.00000000E+00  0.00000000E+00  0.00000000E+00
  0.00000000E+00  0.00000000E+00  0.00000000E+00
  0.00000000E+00  0.00000000E+00  0.00000000E+00
  0.00000000E+00  0.00000000E+00  0.00000000E+00
  0.00000000E+00  0.00000000E+00  0.00000000E+00
  0.00000000E+00  0.00000000E+00  0.00000000E+00
  0.00000000E+00  0.00000000E+00  0.00000000E+00
  0.00000000E+00  0.00000000E+00  0.00000000E+00
  0.00000000E+00  0.00000000E+00  0.00000000E+00
  0.00000000E+00  0.00000000E+00  0.00000000E+00
  0.00000000E+00  0.00000000E+00  0.00000000E+00
  0.00000000E+00  0.00000000E+00  0.00000000E+00
  0.00000000E+00  0.00000000E+00  0.00000000E+00
