Be2 In2 Br10                            
   1.00000000000000     
     4.9843034984032180   -5.0540181698689679   -0.4718059254743587
     4.9862505163679272    5.0546229162289213   -0.4663175106769923
    -4.2883260234931218    0.0039466550592573    9.1619158596661432
   In   Be   Br
     2     2    10
Direct
  0.9997329442150118  0.9999264522640487  0.9999886170333028
  0.9999969367762773  0.9998244225087660  0.4999903241485057
  0.3690458474064471  0.6311285977328680  0.2505907894515005
  0.6311266620189286  0.3689241550009186  0.7494519584028794
  0.2481394226888156  0.7160598989951694  0.0537306600638274
  0.3374365411021856  0.2888224552335217  0.1668472193222712
  0.8938090424478418  0.1019580349773079  0.2487360640464829
  0.7122485374810736  0.6615738636473836  0.3352328787750878
  0.2854457627424836  0.7535869685626722  0.4476818222048209
  0.7163277420795566  0.2481613337617645  0.5530469277536625
  0.2880176211522780  0.3379785681908274  0.6641880405412479
  0.1054144986782148  0.8973725101288323  0.7510043751821129
  0.6620130649513172  0.7112148454282519  0.8336293634062173
  0.7514453762595750  0.2836678935676602  0.9461809596680624
 
  0.00000000E+00  0.00000000E+00  0.00000000E+00
  0.00000000E+00  0.00000000E+00  0.00000000E+00
  0.00000000E+00  0.00000000E+00  0.00000000E+00
  0.00000000E+00  0.00000000E+00  0.00000000E+00
  0.00000000E+00  0.00000000E+00  0.00000000E+00
  0.00000000E+00  0.00000000E+00  0.00000000E+00
  0.00000000E+00  0.00000000E+00  0.00000000E+00
  0.00000000E+00  0.00000000E+00  0.00000000E+00
  0.00000000E+00  0.00000000E+00  0.00000000E+00
  0.00000000E+00  0.00000000E+00  0.00000000E+00
  0.00000000E+00  0.00000000E+00  0.00000000E+00
  0.00000000E+00  0.00000000E+00  0.00000000E+00
  0.00000000E+00  0.00000000E+00  0.00000000E+00
  0.00000000E+00  0.00000000E+00  0.00000000E+00
