Ba1 Tl12                                
   1.0000000000000000     
     0.0000000000000000    6.5347717989000511    6.5347717989000520
     6.5347717989000520   -0.0000000000000000    6.5347717989000520
     6.5347717989000520    6.5347717989000511    0.0000000000000000
   Tl   Ba
    12     1
Direct
  0.8391500539119292  0.5000000000000000  0.1608499460880708
  0.5000000000000000  0.8391500539119292  0.1608499460880708
  0.5000000000000000  0.5000000000000000  0.1608499460880708
  0.5000000000000000  0.1608499460880708  0.5000000000000000
  0.8391500539119292  0.1608499460880708  0.5000000000000000
  0.1608499460880708  0.5000000000000000  0.5000000000000000
  0.8391500539119292  0.5000000000000000  0.5000000000000000
  0.5000000000000000  0.8391500539119292  0.5000000000000000
  0.1608499460880708  0.8391500539119292  0.5000000000000000
  0.5000000000000000  0.1608499460880708  0.8391500539119292
  0.5000000000000000  0.5000000000000000  0.8391500539119292
  0.1608499460880708  0.5000000000000000  0.8391500539119292
  0.0000000000000000  0.0000000000000000  0.0000000000000000

  0.00000000E+00  0.00000000E+00  0.00000000E+00
  0.00000000E+00  0.00000000E+00  0.00000000E+00
  0.00000000E+00  0.00000000E+00  0.00000000E+00
  0.00000000E+00  0.00000000E+00  0.00000000E+00
  0.00000000E+00  0.00000000E+00  0.00000000E+00
  0.00000000E+00  0.00000000E+00  0.00000000E+00
  0.00000000E+00  0.00000000E+00  0.00000000E+00
  0.00000000E+00  0.00000000E+00  0.00000000E+00
  0.00000000E+00  0.00000000E+00  0.00000000E+00
  0.00000000E+00  0.00000000E+00  0.00000000E+00
  0.00000000E+00  0.00000000E+00  0.00000000E+00
  0.00000000E+00  0.00000000E+00  0.00000000E+00
  0.00000000E+00  0.00000000E+00  0.00000000E+00
