CaCl3                                   
   1.00000000000000     
    -2.0738432160009701    2.0738432160009701    5.2534386623861122
     2.0738432160009701   -2.0738432160009701    5.2534386623861122
     2.0738432160009701    2.0738432160009701   -5.2534386623861122
   Ca   Cl
     1     3
Direct
  0.0000000000000000  0.0000000000000000  0.0000000000000000
  0.5000000000000000  0.5000000000000000  0.0000000000000000
  0.7500000000000000  0.2500000000000000  0.5000000000000000
  0.2500000000000000  0.7500000000000000  0.5000000000000000
 
  0.00000000E+00  0.00000000E+00  0.00000000E+00
  0.00000000E+00  0.00000000E+00  0.00000000E+00
  0.00000000E+00  0.00000000E+00  0.00000000E+00
  0.00000000E+00  0.00000000E+00  0.00000000E+00
