Be20 Al4                                
   1.00000000000000     
     4.0414669496403377    0.0000000000000000    0.0000000000000000
     0.0000000000000000    5.8266249417620566   -0.0001999572124168
     0.0000000000000000   -0.0002694334127096   10.4558238803849921
   Be   Al
    20     4
Direct
  0.5000000000000000  0.4121148296517418  0.0196515160165092
  0.2509318361923789  0.7032497991654836  0.1486785148994016
  0.7490681638076211  0.7032497991654836  0.1486785148994016
  0.0000000000000000  0.3731322604263383  0.1489769886223442
  0.5000000000000000  0.2348743435249290  0.2109641462855478
  0.2495160741507902  0.4931349095466828  0.3252897286044742
  0.7504839258492098  0.4931349095466828  0.3252897286044742
  0.0000000000000000  0.1592093788596074  0.3183569010556226
  0.5000000000000000  0.2435048642383961  0.4446179989854926
  0.0000000000000000  0.3953616231274566  0.4890734497148230
  0.5000000000000000  0.5879169750706552  0.5196080995367467
  0.2509340417975778  0.2968988861584450  0.6486500470434819
  0.7490659582024222  0.2968988861584450  0.6486500470434819
  0.0000000000000000  0.6269426513035654  0.6489924562919356
  0.5000000000000000  0.7650076185277968  0.7109658908509786
  0.2495234757048621  0.5068886062221125  0.8253060505574012
  0.7504765242951379  0.5068886062221125  0.8253060505574012
  0.0000000000000000  0.8407349828197326  0.8183763070951358
  0.5000000000000000  0.7565468015960377  0.9446416296364717
  0.0000000000000000  0.6047515117344702  0.9890966587587258
  0.0000000000000000  0.0363436526181715  0.0315747546580454
  0.5000000000000000  0.8761115254600682  0.3398114525805909
  0.0000000000000000  0.9637230387725566  0.5315788405859010
  0.5000000000000000  0.1238895400830060  0.8397642271156087
 
  0.00000000E+00  0.00000000E+00  0.00000000E+00
  0.00000000E+00  0.00000000E+00  0.00000000E+00
  0.00000000E+00  0.00000000E+00  0.00000000E+00
  0.00000000E+00  0.00000000E+00  0.00000000E+00
  0.00000000E+00  0.00000000E+00  0.00000000E+00
  0.00000000E+00  0.00000000E+00  0.00000000E+00
  0.00000000E+00  0.00000000E+00  0.00000000E+00
  0.00000000E+00  0.00000000E+00  0.00000000E+00
  0.00000000E+00  0.00000000E+00  0.00000000E+00
  0.00000000E+00  0.00000000E+00  0.00000000E+00
  0.00000000E+00  0.00000000E+00  0.00000000E+00
  0.00000000E+00  0.00000000E+00  0.00000000E+00
  0.00000000E+00  0.00000000E+00  0.00000000E+00
  0.00000000E+00  0.00000000E+00  0.00000000E+00
  0.00000000E+00  0.00000000E+00  0.00000000E+00
  0.00000000E+00  0.00000000E+00  0.00000000E+00
  0.00000000E+00  0.00000000E+00  0.00000000E+00
  0.00000000E+00  0.00000000E+00  0.00000000E+00
  0.00000000E+00  0.00000000E+00  0.00000000E+00
  0.00000000E+00  0.00000000E+00  0.00000000E+00
  0.00000000E+00  0.00000000E+00  0.00000000E+00
  0.00000000E+00  0.00000000E+00  0.00000000E+00
  0.00000000E+00  0.00000000E+00  0.00000000E+00
  0.00000000E+00  0.00000000E+00  0.00000000E+00
