Be2Br                                   
   1.00000000000000     
     6.0237192508218351    0.0000000000000000    0.0000000000000000
     0.0000000000000000    6.0237192508218360    0.0000000000000000
     0.0000000000000000    0.0000000000000000    3.1759695369488119
   Be   Br
     4     2
Direct
  0.2775871182136527  0.2775871182136527  0.0000000000000000
  0.7224128817863473  0.7224128817863473  0.0000000000000000
  0.7775871182136527  0.2224128817863473  0.5000000000000000
  0.2224128817863473  0.7775871182136527  0.5000000000000000
  0.0000000000000000  0.0000000000000000  0.0000000000000000
  0.5000000000000000  0.5000000000000000  0.5000000000000000
 
  0.00000000E+00  0.00000000E+00  0.00000000E+00
  0.00000000E+00  0.00000000E+00  0.00000000E+00
  0.00000000E+00  0.00000000E+00  0.00000000E+00
  0.00000000E+00  0.00000000E+00  0.00000000E+00
  0.00000000E+00  0.00000000E+00  0.00000000E+00
  0.00000000E+00  0.00000000E+00  0.00000000E+00
