Ca22 In14                               
   1.00000000000000     
     0.0000000000000000    8.4342120182339677    8.4342120182339677
     8.4342120182339677    0.0000000000000000    8.4342120182339677
     8.4342120182339677    8.4342120182339677    0.0000000000000000
   Ca   In
    22    14
Direct
  0.0000000000000000  0.0000000000000000  0.0000000000000000
  0.5000000000000000  0.5000000000000000  0.5000000000000000
  0.1283712629457270  0.1283712629457270  0.1283712629457270
  0.3851127888371693  0.8716287370542730  0.8716287370542730
  0.8716287370542730  0.3851127888371693  0.8716287370542730
  0.8716287370542730  0.8716287370542730  0.3851127888371693
  0.1283712629457270  0.6148872111628307  0.1283712629457270
  0.1283712629457270  0.1283712629457270  0.6148872111628307
  0.6148872111628307  0.1283712629457270  0.1283712629457270
  0.8716287370542730  0.8716287370542730  0.8716287370542730
  0.5000000000000000  0.8325179019816815  0.5000000000000000
  0.8325179019816815  0.5000000000000000  0.5000000000000000
  0.5000000000000000  0.8325179019816815  0.1674820980183185
  0.1674820980183185  0.5000000000000000  0.8325179019816815
  0.8325179019816815  0.5000000000000000  0.1674820980183185
  0.5000000000000000  0.5000000000000000  0.8325179019816815
  0.1674820980183185  0.8325179019816815  0.5000000000000000
  0.5000000000000000  0.1674820980183185  0.8325179019816815
  0.5000000000000000  0.5000000000000000  0.1674820980183185
  0.8325179019816815  0.1674820980183185  0.5000000000000000
  0.1674820980183185  0.5000000000000000  0.5000000000000000
  0.5000000000000000  0.1674820980183185  0.5000000000000000
  0.2187871340743399  0.7812128659256601  0.2187871340743399
  0.2187871340743399  0.7812128659256601  0.7812128659256601
  0.7812128659256601  0.2187871340743399  0.2187871340743399
  0.7812128659256601  0.7812128659256601  0.2187871340743399
  0.2187871340743399  0.2187871340743399  0.7812128659256601
  0.7812128659256601  0.2187871340743399  0.7812128659256601
  0.3133491701097313  0.3133481701097338  0.3133481701097338
  0.9400455103291989  0.6866518298902662  0.6866518298902662
  0.6866518298902662  0.9400455103291989  0.6866518298902662
  0.6866518298902662  0.6866518298902662  0.9400455103291989
  0.3133481701097338  0.0599544896708011  0.3133481701097338
  0.3133481701097338  0.3133481701097338  0.0599544896708011
  0.0599544896708011  0.3133481701097338  0.3133481701097338
  0.6866518298902662  0.6866518298902662  0.6866508298902687
 
  0.00000000E+00  0.00000000E+00  0.00000000E+00
  0.00000000E+00  0.00000000E+00  0.00000000E+00
  0.00000000E+00  0.00000000E+00  0.00000000E+00
  0.00000000E+00  0.00000000E+00  0.00000000E+00
  0.00000000E+00  0.00000000E+00  0.00000000E+00
  0.00000000E+00  0.00000000E+00  0.00000000E+00
  0.00000000E+00  0.00000000E+00  0.00000000E+00
  0.00000000E+00  0.00000000E+00  0.00000000E+00
  0.00000000E+00  0.00000000E+00  0.00000000E+00
  0.00000000E+00  0.00000000E+00  0.00000000E+00
  0.00000000E+00  0.00000000E+00  0.00000000E+00
  0.00000000E+00  0.00000000E+00  0.00000000E+00
  0.00000000E+00  0.00000000E+00  0.00000000E+00
  0.00000000E+00  0.00000000E+00  0.00000000E+00
  0.00000000E+00  0.00000000E+00  0.00000000E+00
  0.00000000E+00  0.00000000E+00  0.00000000E+00
  0.00000000E+00  0.00000000E+00  0.00000000E+00
  0.00000000E+00  0.00000000E+00  0.00000000E+00
  0.00000000E+00  0.00000000E+00  0.00000000E+00
  0.00000000E+00  0.00000000E+00  0.00000000E+00
  0.00000000E+00  0.00000000E+00  0.00000000E+00
  0.00000000E+00  0.00000000E+00  0.00000000E+00
  0.00000000E+00  0.00000000E+00  0.00000000E+00
  0.00000000E+00  0.00000000E+00  0.00000000E+00
  0.00000000E+00  0.00000000E+00  0.00000000E+00
  0.00000000E+00  0.00000000E+00  0.00000000E+00
  0.00000000E+00  0.00000000E+00  0.00000000E+00
  0.00000000E+00  0.00000000E+00  0.00000000E+00
  0.00000000E+00  0.00000000E+00  0.00000000E+00
  0.00000000E+00  0.00000000E+00  0.00000000E+00
  0.00000000E+00  0.00000000E+00  0.00000000E+00
  0.00000000E+00  0.00000000E+00  0.00000000E+00
  0.00000000E+00  0.00000000E+00  0.00000000E+00
  0.00000000E+00  0.00000000E+00  0.00000000E+00
  0.00000000E+00  0.00000000E+00  0.00000000E+00
  0.00000000E+00  0.00000000E+00  0.00000000E+00
