Sr2 B2 I10                              
   1.00000000000000     
    -5.4255235334471310   -9.1873246547740361   -0.3917113725929403
     5.3923327562509025   -9.1313976658887235    0.2995474439822992
    -3.4966357533316903   -0.0676185617828868    5.5907867965937204
   B    Sr   I 
     2     2    10
Direct
  0.1490972824300627  0.1545751922425609  0.0711705254201576
  0.8493822234821593  0.8467462533427934  0.5676140602538808
  0.3857218352899778  0.3820248810261475  0.0783414226792445
  0.6134981192306341  0.6181420621241926  0.5760471176432560
  0.5693712393214554  0.5679513185157461  0.0759441924281106
  0.9234483742736472  0.2301115873613995  0.3518358632701606
  0.3354430326199420  0.1070975330074333  0.2043067621588506
  0.0746303745085442  0.7681849798506875  0.2818884174131426
  0.6606314115263956  0.8938456068175782  0.4398702479343299
  0.4359478513866151  0.4262350985446943  0.5756791394047127
  0.7726613754023930  0.0697098235052351  0.8550635730054523
  0.8927322625030598  0.6561512833880769  0.6944440777608563
  0.2305743546203800  0.9318248548143657  0.7775694478720538
  0.1067592634047259  0.3472995254590927  0.9499231527557797
 
  0.00000000E+00  0.00000000E+00  0.00000000E+00
  0.00000000E+00  0.00000000E+00  0.00000000E+00
  0.00000000E+00  0.00000000E+00  0.00000000E+00
  0.00000000E+00  0.00000000E+00  0.00000000E+00
  0.00000000E+00  0.00000000E+00  0.00000000E+00
  0.00000000E+00  0.00000000E+00  0.00000000E+00
  0.00000000E+00  0.00000000E+00  0.00000000E+00
  0.00000000E+00  0.00000000E+00  0.00000000E+00
  0.00000000E+00  0.00000000E+00  0.00000000E+00
  0.00000000E+00  0.00000000E+00  0.00000000E+00
  0.00000000E+00  0.00000000E+00  0.00000000E+00
  0.00000000E+00  0.00000000E+00  0.00000000E+00
  0.00000000E+00  0.00000000E+00  0.00000000E+00
  0.00000000E+00  0.00000000E+00  0.00000000E+00
