Sr16 Tl12 Br1                           
   1.0000000000000000     
     8.7007054885284454   -5.0281242981675716    3.5487575744872779
     0.2660815141643890   10.8428941262444845    3.9996707938641634
    -9.2440296598000575   -5.6524683545693906    3.9976152284196131
   Tl   Br   Sr
    12     1    16
Direct
  0.8065304928170818  0.5875702221971011  0.0000010773088661
  0.5734803845068512  0.7401576526988620  0.0000956840045276
  0.3562808105186832  0.3803163595416592  0.1920919296890844
  0.1636005627035146  0.8079258689837587  0.1875386910796522
  0.8336067301489436  0.2594794460876599  0.2595649407396010
  0.3557555265647139  0.1926106354999746  0.3798607466316355
  0.2196283980521301  0.4130051410844402  0.4126148308480069
  0.8063834416080553  0.9997210876413334  0.5872033595796324
  0.9761642776074524  0.8127861284479536  0.6204937965054427
  0.5738084431865076  0.0000491584487605  0.7406462129574933
  0.9759908738510674  0.6207162488025304  0.8129658649688452
  0.1634391624647265  0.1876277549082701  0.8073616714280263
  0.4529967460779147  0.9995932621954253  0.9997903645833546
  0.5552854274391876  0.2798199268435653  0.0000156828804379
  0.2445087374817518  0.5477429559805955  0.9999316777484353
  0.1770036154324117  0.0005393844110344  0.0001353066301633
  0.9500326133657495  0.2166302133665354  0.0002487825534629
  0.7230047823176307  0.7084790270571517  0.2811703277123172
  0.5549839001540278  0.0000381460137220  0.2800435923920048
  0.0142685761318191  0.5722265704887377  0.2909260658190647
  0.9495333834472888  0.9994645506194928  0.2162914697122460
  0.4419731222275090  0.7190539690548903  0.4276226367946308
  0.6976185954228811  0.4522964748094438  0.4525178309379285
  0.2448199660465775  0.9998557700257038  0.5476746834506443
  0.0147805902779368  0.2909101733555701  0.5720785180881833
  0.7329826478086687  0.7834556397513879  0.7833834291710957
  0.7238178262469503  0.2811084774965877  0.7090538280021690
  0.2744424936667045  0.7192987497008616  0.7196758026642911
  0.4424778724252505  0.4275220044869954  0.7190031951187379

  0.00000000E+00  0.00000000E+00  0.00000000E+00
  0.00000000E+00  0.00000000E+00  0.00000000E+00
  0.00000000E+00  0.00000000E+00  0.00000000E+00
  0.00000000E+00  0.00000000E+00  0.00000000E+00
  0.00000000E+00  0.00000000E+00  0.00000000E+00
  0.00000000E+00  0.00000000E+00  0.00000000E+00
  0.00000000E+00  0.00000000E+00  0.00000000E+00
  0.00000000E+00  0.00000000E+00  0.00000000E+00
  0.00000000E+00  0.00000000E+00  0.00000000E+00
  0.00000000E+00  0.00000000E+00  0.00000000E+00
  0.00000000E+00  0.00000000E+00  0.00000000E+00
  0.00000000E+00  0.00000000E+00  0.00000000E+00
  0.00000000E+00  0.00000000E+00  0.00000000E+00
  0.00000000E+00  0.00000000E+00  0.00000000E+00
  0.00000000E+00  0.00000000E+00  0.00000000E+00
  0.00000000E+00  0.00000000E+00  0.00000000E+00
  0.00000000E+00  0.00000000E+00  0.00000000E+00
  0.00000000E+00  0.00000000E+00  0.00000000E+00
  0.00000000E+00  0.00000000E+00  0.00000000E+00
  0.00000000E+00  0.00000000E+00  0.00000000E+00
  0.00000000E+00  0.00000000E+00  0.00000000E+00
  0.00000000E+00  0.00000000E+00  0.00000000E+00
  0.00000000E+00  0.00000000E+00  0.00000000E+00
  0.00000000E+00  0.00000000E+00  0.00000000E+00
  0.00000000E+00  0.00000000E+00  0.00000000E+00
  0.00000000E+00  0.00000000E+00  0.00000000E+00
  0.00000000E+00  0.00000000E+00  0.00000000E+00
  0.00000000E+00  0.00000000E+00  0.00000000E+00
  0.00000000E+00  0.00000000E+00  0.00000000E+00
