Be1 B3 Cl6                              
   1.00000000000000     
     7.9628315009010855    0.1922371566079102   -0.1214483292443317
     0.1922371566079099    7.9628315009010944   -0.1214483292443335
     4.0341332216162291    4.0341332216162318    5.3277255968070047
   Cl   Be   B 
     6     1     3
Direct
  0.8341676961366673  0.1658323038633327  0.0000000000000000
  0.2339174785085518  0.2339174785085518  0.0720785693442423
  0.1658323038633327  0.8341676961366673  0.0000000000000000
  0.7660825214914482  0.7660825214914482  0.9279214306557577
  0.6231714351479880  0.6231714351479880  0.6989934503375324
  0.3768285648520120  0.3768285648520191  0.3010065496624676
  0.0000000000000000  0.0000000000000000  0.0000000000000000
  0.5000000000000000  0.5000000000000000  0.0000000000000000
  0.0732110323720647  0.9267889676279353  0.5000000000000000
  0.9267889676279353  0.0732110323720647  0.5000000000000000
 
  0.00000000E+00  0.00000000E+00  0.00000000E+00
  0.00000000E+00  0.00000000E+00  0.00000000E+00
  0.00000000E+00  0.00000000E+00  0.00000000E+00
  0.00000000E+00  0.00000000E+00  0.00000000E+00
  0.00000000E+00  0.00000000E+00  0.00000000E+00
  0.00000000E+00  0.00000000E+00  0.00000000E+00
  0.00000000E+00  0.00000000E+00  0.00000000E+00
  0.00000000E+00  0.00000000E+00  0.00000000E+00
  0.00000000E+00  0.00000000E+00  0.00000000E+00
  0.00000000E+00  0.00000000E+00  0.00000000E+00
