Ba4 Tl4 I2                              
   1.0000000000000000     
     5.0795396285845342   -0.0021041451255389    0.0000000000000000
    -2.5416522490820705    4.3999126173430314    0.0000000000000000
     0.0000000000000000    0.0000000000000000   19.1011576638871965
   Tl   Ba   I 
     4     4     2
Direct
  0.6665524613299638  0.3333437844389024  0.9780734884501143
  0.3334475386700362  0.6666562155610976  0.0219265115498857
  0.6665524613299638  0.3333437844389024  0.5219265115498857
  0.3334475386700362  0.6666562155610976  0.4780734884501143
  0.0005900179103264  0.9999369632096702  0.1222738416040130
  0.0005900179103264  0.9999369632096702  0.3777261583959870
  0.9994099820896736  0.0000630367903298  0.6222738416040130
  0.9994099820896736  0.0000630367903298  0.8777261583959870
  0.6685826480214914  0.3334667828064042  0.2500000000000000
  0.3314173519785086  0.6665332171935958  0.7500000000000000

  0.00000000E+00  0.00000000E+00  0.00000000E+00
  0.00000000E+00  0.00000000E+00  0.00000000E+00
  0.00000000E+00  0.00000000E+00  0.00000000E+00
  0.00000000E+00  0.00000000E+00  0.00000000E+00
  0.00000000E+00  0.00000000E+00  0.00000000E+00
  0.00000000E+00  0.00000000E+00  0.00000000E+00
  0.00000000E+00  0.00000000E+00  0.00000000E+00
  0.00000000E+00  0.00000000E+00  0.00000000E+00
  0.00000000E+00  0.00000000E+00  0.00000000E+00
  0.00000000E+00  0.00000000E+00  0.00000000E+00
