Ba21 In40                               
   1.0000000000000000     
     5.6711535250863365   -9.8227263421904549    0.0000000000000000
     5.6711535250863365    9.8227263421904549    0.0000000000000000
    -0.0000000000000001    0.0000000000000000   18.4455447938497059
   Ba   In
    21    40
Direct
  0.9999999999995950  0.3334406704306900  0.3867906477491871
  0.6666669999999968  0.3333330000000032  0.3168833056423495
  0.6704953459643619  0.0000000000012221  0.6794795975211443
  0.3295046540344231  0.3295046540344231  0.6794795975211443
  0.0000000000000000  0.0000000000000000  0.1127927356599088
  0.9999999999988916  0.3279374483875728  0.6086787274630083
  0.3278957420481774  0.0000000000000711  0.0018054157466167
  0.0000000000012221  0.6704953459643619  0.6794795975211443
  0.6665593295697150  0.6665593295697150  0.3867906477491871
  0.3279374483875728  0.9999999999988916  0.6086787274630083
  0.3333330000000032  0.6666669999999968  0.1074434583111810
  0.0000000000002274  0.6621129666939254  0.8906564490162978
  0.6720625516135215  0.6720625516135215  0.6086787274630083
  0.3378870333058401  0.3378870333058401  0.8906564490162978
  0.6666669999999968  0.3333330000000032  0.1074434583111810
  0.3333330000000032  0.6666669999999968  0.3168833056423495
  0.0000000000000711  0.3278957420481774  0.0018054157466167
  0.3334406704306900  0.9999999999995950  0.3867906477491871
  0.6721042579517587  0.6721042579517587  0.0018054157466167
  0.6621129666939254  0.0000000000002274  0.8906564490162978
  0.0000000000000000  0.0000000000000000  0.3196833182298207
  0.3454670235041490  0.5152260787481424  0.5013389176672405
  0.1585758495508287  0.3323118276873060  0.2078780597952914
  0.5008798738095663  0.1620419370811490  0.7865472971722482
  0.8262640218649437  0.6676881723149748  0.2078780597952914
  0.4874187001479413  0.0000000000013216  0.2049541009114435
  0.0000000000000000  0.0000000000000000  0.5564886336296055
  0.3333330000000032  0.6666669999999968  0.9165909078341414
  0.1737359781342320  0.8414241504477218  0.2078780597952914
  0.1975320796874627  0.9999999999992326  0.8070282838309666
  0.9999999999998295  0.6595249708490840  0.3366498541139933
  0.3323118276873060  0.1585758495508287  0.2078780597952914
  0.2164176448904840  0.2164176448904840  0.4795471111629226
  0.8024679203132976  0.8024679203132976  0.8070282838309666
  0.6666669999999968  0.3333330000000032  0.9165909078341414
  0.0000000000002771  0.7835823551092318  0.4795471111629226
  0.5125812998507584  0.5125812998507584  0.2049541009114435
  0.8302409447541663  0.4847739212507207  0.5013389176672405
  0.4991201261925156  0.6611620632707016  0.7865472971722482
  0.0000000000013216  0.4874187001479413  0.2049541009114435
  0.8414241504477218  0.1737359781342320  0.2078780597952914
  0.9999999999999574  0.6651966283098645  0.0817799183730088
  0.3404750291510865  0.3404750291510865  0.3366498541139933
  0.3333330000000032  0.6666669999999968  0.6484525682535889
  0.9999999999992326  0.1975320796874627  0.8070282838309666
  0.6666669999999968  0.3333330000000032  0.6484525682535889
  0.1620419370811490  0.5008798738095663  0.7865472971722482
  0.4847739212507207  0.8302409447541663  0.5013389176672405
  0.1697590552451302  0.6545329764976842  0.5013389176672405
  0.6651966283098645  0.9999999999999574  0.0817799183730088
  0.3348033716901782  0.3348033716901782  0.0817799183730088
  0.8379580629197037  0.3388379367263568  0.7865472971722482
  0.6595249708490840  0.9999999999998295  0.3366498541139933
  0.5152260787481424  0.3454670235041490  0.5013389176672405
  0.6676881723149748  0.8262640218649437  0.2078780597952914
  0.7835823551092318  0.0000000000002771  0.4795471111629226
  0.6545329764976842  0.1697590552451302  0.5013389176672405
  0.3388379367263568  0.8379580629197037  0.7865472971722482
  0.0000000000000000  0.0000000000000000  0.9219747604867763
  0.6611620632707016  0.4991201261925156  0.7865472971722482
  0.0000000000000000  0.0000000000000000  0.7073891064372688

  0.00000000E+00  0.00000000E+00  0.00000000E+00
  0.00000000E+00  0.00000000E+00  0.00000000E+00
  0.00000000E+00  0.00000000E+00  0.00000000E+00
  0.00000000E+00  0.00000000E+00  0.00000000E+00
  0.00000000E+00  0.00000000E+00  0.00000000E+00
  0.00000000E+00  0.00000000E+00  0.00000000E+00
  0.00000000E+00  0.00000000E+00  0.00000000E+00
  0.00000000E+00  0.00000000E+00  0.00000000E+00
  0.00000000E+00  0.00000000E+00  0.00000000E+00
  0.00000000E+00  0.00000000E+00  0.00000000E+00
  0.00000000E+00  0.00000000E+00  0.00000000E+00
  0.00000000E+00  0.00000000E+00  0.00000000E+00
  0.00000000E+00  0.00000000E+00  0.00000000E+00
  0.00000000E+00  0.00000000E+00  0.00000000E+00
  0.00000000E+00  0.00000000E+00  0.00000000E+00
  0.00000000E+00  0.00000000E+00  0.00000000E+00
  0.00000000E+00  0.00000000E+00  0.00000000E+00
  0.00000000E+00  0.00000000E+00  0.00000000E+00
  0.00000000E+00  0.00000000E+00  0.00000000E+00
  0.00000000E+00  0.00000000E+00  0.00000000E+00
  0.00000000E+00  0.00000000E+00  0.00000000E+00
  0.00000000E+00  0.00000000E+00  0.00000000E+00
  0.00000000E+00  0.00000000E+00  0.00000000E+00
  0.00000000E+00  0.00000000E+00  0.00000000E+00
  0.00000000E+00  0.00000000E+00  0.00000000E+00
  0.00000000E+00  0.00000000E+00  0.00000000E+00
  0.00000000E+00  0.00000000E+00  0.00000000E+00
  0.00000000E+00  0.00000000E+00  0.00000000E+00
  0.00000000E+00  0.00000000E+00  0.00000000E+00
  0.00000000E+00  0.00000000E+00  0.00000000E+00
  0.00000000E+00  0.00000000E+00  0.00000000E+00
  0.00000000E+00  0.00000000E+00  0.00000000E+00
  0.00000000E+00  0.00000000E+00  0.00000000E+00
  0.00000000E+00  0.00000000E+00  0.00000000E+00
  0.00000000E+00  0.00000000E+00  0.00000000E+00
  0.00000000E+00  0.00000000E+00  0.00000000E+00
  0.00000000E+00  0.00000000E+00  0.00000000E+00
  0.00000000E+00  0.00000000E+00  0.00000000E+00
  0.00000000E+00  0.00000000E+00  0.00000000E+00
  0.00000000E+00  0.00000000E+00  0.00000000E+00
  0.00000000E+00  0.00000000E+00  0.00000000E+00
  0.00000000E+00  0.00000000E+00  0.00000000E+00
  0.00000000E+00  0.00000000E+00  0.00000000E+00
  0.00000000E+00  0.00000000E+00  0.00000000E+00
  0.00000000E+00  0.00000000E+00  0.00000000E+00
  0.00000000E+00  0.00000000E+00  0.00000000E+00
  0.00000000E+00  0.00000000E+00  0.00000000E+00
  0.00000000E+00  0.00000000E+00  0.00000000E+00
  0.00000000E+00  0.00000000E+00  0.00000000E+00
  0.00000000E+00  0.00000000E+00  0.00000000E+00
  0.00000000E+00  0.00000000E+00  0.00000000E+00
  0.00000000E+00  0.00000000E+00  0.00000000E+00
  0.00000000E+00  0.00000000E+00  0.00000000E+00
  0.00000000E+00  0.00000000E+00  0.00000000E+00
  0.00000000E+00  0.00000000E+00  0.00000000E+00
  0.00000000E+00  0.00000000E+00  0.00000000E+00
  0.00000000E+00  0.00000000E+00  0.00000000E+00
  0.00000000E+00  0.00000000E+00  0.00000000E+00
  0.00000000E+00  0.00000000E+00  0.00000000E+00
  0.00000000E+00  0.00000000E+00  0.00000000E+00
  0.00000000E+00  0.00000000E+00  0.00000000E+00
