In6 I4                                  
   1.00000000000000     
    -6.6030410558790065    0.0529911725927782   -0.0325207751675450
     3.3478374399681821   -5.6943258911910446    0.0439561940321944
    -3.2687121497096516    1.8670924742046617   10.1266130401185617
   I    In
     4     6
Direct
  0.3161392655189132  0.6826228507661298  0.0564792316957963
  0.1841865225926469  0.8164872375408905  0.4429059932917099
  0.8158077922069893  0.1834126732004648  0.5570541975973100
  0.6837781459608934  0.3173925331910112  0.9435210348601899
  0.2441492516917165  0.1684479301113271  0.2488154546277102
  0.8218662605271945  0.3222318894529295  0.2515675057190521
  0.6698524230197052  0.7427635180659777  0.2487263471670431
  0.3301450830025843  0.2573293165901518  0.7512618951790344
  0.1781338904874019  0.6777642648415281  0.7484071290779966
  0.7559413649919620  0.8315477862395682  0.7511612107841188
 
  0.00000000E+00  0.00000000E+00  0.00000000E+00
  0.00000000E+00  0.00000000E+00  0.00000000E+00
  0.00000000E+00  0.00000000E+00  0.00000000E+00
  0.00000000E+00  0.00000000E+00  0.00000000E+00
  0.00000000E+00  0.00000000E+00  0.00000000E+00
  0.00000000E+00  0.00000000E+00  0.00000000E+00
  0.00000000E+00  0.00000000E+00  0.00000000E+00
  0.00000000E+00  0.00000000E+00  0.00000000E+00
  0.00000000E+00  0.00000000E+00  0.00000000E+00
  0.00000000E+00  0.00000000E+00  0.00000000E+00
