Ba4 Ga10                                
   1.00000000000000     
     4.9865057371438049    4.9865057371438040   -3.9686783413318723
     4.9865057371438049   -4.9865057371438040    3.9686783413318723
    -4.9865057371438049   -4.9865057371438040   -3.9686783413318723
   Ga   Ba
    10     4
Direct
  0.8313508148481077  0.3350767324463320  0.1664275472944396
  0.5037259175982172  0.3350767324463320  0.1686491851518923
  0.8335724527055604  0.6649232675536680  0.1686491851518923
  0.1657325868688986  0.0000000000000000  0.1657325868688986
  0.1686491851518923  0.3350767324463320  0.5037259175982172
  0.8313508148481077  0.6649232675536680  0.4962740824017828
  0.8342674131311014  0.0000000000000000  0.8342674131311014
  0.1664275472944396  0.3350767324463320  0.8313508148481077
  0.4962740824017828  0.6649232675536680  0.8313508148481077
  0.1686491851518923  0.6649232675536680  0.8335724527055604
  0.6925911590573079  0.0000000000000000  0.3074088409426921
  0.3074088409426921  0.6148176818853841  0.3074088409426921
  0.3074088409426921  0.0000000000000000  0.6925911590573079
  0.6925911590573079  0.3851823181146159  0.6925911590573079
 
  0.00000000E+00  0.00000000E+00  0.00000000E+00
  0.00000000E+00  0.00000000E+00  0.00000000E+00
  0.00000000E+00  0.00000000E+00  0.00000000E+00
  0.00000000E+00  0.00000000E+00  0.00000000E+00
  0.00000000E+00  0.00000000E+00  0.00000000E+00
  0.00000000E+00  0.00000000E+00  0.00000000E+00
  0.00000000E+00  0.00000000E+00  0.00000000E+00
  0.00000000E+00  0.00000000E+00  0.00000000E+00
  0.00000000E+00  0.00000000E+00  0.00000000E+00
  0.00000000E+00  0.00000000E+00  0.00000000E+00
  0.00000000E+00  0.00000000E+00  0.00000000E+00
  0.00000000E+00  0.00000000E+00  0.00000000E+00
  0.00000000E+00  0.00000000E+00  0.00000000E+00
  0.00000000E+00  0.00000000E+00  0.00000000E+00
