Br3                                     
   1.00000000000000     
     4.5542835011962026    0.0000000000000000    0.0000000000000000
     0.0000000000000000    4.5536572133902897    0.0000000000000000
     0.0000000000000000    0.0000000000000000    4.5541537358627906
   Br
     3
Direct
  0.5000000000000000  0.0000000000000000  0.0000000000000000
  0.0000000000000000  0.5000000000000000  0.0000000000000000
  0.0000000000000000  0.0000000000000000  0.5000000000000000
 
  0.00000000E+00  0.00000000E+00  0.00000000E+00
  0.00000000E+00  0.00000000E+00  0.00000000E+00
  0.00000000E+00  0.00000000E+00  0.00000000E+00
