Mg4 B4 Br20                             
   1.0000000000000000     
     0.0000000000000000    9.0908322526421532   -0.6414008338382283
    13.3861043251343013    0.0000000000000000    0.0000000000000000
     0.0000000000000000    0.7181464048296495  -11.4784686823124442
   Mg   B    Br
     4     4    20
Direct
  0.9821177773245751  0.2985304715285508  0.0135180281892318
  0.0178822226754249  0.7985304715285508  0.9864819718107682
  0.0108814389971599  0.0488334264498249  0.0165134522188524
  0.9891185610028401  0.5488334264498178  0.9834865477811476
  0.5276623906926687  0.8519709089690863  0.3387959892422998
  0.4723376093073242  0.3519709089691148  0.6612040107577002
  0.0857313979223733  0.6367771584420723  0.5139174132120701
  0.9142686020776267  0.1367771584420794  0.4860825867879299
  0.1096547191259987  0.0872530546988628  0.4416012177758120
  0.2075537836201562  0.6702049240804726  0.6312646595934055
  0.7924462163798438  0.1702049240804726  0.3687353404065874
  0.6280874451786858  0.7273559937191223  0.3425879794640920
  0.0249485057044012  0.4098945410871053  0.8337446991998476
  0.4793463309173660  0.9037249517973933  0.1938079381899627
  0.8392885473418445  0.1528021213547248  0.6479963887637155
  0.4759872207176343  0.9257480539753686  0.4803343665375905
  0.9750514942955988  0.9098945410870982  0.1662553008001524
  0.8038341107592828  0.6846514667381385  0.9567270218755226
  0.5206536690826482  0.4037249517973933  0.8061920618100373
  0.8903452808740084  0.5872530546988628  0.5583987822241880
  0.0777562850388662  0.9371531001191542  0.8383760093179262
  0.7903369900266455  0.1626988070401794  0.0026128234419360
  0.1961658892407172  0.1846514667381243  0.0432729781244774
  0.1607114526581626  0.6528021213547248  0.3520036112362845
  0.3719125548213071  0.2273559937191223  0.6574120205359080
  0.2096630099733616  0.6626988070401723  0.9973871765580640
  0.5240127792823586  0.4257480539753686  0.5196656334624095
  0.9222437149611338  0.4371531001191542  0.1616239906820738

  0.00000000E+00  0.00000000E+00  0.00000000E+00
  0.00000000E+00  0.00000000E+00  0.00000000E+00
  0.00000000E+00  0.00000000E+00  0.00000000E+00
  0.00000000E+00  0.00000000E+00  0.00000000E+00
  0.00000000E+00  0.00000000E+00  0.00000000E+00
  0.00000000E+00  0.00000000E+00  0.00000000E+00
  0.00000000E+00  0.00000000E+00  0.00000000E+00
  0.00000000E+00  0.00000000E+00  0.00000000E+00
  0.00000000E+00  0.00000000E+00  0.00000000E+00
  0.00000000E+00  0.00000000E+00  0.00000000E+00
  0.00000000E+00  0.00000000E+00  0.00000000E+00
  0.00000000E+00  0.00000000E+00  0.00000000E+00
  0.00000000E+00  0.00000000E+00  0.00000000E+00
  0.00000000E+00  0.00000000E+00  0.00000000E+00
  0.00000000E+00  0.00000000E+00  0.00000000E+00
  0.00000000E+00  0.00000000E+00  0.00000000E+00
  0.00000000E+00  0.00000000E+00  0.00000000E+00
  0.00000000E+00  0.00000000E+00  0.00000000E+00
  0.00000000E+00  0.00000000E+00  0.00000000E+00
  0.00000000E+00  0.00000000E+00  0.00000000E+00
  0.00000000E+00  0.00000000E+00  0.00000000E+00
  0.00000000E+00  0.00000000E+00  0.00000000E+00
  0.00000000E+00  0.00000000E+00  0.00000000E+00
  0.00000000E+00  0.00000000E+00  0.00000000E+00
  0.00000000E+00  0.00000000E+00  0.00000000E+00
  0.00000000E+00  0.00000000E+00  0.00000000E+00
  0.00000000E+00  0.00000000E+00  0.00000000E+00
  0.00000000E+00  0.00000000E+00  0.00000000E+00
