Mg13 In14                               
   1.00000000000000     
     7.8742334278907933   -4.7878973228928263    0.4559900829015411
     7.8742334278907933    4.7878973228928263    0.4559900829015411
    -2.5241211795081568    0.0000000000000000    8.7337843917251874
   In   Mg
    14    13
Direct
  0.7193392782201116  0.2806669631724290  0.9999927725905948
  0.2806669631724290  0.7193392782201116  0.9999927725905948
  0.8518046302530422  0.5339588094006800  0.0801438009379183
  0.5339588094006800  0.8518046302530422  0.0801438009379183
  0.0129828113385457  0.0129828113385457  0.1775074900315659
  0.7764996334905874  0.7764996334905874  0.3837693385564904
  0.3229539661422791  0.3229539661422791  0.3610004642170708
  0.6679696909551609  0.3320913462788724  0.4999449712243589
  0.3320913462788724  0.6679696909551609  0.4999449712243589
  0.6771062942506063  0.6771062942506063  0.6391206103754143
  0.2234773464902702  0.2234773464902702  0.6161759294660385
  0.9870792854602470  0.9870792854602470  0.8225038970182652
  0.4660704843720467  0.1481979168018341  0.9197075823456586
  0.1481979168018341  0.4660704843720467  0.9197075823456586
  0.1780555680048366  0.1780555680048366  0.0711758891636478
  0.5542885407393854  0.5542885407393854  0.2499754634910616
  0.6704674621097837  0.0942065629137190  0.2363951081427942
  0.0942065629137190  0.6704674621097837  0.2363951081427942
  0.9425677219417352  0.3578302922451613  0.3656909742819678
  0.3578302922451613  0.9425677219417352  0.3656909742819678
  0.0000117779935067  0.0000117779935067  0.4999850220203754
  0.6422703954281985  0.0574746230757910  0.6342342914267647
  0.0574746230757910  0.6422703954281985  0.6342342914267647
  0.9057835650766961  0.3295205860488366  0.7635596129290505
  0.3295205860488366  0.9057835650766961  0.7635596129290505
  0.4458026048586490  0.4458026048586490  0.7499662584231359
  0.8220618429370035  0.8220618429370035  0.9288814094787625
 
  0.00000000E+00  0.00000000E+00  0.00000000E+00
  0.00000000E+00  0.00000000E+00  0.00000000E+00
  0.00000000E+00  0.00000000E+00  0.00000000E+00
  0.00000000E+00  0.00000000E+00  0.00000000E+00
  0.00000000E+00  0.00000000E+00  0.00000000E+00
  0.00000000E+00  0.00000000E+00  0.00000000E+00
  0.00000000E+00  0.00000000E+00  0.00000000E+00
  0.00000000E+00  0.00000000E+00  0.00000000E+00
  0.00000000E+00  0.00000000E+00  0.00000000E+00
  0.00000000E+00  0.00000000E+00  0.00000000E+00
  0.00000000E+00  0.00000000E+00  0.00000000E+00
  0.00000000E+00  0.00000000E+00  0.00000000E+00
  0.00000000E+00  0.00000000E+00  0.00000000E+00
  0.00000000E+00  0.00000000E+00  0.00000000E+00
  0.00000000E+00  0.00000000E+00  0.00000000E+00
  0.00000000E+00  0.00000000E+00  0.00000000E+00
  0.00000000E+00  0.00000000E+00  0.00000000E+00
  0.00000000E+00  0.00000000E+00  0.00000000E+00
  0.00000000E+00  0.00000000E+00  0.00000000E+00
  0.00000000E+00  0.00000000E+00  0.00000000E+00
  0.00000000E+00  0.00000000E+00  0.00000000E+00
  0.00000000E+00  0.00000000E+00  0.00000000E+00
  0.00000000E+00  0.00000000E+00  0.00000000E+00
  0.00000000E+00  0.00000000E+00  0.00000000E+00
  0.00000000E+00  0.00000000E+00  0.00000000E+00
  0.00000000E+00  0.00000000E+00  0.00000000E+00
  0.00000000E+00  0.00000000E+00  0.00000000E+00
