KPOINTS from AFLOWMCLC1 (C-centered monoclinic kgamma > 90) G-Y-F-L-I I1-Z-G-X X1-Y M-G-N Z-F1
20   ! 20 grids 
Line-mode
reciprocal
   0.0000   0.0000   0.0000   ! \Gamma
   0.5000   0.5000   0.0000   ! Y
 
   0.5000   0.5000   0.0000   ! Y
   0.5439   0.5439   0.1731   ! F
 
   0.5439   0.5439   0.1731   ! F
   0.5000   0.5000   0.5000   ! L
 
   0.5000   0.5000   0.5000   ! L
   0.6744   0.3256   0.5000   ! I
 
   0.3256   -0.3256   0.5000   ! I_1
   0.0000   0.0000   0.5000   ! Z
 
   0.0000   0.0000   0.5000   ! Z
   0.0000   0.0000   0.0000   ! \Gamma
 
   0.0000   0.0000   0.0000   ! \Gamma
   0.4033   -0.4033   0.0000   ! X
 
   0.5967   0.4033   0.0000   ! X_1
   0.5000   0.5000   0.0000   ! Y
 
   0.5000   0.0000   0.5000   ! M
   0.0000   0.0000   0.0000   ! \Gamma
 
   0.0000   0.0000   0.0000   ! \Gamma
   0.5000   0.0000   0.0000   ! N
 
   0.0000   0.0000   0.5000   ! Z
   0.4561   0.4561   0.8269   ! F_1
