Ca13 Ga16                               
   1.00000000000000     
    -5.7242815222634418   -5.7242815222634418    5.7242815222634418
    -5.7242815222634418    5.7242815222634418   -5.7242815222634418
     5.7242815222634418   -5.7242815222634418   -5.7242815222634418
   Ga   Ca
    16    13
Direct
  0.7085809679453021  0.0000000000000000  0.0000000000000000
  0.3434042451543604  0.1721691118052959  0.0000000000000000
  0.1721691118052959  0.3434042451543604  0.0000000000000000
  0.0000000000000000  0.7085809679453021  0.0000000000000000
  0.8278308881947041  0.8278308881947041  0.1712351333490645
  0.3434042451543604  0.0000000000000000  0.1721691118052959
  0.0000000000000000  0.3434042451543604  0.1721691118052959
  0.2914190320546979  0.2914190320546979  0.2914190320546979
  0.1721691118052959  0.0000000000000000  0.3434042451543604
  0.0000000000000000  0.1721691118052959  0.3434042451543604
  0.8287648666509355  0.6565957548456396  0.6565957548456396
  0.6565957548456396  0.8287648666509355  0.6565957548456396
  0.0000000000000000  0.0000000000000000  0.7085809679453021
  0.8278308881947041  0.1712351333490645  0.8278308881947041
  0.1712351333490645  0.8278308881947041  0.8278308881947041
  0.6565957548456396  0.6565957548456396  0.8287648666509355
  0.0000000000000000  0.0000000000000000  0.0000000000000000
  0.7397335174908335  0.4484395066400495  0.0000000000000000
  0.4484395066400495  0.7397335174908335  0.0000000000000000
  0.5515604933599505  0.5515604933599505  0.2912940108507840
  0.7087059891492160  0.2602664825091665  0.2602664825091665
  0.2602664825091665  0.7087059891492160  0.2602664825091665
  0.7397335174908335  0.0000000000000000  0.4484395066400495
  0.0000000000000000  0.7397335174908335  0.4484395066400495
  0.5515604933599505  0.2912940108507840  0.5515604933599505
  0.2912940108507840  0.5515604933599505  0.5515604933599505
  0.4484395066400495  0.0000000000000000  0.7397335174908335
  0.0000000000000000  0.4484395066400495  0.7397335174908335
  0.2602664825091665  0.2602664825091665  0.7087059891492160
 
  0.00000000E+00  0.00000000E+00  0.00000000E+00
  0.00000000E+00  0.00000000E+00  0.00000000E+00
  0.00000000E+00  0.00000000E+00  0.00000000E+00
  0.00000000E+00  0.00000000E+00  0.00000000E+00
  0.00000000E+00  0.00000000E+00  0.00000000E+00
  0.00000000E+00  0.00000000E+00  0.00000000E+00
  0.00000000E+00  0.00000000E+00  0.00000000E+00
  0.00000000E+00  0.00000000E+00  0.00000000E+00
  0.00000000E+00  0.00000000E+00  0.00000000E+00
  0.00000000E+00  0.00000000E+00  0.00000000E+00
  0.00000000E+00  0.00000000E+00  0.00000000E+00
  0.00000000E+00  0.00000000E+00  0.00000000E+00
  0.00000000E+00  0.00000000E+00  0.00000000E+00
  0.00000000E+00  0.00000000E+00  0.00000000E+00
  0.00000000E+00  0.00000000E+00  0.00000000E+00
  0.00000000E+00  0.00000000E+00  0.00000000E+00
  0.00000000E+00  0.00000000E+00  0.00000000E+00
  0.00000000E+00  0.00000000E+00  0.00000000E+00
  0.00000000E+00  0.00000000E+00  0.00000000E+00
  0.00000000E+00  0.00000000E+00  0.00000000E+00
  0.00000000E+00  0.00000000E+00  0.00000000E+00
  0.00000000E+00  0.00000000E+00  0.00000000E+00
  0.00000000E+00  0.00000000E+00  0.00000000E+00
  0.00000000E+00  0.00000000E+00  0.00000000E+00
  0.00000000E+00  0.00000000E+00  0.00000000E+00
  0.00000000E+00  0.00000000E+00  0.00000000E+00
  0.00000000E+00  0.00000000E+00  0.00000000E+00
  0.00000000E+00  0.00000000E+00  0.00000000E+00
  0.00000000E+00  0.00000000E+00  0.00000000E+00
