Sr3Ga                                   
   1.00000000000000     
     7.8338347785264890    0.0167515727402137    0.0000000000000000
    -3.9018970885213644    6.7927025961015781    0.0000000000000000
     0.0000000000000000    0.0000000000000000    5.7051906712575375
   Ga   Sr
     2     6
Direct
  0.3324590927066708  0.6676135590842875  0.7500000000000000
  0.6675409072933292  0.3323864409157125  0.2500000000000000
  0.1790814155446085  0.3598644018595323  0.2500000000000000
  0.6400786464838291  0.8208677539882103  0.2500000000000000
  0.1782519826047633  0.8218028976932885  0.2500000000000000
  0.8209185844553915  0.6401355981404677  0.7500000000000000
  0.3599213535161709  0.1791322460117897  0.7500000000000000
  0.8217480173952367  0.1781971023067115  0.7500000000000000
 
  0.00000000E+00  0.00000000E+00  0.00000000E+00
  0.00000000E+00  0.00000000E+00  0.00000000E+00
  0.00000000E+00  0.00000000E+00  0.00000000E+00
  0.00000000E+00  0.00000000E+00  0.00000000E+00
  0.00000000E+00  0.00000000E+00  0.00000000E+00
  0.00000000E+00  0.00000000E+00  0.00000000E+00
  0.00000000E+00  0.00000000E+00  0.00000000E+00
  0.00000000E+00  0.00000000E+00  0.00000000E+00
