Sr21 Al40                               
   1.00000000000000     
     5.1334041806119250   -8.8913172850011222    0.0000000000000000
     5.1334041806119250    8.8913172850011222    0.0000000000000000
     0.0000000000000000    0.0000000000000000   16.8920920295735932
   Sr   Al
    21    40
Direct
  0.9999999999995381  0.3328028003946102  0.3894342380592448
  0.6666669999999968  0.3333330000000032  0.3172531479533376
  0.6690059324265292  0.0000000000043130  0.6804870483169054
  0.3309940675691649  0.3309940675691649  0.6804870483169054
  0.0000000000000000  0.0000000000000000  0.1081852480909191
  0.9999999999958078  0.3247552263737461  0.6083331500573692
  0.3284234234895038  0.0000000000001634  0.0000803255143538
  0.0000000000043130  0.6690059324265292  0.6804870483169054
  0.6671971996058517  0.6671971996058517  0.3894342380592448
  0.3247552263737461  0.9999999999958078  0.6083331500573692
  0.3333330000000032  0.6666669999999968  0.1047226396895553
  0.0000000000003411  0.6634918321315553  0.8936777319132503
  0.6752447736304532  0.6752447736304532  0.6083331500573692
  0.3365081678681108  0.3365081678681108  0.8936777319132503
  0.6666669999999968  0.3333330000000032  0.1047226396895553
  0.3333330000000032  0.6666669999999968  0.3172531479533376
  0.0000000000001634  0.3284234234895038  0.0000803255143538
  0.3328028003946102  0.9999999999995381  0.3894342380592448
  0.6715765765103328  0.6715765765103328  0.0000803255143538
  0.6634918321315553  0.0000000000003411  0.8936777319132503
  0.0000000000000000  0.0000000000000000  0.3223650399038860
  0.3405775407646132  0.5173516624007277  0.5051221203746934
  0.1586592092077979  0.3328285700355238  0.2100657868279825
  0.5000921203876345  0.1635873846443374  0.7860177755749049
  0.8258306391697587  0.6671714299611367  0.2100657868279825
  0.4911377849638683  0.9999999999982450  0.2097744907904513
  0.0000000000000000  0.0000000000000000  0.5406745214683184
  0.3333330000000032  0.6666669999999968  0.9100748970223691
  0.1741693608310584  0.8413407907947246  0.2100657868279825
  0.1922824636600353  0.0000000000016982  0.7978252477947620
  0.9999999999964260  0.6661188500401778  0.3363930275464782
  0.3328285700355238  0.1586592092077979  0.2100657868279825
  0.2297268587458277  0.2297268587458277  0.4807181494777595
  0.8077175363382665  0.8077175363382665  0.7978252477947620
  0.6666669999999968  0.3333330000000032  0.9100748970223691
  0.0000000000061036  0.7702731412480617  0.4807181494777595
  0.5088622150378868  0.5088622150378868  0.2097744907904513
  0.8232258783733641  0.4826483376097528  0.5051221203746934
  0.4999078796082799  0.6634952642578185  0.7860177755749049
  0.9999999999982450  0.4911377849638683  0.2097744907904513
  0.8413407907947246  0.1741693608310584  0.2100657868279825
  0.0000000000001776  0.6655400227662298  0.0891984891801343
  0.3338811499633962  0.3338811499633962  0.3363930275464782
  0.3333330000000032  0.6666669999999968  0.6495593934625745
  0.0000000000016982  0.1922824636600353  0.7978252477947620
  0.6666669999999968  0.3333330000000032  0.6495593934625745
  0.1635873846443374  0.5000921203876345  0.7860177755749049
  0.4826483376097528  0.8232258783733641  0.5051221203746934
  0.1767741216256340  0.6594224592259152  0.5051221203746934
  0.6655400227662298  0.0000000000001776  0.0891984891801343
  0.3344599772335926  0.3344599772335926  0.0891984891801343
  0.8364126153545470  0.3365047357473827  0.7860177755749049
  0.6661188500401778  0.9999999999964260  0.3363930275464782
  0.5173516624007277  0.3405775407646132  0.5051221203746934
  0.6671714299611367  0.8258306391697587  0.2100657868279825
  0.7702731412480617  0.0000000000061036  0.4807181494777595
  0.6594224592259152  0.1767741216256340  0.5051221203746934
  0.3365047357473827  0.8364126153545470  0.7860177755749049
  0.0000000000000000  0.0000000000000000  0.9107203978544121
  0.6634952642578185  0.4999078796082799  0.7860177755749049
  0.0000000000000000  0.0000000000000000  0.6935998438092312
 
  0.00000000E+00  0.00000000E+00  0.00000000E+00
  0.00000000E+00  0.00000000E+00  0.00000000E+00
  0.00000000E+00  0.00000000E+00  0.00000000E+00
  0.00000000E+00  0.00000000E+00  0.00000000E+00
  0.00000000E+00  0.00000000E+00  0.00000000E+00
  0.00000000E+00  0.00000000E+00  0.00000000E+00
  0.00000000E+00  0.00000000E+00  0.00000000E+00
  0.00000000E+00  0.00000000E+00  0.00000000E+00
  0.00000000E+00  0.00000000E+00  0.00000000E+00
  0.00000000E+00  0.00000000E+00  0.00000000E+00
  0.00000000E+00  0.00000000E+00  0.00000000E+00
  0.00000000E+00  0.00000000E+00  0.00000000E+00
  0.00000000E+00  0.00000000E+00  0.00000000E+00
  0.00000000E+00  0.00000000E+00  0.00000000E+00
  0.00000000E+00  0.00000000E+00  0.00000000E+00
  0.00000000E+00  0.00000000E+00  0.00000000E+00
  0.00000000E+00  0.00000000E+00  0.00000000E+00
  0.00000000E+00  0.00000000E+00  0.00000000E+00
  0.00000000E+00  0.00000000E+00  0.00000000E+00
  0.00000000E+00  0.00000000E+00  0.00000000E+00
  0.00000000E+00  0.00000000E+00  0.00000000E+00
  0.00000000E+00  0.00000000E+00  0.00000000E+00
  0.00000000E+00  0.00000000E+00  0.00000000E+00
  0.00000000E+00  0.00000000E+00  0.00000000E+00
  0.00000000E+00  0.00000000E+00  0.00000000E+00
  0.00000000E+00  0.00000000E+00  0.00000000E+00
  0.00000000E+00  0.00000000E+00  0.00000000E+00
  0.00000000E+00  0.00000000E+00  0.00000000E+00
  0.00000000E+00  0.00000000E+00  0.00000000E+00
  0.00000000E+00  0.00000000E+00  0.00000000E+00
  0.00000000E+00  0.00000000E+00  0.00000000E+00
  0.00000000E+00  0.00000000E+00  0.00000000E+00
  0.00000000E+00  0.00000000E+00  0.00000000E+00
  0.00000000E+00  0.00000000E+00  0.00000000E+00
  0.00000000E+00  0.00000000E+00  0.00000000E+00
  0.00000000E+00  0.00000000E+00  0.00000000E+00
  0.00000000E+00  0.00000000E+00  0.00000000E+00
  0.00000000E+00  0.00000000E+00  0.00000000E+00
  0.00000000E+00  0.00000000E+00  0.00000000E+00
  0.00000000E+00  0.00000000E+00  0.00000000E+00
  0.00000000E+00  0.00000000E+00  0.00000000E+00
  0.00000000E+00  0.00000000E+00  0.00000000E+00
  0.00000000E+00  0.00000000E+00  0.00000000E+00
  0.00000000E+00  0.00000000E+00  0.00000000E+00
  0.00000000E+00  0.00000000E+00  0.00000000E+00
  0.00000000E+00  0.00000000E+00  0.00000000E+00
  0.00000000E+00  0.00000000E+00  0.00000000E+00
  0.00000000E+00  0.00000000E+00  0.00000000E+00
  0.00000000E+00  0.00000000E+00  0.00000000E+00
  0.00000000E+00  0.00000000E+00  0.00000000E+00
  0.00000000E+00  0.00000000E+00  0.00000000E+00
  0.00000000E+00  0.00000000E+00  0.00000000E+00
  0.00000000E+00  0.00000000E+00  0.00000000E+00
  0.00000000E+00  0.00000000E+00  0.00000000E+00
  0.00000000E+00  0.00000000E+00  0.00000000E+00
  0.00000000E+00  0.00000000E+00  0.00000000E+00
  0.00000000E+00  0.00000000E+00  0.00000000E+00
  0.00000000E+00  0.00000000E+00  0.00000000E+00
  0.00000000E+00  0.00000000E+00  0.00000000E+00
  0.00000000E+00  0.00000000E+00  0.00000000E+00
  0.00000000E+00  0.00000000E+00  0.00000000E+00
