B2 F8                                   
   1.00000000000000     
     5.7854560783889237    0.0634534719295332    0.3094902849781368
     3.1514819396677329    4.1638691890551254    0.6766631812151263
     0.7220057228918398    0.5784923078359510    4.6112814222799345
   B    F 
     2     8
Direct
  0.7758646870972683  0.9404940805697422  0.1711107606180491
  0.2241598789693811  0.0595832206331366  0.8287240935896776
  0.5202081173384272  0.2110980854566051  0.0694534057182921
  0.0182873735417743  0.2300046406121226  0.0157824155048303
  0.8271360350632833  0.8364902155315335  0.4603205901909888
  0.3519852162049233  0.5591530285477191  0.5031893419698719
  0.6480405581183177  0.4408621422905554  0.4966710516146904
  0.1729065161001770  0.1635016877713937  0.5395275989356492
  0.9817482330199212  0.7701162314560150  0.9840178168547240
  0.4798233845466413  0.7889966671311370  0.9304029250032286
 
  0.00000000E+00  0.00000000E+00  0.00000000E+00
  0.00000000E+00  0.00000000E+00  0.00000000E+00
  0.00000000E+00  0.00000000E+00  0.00000000E+00
  0.00000000E+00  0.00000000E+00  0.00000000E+00
  0.00000000E+00  0.00000000E+00  0.00000000E+00
  0.00000000E+00  0.00000000E+00  0.00000000E+00
  0.00000000E+00  0.00000000E+00  0.00000000E+00
  0.00000000E+00  0.00000000E+00  0.00000000E+00
  0.00000000E+00  0.00000000E+00  0.00000000E+00
  0.00000000E+00  0.00000000E+00  0.00000000E+00
