Be4 Tl4 F20                             
   1.0000000000000000     
     0.0000000000000000    6.1656567380220384   -0.0719807402538100
     7.6191121409260383    0.0000000000000000    0.0000000000000000
     0.0000000000000000   -0.0656409142122814   -7.2796363067247896
   Be   Tl   F 
     4     4    20
Direct
  0.4409480849994409  0.4459625640557334  0.5268993597577776
  0.5590519150005591  0.9459625640557334  0.4731006402422224
  0.0146637896517490  0.1660008608753003  0.9433029213948103
  0.9853362103482510  0.6660008608753003  0.0566970786051897
  0.5025863447863514  0.6360630095856763  0.0942159014616593
  0.4974136552136486  0.1360630095856763  0.9057840985383407
  0.9482893100967900  0.5926552119920743  0.4574511203921929
  0.0517106899032100  0.0926552119920743  0.5425488796078071
  0.3296189618034404  0.9923162993434715  0.3995083185524422
  0.2761982808861347  0.5919216512593835  0.5783882717121074
  0.7238017191138653  0.0919216512593835  0.4216117282878855
  0.7977832211047584  0.7474457702114350  0.9485478759339472
  0.8531027869788232  0.5137806954057709  0.1642159825363763
  0.4291892267669724  0.9087205842910677  0.0735498039946023
  0.9239076021153139  0.2662589586462900  0.7696245768713581
  0.6258756969929422  0.7681301255407433  0.3717523622877010
  0.1468972130211768  0.0137806954057709  0.8357840174636237
  0.9484097568734029  0.8289839510335142  0.6108911863107309
  0.5708107732330205  0.4087205842910677  0.9264501960053977
  0.6703810381965596  0.4923162993434786  0.6004916814475578
  0.5495696687588563  0.9350050332888884  0.6889685019056699
  0.8137910422945680  0.1043542644706079  0.0497432163160383
  0.0515902431265971  0.3289839510335142  0.3891088136892691
  0.0760923978846861  0.7662589586462900  0.2303754231286419
  0.2022167788952345  0.2474457702114350  0.0514521240660457
  0.1862089577054320  0.6043542644706079  0.9502567836839617
  0.3741243030070578  0.2681301255407575  0.6282476377122990
  0.4504303312411437  0.4350050332888955  0.3110314980943301

  0.00000000E+00  0.00000000E+00  0.00000000E+00
  0.00000000E+00  0.00000000E+00  0.00000000E+00
  0.00000000E+00  0.00000000E+00  0.00000000E+00
  0.00000000E+00  0.00000000E+00  0.00000000E+00
  0.00000000E+00  0.00000000E+00  0.00000000E+00
  0.00000000E+00  0.00000000E+00  0.00000000E+00
  0.00000000E+00  0.00000000E+00  0.00000000E+00
  0.00000000E+00  0.00000000E+00  0.00000000E+00
  0.00000000E+00  0.00000000E+00  0.00000000E+00
  0.00000000E+00  0.00000000E+00  0.00000000E+00
  0.00000000E+00  0.00000000E+00  0.00000000E+00
  0.00000000E+00  0.00000000E+00  0.00000000E+00
  0.00000000E+00  0.00000000E+00  0.00000000E+00
  0.00000000E+00  0.00000000E+00  0.00000000E+00
  0.00000000E+00  0.00000000E+00  0.00000000E+00
  0.00000000E+00  0.00000000E+00  0.00000000E+00
  0.00000000E+00  0.00000000E+00  0.00000000E+00
  0.00000000E+00  0.00000000E+00  0.00000000E+00
  0.00000000E+00  0.00000000E+00  0.00000000E+00
  0.00000000E+00  0.00000000E+00  0.00000000E+00
  0.00000000E+00  0.00000000E+00  0.00000000E+00
  0.00000000E+00  0.00000000E+00  0.00000000E+00
  0.00000000E+00  0.00000000E+00  0.00000000E+00
  0.00000000E+00  0.00000000E+00  0.00000000E+00
  0.00000000E+00  0.00000000E+00  0.00000000E+00
  0.00000000E+00  0.00000000E+00  0.00000000E+00
  0.00000000E+00  0.00000000E+00  0.00000000E+00
  0.00000000E+00  0.00000000E+00  0.00000000E+00
