Mg6 Tl4 F24                             
   1.0000000000000000     
     0.0000000000000000    0.0000000000000000    5.3189984197495237
     7.6613396650122594    0.0329535357881721    0.0000000000000000
    -0.0463311569242361   11.1572106440446515    0.0000000000000000
   Mg   F    Tl
     6    24     4
Direct
  0.0000000000000000  0.9304469802985409  0.9264018239016067
  0.5000000000000000  0.2741878995495242  0.0337958516199421
  0.5000000000000000  0.7743349774126358  0.4662167772593051
  0.0000000000000000  0.4305265610118028  0.5735783953467148
  0.5000000000000000  0.1913834615815873  0.5588767613242140
  0.5000000000000000  0.6912910827310270  0.9411425223085246
  0.2766475003191715  0.4744565474119256  0.9609583174382834
  0.7233524996808356  0.4744565474119256  0.9609583174382834
  0.2470363073571633  0.8270378418154181  0.0534237051514239
  0.7529636926428296  0.8270378418154181  0.0534237051514239
  0.0000000000000000  0.5265648151025104  0.1675913693374582
  0.2710821706461815  0.2112600395754924  0.1627746866118116
  0.7289178293538114  0.2112600395754924  0.1627746866118116
  0.2711154853970470  0.7114417947901117  0.3372344309503319
  0.7288845146029601  0.7114417947901117  0.3372344309503319
  0.0000000000000000  0.0265432810368722  0.3325060880456334
  0.2470420917635963  0.3271230008514152  0.4465731500013845
  0.7529579082364037  0.3271230008514152  0.4465731500013845
  0.2766583530287861  0.9745494187981834  0.5390765357319722
  0.7233416469712211  0.9745494187981834  0.5390765357319722
  0.2500607146674767  0.6360212747126610  0.5615218389556063
  0.7499392853325233  0.6360212747126610  0.5615218389556063
  0.0000000000000000  0.0525592937408135  0.7591709994610767
  0.2572615748009994  0.2980474485647520  0.6710952758503694
  0.7427384251989864  0.2980474485647520  0.6710952758503694
  0.2572688159073095  0.7979932025822123  0.8289108721789873
  0.7427311840926833  0.7979932025822123  0.8289108721789873
  0.0000000000000000  0.5525678561758696  0.7408298526931318
  0.2500606685366833  0.1359453429689523  0.9384731621649749
  0.7499393314633096  0.1359453429689523  0.9384731621649749
  0.0000000000000000  0.8071914748554789  0.2131891922728499
  0.0000000000000000  0.3071006806118604  0.2868127261836051
  0.0000000000000000  0.8238897565600567  0.6554779729073275
  0.0000000000000000  0.3238600551891366  0.8445257172683682

  0.00000000E+00  0.00000000E+00  0.00000000E+00
  0.00000000E+00  0.00000000E+00  0.00000000E+00
  0.00000000E+00  0.00000000E+00  0.00000000E+00
  0.00000000E+00  0.00000000E+00  0.00000000E+00
  0.00000000E+00  0.00000000E+00  0.00000000E+00
  0.00000000E+00  0.00000000E+00  0.00000000E+00
  0.00000000E+00  0.00000000E+00  0.00000000E+00
  0.00000000E+00  0.00000000E+00  0.00000000E+00
  0.00000000E+00  0.00000000E+00  0.00000000E+00
  0.00000000E+00  0.00000000E+00  0.00000000E+00
  0.00000000E+00  0.00000000E+00  0.00000000E+00
  0.00000000E+00  0.00000000E+00  0.00000000E+00
  0.00000000E+00  0.00000000E+00  0.00000000E+00
  0.00000000E+00  0.00000000E+00  0.00000000E+00
  0.00000000E+00  0.00000000E+00  0.00000000E+00
  0.00000000E+00  0.00000000E+00  0.00000000E+00
  0.00000000E+00  0.00000000E+00  0.00000000E+00
  0.00000000E+00  0.00000000E+00  0.00000000E+00
  0.00000000E+00  0.00000000E+00  0.00000000E+00
  0.00000000E+00  0.00000000E+00  0.00000000E+00
  0.00000000E+00  0.00000000E+00  0.00000000E+00
  0.00000000E+00  0.00000000E+00  0.00000000E+00
  0.00000000E+00  0.00000000E+00  0.00000000E+00
  0.00000000E+00  0.00000000E+00  0.00000000E+00
  0.00000000E+00  0.00000000E+00  0.00000000E+00
  0.00000000E+00  0.00000000E+00  0.00000000E+00
  0.00000000E+00  0.00000000E+00  0.00000000E+00
  0.00000000E+00  0.00000000E+00  0.00000000E+00
  0.00000000E+00  0.00000000E+00  0.00000000E+00
  0.00000000E+00  0.00000000E+00  0.00000000E+00
  0.00000000E+00  0.00000000E+00  0.00000000E+00
  0.00000000E+00  0.00000000E+00  0.00000000E+00
  0.00000000E+00  0.00000000E+00  0.00000000E+00
  0.00000000E+00  0.00000000E+00  0.00000000E+00
