Sr10 Al4 Cl32                           
   1.00000000000000     
     4.6413734775623912   -7.6743997972201727    0.0000000000000000
     4.6413734775623912    7.6743997972201727    0.0000000000000000
     0.0000000000000000    0.0000000000000000   17.2898095517491512
   Sr   Al   Cl
    10     4    32
Direct
  0.0000000000000000  0.0000000000000000  0.7175295668770687
  0.0000000000000000  0.0000000000000000  0.2824704331229313
  0.5000000000000000  0.5000000000000000  0.7824704331229313
  0.5000000000000000  0.5000000000000000  0.2175295668770687
  0.5000000000000000  0.5000000000000000  0.5000000000000000
  0.0000000000000000  0.0000000000000000  0.0000000000000000
  0.0000000000000000  0.5000000000000000  0.6359974548268212
  0.5000000000000000  0.0000000000000000  0.3640025451731788
  0.5000000000000000  0.0000000000000000  0.8640025451731788
  0.0000000000000000  0.5000000000000000  0.1359974548268212
  0.5000000000000000  0.0000000000000000  0.6161462976890490
  0.0000000000000000  0.5000000000000000  0.3838537023109510
  0.0000000000000000  0.5000000000000000  0.8838537023109510
  0.5000000000000000  0.0000000000000000  0.1161462976890490
  0.5315285391246576  0.1917211011580378  0.7111307848358663
  0.4684714608753424  0.8082788988419622  0.7111307848358663
  0.1917211011580378  0.5315285391246576  0.2888692151641337
  0.8082788988419622  0.4684714608753424  0.2888692151641337
  0.9684714608753424  0.3082788988419622  0.7888692151641337
  0.0315285391246576  0.6917211011580378  0.7888692151641337
  0.3082788988419622  0.9684714608753424  0.2111307848358663
  0.6917211011580378  0.0315285391246576  0.2111307848358663
  0.1940746349733260  0.8768942934467248  0.6141452567627823
  0.8059253650266811  0.1231057065532752  0.6141452567627823
  0.8768942934467248  0.1940746349733260  0.3858547432372177
  0.1231057065532752  0.8059253650266811  0.3858547432372177
  0.3059253650266811  0.6231057065532752  0.8858547432372177
  0.6940746349733189  0.3768942934467248  0.8858547432372177
  0.6680880331232331  0.9880615075272488  0.0183862509461505
  0.3319119668767669  0.0119384924727512  0.0183862509461505
  0.9880615075272488  0.6680880331232331  0.9816137490538495
  0.0119384924727512  0.3319119668767669  0.9816137490538495
  0.8319119668767669  0.5119384924727512  0.4816137490538495
  0.1680880331232331  0.4880615075272488  0.4816137490538495
  0.5119384924727512  0.8319119668767669  0.5183862509461505
  0.4880615075272488  0.1680880331232331  0.5183862509461505
  0.8619546556742534  0.7623730756445397  0.1494354095459371
  0.1380453443257466  0.2376269243554603  0.1494354095459371
  0.7623730756445397  0.8619546556742534  0.8505645904540629
  0.2376269243554603  0.1380453443257466  0.8505645904540629
  0.6380453443257466  0.7376269243554603  0.3505645904540629
  0.3619546556742534  0.2623730756445397  0.3505645904540629
  0.7376269243554603  0.6380453443257466  0.6494354095459371
  0.2623730756445397  0.3619546556742534  0.6494354095459371
  0.3768942934467248  0.6940746349733189  0.1141452567627823
  0.6231057065532752  0.3059253650266811  0.1141452567627823
 
  0.00000000E+00  0.00000000E+00  0.00000000E+00
  0.00000000E+00  0.00000000E+00  0.00000000E+00
  0.00000000E+00  0.00000000E+00  0.00000000E+00
  0.00000000E+00  0.00000000E+00  0.00000000E+00
  0.00000000E+00  0.00000000E+00  0.00000000E+00
  0.00000000E+00  0.00000000E+00  0.00000000E+00
  0.00000000E+00  0.00000000E+00  0.00000000E+00
  0.00000000E+00  0.00000000E+00  0.00000000E+00
  0.00000000E+00  0.00000000E+00  0.00000000E+00
  0.00000000E+00  0.00000000E+00  0.00000000E+00
  0.00000000E+00  0.00000000E+00  0.00000000E+00
  0.00000000E+00  0.00000000E+00  0.00000000E+00
  0.00000000E+00  0.00000000E+00  0.00000000E+00
  0.00000000E+00  0.00000000E+00  0.00000000E+00
  0.00000000E+00  0.00000000E+00  0.00000000E+00
  0.00000000E+00  0.00000000E+00  0.00000000E+00
  0.00000000E+00  0.00000000E+00  0.00000000E+00
  0.00000000E+00  0.00000000E+00  0.00000000E+00
  0.00000000E+00  0.00000000E+00  0.00000000E+00
  0.00000000E+00  0.00000000E+00  0.00000000E+00
  0.00000000E+00  0.00000000E+00  0.00000000E+00
  0.00000000E+00  0.00000000E+00  0.00000000E+00
  0.00000000E+00  0.00000000E+00  0.00000000E+00
  0.00000000E+00  0.00000000E+00  0.00000000E+00
  0.00000000E+00  0.00000000E+00  0.00000000E+00
  0.00000000E+00  0.00000000E+00  0.00000000E+00
  0.00000000E+00  0.00000000E+00  0.00000000E+00
  0.00000000E+00  0.00000000E+00  0.00000000E+00
  0.00000000E+00  0.00000000E+00  0.00000000E+00
  0.00000000E+00  0.00000000E+00  0.00000000E+00
  0.00000000E+00  0.00000000E+00  0.00000000E+00
  0.00000000E+00  0.00000000E+00  0.00000000E+00
  0.00000000E+00  0.00000000E+00  0.00000000E+00
  0.00000000E+00  0.00000000E+00  0.00000000E+00
  0.00000000E+00  0.00000000E+00  0.00000000E+00
  0.00000000E+00  0.00000000E+00  0.00000000E+00
  0.00000000E+00  0.00000000E+00  0.00000000E+00
  0.00000000E+00  0.00000000E+00  0.00000000E+00
  0.00000000E+00  0.00000000E+00  0.00000000E+00
  0.00000000E+00  0.00000000E+00  0.00000000E+00
  0.00000000E+00  0.00000000E+00  0.00000000E+00
  0.00000000E+00  0.00000000E+00  0.00000000E+00
  0.00000000E+00  0.00000000E+00  0.00000000E+00
  0.00000000E+00  0.00000000E+00  0.00000000E+00
  0.00000000E+00  0.00000000E+00  0.00000000E+00
  0.00000000E+00  0.00000000E+00  0.00000000E+00
