Ca8 Tl10                                
   1.0000000000000000     
     6.1230268460510766   -0.0192991267358925   -0.1512487239999833
    -3.0695603405164396    5.3064773884608316   -0.1600315732996606
    -0.4343220939108854   -0.7427393767796564   17.5524155784596765
   Tl   Ca
    10     8
Direct
  0.6036270519713227  0.3034439833269857  0.0976139287479398
  0.9669152154231995  0.3246248372008296  0.2494339598791129
  0.6802486871549434  0.6860351221349035  0.2513541595141859
  0.3238511538284143  0.0419782473467052  0.2508938947884332
  0.7102959987601665  0.4059547307171769  0.4047465870090932
  0.2872583487801279  0.5833797496782509  0.5737908624972832
  0.5042716828370430  0.9833272187693893  0.7563206652872267
  0.5142609695078804  0.4898921268348531  0.7525656492500943
  0.0080442199242938  0.4750961624729655  0.7404153903419655
  0.4061675053966383  0.7060081540636034  0.9255452875441250
  0.2782266942073122  0.6431907199846236  0.1044137646368597
  0.9361196923148967  0.9697224765434029  0.0738061460832853
  0.0397180852228374  0.0742497754543194  0.4246884674688616
  0.3660538132161761  0.7310291192833205  0.3964975525463501
  0.6150776587039175  0.2468919977486692  0.5726596324765012
  0.9681994228642168  0.9379602857398979  0.6429292697214422
  0.0494202016226026  0.0208298561562756  0.8545586849006668
  0.7427435982640134  0.3768854365437946  0.9282660973065902

  0.00000000E+00  0.00000000E+00  0.00000000E+00
  0.00000000E+00  0.00000000E+00  0.00000000E+00
  0.00000000E+00  0.00000000E+00  0.00000000E+00
  0.00000000E+00  0.00000000E+00  0.00000000E+00
  0.00000000E+00  0.00000000E+00  0.00000000E+00
  0.00000000E+00  0.00000000E+00  0.00000000E+00
  0.00000000E+00  0.00000000E+00  0.00000000E+00
  0.00000000E+00  0.00000000E+00  0.00000000E+00
  0.00000000E+00  0.00000000E+00  0.00000000E+00
  0.00000000E+00  0.00000000E+00  0.00000000E+00
  0.00000000E+00  0.00000000E+00  0.00000000E+00
  0.00000000E+00  0.00000000E+00  0.00000000E+00
  0.00000000E+00  0.00000000E+00  0.00000000E+00
  0.00000000E+00  0.00000000E+00  0.00000000E+00
  0.00000000E+00  0.00000000E+00  0.00000000E+00
  0.00000000E+00  0.00000000E+00  0.00000000E+00
  0.00000000E+00  0.00000000E+00  0.00000000E+00
  0.00000000E+00  0.00000000E+00  0.00000000E+00
