Sr16 Ga6                                
   1.00000000000000     
    10.1405359847138339    0.0052849051388360    0.0247370382113083
     5.0801895399343975    8.7419546218785715    0.0079163356742684
     2.0213145448000547    2.9329322543960323    9.5525011346129691
   Sr   Ga
    16     6
Direct
  0.6447482739161998  0.2645200618631662  0.1019227944701342
  0.0591062909914299  0.6147983386762590  0.1138183915382811
  0.2811028460910663  0.0182916503810233  0.1109269666135404
  0.6604155341115145  0.7837485639141519  0.2912496063186865
  0.8685222300304858  0.3508635206240314  0.2986448873907364
  0.4018375653026141  0.5630292459418769  0.3320932942854213
  0.3306856809046508  0.1974465294396239  0.3576408120819536
  0.9664510425560451  0.9025735699039714  0.3503060151787309
  0.0335797489864262  0.0975016929043875  0.6497170460044543
  0.6693879576675457  0.8025437589023952  0.6423639120300138
  0.5982878274265460  0.4370232502603884  0.6678153492452950
  0.1315265255153548  0.6491789277710680  0.7013250193511453
  0.3396204995862107  0.2163587457096696  0.7087028593184996
  0.7189742099245322  0.9816986686993516  0.8890090476606574
  0.9409644473725649  0.3852255245712968  0.8862268901322423
  0.3552864284021737  0.7355037460947926  0.8980070136734000
  0.9999820228959067  0.9999717713645850  0.0000458337287910
  0.6625150982467645  0.6600002945492633  0.0256587613809529
  0.3423209924876502  0.8309472839598300  0.5010105841088475
  0.9998116991328629  0.4999992158159969  0.5001248041247308
  0.6576892173439006  0.1690742143241266  0.4989616581945953
  0.3374838611075504  0.3400604243287262  0.9743284531688943
 
  0.00000000E+00  0.00000000E+00  0.00000000E+00
  0.00000000E+00  0.00000000E+00  0.00000000E+00
  0.00000000E+00  0.00000000E+00  0.00000000E+00
  0.00000000E+00  0.00000000E+00  0.00000000E+00
  0.00000000E+00  0.00000000E+00  0.00000000E+00
  0.00000000E+00  0.00000000E+00  0.00000000E+00
  0.00000000E+00  0.00000000E+00  0.00000000E+00
  0.00000000E+00  0.00000000E+00  0.00000000E+00
  0.00000000E+00  0.00000000E+00  0.00000000E+00
  0.00000000E+00  0.00000000E+00  0.00000000E+00
  0.00000000E+00  0.00000000E+00  0.00000000E+00
  0.00000000E+00  0.00000000E+00  0.00000000E+00
  0.00000000E+00  0.00000000E+00  0.00000000E+00
  0.00000000E+00  0.00000000E+00  0.00000000E+00
  0.00000000E+00  0.00000000E+00  0.00000000E+00
  0.00000000E+00  0.00000000E+00  0.00000000E+00
  0.00000000E+00  0.00000000E+00  0.00000000E+00
  0.00000000E+00  0.00000000E+00  0.00000000E+00
  0.00000000E+00  0.00000000E+00  0.00000000E+00
  0.00000000E+00  0.00000000E+00  0.00000000E+00
  0.00000000E+00  0.00000000E+00  0.00000000E+00
  0.00000000E+00  0.00000000E+00  0.00000000E+00
