Cl                                      
   1.00000000000000     
    -3.8328029260752499   -2.1533819516979151    0.0000000000000000
    -3.8328029260752499    2.1533819516979151    0.0000000000000000
     0.0000000000000000    0.0000000000000000   -8.3715766659932402
   Cl
     4
Direct
  0.1125236358718880  0.8874763641281120  0.1058324248390647
  0.6125236358718880  0.3874763641281120  0.3941675751609353
  0.3874763641281120  0.6125236358718880  0.6058324248390647
  0.8874763641281120  0.1125236358718880  0.8941675751609353
 
  0.00000000E+00  0.00000000E+00  0.00000000E+00
  0.00000000E+00  0.00000000E+00  0.00000000E+00
  0.00000000E+00  0.00000000E+00  0.00000000E+00
  0.00000000E+00  0.00000000E+00  0.00000000E+00
