Ca8 Al2                                 
   1.00000000000000     
    -5.9975305292385981   -5.9975305292385981    0.0000000000000000
    -5.9975305292385981    0.0000000000000000   -5.9975305292385981
     0.0000000000000000   -5.9975305292385981   -5.9975305292385981
   Ca   Al
     8     2
Direct
  0.6098992743369465  0.6098992743369465  0.6098992743369465
  0.1703031769891510  0.6098992743369465  0.6098992743369465
  0.6098992743369465  0.1703031769891510  0.6098992743369465
  0.5796968230108490  0.1401007256630535  0.1401007256630535
  0.1401007256630535  0.1401007256630535  0.1401007256630535
  0.6098992743369465  0.6098992743369465  0.1703031769891510
  0.1401007256630535  0.5796968230108490  0.1401007256630535
  0.1401007256630535  0.1401007256630535  0.5796968230108490
  0.0000000000000000  0.0000000000000000  0.0000000000000000
  0.7500000000000000  0.7500000000000000  0.7500000000000000
 
  0.00000000E+00  0.00000000E+00  0.00000000E+00
  0.00000000E+00  0.00000000E+00  0.00000000E+00
  0.00000000E+00  0.00000000E+00  0.00000000E+00
  0.00000000E+00  0.00000000E+00  0.00000000E+00
  0.00000000E+00  0.00000000E+00  0.00000000E+00
  0.00000000E+00  0.00000000E+00  0.00000000E+00
  0.00000000E+00  0.00000000E+00  0.00000000E+00
  0.00000000E+00  0.00000000E+00  0.00000000E+00
  0.00000000E+00  0.00000000E+00  0.00000000E+00
  0.00000000E+00  0.00000000E+00  0.00000000E+00
