Ca1                                     
   1.00000000000000     
     3.3851053079682298   -0.0000000126567233    1.9543905329708100
     1.1283680891877002    3.1915071849067540    1.9543905330127243
    -0.0000000090738729   -0.0000000121712941    3.9087831189717237
   Ca
     1
Direct
  0.0000000000000000  0.0000000000000000  0.0000000000000000
 
  0.00000000E+00  0.00000000E+00  0.00000000E+00
