Ba1 In2 Br10                            
   1.0000000000000000     
     7.4804828112212780    6.5199127915126782    1.5635199399561228
    -7.4804828112212780    6.5199127915126782    1.5635199399561228
     0.0000000000000000    6.7764774875001059    8.0658825420777926
   Ba   In   Br
     1     2    10
Direct
  0.4992415341892311  0.5007584658107760  0.0000000000000000
  0.9467557789390497  0.0538323826373457  0.7553736072675150
  0.9461676173626543  0.0532442210609503  0.2446263927324850
  0.3082960230971494  0.2247168365739967  0.5062160490196845
  0.7752831634260033  0.6917039769028506  0.4937839509803155
  0.7120388113725298  0.6918972369878986  0.0766175123090846
  0.3081027630121014  0.2879611886274702  0.9233824876909154
  0.8801988492186155  0.1198011507813845  0.0000000000000000
  0.0116793047786388  0.9883206952213612  0.5000000000000000
  0.8135619293263190  0.2481319515367346  0.6547073453317438
  0.7518680484632583  0.1864380706736810  0.3452926546682562
  0.4337819947179824  0.8429768179035335  0.8056912686016489
  0.1570231820964665  0.5662180052820176  0.1943087313983511

  0.00000000E+00  0.00000000E+00  0.00000000E+00
  0.00000000E+00  0.00000000E+00  0.00000000E+00
  0.00000000E+00  0.00000000E+00  0.00000000E+00
  0.00000000E+00  0.00000000E+00  0.00000000E+00
  0.00000000E+00  0.00000000E+00  0.00000000E+00
  0.00000000E+00  0.00000000E+00  0.00000000E+00
  0.00000000E+00  0.00000000E+00  0.00000000E+00
  0.00000000E+00  0.00000000E+00  0.00000000E+00
  0.00000000E+00  0.00000000E+00  0.00000000E+00
  0.00000000E+00  0.00000000E+00  0.00000000E+00
  0.00000000E+00  0.00000000E+00  0.00000000E+00
  0.00000000E+00  0.00000000E+00  0.00000000E+00
  0.00000000E+00  0.00000000E+00  0.00000000E+00
