Mg21 Tl40                               
   1.0000000000000000     
     4.8707117657104355   -8.4363204982055517    0.0000000000000001
     4.8707117657104355    8.4363204982055517    0.0000000000000001
    -0.0000000000000002    0.0000000000000000   21.5418669143033625
   Mg   Tl
    21    40
Direct
  0.9999999999158362  0.4714754963956480  0.4544658727627748
  0.6666669999999968  0.3333330000000032  0.3839081950892975
  0.6793757270582148  0.0000000000139266  0.6500484786634289
  0.3206242729278657  0.3206242729278657  0.6500484786634289
  0.0000000000000000  0.0000000000000000  0.1577019234305581
  0.9999999999782361  0.3329537189528295  0.6506133917065071
  0.3461844619443184  0.9999999999744773  0.0051918608883526
  0.0000000000139266  0.6793757270582148  0.6500484786634289
  0.5285245036885158  0.5285245036885158  0.4544658727627748
  0.3329537189528295  0.9999999999782361  0.6506133917065071
  0.3333330000000032  0.6666669999999968  0.0717926007577034
  0.0000000000751399  0.5179477231198177  0.8672113925103062
  0.6670462810689344  0.6670462810689344  0.6506133917065071
  0.4820522768050495  0.4820522768050495  0.8672113925103062
  0.6666669999999968  0.3333330000000032  0.0717926007577034
  0.3333330000000032  0.6666669999999968  0.3839081950892975
  0.9999999999744773  0.3461844619443184  0.0051918608883526
  0.4714754963956480  0.9999999999158362  0.4544658727627748
  0.6538155380812114  0.6538155380812114  0.0051918608883526
  0.5179477231198177  0.0000000000751399  0.8672113925103062
  0.0000000000000000  0.0000000000000000  0.2907243399609030
  0.2195197660794790  0.4169308891423853  0.5292311993318961
  0.2038344648202894  0.3953008847793669  0.2208835962062849
  0.4210633205236078  0.2159348925131255  0.7736922390604164
  0.8085335801218250  0.6046991152577448  0.2208835962062849
  0.4959881770695134  0.9999999999437037  0.1286282049367173
  0.0000000000000000  0.0000000000000000  0.5559291481271131
  0.3333330000000032  0.6666669999999968  0.9267385795704470
  0.1914664199219587  0.7961655350988011  0.2208835962062849
  0.1890928216337073  0.0000000000016627  0.8858896333276576
  0.0000000001059774  0.4667341728300016  0.3180668376995897
  0.3953008847793669  0.2038344648202894  0.2208835962062849
  0.2191310305562055  0.2191310305562055  0.3940072661309060
  0.8109071783646300  0.8109071783646300  0.8858896333276576
  0.6666669999999968  0.3333330000000032  0.9267385795704470
  0.9999999998740066  0.7808689695697950  0.3940072661309060
  0.5040118229867829  0.5040118229867829  0.1286282049367173
  0.8025888768188523  0.5830691108051624  0.5292311993318961
  0.5789366794856150  0.7948715719350332  0.7736922390604164
  0.9999999999437037  0.4959881770695134  0.1286282049367173
  0.7961655350988011  0.1914664199219587  0.2208835962062849
  0.9999999999944151  0.6706589991809082  0.9956867452851341
  0.5332658270640280  0.5332658270640280  0.3180668376995897
  0.3333330000000032  0.6666669999999968  0.6504761043855325
  0.0000000000016627  0.1890928216337073  0.8858896333276576
  0.6666669999999968  0.3333330000000032  0.6504761043855325
  0.2159348925131255  0.4210633205236078  0.7736922390604164
  0.5830691108051624  0.8025888768188523  0.5292311993318961
  0.1974111231153728  0.7804802340387624  0.5292311993318961
  0.6706589991809082  0.9999999999944151  0.9956867452851341
  0.3293410008246767  0.3293410008246767  0.9956867452851341
  0.7840651075413589  0.2051284280012524  0.7736922390604164
  0.4667341728300016  0.0000000001059774  0.3180668376995897
  0.4169308891423853  0.2195197660794790  0.5292311993318961
  0.6046991152577448  0.8085335801218250  0.2208835962062849
  0.7808689695697950  0.9999999998740066  0.3940072661309060
  0.7804802340387624  0.1974111231153728  0.5292311993318961
  0.2051284280012524  0.7840651075413589  0.7736922390604164
  0.0000000000000000  0.0000000000000000  0.0250628565761986
  0.7948715719350332  0.5789366794856150  0.7736922390604164
  0.0000000000000000  0.0000000000000000  0.7162445129736241

  0.00000000E+00  0.00000000E+00  0.00000000E+00
  0.00000000E+00  0.00000000E+00  0.00000000E+00
  0.00000000E+00  0.00000000E+00  0.00000000E+00
  0.00000000E+00  0.00000000E+00  0.00000000E+00
  0.00000000E+00  0.00000000E+00  0.00000000E+00
  0.00000000E+00  0.00000000E+00  0.00000000E+00
  0.00000000E+00  0.00000000E+00  0.00000000E+00
  0.00000000E+00  0.00000000E+00  0.00000000E+00
  0.00000000E+00  0.00000000E+00  0.00000000E+00
  0.00000000E+00  0.00000000E+00  0.00000000E+00
  0.00000000E+00  0.00000000E+00  0.00000000E+00
  0.00000000E+00  0.00000000E+00  0.00000000E+00
  0.00000000E+00  0.00000000E+00  0.00000000E+00
  0.00000000E+00  0.00000000E+00  0.00000000E+00
  0.00000000E+00  0.00000000E+00  0.00000000E+00
  0.00000000E+00  0.00000000E+00  0.00000000E+00
  0.00000000E+00  0.00000000E+00  0.00000000E+00
  0.00000000E+00  0.00000000E+00  0.00000000E+00
  0.00000000E+00  0.00000000E+00  0.00000000E+00
  0.00000000E+00  0.00000000E+00  0.00000000E+00
  0.00000000E+00  0.00000000E+00  0.00000000E+00
  0.00000000E+00  0.00000000E+00  0.00000000E+00
  0.00000000E+00  0.00000000E+00  0.00000000E+00
  0.00000000E+00  0.00000000E+00  0.00000000E+00
  0.00000000E+00  0.00000000E+00  0.00000000E+00
  0.00000000E+00  0.00000000E+00  0.00000000E+00
  0.00000000E+00  0.00000000E+00  0.00000000E+00
  0.00000000E+00  0.00000000E+00  0.00000000E+00
  0.00000000E+00  0.00000000E+00  0.00000000E+00
  0.00000000E+00  0.00000000E+00  0.00000000E+00
  0.00000000E+00  0.00000000E+00  0.00000000E+00
  0.00000000E+00  0.00000000E+00  0.00000000E+00
  0.00000000E+00  0.00000000E+00  0.00000000E+00
  0.00000000E+00  0.00000000E+00  0.00000000E+00
  0.00000000E+00  0.00000000E+00  0.00000000E+00
  0.00000000E+00  0.00000000E+00  0.00000000E+00
  0.00000000E+00  0.00000000E+00  0.00000000E+00
  0.00000000E+00  0.00000000E+00  0.00000000E+00
  0.00000000E+00  0.00000000E+00  0.00000000E+00
  0.00000000E+00  0.00000000E+00  0.00000000E+00
  0.00000000E+00  0.00000000E+00  0.00000000E+00
  0.00000000E+00  0.00000000E+00  0.00000000E+00
  0.00000000E+00  0.00000000E+00  0.00000000E+00
  0.00000000E+00  0.00000000E+00  0.00000000E+00
  0.00000000E+00  0.00000000E+00  0.00000000E+00
  0.00000000E+00  0.00000000E+00  0.00000000E+00
  0.00000000E+00  0.00000000E+00  0.00000000E+00
  0.00000000E+00  0.00000000E+00  0.00000000E+00
  0.00000000E+00  0.00000000E+00  0.00000000E+00
  0.00000000E+00  0.00000000E+00  0.00000000E+00
  0.00000000E+00  0.00000000E+00  0.00000000E+00
  0.00000000E+00  0.00000000E+00  0.00000000E+00
  0.00000000E+00  0.00000000E+00  0.00000000E+00
  0.00000000E+00  0.00000000E+00  0.00000000E+00
  0.00000000E+00  0.00000000E+00  0.00000000E+00
  0.00000000E+00  0.00000000E+00  0.00000000E+00
  0.00000000E+00  0.00000000E+00  0.00000000E+00
  0.00000000E+00  0.00000000E+00  0.00000000E+00
  0.00000000E+00  0.00000000E+00  0.00000000E+00
  0.00000000E+00  0.00000000E+00  0.00000000E+00
  0.00000000E+00  0.00000000E+00  0.00000000E+00
