Ba16 In6                                
   1.0000000000000000     
    10.8342658163355310    0.0006833892342983    0.0228885548910716
    -5.4038959896642345    9.4014974058588425   -0.0319783593499621
    -2.1103116938770077   -3.1787735206418595   10.2180153553639510
   In   Ba
     6    16
Direct
  0.0000140875211798  0.4999863845073733  0.9999890664531605
  0.6770158099184300  0.8393822555456083  0.0262843556333223
  0.8290734974564842  0.6682255400755537  0.5007160689854118
  0.5000080007141534  0.9999963074424372  0.5000221457747429
  0.1709510787181614  0.3317386633486450  0.4993347940651134
  0.3229445066517869  0.1605629189010003  0.9736698462064410
  0.0821759094944952  0.2347711125051077  0.1052804523559914
  0.7024801582428708  0.4931156353691364  0.1123700199411246
  0.3261677295839860  0.8798110782867141  0.1140247469929534
  0.5462836116378114  0.7148135905374531  0.2949308549263350
  0.7710596266039786  0.1499786997339214  0.2960431515183970
  0.0377919111165852  0.9395508380230666  0.3311986125754416
  0.4682138828618250  0.3023385092287043  0.3532275501260003
  0.1216731778740865  0.5988690954915370  0.3529444193683844
  0.8783428829887043  0.4010640475948364  0.6471295286140730
  0.5318872596960205  0.6977008504778510  0.6468848561700398
  0.9624031788706731  0.0604488376647225  0.6690259884889755
  0.2289802170252173  0.8499658635980154  0.7040596158143728
  0.4537778718409911  0.2851888427699976  0.7051138479511181
  0.6738398274420163  0.1201892652285466  0.8858831878338691
  0.2975425050000524  0.5068637021852638  0.8875796830827198
  0.9177732687404756  0.7651379614845055  0.8946872071219971

  0.00000000E+00  0.00000000E+00  0.00000000E+00
  0.00000000E+00  0.00000000E+00  0.00000000E+00
  0.00000000E+00  0.00000000E+00  0.00000000E+00
  0.00000000E+00  0.00000000E+00  0.00000000E+00
  0.00000000E+00  0.00000000E+00  0.00000000E+00
  0.00000000E+00  0.00000000E+00  0.00000000E+00
  0.00000000E+00  0.00000000E+00  0.00000000E+00
  0.00000000E+00  0.00000000E+00  0.00000000E+00
  0.00000000E+00  0.00000000E+00  0.00000000E+00
  0.00000000E+00  0.00000000E+00  0.00000000E+00
  0.00000000E+00  0.00000000E+00  0.00000000E+00
  0.00000000E+00  0.00000000E+00  0.00000000E+00
  0.00000000E+00  0.00000000E+00  0.00000000E+00
  0.00000000E+00  0.00000000E+00  0.00000000E+00
  0.00000000E+00  0.00000000E+00  0.00000000E+00
  0.00000000E+00  0.00000000E+00  0.00000000E+00
  0.00000000E+00  0.00000000E+00  0.00000000E+00
  0.00000000E+00  0.00000000E+00  0.00000000E+00
  0.00000000E+00  0.00000000E+00  0.00000000E+00
  0.00000000E+00  0.00000000E+00  0.00000000E+00
  0.00000000E+00  0.00000000E+00  0.00000000E+00
  0.00000000E+00  0.00000000E+00  0.00000000E+00
