Sr13 Ga14                               
   1.00000000000000     
     6.1644959971600644    6.1644959971600661    6.1515134016378825
     6.1644959971600661   -6.1515134016378834   -6.1644959971600652
    -6.1515134016378816    6.1644959971600661   -6.1644959971600661
   Ga   Sr
    14    13
Direct
  0.2796868787020372  0.9999711878654338  0.9999711878654338
  0.7203131212979628  0.0000288121345662  0.0000288121345662
  0.2740627467437378  0.2740627467437378  0.9991686410558032
  0.9999711878654338  0.2796868787020372  0.9999711878654338
  0.0000288121345662  0.7203131212979628  0.0000288121345662
  0.7259372532562622  0.7259372532562622  0.0008313589441968
  0.2740627467437378  0.9991686410558032  0.2740627467437378
  0.9991686410558032  0.2740627467437378  0.2740627467437378
  0.9999711878654338  0.9999711878654338  0.2796868787020372
  0.2785163275078020  0.2785163275078020  0.2785163275078020
  0.0000288121345662  0.0000288121345662  0.7203131212979628
  0.7214836724921980  0.7214836724921980  0.7214836724921980
  0.7259372532562622  0.0008313589441968  0.7259372532562622
  0.0008313589441968  0.7259372532562622  0.7259372532562622
  0.0000000000000000  0.0000000000000000  0.0000000000000000
  0.7127526241463755  0.2872473758536245  0.0000000000000000
  0.2872473758536245  0.7127526241463755  0.0000000000000000
  0.7134121602140411  0.7134121602140411  0.4270964581512757
  0.7127526241463755  0.0000000000000000  0.2872473758536245
  0.0000000000000000  0.7127526241463755  0.2872473758536245
  0.5729035418487243  0.2865878397859589  0.2865878397859589
  0.2865878397859589  0.5729035418487243  0.2865878397859589
  0.2872473758536245  0.0000000000000000  0.7127526241463755
  0.7134121602140411  0.4270964581512757  0.7134121602140411
  0.0000000000000000  0.2872473758536245  0.7127526241463755
  0.4270964581512757  0.7134121602140411  0.7134121602140411
  0.2865878397859589  0.2865878397859589  0.5729035418487243
 
  0.00000000E+00  0.00000000E+00  0.00000000E+00
  0.00000000E+00  0.00000000E+00  0.00000000E+00
  0.00000000E+00  0.00000000E+00  0.00000000E+00
  0.00000000E+00  0.00000000E+00  0.00000000E+00
  0.00000000E+00  0.00000000E+00  0.00000000E+00
  0.00000000E+00  0.00000000E+00  0.00000000E+00
  0.00000000E+00  0.00000000E+00  0.00000000E+00
  0.00000000E+00  0.00000000E+00  0.00000000E+00
  0.00000000E+00  0.00000000E+00  0.00000000E+00
  0.00000000E+00  0.00000000E+00  0.00000000E+00
  0.00000000E+00  0.00000000E+00  0.00000000E+00
  0.00000000E+00  0.00000000E+00  0.00000000E+00
  0.00000000E+00  0.00000000E+00  0.00000000E+00
  0.00000000E+00  0.00000000E+00  0.00000000E+00
  0.00000000E+00  0.00000000E+00  0.00000000E+00
  0.00000000E+00  0.00000000E+00  0.00000000E+00
  0.00000000E+00  0.00000000E+00  0.00000000E+00
  0.00000000E+00  0.00000000E+00  0.00000000E+00
  0.00000000E+00  0.00000000E+00  0.00000000E+00
  0.00000000E+00  0.00000000E+00  0.00000000E+00
  0.00000000E+00  0.00000000E+00  0.00000000E+00
  0.00000000E+00  0.00000000E+00  0.00000000E+00
  0.00000000E+00  0.00000000E+00  0.00000000E+00
  0.00000000E+00  0.00000000E+00  0.00000000E+00
  0.00000000E+00  0.00000000E+00  0.00000000E+00
  0.00000000E+00  0.00000000E+00  0.00000000E+00
  0.00000000E+00  0.00000000E+00  0.00000000E+00
