Mg16 B6                                 
   1.00000000000000     
     7.4267823810420870    0.0459934410918661    0.0635838489818852
     3.7572772680473729    6.5751725547150643    0.0404062436744067
     1.5352072114055586    2.2205925738349559    7.1093392658730261
   Mg   B 
    16     6
Direct
  0.6403511402597388  0.2723340146565434  0.0985355251513411
  0.0531884535202067  0.6111214587259965  0.1114320702062699
  0.2888213869637539  0.0134999207256783  0.0970991845764360
  0.6589103244508365  0.7603081295147263  0.3103410514737917
  0.8656174675580104  0.3406562318677402  0.3063625590232064
  0.3959446647066471  0.5626497267734862  0.3349627380150650
  0.3324171420880546  0.1868553107542539  0.3521029475645179
  0.9566468320395671  0.9055151370413554  0.3403596269987474
  0.0433810316102594  0.0945182722897826  0.6596322995804869
  0.6676085587689045  0.8131783439888238  0.6478877699887420
  0.6040835205153030  0.4373832571279550  0.6650267828306369
  0.1344106566774741  0.6593763057421569  0.6936296329904579
  0.3411176375337135  0.2397262440617212  0.6896485786989430
  0.7112055492276710  0.9865322201483337  0.9028912727159693
  0.9468380923691271  0.3889105589959314  0.8885595492636753
  0.3596769292577875  0.7276969836778164  0.9014555916977685
  0.0000141704295373  0.0000154296815396  0.9999958477523805
  0.6654361373728079  0.6553896735188829  0.0383327260048603
  0.3455470139367947  0.8288172982951352  0.5091156823889449
  0.0000130901232396  0.5000153477102387  0.4999960254071141
  0.6544792692990100  0.1712159586250408  0.4908746361702825
  0.3345909312915722  0.3446431760768718  0.9616579015003524
 
  0.00000000E+00  0.00000000E+00  0.00000000E+00
  0.00000000E+00  0.00000000E+00  0.00000000E+00
  0.00000000E+00  0.00000000E+00  0.00000000E+00
  0.00000000E+00  0.00000000E+00  0.00000000E+00
  0.00000000E+00  0.00000000E+00  0.00000000E+00
  0.00000000E+00  0.00000000E+00  0.00000000E+00
  0.00000000E+00  0.00000000E+00  0.00000000E+00
  0.00000000E+00  0.00000000E+00  0.00000000E+00
  0.00000000E+00  0.00000000E+00  0.00000000E+00
  0.00000000E+00  0.00000000E+00  0.00000000E+00
  0.00000000E+00  0.00000000E+00  0.00000000E+00
  0.00000000E+00  0.00000000E+00  0.00000000E+00
  0.00000000E+00  0.00000000E+00  0.00000000E+00
  0.00000000E+00  0.00000000E+00  0.00000000E+00
  0.00000000E+00  0.00000000E+00  0.00000000E+00
  0.00000000E+00  0.00000000E+00  0.00000000E+00
  0.00000000E+00  0.00000000E+00  0.00000000E+00
  0.00000000E+00  0.00000000E+00  0.00000000E+00
  0.00000000E+00  0.00000000E+00  0.00000000E+00
  0.00000000E+00  0.00000000E+00  0.00000000E+00
  0.00000000E+00  0.00000000E+00  0.00000000E+00
  0.00000000E+00  0.00000000E+00  0.00000000E+00
