Sr1 B2                                  
   1.00000000000000     
     1.6495383735903910   -2.8570846963036010    0.0000000000000000
     1.6495383735903910    2.8570846963036010    0.0000000000000000
     0.0000000000000000    0.0000000000000000    4.4320842804253280
   Sr   B 
     1     2
Direct
  0.0000000000000000  0.0000000000000000  0.0000000000000000
  0.6666669999999968  0.3333330000000032  0.5000000000000000
  0.3333330000000032  0.6666669999999968  0.5000000000000000
 
  0.00000000E+00  0.00000000E+00  0.00000000E+00
  0.00000000E+00  0.00000000E+00  0.00000000E+00
  0.00000000E+00  0.00000000E+00  0.00000000E+00
