MgTl3Cl6                                
   1.00000000000000     
    -3.7452512108312153    5.2961250031302995    3.7453713285289782
     3.7497721706243912   -5.2960405203874235    3.7497721706243916
     3.7453713285289778    5.2961250031302995   -3.7452512108312157
   Cl   Mg   Tl
     6     1     3
Direct
  0.2359808050323906  0.4725138103278681  0.2359808050323906
  0.7636395179561930  0.0000000000000000  0.2363604820437999
  0.2368872877272779  0.0010018790964139  0.2368872877272779
  0.7631127122727221  0.9989981209035861  0.7631127122727221
  0.7640191949676094  0.5274861896721319  0.7640191949676094
  0.2363604820437999  0.0000000000000000  0.7636395179561930
  0.0000000000000000  0.0000000000000000  0.0000000000000000
  0.7499921937577056  0.5000000000000000  0.2500078062422944
  0.5000000000000000  0.0000000000000000  0.5000000000000000
  0.2500078062422944  0.5000000000000000  0.7499921937577056
 
  0.00000000E+00  0.00000000E+00  0.00000000E+00
  0.00000000E+00  0.00000000E+00  0.00000000E+00
  0.00000000E+00  0.00000000E+00  0.00000000E+00
  0.00000000E+00  0.00000000E+00  0.00000000E+00
  0.00000000E+00  0.00000000E+00  0.00000000E+00
  0.00000000E+00  0.00000000E+00  0.00000000E+00
  0.00000000E+00  0.00000000E+00  0.00000000E+00
  0.00000000E+00  0.00000000E+00  0.00000000E+00
  0.00000000E+00  0.00000000E+00  0.00000000E+00
  0.00000000E+00  0.00000000E+00  0.00000000E+00
