Mg1 Al3 I1                              
   1.00000000000000     
     5.7633574940920980    0.0000000000000000    0.0000000000000000
     0.0000000000000000    5.7633574940920980    0.0000000000000000
     0.0000000000000000    0.0000000000000000    5.7633574940920980
   I    Al   Mg
     1     3     1
Direct
  0.5000000000000000  0.5000000000000000  0.5000000000000000
  0.5000000000000000  0.5000000000000000  0.0000000000000000
  0.5000000000000000  0.0000000000000000  0.5000000000000000
  0.0000000000000000  0.5000000000000000  0.5000000000000000
  0.0000000000000000  0.0000000000000000  0.0000000000000000
 
  0.00000000E+00  0.00000000E+00  0.00000000E+00
  0.00000000E+00  0.00000000E+00  0.00000000E+00
  0.00000000E+00  0.00000000E+00  0.00000000E+00
  0.00000000E+00  0.00000000E+00  0.00000000E+00
  0.00000000E+00  0.00000000E+00  0.00000000E+00
