BeBr2                                   
   1.00000000000000     
    -0.0371480824229987    0.0063073163769209    5.5858239458933348
    -6.4182191089228358   -0.0004167428511560    0.0377340859395459
     3.2275267049269671   -5.9199517010734350   -2.8181056542932770
   Be   Br
     2     4
Direct
  0.2500212193139077  0.0000970876873438  0.0000519286071992
  0.7500324376734540  0.9999602884367675  0.9999343878332070
  0.0995087801635819  0.2886844907383690  0.2038567558170854
  0.6043670704422155  0.9131234852477874  0.2024533599056184
  0.3956152142968961  0.0870620185958444  0.7975565107891143
  0.9004552781099378  0.7114726292938869  0.7961470570477758
 
  0.00000000E+00  0.00000000E+00  0.00000000E+00
  0.00000000E+00  0.00000000E+00  0.00000000E+00
  0.00000000E+00  0.00000000E+00  0.00000000E+00
  0.00000000E+00  0.00000000E+00  0.00000000E+00
  0.00000000E+00  0.00000000E+00  0.00000000E+00
  0.00000000E+00  0.00000000E+00  0.00000000E+00
