Mg4 Tl8 I16                             
   1.0000000000000000     
    10.0320731502517564   -0.0272163254974031   -0.0039616623592542
    -0.0038601390060722    8.6720745509231119   -0.1406439008529399
    -0.0178100138592587   -0.2646447656751415   15.0953303631103850
   Mg   I    Tl
     4    16     8
Direct
  0.7129726134240002  0.2225145950799146  0.0719865123963146
  0.2109184687729808  0.2785376140537394  0.4276168798392064
  0.7880475939157279  0.7224247596031361  0.5722496582076957
  0.2879230592923960  0.7767867569970335  0.9278054382544241
  0.2000594124715249  0.8427657340803876  0.0974070569110665
  0.4462698250687751  0.2925677165498115  0.0719491673082402
  0.7725768288617658  0.9703542104530101  0.1698132464624820
  0.8487203530384164  0.4778499269588394  0.1380274475526591
  0.3460389250925999  0.0239979994448731  0.3617623063667565
  0.2688989921959219  0.5303172249518511  0.3289173593726389
  0.9441193056028325  0.2069214938290571  0.4281751591225387
  0.6986608315065581  0.6556265755699897  0.4027413237201003
  0.3003788051389193  0.3456109309030495  0.5971010156547223
  0.0548399913637212  0.7938265658623536  0.5717864628680047
  0.7301823859154837  0.4703908405045709  0.6708691938678086
  0.6527990847463272  0.9768527388744701  0.6381078651554333
  0.1524037716078865  0.5208999808620547  0.8626439595720115
  0.2285606933337405  0.0288610893387116  0.8298537286763903
  0.5548210497038539  0.7074149200861868  0.9279947124949075
  0.8008362972106582  0.1565539547329777  0.9024614876127828
  0.1067749799446744  0.2297661697494249  0.0131785560445579
  0.5253245222788223  0.6664328171003930  0.1590107156170006
  0.0228058657586843  0.8334118712252021  0.3408341401599273
  0.6059737974962118  0.2675781053743478  0.4881872076935849
  0.3927944646163439  0.7329911327174585  0.5115774956384627
  0.9760354398223114  0.1677938518659161  0.6592090245098845
  0.4759596870206053  0.3336602623379434  0.8412718413499078
  0.8943029547982349  0.7668901608933254  0.9870610375704842

  0.00000000E+00  0.00000000E+00  0.00000000E+00
  0.00000000E+00  0.00000000E+00  0.00000000E+00
  0.00000000E+00  0.00000000E+00  0.00000000E+00
  0.00000000E+00  0.00000000E+00  0.00000000E+00
  0.00000000E+00  0.00000000E+00  0.00000000E+00
  0.00000000E+00  0.00000000E+00  0.00000000E+00
  0.00000000E+00  0.00000000E+00  0.00000000E+00
  0.00000000E+00  0.00000000E+00  0.00000000E+00
  0.00000000E+00  0.00000000E+00  0.00000000E+00
  0.00000000E+00  0.00000000E+00  0.00000000E+00
  0.00000000E+00  0.00000000E+00  0.00000000E+00
  0.00000000E+00  0.00000000E+00  0.00000000E+00
  0.00000000E+00  0.00000000E+00  0.00000000E+00
  0.00000000E+00  0.00000000E+00  0.00000000E+00
  0.00000000E+00  0.00000000E+00  0.00000000E+00
  0.00000000E+00  0.00000000E+00  0.00000000E+00
  0.00000000E+00  0.00000000E+00  0.00000000E+00
  0.00000000E+00  0.00000000E+00  0.00000000E+00
  0.00000000E+00  0.00000000E+00  0.00000000E+00
  0.00000000E+00  0.00000000E+00  0.00000000E+00
  0.00000000E+00  0.00000000E+00  0.00000000E+00
  0.00000000E+00  0.00000000E+00  0.00000000E+00
  0.00000000E+00  0.00000000E+00  0.00000000E+00
  0.00000000E+00  0.00000000E+00  0.00000000E+00
  0.00000000E+00  0.00000000E+00  0.00000000E+00
  0.00000000E+00  0.00000000E+00  0.00000000E+00
  0.00000000E+00  0.00000000E+00  0.00000000E+00
  0.00000000E+00  0.00000000E+00  0.00000000E+00
