Tl2Cl                                   
   1.0000000000000000     
     4.9657327057461922    2.8677516833094745    8.1063356819718937
    -4.9657394562474542    2.8677477837660437    8.1063411967470742
    -0.0000067505206607   -5.7309126111205311    8.1047167373855480
   Cl   Tl
     2     4
Direct
  0.2499867277630372  0.2499867277630372  0.2500132722370481
  0.5000132722369628  0.5000132722369628  0.4999867277629519
  0.3750000000000000  0.3750000000000000  0.3750000000000000
  0.8750000000000000  0.3750000000000000  0.3750000000000000
  0.3750000000000000  0.8750000000000000  0.3750000000000000
  0.3750000000000000  0.3750000000000000  0.8750000000000000

  0.00000000E+00  0.00000000E+00  0.00000000E+00
  0.00000000E+00  0.00000000E+00  0.00000000E+00
  0.00000000E+00  0.00000000E+00  0.00000000E+00
  0.00000000E+00  0.00000000E+00  0.00000000E+00
  0.00000000E+00  0.00000000E+00  0.00000000E+00
  0.00000000E+00  0.00000000E+00  0.00000000E+00
