Ba4 Ga4 Cl20                            
   1.0000000000000000     
     6.1810068979936457    0.0000000000000000    0.0000000000000005
    -0.0000000000000005   10.5766926221572195    0.0000000000000004
     0.0000000000000003    0.0000000000000007   14.6794819599398885
   Ba   Ga   Cl
     4     4    20
Direct
  0.8164851363439567  0.7195636593674450  0.6223488773204195
  0.3164851363439567  0.7804363406325550  0.3776511226795805
  0.1835148636560433  0.2195636593674450  0.8776511226795805
  0.6835148636560433  0.2804363406325550  0.1223488773204195
  0.3439772492832844  0.0721835261018313  0.6289069546524431
  0.8439772492832915  0.4278164738981687  0.3710930453475569
  0.6560227507167085  0.5721835261018313  0.8710930453475569
  0.1560227507167085  0.9278164738981687  0.1289069546524431
  0.8130513744198424  0.7911943503446537  0.4187930502106667
  0.3130513744198424  0.7088056496553463  0.5812069497893333
  0.1869486255801576  0.2911943503446608  0.0812069497893333
  0.6869486255801576  0.2088056496553392  0.9187930502106667
  0.6790597949349859  0.5301786605816190  0.2575577042972270
  0.1790597949349859  0.9698213394183810  0.7424422957027659
  0.3209402050650212  0.0301786605816190  0.2424422957027659
  0.8209402050650141  0.4698213394183810  0.7575577042972270
  0.3101107612725684  0.2731231759864485  0.6682996435017614
  0.8101107612725684  0.2268768240135586  0.3317003564982386
  0.6898892387274316  0.7731231759864556  0.8317003564982386
  0.1898892387274316  0.7268768240135444  0.1682996435017614
  0.6878274768675254  0.0185718885395332  0.6285920645446978
  0.1878274768675254  0.4814281114604668  0.3714079354553022
  0.3121725231324746  0.5185718885395332  0.8714079354553022
  0.8121725231324746  0.9814281114604668  0.1285920645446978
  0.7013708200367006  0.4586746770464956  0.5060661080762117
  0.2013708200367006  0.0413253229535044  0.4939338919237883
  0.2986291799632994  0.9586746770464956  0.9939338919237883
  0.7986291799632994  0.5413253229535044  0.0060661080762117

  0.00000000E+00  0.00000000E+00  0.00000000E+00
  0.00000000E+00  0.00000000E+00  0.00000000E+00
  0.00000000E+00  0.00000000E+00  0.00000000E+00
  0.00000000E+00  0.00000000E+00  0.00000000E+00
  0.00000000E+00  0.00000000E+00  0.00000000E+00
  0.00000000E+00  0.00000000E+00  0.00000000E+00
  0.00000000E+00  0.00000000E+00  0.00000000E+00
  0.00000000E+00  0.00000000E+00  0.00000000E+00
  0.00000000E+00  0.00000000E+00  0.00000000E+00
  0.00000000E+00  0.00000000E+00  0.00000000E+00
  0.00000000E+00  0.00000000E+00  0.00000000E+00
  0.00000000E+00  0.00000000E+00  0.00000000E+00
  0.00000000E+00  0.00000000E+00  0.00000000E+00
  0.00000000E+00  0.00000000E+00  0.00000000E+00
  0.00000000E+00  0.00000000E+00  0.00000000E+00
  0.00000000E+00  0.00000000E+00  0.00000000E+00
  0.00000000E+00  0.00000000E+00  0.00000000E+00
  0.00000000E+00  0.00000000E+00  0.00000000E+00
  0.00000000E+00  0.00000000E+00  0.00000000E+00
  0.00000000E+00  0.00000000E+00  0.00000000E+00
  0.00000000E+00  0.00000000E+00  0.00000000E+00
  0.00000000E+00  0.00000000E+00  0.00000000E+00
  0.00000000E+00  0.00000000E+00  0.00000000E+00
  0.00000000E+00  0.00000000E+00  0.00000000E+00
  0.00000000E+00  0.00000000E+00  0.00000000E+00
  0.00000000E+00  0.00000000E+00  0.00000000E+00
  0.00000000E+00  0.00000000E+00  0.00000000E+00
  0.00000000E+00  0.00000000E+00  0.00000000E+00
