Be1 Al2 F6                              
   1.00000000000000     
     2.4007158001505320    2.4971012161341073    3.5137487889559837
    -2.4007158001505320    2.4971012161341073    3.5137487889559837
     0.0000000000000000   -3.8990182961475282    3.2703065576695258
   Be   F    Al
     1     6     2
Direct
  0.0000000000000000  0.0000000000000000  0.0000000000000000
  0.8014769368052868  0.8014769368052868  0.9296437529398816
  0.7132898541064634  0.2078031575221431  0.2401364303458919
  0.2078031575221431  0.7132898541064634  0.2401364303458919
  0.1985230631947132  0.1985230631947132  0.0703562470601184
  0.7921968424778498  0.2867101458935437  0.7598635696541081
  0.2867101458935437  0.7921968424778498  0.7598635696541081
  0.3190871608776931  0.3190871608776931  0.3251791943219118
  0.6809128391223069  0.6809128391223069  0.6748208056780882
 
  0.00000000E+00  0.00000000E+00  0.00000000E+00
  0.00000000E+00  0.00000000E+00  0.00000000E+00
  0.00000000E+00  0.00000000E+00  0.00000000E+00
  0.00000000E+00  0.00000000E+00  0.00000000E+00
  0.00000000E+00  0.00000000E+00  0.00000000E+00
  0.00000000E+00  0.00000000E+00  0.00000000E+00
  0.00000000E+00  0.00000000E+00  0.00000000E+00
  0.00000000E+00  0.00000000E+00  0.00000000E+00
  0.00000000E+00  0.00000000E+00  0.00000000E+00
