Mg3 B11                                 
   1.00000000000000     
     3.0983344695745600    0.0000000000000000    0.0000000000000000
    -1.5491672347872800   -3.7345717841810941    4.7236896874125422
    -1.5491672347872800   -3.7345717841810941   -4.7236896874125422
   B    Mg
    11     3
Direct
  0.3726876556997851  0.7125159393365479  0.0328593720630224
  0.2546829666387538  0.4177367686747573  0.0916291646027290
  0.6273123443002149  0.9671406279369776  0.2874840606634521
  0.7648736664251032  0.2648736664251032  0.2648736664251032
  0.2546829666387538  0.0916291646027290  0.4177367686747573
  0.5000000000000000  0.5000000000000000  0.5000000000000000
  0.7453170333612462  0.9083708353972710  0.5822632313252427
  0.2351263335748968  0.7351263335748968  0.7351263335748968
  0.3726876556997851  0.0328593720630224  0.7125159393365479
  0.7453170333612462  0.5822632313252427  0.9083708353972710
  0.6273123443002149  0.2874840606634521  0.9671406279369776
  0.0000000000000000  0.0000000000000000  0.0000000000000000
  0.0000000000000000  0.6743324267823425  0.3256675732176575
  0.0000000000000000  0.3256675732176575  0.6743324267823425
 
  0.00000000E+00  0.00000000E+00  0.00000000E+00
  0.00000000E+00  0.00000000E+00  0.00000000E+00
  0.00000000E+00  0.00000000E+00  0.00000000E+00
  0.00000000E+00  0.00000000E+00  0.00000000E+00
  0.00000000E+00  0.00000000E+00  0.00000000E+00
  0.00000000E+00  0.00000000E+00  0.00000000E+00
  0.00000000E+00  0.00000000E+00  0.00000000E+00
  0.00000000E+00  0.00000000E+00  0.00000000E+00
  0.00000000E+00  0.00000000E+00  0.00000000E+00
  0.00000000E+00  0.00000000E+00  0.00000000E+00
  0.00000000E+00  0.00000000E+00  0.00000000E+00
  0.00000000E+00  0.00000000E+00  0.00000000E+00
  0.00000000E+00  0.00000000E+00  0.00000000E+00
  0.00000000E+00  0.00000000E+00  0.00000000E+00
