Mg1 In2 Br6                             
   1.0000000000000000     
     4.1068697928588316    2.1207061276912209    5.7611178653981074
    -4.1068697928588316    2.1207061276912209    5.7611178653981074
     0.0000000000000000   -5.4268882933366465    6.8405133216265206
   Mg   Br   In
     1     6     2
Direct
  0.0000000000000000  0.0000000000000000  0.0000000000000000
  0.7374669039209962  0.7374669039209962  0.1536120606669584
  0.7389204486044818  0.1614847858838573  0.2731265538030669
  0.1614847858838573  0.7389204486044818  0.2731265538030669
  0.2625330960790038  0.2625330960790038  0.8463879393330416
  0.8385152141161427  0.2610795513955182  0.7268734461969260
  0.2610795513955182  0.8385152141161427  0.7268734461969260
  0.4616202544707733  0.4616202544707733  0.8768249802330246
  0.5383797455292267  0.5383797455292267  0.1231750197669754

  0.00000000E+00  0.00000000E+00  0.00000000E+00
  0.00000000E+00  0.00000000E+00  0.00000000E+00
  0.00000000E+00  0.00000000E+00  0.00000000E+00
  0.00000000E+00  0.00000000E+00  0.00000000E+00
  0.00000000E+00  0.00000000E+00  0.00000000E+00
  0.00000000E+00  0.00000000E+00  0.00000000E+00
  0.00000000E+00  0.00000000E+00  0.00000000E+00
  0.00000000E+00  0.00000000E+00  0.00000000E+00
  0.00000000E+00  0.00000000E+00  0.00000000E+00
