In6 F24                                 
   1.00000000000000     
    -0.0000000000000001    6.0191981194497677    6.0191981194497677
     6.0191981194497677    0.0000000000000000    6.0191981194497677
     6.0191981194497677    6.0191981194497677    0.0000000000000000
   In   F 
     6    24
Direct
  0.7500000000000000  0.2500000000000000  0.2500000000000000
  0.2500000000000000  0.2500000000000000  0.7500000000000000
  0.2500000000000000  0.7500000000000000  0.2500000000000000
  0.7500000000000000  0.2500000000000000  0.7500000000000000
  0.2500000000000000  0.7500000000000000  0.7500000000000000
  0.7500000000000000  0.7500000000000000  0.2500000000000000
  0.7989659920852361  0.4999419314549058  0.2010340079147639
  0.5000580685450942  0.4999419314549058  0.7989659920852361
  0.2010340079147639  0.7989659920852361  0.4999419314549058
  0.4999419314549058  0.7989659920852361  0.5000580685450942
  0.4999419314549058  0.2010340079147639  0.7989659920852361
  0.2010340079147639  0.4999419314549058  0.5000580685450942
  0.7989659920852361  0.5000580685450942  0.4999419314549058
  0.5000580685450942  0.7989659920852361  0.2010340079147639
  0.5000580685450942  0.2010340079147639  0.4999419314549058
  0.7989659920852361  0.2010340079147639  0.5000580685450942
  0.4999419314549058  0.5000580685450942  0.2010340079147639
  0.2010340079147639  0.5000580685450942  0.7989659920852361
  0.7010340079147639  0.9999419314549058  0.2989659920852361
  0.9999419314549058  0.2989659920852361  0.7010340079147639
  0.2989659920852361  0.9999419314549058  0.0000580685450942
  0.0000580685450942  0.2989659920852361  0.9999419314549058
  0.2989659920852361  0.7010340079147639  0.9999419314549058
  0.0000580685450942  0.9999419314549058  0.7010340079147639
  0.9999419314549058  0.0000580685450942  0.2989659920852361
  0.7010340079147639  0.2989659920852361  0.0000580685450942
  0.9999419314549058  0.7010340079147639  0.0000580685450942
  0.0000580685450942  0.7010340079147639  0.2989659920852361
  0.7010340079147639  0.0000580685450942  0.9999419314549058
  0.2989659920852361  0.0000580685450942  0.7010340079147639
 
  0.00000000E+00  0.00000000E+00  0.00000000E+00
  0.00000000E+00  0.00000000E+00  0.00000000E+00
  0.00000000E+00  0.00000000E+00  0.00000000E+00
  0.00000000E+00  0.00000000E+00  0.00000000E+00
  0.00000000E+00  0.00000000E+00  0.00000000E+00
  0.00000000E+00  0.00000000E+00  0.00000000E+00
  0.00000000E+00  0.00000000E+00  0.00000000E+00
  0.00000000E+00  0.00000000E+00  0.00000000E+00
  0.00000000E+00  0.00000000E+00  0.00000000E+00
  0.00000000E+00  0.00000000E+00  0.00000000E+00
  0.00000000E+00  0.00000000E+00  0.00000000E+00
  0.00000000E+00  0.00000000E+00  0.00000000E+00
  0.00000000E+00  0.00000000E+00  0.00000000E+00
  0.00000000E+00  0.00000000E+00  0.00000000E+00
  0.00000000E+00  0.00000000E+00  0.00000000E+00
  0.00000000E+00  0.00000000E+00  0.00000000E+00
  0.00000000E+00  0.00000000E+00  0.00000000E+00
  0.00000000E+00  0.00000000E+00  0.00000000E+00
  0.00000000E+00  0.00000000E+00  0.00000000E+00
  0.00000000E+00  0.00000000E+00  0.00000000E+00
  0.00000000E+00  0.00000000E+00  0.00000000E+00
  0.00000000E+00  0.00000000E+00  0.00000000E+00
  0.00000000E+00  0.00000000E+00  0.00000000E+00
  0.00000000E+00  0.00000000E+00  0.00000000E+00
  0.00000000E+00  0.00000000E+00  0.00000000E+00
  0.00000000E+00  0.00000000E+00  0.00000000E+00
  0.00000000E+00  0.00000000E+00  0.00000000E+00
  0.00000000E+00  0.00000000E+00  0.00000000E+00
  0.00000000E+00  0.00000000E+00  0.00000000E+00
  0.00000000E+00  0.00000000E+00  0.00000000E+00
