Sr1 Tl2 Cl10                            
   1.0000000000000000     
     4.7491322915973297    6.3546363555611123    0.5188042826539736
    -4.7491322915973297    6.3546363555611123    0.5188042826539736
     0.0000000000000000    5.3526186351545126    8.2892154097352968
   Sr   Tl   Cl
     1     2    10
Direct
  0.5875463439138002  0.4124536560861998  0.0000000000000000
  0.0560415888020316  0.9187357386034094  0.7574408231413727
  0.0812642613965906  0.9439584111979684  0.2425591768586273
  0.1073466476899299  0.2707369260196870  0.5517077553725827
  0.7292630739803130  0.8926533523100701  0.4482922446274173
  0.7447703831818373  0.7591209881904746  0.9405259643147232
  0.2408790118095325  0.2552296168181627  0.0594740356852768
  0.9124378740906991  0.0875621259093009  0.0000000000000000
  0.1807111423146637  0.8192888576853363  0.5000000000000000
  0.8086892929929377  0.5146555996426159  0.6268052414146652
  0.4853444003573841  0.1913107070070623  0.3731947585853348
  0.3491556161603526  0.7394506366900728  0.8003737302846901
  0.2605493633099272  0.6508443838396474  0.1996262697153099

  0.00000000E+00  0.00000000E+00  0.00000000E+00
  0.00000000E+00  0.00000000E+00  0.00000000E+00
  0.00000000E+00  0.00000000E+00  0.00000000E+00
  0.00000000E+00  0.00000000E+00  0.00000000E+00
  0.00000000E+00  0.00000000E+00  0.00000000E+00
  0.00000000E+00  0.00000000E+00  0.00000000E+00
  0.00000000E+00  0.00000000E+00  0.00000000E+00
  0.00000000E+00  0.00000000E+00  0.00000000E+00
  0.00000000E+00  0.00000000E+00  0.00000000E+00
  0.00000000E+00  0.00000000E+00  0.00000000E+00
  0.00000000E+00  0.00000000E+00  0.00000000E+00
  0.00000000E+00  0.00000000E+00  0.00000000E+00
  0.00000000E+00  0.00000000E+00  0.00000000E+00
