Mg8 Tl48                                
   1.0000000000000000     
    11.7733936832041195   -0.8507230384693381   -0.4727118110803543
    -0.8507230384693381   11.7733936832041195    0.4727118110803533
    -0.4912684078616449    0.4912684078616454   12.4427659760569469
   Tl   Mg
    48     8
Direct
  0.0855904947817123  0.3319830269412449  0.0159270662376656
  0.9625658303979918  0.5582025548764520  0.0618891798708816
  0.9465351784297056  0.1176681090669902  0.1946196391636548
  0.3645874135470351  0.4753796131905332  0.0957289236384824
  0.6766509398207248  0.5338143917557403  0.0966737057397609
  0.9132250256806174  0.8369399825734973  0.0747834874324909
  0.6719231834752790  0.0006054635878243  0.1618752647669552
  0.5438394830006104  0.2717369445951832  0.1696639530154229
  0.4715375083657207  0.7481052530373447  0.1415840654983214
  0.1869874457353120  0.7542825921326042  0.1443446550257619
  0.3860514673128037  0.0084157987263254  0.2103104103555467
  0.2409157762142868  0.2409157762142868  0.2500000000000000
  0.7388493301894670  0.7388493301894670  0.2500000000000000
  0.0084157987263254  0.3860514673128037  0.2896895896444533
  0.7542825921325900  0.1869874457353120  0.3556553449742381
  0.7481052530373447  0.4715375083657207  0.3584159345016786
  0.2717369445951832  0.5438394830006104  0.3303360469845771
  0.0006054635878243  0.6719231834752790  0.3381247352330448
  0.1176681090669902  0.9465351784297056  0.3053803608363594
  0.4753796131905332  0.3645874135470351  0.4042710763615176
  0.5338143917557403  0.6766509398207248  0.4033262942602391
  0.8369399825734973  0.9132250256806174  0.4252165125675091
  0.3319830269412449  0.0855904947817123  0.4840729337623344
  0.5582025548764520  0.9625658303979918  0.4381108201291255
  0.9119104984121051  0.3557667631132020  0.5578405451716435
  0.1357303393639668  0.5722847633157357  0.5608370227507109
  0.0421769086047448  0.1430880882218730  0.4788186519694619
  0.6702825135329817  0.4780182078339479  0.6208786428608732
  0.4194061070392223  0.5588975467181854  0.6173512315262073
  0.0730074096516091  0.8625077700596790  0.5677071268807197
  0.2289069975056393  0.0541017580872634  0.7348595376369431
  0.4389021443024248  0.2627209477949890  0.6924264928291493
  0.6633892313849614  0.7790945251156245  0.6401719868596416
  0.8279449197383855  0.0403989669330684  0.6627038747270149
  0.5286291842463697  0.9917594788429014  0.7162058733103507
  0.7823190836639284  0.3033664572678916  0.8043060643632742
  0.3033664572678916  0.7823190836639284  0.6956939356367258
  0.9917594788429014  0.5286291842463697  0.7837941266896493
  0.0541017580872634  0.2289069975056393  0.7651404623630569
  0.2627209477949890  0.4389021443024248  0.8075735071708507
  0.7790945251156245  0.6633892313849614  0.8598280131403584
  0.0403989669330684  0.8279449197383855  0.8372961252729851
  0.8625077700596790  0.0730074096516091  0.9322928731192803
  0.5588975467181854  0.4194061070392223  0.8826487684737927
  0.4780182078339479  0.6702825135329817  0.8791213571391268
  0.1430880882218730  0.0421769086047448  0.0211813480305381
  0.5722847633157357  0.1357303393639668  0.9391629772492891
  0.3557667631132020  0.9119104984121051  0.9421594548283565
  0.7960754340287721  0.2996819079556801  0.0731054176676409
  0.2104092776624213  0.6405398225062413  0.9338353493995939
  0.6405398225062413  0.2104092776624213  0.5661646506004061
  0.2996819079556801  0.7960754340287721  0.4268945823323591
  0.2354016394657421  0.3399814794026099  0.5241379069642633
  0.8754590928635579  0.6532479279294066  0.5601913328297954
  0.3399814794026099  0.2354016394657421  0.9758620930357367
  0.6532479279294066  0.8754590928635579  0.9398086671702046

  0.00000000E+00  0.00000000E+00  0.00000000E+00
  0.00000000E+00  0.00000000E+00  0.00000000E+00
  0.00000000E+00  0.00000000E+00  0.00000000E+00
  0.00000000E+00  0.00000000E+00  0.00000000E+00
  0.00000000E+00  0.00000000E+00  0.00000000E+00
  0.00000000E+00  0.00000000E+00  0.00000000E+00
  0.00000000E+00  0.00000000E+00  0.00000000E+00
  0.00000000E+00  0.00000000E+00  0.00000000E+00
  0.00000000E+00  0.00000000E+00  0.00000000E+00
  0.00000000E+00  0.00000000E+00  0.00000000E+00
  0.00000000E+00  0.00000000E+00  0.00000000E+00
  0.00000000E+00  0.00000000E+00  0.00000000E+00
  0.00000000E+00  0.00000000E+00  0.00000000E+00
  0.00000000E+00  0.00000000E+00  0.00000000E+00
  0.00000000E+00  0.00000000E+00  0.00000000E+00
  0.00000000E+00  0.00000000E+00  0.00000000E+00
  0.00000000E+00  0.00000000E+00  0.00000000E+00
  0.00000000E+00  0.00000000E+00  0.00000000E+00
  0.00000000E+00  0.00000000E+00  0.00000000E+00
  0.00000000E+00  0.00000000E+00  0.00000000E+00
  0.00000000E+00  0.00000000E+00  0.00000000E+00
  0.00000000E+00  0.00000000E+00  0.00000000E+00
  0.00000000E+00  0.00000000E+00  0.00000000E+00
  0.00000000E+00  0.00000000E+00  0.00000000E+00
  0.00000000E+00  0.00000000E+00  0.00000000E+00
  0.00000000E+00  0.00000000E+00  0.00000000E+00
  0.00000000E+00  0.00000000E+00  0.00000000E+00
  0.00000000E+00  0.00000000E+00  0.00000000E+00
  0.00000000E+00  0.00000000E+00  0.00000000E+00
  0.00000000E+00  0.00000000E+00  0.00000000E+00
  0.00000000E+00  0.00000000E+00  0.00000000E+00
  0.00000000E+00  0.00000000E+00  0.00000000E+00
  0.00000000E+00  0.00000000E+00  0.00000000E+00
  0.00000000E+00  0.00000000E+00  0.00000000E+00
  0.00000000E+00  0.00000000E+00  0.00000000E+00
  0.00000000E+00  0.00000000E+00  0.00000000E+00
  0.00000000E+00  0.00000000E+00  0.00000000E+00
  0.00000000E+00  0.00000000E+00  0.00000000E+00
  0.00000000E+00  0.00000000E+00  0.00000000E+00
  0.00000000E+00  0.00000000E+00  0.00000000E+00
  0.00000000E+00  0.00000000E+00  0.00000000E+00
  0.00000000E+00  0.00000000E+00  0.00000000E+00
  0.00000000E+00  0.00000000E+00  0.00000000E+00
  0.00000000E+00  0.00000000E+00  0.00000000E+00
  0.00000000E+00  0.00000000E+00  0.00000000E+00
  0.00000000E+00  0.00000000E+00  0.00000000E+00
  0.00000000E+00  0.00000000E+00  0.00000000E+00
  0.00000000E+00  0.00000000E+00  0.00000000E+00
  0.00000000E+00  0.00000000E+00  0.00000000E+00
  0.00000000E+00  0.00000000E+00  0.00000000E+00
  0.00000000E+00  0.00000000E+00  0.00000000E+00
  0.00000000E+00  0.00000000E+00  0.00000000E+00
  0.00000000E+00  0.00000000E+00  0.00000000E+00
  0.00000000E+00  0.00000000E+00  0.00000000E+00
  0.00000000E+00  0.00000000E+00  0.00000000E+00
  0.00000000E+00  0.00000000E+00  0.00000000E+00
