Sr4 In10 Cl2                            
   1.00000000000000     
     8.2212506903954061   -0.1374289109363171    0.0562445331263145
    -0.1400179876025048    8.1918849579992674   -0.0448430319962712
     4.0826830637406157    3.9858676825867385    7.3199419330840261
   Cl   Sr   In
     2     4    10
Direct
  0.9371382332916980  0.9372266249636212  0.1256370534580356
  0.4371537488429311  0.4372390731575067  0.1255164632346890
  0.2788874792500948  0.1213011701714848  0.0992739568248311
  0.7665206415930257  0.2670827390255397  0.1251391192643112
  0.1086425842697949  0.6084293569002881  0.1241235115563910
  0.5961351743987535  0.7538215573204994  0.1505163743175615
  0.1941320598148977  0.1944093252509091  0.6214148371989765
  0.6802084646257924  0.6790902178680938  0.6306033160486919
  0.3840312494776228  0.9144734684794571  0.4831571196669842
  0.9110982899071587  0.1154722110402204  0.4735213863014280
  0.6155801430819707  0.3861576048640885  0.4971956441070944
  0.1014818720181623  0.6305418022674871  0.4843018165034749
  0.7739717131023909  0.2446528268312136  0.7652485741132224
  0.2597092743889817  0.4888223463855397  0.7522952793057698
  0.9638311851673933  0.7606685724512872  0.7755245253652490
  0.4913778867692997  0.9605111030227746  0.7665310227332611
 
  0.00000000E+00  0.00000000E+00  0.00000000E+00
  0.00000000E+00  0.00000000E+00  0.00000000E+00
  0.00000000E+00  0.00000000E+00  0.00000000E+00
  0.00000000E+00  0.00000000E+00  0.00000000E+00
  0.00000000E+00  0.00000000E+00  0.00000000E+00
  0.00000000E+00  0.00000000E+00  0.00000000E+00
  0.00000000E+00  0.00000000E+00  0.00000000E+00
  0.00000000E+00  0.00000000E+00  0.00000000E+00
  0.00000000E+00  0.00000000E+00  0.00000000E+00
  0.00000000E+00  0.00000000E+00  0.00000000E+00
  0.00000000E+00  0.00000000E+00  0.00000000E+00
  0.00000000E+00  0.00000000E+00  0.00000000E+00
  0.00000000E+00  0.00000000E+00  0.00000000E+00
  0.00000000E+00  0.00000000E+00  0.00000000E+00
  0.00000000E+00  0.00000000E+00  0.00000000E+00
  0.00000000E+00  0.00000000E+00  0.00000000E+00
