CaBr3                                   
   1.00000000000000     
    -2.2196815299646691    2.2196815299646691    5.6171779794911583
     2.2196815299646691   -2.2196815299646691    5.6171779794911583
     2.2196815299646691    2.2196815299646691   -5.6171779794911583
   Br   Ca
     3     1
Direct
  0.7500000000000000  0.2500000000000000  0.5000000000000000
  0.2500000000000000  0.7500000000000000  0.5000000000000000
  0.5000000000000000  0.5000000000000000  0.0000000000000000
  0.0000000000000000  0.0000000000000000  0.0000000000000000
 
  0.00000000E+00  0.00000000E+00  0.00000000E+00
  0.00000000E+00  0.00000000E+00  0.00000000E+00
  0.00000000E+00  0.00000000E+00  0.00000000E+00
  0.00000000E+00  0.00000000E+00  0.00000000E+00
