Be16 B16 F80                            
   1.0000000000000000     
    11.8659566841714668    0.0000062283384227    0.0000000000000006
    -0.0000062283384232   11.8659566841714668    0.0000000000000006
    -0.0000000000000001   -0.0000000000000001    7.5882825550030608
   Be   B    F 
    16    16    80
Direct
  0.4345997249549640  0.7367296518573951  0.5214578851563871
  0.2367296518573951  0.0654002750450431  0.0214578851563871
  0.7632703481426049  0.9345997249549569  0.0214578851563871
  0.5654002750450431  0.2632703481425906  0.5214578851563871
  0.3438086731415808  0.2152306347487638  0.7099489176508840
  0.7152306347487496  0.1561913268584050  0.2099489176508840
  0.2847693652512362  0.8438086731415737  0.2099489176508840
  0.6561913268584263  0.7847693652512504  0.7099489176508840
  0.9345997249549569  0.2367296518573951  0.0214578851563871
  0.7367296518573951  0.5654002750450431  0.5214578851563871
  0.2632703481425906  0.4345997249549640  0.5214578851563871
  0.0654002750450431  0.7632703481426049  0.0214578851563871
  0.8438086731415737  0.7152306347487496  0.2099489176508840
  0.2152306347487638  0.6561913268584263  0.7099489176508840
  0.7847693652512504  0.3438086731415808  0.7099489176508840
  0.1561913268584050  0.2847693652512362  0.2099489176508840
  0.0000000000000000  0.0000000000000000  0.4450545964322075
  0.0000000000000000  0.0000000000000000  0.9308083301172729
  0.5000000000000000  0.0000000000000000  0.0477938216608678
  0.5000000000000000  0.0000000000000000  0.5477938216608749
  0.3528120905410006  0.3257275807350126  0.0398044323480278
  0.8257275807350197  0.1471879094589923  0.5398044323480207
  0.1742724192649732  0.8528120905409935  0.5398044323480207
  0.6471879094590065  0.6742724192649803  0.0398044323480278
  0.5000000000000000  0.5000000000000000  0.9450545964322075
  0.5000000000000000  0.5000000000000000  0.4308083301172729
  0.0000000000000000  0.5000000000000000  0.5477938216608749
  0.0000000000000000  0.5000000000000000  0.0477938216608678
  0.8528120905409935  0.8257275807350197  0.5398044323480207
  0.3257275807350126  0.6471879094590065  0.0398044323480278
  0.6742724192649803  0.3528120905410006  0.0398044323480278
  0.1471879094589923  0.1742724192649732  0.5398044323480207
  0.0000000000000000  0.0000000000000000  0.7542521607575736
  0.0000000000000000  0.0000000000000000  0.2707498519935996
  0.1167274451788956  0.0544899293634700  0.5024320496915067
  0.5544899293634558  0.3832725548210902  0.0024320496915138
  0.4455100706365371  0.6167274451789098  0.0024320496915138
  0.8832725548210902  0.9455100706365442  0.5024320496915067
  0.1285742401200665  0.9940543109256197  0.9822040298108519
  0.4940543109256197  0.3714257598799335  0.4822040298108590
  0.5059456890743803  0.6285742401200594  0.4822040298108590
  0.8714257598799406  0.0059456890743803  0.9822040298108519
  0.5000000000000000  0.0000000000000000  0.8761336758488127
  0.5000000000000000  0.0000000000000000  0.3761336758488198
  0.4774845652609159  0.0985139347953137  0.1216547480889716
  0.5985139347952995  0.0225154347390841  0.6216547480889574
  0.4014860652046792  0.9774845652609159  0.6216547480889574
  0.5225154347390841  0.9014860652047005  0.1216547480889716
  0.4629075642106244  0.1929327448327243  0.6137621274531213
  0.6929327448327385  0.0370924357893827  0.1137621274531284
  0.3070672551672686  0.9629075642106173  0.1137621274531284
  0.5370924357893827  0.8070672551672615  0.6137621274531213
  0.4040064099694121  0.2661182485349300  0.9013334654741811
  0.7661182485349300  0.0959935900305950  0.4013334654741669
  0.2338817514650628  0.9040064099694192  0.4013334654741669
  0.5959935900305808  0.7338817514650700  0.9013334654741811
  0.3890862213024917  0.2932151709121626  0.1981747006556134
  0.7932151709121484  0.1109137786975083  0.6981747006556063
  0.2067848290878516  0.8890862213024988  0.6981747006556063
  0.6109137786975012  0.7067848290878516  0.1981747006556134
  0.2861291274371425  0.1155245453334999  0.8443479207292626
  0.6155245453334999  0.2138708725628504  0.3443479207292626
  0.3844754546664930  0.7861291274371425  0.3443479207292626
  0.7138708725628575  0.8844754546665001  0.8443479207292626
  0.2079548234251973  0.1579627518596922  0.1632997779945740
  0.6579627518596922  0.2920451765748027  0.6632997779945597
  0.3420372481403078  0.7079548234251902  0.6632997779945740
  0.7920451765748098  0.8420372481403078  0.1632997779945740
  0.7349737029011578  0.8330734012465655  0.5222437113666061
  0.3330734012465655  0.7650262970988280  0.0222437113665919
  0.6669265987534345  0.2349737029011365  0.0222437113665919
  0.2650262970988422  0.1669265987534345  0.5222437113666061
  0.5000000000000000  0.5000000000000000  0.2542521607575665
  0.5000000000000000  0.5000000000000000  0.7707498519936138
  0.6167274451789098  0.5544899293634558  0.0024320496915138
  0.0544899293634700  0.8832725548210902  0.5024320496915067
  0.9455100706365442  0.1167274451788956  0.5024320496915067
  0.3832725548210902  0.4455100706365371  0.0024320496915138
  0.6285742401200594  0.4940543109256197  0.4822040298108590
  0.9940543109256197  0.8714257598799406  0.9822040298108519
  0.0059456890743803  0.1285742401200665  0.9822040298108519
  0.3714257598799335  0.5059456890743803  0.4822040298108590
  0.0000000000000000  0.5000000000000000  0.3761336758488198
  0.0000000000000000  0.5000000000000000  0.8761336758488127
  0.9774845652609159  0.5985139347952995  0.6216547480889574
  0.0985139347953137  0.5225154347390841  0.1216547480889716
  0.9014860652047005  0.4774845652609159  0.1216547480889716
  0.0225154347390841  0.4014860652046792  0.6216547480889574
  0.9629075642106173  0.6929327448327385  0.1137621274531284
  0.1929327448327243  0.5370924357893827  0.6137621274531213
  0.8070672551672615  0.4629075642106244  0.6137621274531213
  0.0370924357893827  0.3070672551672686  0.1137621274531284
  0.9040064099694192  0.7661182485349300  0.4013334654741669
  0.2661182485349300  0.5959935900305808  0.9013334654741811
  0.7338817514650700  0.4040064099694121  0.9013334654741811
  0.0959935900305950  0.2338817514650628  0.4013334654741669
  0.8890862213024988  0.7932151709121484  0.6981747006556063
  0.2932151709121626  0.6109137786975012  0.1981747006556134
  0.7067848290878516  0.3890862213024917  0.1981747006556134
  0.1109137786975083  0.2067848290878516  0.6981747006556063
  0.7861291274371425  0.6155245453334999  0.3443479207292626
  0.1155245453334999  0.7138708725628575  0.8443479207292626
  0.8844754546665001  0.2861291274371425  0.8443479207292626
  0.2138708725628504  0.3844754546664930  0.3443479207292626
  0.7079548234251902  0.6579627518596922  0.6632997779945740
  0.1579627518596922  0.7920451765748098  0.1632997779945740
  0.8420372481403078  0.2079548234251973  0.1632997779945740
  0.2920451765748027  0.3420372481403078  0.6632997779945597
  0.2349737029011365  0.3330734012465655  0.0222437113665919
  0.8330734012465655  0.2650262970988422  0.5222437113666061
  0.1669265987534345  0.7349737029011578  0.5222437113666061
  0.7650262970988280  0.6669265987534345  0.0222437113665919

  0.00000000E+00  0.00000000E+00  0.00000000E+00
  0.00000000E+00  0.00000000E+00  0.00000000E+00
  0.00000000E+00  0.00000000E+00  0.00000000E+00
  0.00000000E+00  0.00000000E+00  0.00000000E+00
  0.00000000E+00  0.00000000E+00  0.00000000E+00
  0.00000000E+00  0.00000000E+00  0.00000000E+00
  0.00000000E+00  0.00000000E+00  0.00000000E+00
  0.00000000E+00  0.00000000E+00  0.00000000E+00
  0.00000000E+00  0.00000000E+00  0.00000000E+00
  0.00000000E+00  0.00000000E+00  0.00000000E+00
  0.00000000E+00  0.00000000E+00  0.00000000E+00
  0.00000000E+00  0.00000000E+00  0.00000000E+00
  0.00000000E+00  0.00000000E+00  0.00000000E+00
  0.00000000E+00  0.00000000E+00  0.00000000E+00
  0.00000000E+00  0.00000000E+00  0.00000000E+00
  0.00000000E+00  0.00000000E+00  0.00000000E+00
  0.00000000E+00  0.00000000E+00  0.00000000E+00
  0.00000000E+00  0.00000000E+00  0.00000000E+00
  0.00000000E+00  0.00000000E+00  0.00000000E+00
  0.00000000E+00  0.00000000E+00  0.00000000E+00
  0.00000000E+00  0.00000000E+00  0.00000000E+00
  0.00000000E+00  0.00000000E+00  0.00000000E+00
  0.00000000E+00  0.00000000E+00  0.00000000E+00
  0.00000000E+00  0.00000000E+00  0.00000000E+00
  0.00000000E+00  0.00000000E+00  0.00000000E+00
  0.00000000E+00  0.00000000E+00  0.00000000E+00
  0.00000000E+00  0.00000000E+00  0.00000000E+00
  0.00000000E+00  0.00000000E+00  0.00000000E+00
  0.00000000E+00  0.00000000E+00  0.00000000E+00
  0.00000000E+00  0.00000000E+00  0.00000000E+00
  0.00000000E+00  0.00000000E+00  0.00000000E+00
  0.00000000E+00  0.00000000E+00  0.00000000E+00
  0.00000000E+00  0.00000000E+00  0.00000000E+00
  0.00000000E+00  0.00000000E+00  0.00000000E+00
  0.00000000E+00  0.00000000E+00  0.00000000E+00
  0.00000000E+00  0.00000000E+00  0.00000000E+00
  0.00000000E+00  0.00000000E+00  0.00000000E+00
  0.00000000E+00  0.00000000E+00  0.00000000E+00
  0.00000000E+00  0.00000000E+00  0.00000000E+00
  0.00000000E+00  0.00000000E+00  0.00000000E+00
  0.00000000E+00  0.00000000E+00  0.00000000E+00
  0.00000000E+00  0.00000000E+00  0.00000000E+00
  0.00000000E+00  0.00000000E+00  0.00000000E+00
  0.00000000E+00  0.00000000E+00  0.00000000E+00
  0.00000000E+00  0.00000000E+00  0.00000000E+00
  0.00000000E+00  0.00000000E+00  0.00000000E+00
  0.00000000E+00  0.00000000E+00  0.00000000E+00
  0.00000000E+00  0.00000000E+00  0.00000000E+00
  0.00000000E+00  0.00000000E+00  0.00000000E+00
  0.00000000E+00  0.00000000E+00  0.00000000E+00
  0.00000000E+00  0.00000000E+00  0.00000000E+00
  0.00000000E+00  0.00000000E+00  0.00000000E+00
  0.00000000E+00  0.00000000E+00  0.00000000E+00
  0.00000000E+00  0.00000000E+00  0.00000000E+00
  0.00000000E+00  0.00000000E+00  0.00000000E+00
  0.00000000E+00  0.00000000E+00  0.00000000E+00
  0.00000000E+00  0.00000000E+00  0.00000000E+00
  0.00000000E+00  0.00000000E+00  0.00000000E+00
  0.00000000E+00  0.00000000E+00  0.00000000E+00
  0.00000000E+00  0.00000000E+00  0.00000000E+00
  0.00000000E+00  0.00000000E+00  0.00000000E+00
  0.00000000E+00  0.00000000E+00  0.00000000E+00
  0.00000000E+00  0.00000000E+00  0.00000000E+00
  0.00000000E+00  0.00000000E+00  0.00000000E+00
  0.00000000E+00  0.00000000E+00  0.00000000E+00
  0.00000000E+00  0.00000000E+00  0.00000000E+00
  0.00000000E+00  0.00000000E+00  0.00000000E+00
  0.00000000E+00  0.00000000E+00  0.00000000E+00
  0.00000000E+00  0.00000000E+00  0.00000000E+00
  0.00000000E+00  0.00000000E+00  0.00000000E+00
  0.00000000E+00  0.00000000E+00  0.00000000E+00
  0.00000000E+00  0.00000000E+00  0.00000000E+00
  0.00000000E+00  0.00000000E+00  0.00000000E+00
  0.00000000E+00  0.00000000E+00  0.00000000E+00
  0.00000000E+00  0.00000000E+00  0.00000000E+00
  0.00000000E+00  0.00000000E+00  0.00000000E+00
  0.00000000E+00  0.00000000E+00  0.00000000E+00
  0.00000000E+00  0.00000000E+00  0.00000000E+00
  0.00000000E+00  0.00000000E+00  0.00000000E+00
  0.00000000E+00  0.00000000E+00  0.00000000E+00
  0.00000000E+00  0.00000000E+00  0.00000000E+00
  0.00000000E+00  0.00000000E+00  0.00000000E+00
  0.00000000E+00  0.00000000E+00  0.00000000E+00
  0.00000000E+00  0.00000000E+00  0.00000000E+00
  0.00000000E+00  0.00000000E+00  0.00000000E+00
  0.00000000E+00  0.00000000E+00  0.00000000E+00
  0.00000000E+00  0.00000000E+00  0.00000000E+00
  0.00000000E+00  0.00000000E+00  0.00000000E+00
  0.00000000E+00  0.00000000E+00  0.00000000E+00
  0.00000000E+00  0.00000000E+00  0.00000000E+00
  0.00000000E+00  0.00000000E+00  0.00000000E+00
  0.00000000E+00  0.00000000E+00  0.00000000E+00
  0.00000000E+00  0.00000000E+00  0.00000000E+00
  0.00000000E+00  0.00000000E+00  0.00000000E+00
  0.00000000E+00  0.00000000E+00  0.00000000E+00
  0.00000000E+00  0.00000000E+00  0.00000000E+00
  0.00000000E+00  0.00000000E+00  0.00000000E+00
  0.00000000E+00  0.00000000E+00  0.00000000E+00
  0.00000000E+00  0.00000000E+00  0.00000000E+00
  0.00000000E+00  0.00000000E+00  0.00000000E+00
  0.00000000E+00  0.00000000E+00  0.00000000E+00
  0.00000000E+00  0.00000000E+00  0.00000000E+00
  0.00000000E+00  0.00000000E+00  0.00000000E+00
  0.00000000E+00  0.00000000E+00  0.00000000E+00
  0.00000000E+00  0.00000000E+00  0.00000000E+00
  0.00000000E+00  0.00000000E+00  0.00000000E+00
  0.00000000E+00  0.00000000E+00  0.00000000E+00
  0.00000000E+00  0.00000000E+00  0.00000000E+00
  0.00000000E+00  0.00000000E+00  0.00000000E+00
  0.00000000E+00  0.00000000E+00  0.00000000E+00
  0.00000000E+00  0.00000000E+00  0.00000000E+00
  0.00000000E+00  0.00000000E+00  0.00000000E+00
