Ba2 Ga2 Cl10                            
   1.00000000000000     
     6.7941064531725806    0.0918415787856554    2.5482580043528649
     1.5784841644511900    6.6088344313084741    2.5482583769859488
     0.0307157674078231    0.0245846360617160   10.0683532268044953
   Ba   Ga   Cl
     2     2    10
Direct
  0.4386449770535208  0.5613550222733323  0.2500000006098801
  0.5613550229464792  0.4386449777266677  0.7499999993901199
  0.0000000000000000  0.0000000000000000  0.5000000000000000
  0.0000000000000000  0.0000000000000000  0.0000000000000000
  0.8058656287922830  0.7681938360493703  0.6122208719791757
  0.2318061679200056  0.1941333676360273  0.8877791277714806
  0.1941333712077196  0.2318061639506297  0.3877801280208288
  0.7681938320799944  0.8058656323639752  0.1122208722285194
  0.9364019162244190  0.0635980832718843  0.7500000003475193
  0.0635980837755810  0.9364019167281228  0.2499999996524735
  0.7307722411741508  0.3018936857104393  0.0265708996526257
  0.6981063115837358  0.2692277545839659  0.4734291051039889
  0.2692277588258492  0.6981063142895607  0.9734291003473743
  0.3018936884162642  0.7307722454160270  0.5265708948960111
 
  0.00000000E+00  0.00000000E+00  0.00000000E+00
  0.00000000E+00  0.00000000E+00  0.00000000E+00
  0.00000000E+00  0.00000000E+00  0.00000000E+00
  0.00000000E+00  0.00000000E+00  0.00000000E+00
  0.00000000E+00  0.00000000E+00  0.00000000E+00
  0.00000000E+00  0.00000000E+00  0.00000000E+00
  0.00000000E+00  0.00000000E+00  0.00000000E+00
  0.00000000E+00  0.00000000E+00  0.00000000E+00
  0.00000000E+00  0.00000000E+00  0.00000000E+00
  0.00000000E+00  0.00000000E+00  0.00000000E+00
  0.00000000E+00  0.00000000E+00  0.00000000E+00
  0.00000000E+00  0.00000000E+00  0.00000000E+00
  0.00000000E+00  0.00000000E+00  0.00000000E+00
  0.00000000E+00  0.00000000E+00  0.00000000E+00
