Be4 Tl4 Br20                            
   1.0000000000000000     
     0.0000000000000000   11.8837559028916537   -2.2595951988144507
     9.5116243762781849    0.0000000000000000    0.0000000000000000
     0.0000000000000000    2.8770672868742260  -11.1352462366646172
   Be   Tl   Br
     4     4    20
Direct
  0.4369347296077066  0.2770349357230657  0.2554269647354417
  0.5630652703922863  0.7770349357230728  0.7445730352645512
  0.1281192670048128  0.9839706448006993  0.9012117449808983
  0.8718807329951872  0.4839706448006993  0.0987882550191017
  0.2752225002784385  0.7086018834377654  0.1261255799427161
  0.7247774997215615  0.2086018834377654  0.8738744200572910
  0.8952213225211665  0.5787207108146859  0.4764443002205709
  0.1047786774788335  0.0787207108146859  0.5235556997794291
  0.7358268278922750  0.6547227300643996  0.1499148940563373
  0.6014902608093209  0.5546906740063022  0.7266390472868807
  0.3985097391906933  0.0546906740063022  0.2733609527131193
  0.1970247842629647  0.8010204579048050  0.7572956941259932
  0.9077332583747406  0.4395024049528544  0.9073901447031147
  0.6179628206190344  0.1717032021765661  0.2570120071041870
  0.8716704359563394  0.2650171587289805  0.5853113808156110
  0.6978243812867291  0.7655383329179131  0.3641100532605819
  0.0922667416252594  0.9395024049528544  0.0926098552968782
  0.9822206724187410  0.0036143968885725  0.8419298405784161
  0.3820371793809656  0.6717032021765732  0.7429879928958130
  0.2641731721077178  0.1547227300644067  0.8500851059436627
  0.5325474267816546  0.8881924081618280  0.9118537416425028
  0.3388635125492385  0.4052690394216114  0.4229844278600581
  0.0177793275812590  0.5036143968885725  0.1580701594215768
  0.1283295640436535  0.7650171587289805  0.4146886191843819
  0.8029752157370353  0.3010204579047979  0.2427043058739926
  0.6611364874507615  0.9052690394216114  0.5770155721399419
  0.3021756187132638  0.2655383329179131  0.6358899467394181
  0.4674525732183383  0.3881924081618209  0.0881462583574972

  0.00000000E+00  0.00000000E+00  0.00000000E+00
  0.00000000E+00  0.00000000E+00  0.00000000E+00
  0.00000000E+00  0.00000000E+00  0.00000000E+00
  0.00000000E+00  0.00000000E+00  0.00000000E+00
  0.00000000E+00  0.00000000E+00  0.00000000E+00
  0.00000000E+00  0.00000000E+00  0.00000000E+00
  0.00000000E+00  0.00000000E+00  0.00000000E+00
  0.00000000E+00  0.00000000E+00  0.00000000E+00
  0.00000000E+00  0.00000000E+00  0.00000000E+00
  0.00000000E+00  0.00000000E+00  0.00000000E+00
  0.00000000E+00  0.00000000E+00  0.00000000E+00
  0.00000000E+00  0.00000000E+00  0.00000000E+00
  0.00000000E+00  0.00000000E+00  0.00000000E+00
  0.00000000E+00  0.00000000E+00  0.00000000E+00
  0.00000000E+00  0.00000000E+00  0.00000000E+00
  0.00000000E+00  0.00000000E+00  0.00000000E+00
  0.00000000E+00  0.00000000E+00  0.00000000E+00
  0.00000000E+00  0.00000000E+00  0.00000000E+00
  0.00000000E+00  0.00000000E+00  0.00000000E+00
  0.00000000E+00  0.00000000E+00  0.00000000E+00
  0.00000000E+00  0.00000000E+00  0.00000000E+00
  0.00000000E+00  0.00000000E+00  0.00000000E+00
  0.00000000E+00  0.00000000E+00  0.00000000E+00
  0.00000000E+00  0.00000000E+00  0.00000000E+00
  0.00000000E+00  0.00000000E+00  0.00000000E+00
  0.00000000E+00  0.00000000E+00  0.00000000E+00
  0.00000000E+00  0.00000000E+00  0.00000000E+00
  0.00000000E+00  0.00000000E+00  0.00000000E+00
