Sr4 Ga4 Br20                            
   1.0000000000000000     
     0.0000000000000000    7.4204842773124682   -1.3788394842588605
    12.4826109368529572    0.0000000000000000    0.0000000000000000
     0.0000000000000000    1.4581046137969809  -13.8002695332905283
   Sr   Ga   Br
     4     4    20
Direct
  0.5438638815276278  0.3890240420109876  0.3410029831671508
  0.4561361184723793  0.8890240420109876  0.6589970168328492
  0.8595021819627107  0.0157524373366797  0.2846258225857952
  0.1404978180372964  0.5157524373366797  0.7153741774141977
  0.7626983287341886  0.6083111131082930  0.0690900177911971
  0.2373016712658114  0.1083111131082930  0.9309099822088029
  0.8302100224794557  0.7180689925548833  0.3829899655317845
  0.1697899775205371  0.2180689925548762  0.6170100344682155
  0.1029471936702180  0.0465644054398737  0.6914164405984167
  0.3134240608681722  0.5358532394837994  0.4935497743349657
  0.6865759391318278  0.0358532394837994  0.5064502256650343
  0.1112473739476840  0.7548940734044010  0.7382321319638621
  0.9435882599523353  0.4371836486203975  0.9304661073715934
  0.3269586889898832  0.0395711771905809  0.1351231019778396
  0.9023232520952718  0.3269389064094881  0.6597403790671095
  0.6093688260063530  0.8041787051330189  0.3160605961274428
  0.0564117400476576  0.9371836486203904  0.0695338926284066
  0.7268313567353459  0.6991571238566294  0.5602999560776567
  0.6730413110101168  0.5395711771905809  0.8648768980221746
  0.8970528063297820  0.5465644054398808  0.3085835594015833
  0.5212299277931365  0.9826137519665465  0.8403689330129893
  0.5756256315498547  0.1394873634844060  0.1852776037474300
  0.2731686432646541  0.1991571238566365  0.4397000439223433
  0.0976767479047211  0.8269389064094810  0.3402596209328905
  0.8887526260523160  0.2548940734043939  0.2617678680361308
  0.4243743684501453  0.6394873634844132  0.8147223962525700
  0.3906311739936470  0.3041787051330260  0.6839394038725644
  0.4787700722068564  0.4826137519665394  0.1596310669870107

  0.00000000E+00  0.00000000E+00  0.00000000E+00
  0.00000000E+00  0.00000000E+00  0.00000000E+00
  0.00000000E+00  0.00000000E+00  0.00000000E+00
  0.00000000E+00  0.00000000E+00  0.00000000E+00
  0.00000000E+00  0.00000000E+00  0.00000000E+00
  0.00000000E+00  0.00000000E+00  0.00000000E+00
  0.00000000E+00  0.00000000E+00  0.00000000E+00
  0.00000000E+00  0.00000000E+00  0.00000000E+00
  0.00000000E+00  0.00000000E+00  0.00000000E+00
  0.00000000E+00  0.00000000E+00  0.00000000E+00
  0.00000000E+00  0.00000000E+00  0.00000000E+00
  0.00000000E+00  0.00000000E+00  0.00000000E+00
  0.00000000E+00  0.00000000E+00  0.00000000E+00
  0.00000000E+00  0.00000000E+00  0.00000000E+00
  0.00000000E+00  0.00000000E+00  0.00000000E+00
  0.00000000E+00  0.00000000E+00  0.00000000E+00
  0.00000000E+00  0.00000000E+00  0.00000000E+00
  0.00000000E+00  0.00000000E+00  0.00000000E+00
  0.00000000E+00  0.00000000E+00  0.00000000E+00
  0.00000000E+00  0.00000000E+00  0.00000000E+00
  0.00000000E+00  0.00000000E+00  0.00000000E+00
  0.00000000E+00  0.00000000E+00  0.00000000E+00
  0.00000000E+00  0.00000000E+00  0.00000000E+00
  0.00000000E+00  0.00000000E+00  0.00000000E+00
  0.00000000E+00  0.00000000E+00  0.00000000E+00
  0.00000000E+00  0.00000000E+00  0.00000000E+00
  0.00000000E+00  0.00000000E+00  0.00000000E+00
  0.00000000E+00  0.00000000E+00  0.00000000E+00
