B3I                                     
   1.00000000000000     
     6.2934303528508293   -0.0802711999906031    0.0000000000000000
    -3.1951944711023805    8.2475269153775930    0.0000000000000000
     0.0000000000000000    0.0000000000000000    3.0368007824086267
   B    I 
     6     2
Direct
  0.9344587610399699  0.0201313831869641  0.2500000000000000
  0.8780366821344998  0.1859371820157421  0.2500000000000000
  0.0372313025683937  0.8675222236510791  0.2500000000000000
  0.1220933397085133  0.8141915133167643  0.7500000000000000
  0.0657016089453677  0.9799847077345731  0.7500000000000000
  0.9629578469703048  0.1326089146635212  0.7500000000000000
  0.3562521459683765  0.6881522901426536  0.7500000000000000
  0.6438683126645515  0.3120717852886941  0.2500000000000000
 
  0.00000000E+00  0.00000000E+00  0.00000000E+00
  0.00000000E+00  0.00000000E+00  0.00000000E+00
  0.00000000E+00  0.00000000E+00  0.00000000E+00
  0.00000000E+00  0.00000000E+00  0.00000000E+00
  0.00000000E+00  0.00000000E+00  0.00000000E+00
  0.00000000E+00  0.00000000E+00  0.00000000E+00
  0.00000000E+00  0.00000000E+00  0.00000000E+00
  0.00000000E+00  0.00000000E+00  0.00000000E+00
