Ca16 B12 Br1                            
   1.00000000000000     
     6.4263768225834603   -3.5591447314666804    3.3473530379811294
     1.0159491162880323    9.2028687281093511    3.8855935884280770
    -7.7205427626062129   -5.4249514599495567    3.8063372843680230
   B    Br   Ca
    12     1    16
Direct
  0.7994484154018338  0.6120361637869394  0.9297632956021573
  0.7749574794771874  0.7791118020555601  0.9919909037263679
  0.3003963298088976  0.5951238722619010  0.5191101741725248
  0.8441635120283451  0.4849644917996798  0.9974461643221346
  0.0516143488025165  0.2674213432396328  0.2425799302336813
  0.3780789588778077  0.4709446352546038  0.5563223504902837
  0.2020794953384168  0.4064980167481096  0.3919382987511995
  0.7689921818480059  0.8695229896029275  0.6073995107809083
  0.7576624033170205  0.7130370952733287  0.4477227844825009
  0.7321535780810535  0.9672448680799874  0.7629382724057763
  0.8677605546241836  0.4621088445912136  0.8323080677592642
  0.7766308549823009  0.8731964675093096  0.4404001692119905
  0.4659378897718796  0.0892480535670472  0.1385483287354674
  0.7046392300844957  0.2175260589367909  0.0000430005812717
  0.1289397805584827  0.7363589697054636  0.0772177366277660
  0.0005539549892930  0.0046949616294754  0.9806567426205461
  0.1208343763404116  0.3680868727068685  0.9900804593331856
  0.6479693309016881  0.6644545558837223  0.1518275175505295
  0.8181701081697454  0.0396290837708904  0.2659299055759234
  0.9905261472961513  0.5586699642389590  0.3222644881797052
  0.2882175551962334  0.1633830271545875  0.3963583371754282
  0.4414877188948623  0.8204342604412247  0.4657754303969526
  0.4914986495944547  0.4334997870356005  0.3100685162223158
  0.1096355033616305  0.9712607555864352  0.6238645263634837
  0.0732111677770391  0.4502566633573011  0.6332316145420620
  0.7479028687739913  0.6367453684061175  0.6772766724973920
  0.7659799868332726  0.1543706957383790  0.6409611330752654
  0.4624507156600757  0.7958117818426658  0.8224103498332482
  0.4873069032086903  0.3943595497952614  0.7835673187506487
 
  0.00000000E+00  0.00000000E+00  0.00000000E+00
  0.00000000E+00  0.00000000E+00  0.00000000E+00
  0.00000000E+00  0.00000000E+00  0.00000000E+00
  0.00000000E+00  0.00000000E+00  0.00000000E+00
  0.00000000E+00  0.00000000E+00  0.00000000E+00
  0.00000000E+00  0.00000000E+00  0.00000000E+00
  0.00000000E+00  0.00000000E+00  0.00000000E+00
  0.00000000E+00  0.00000000E+00  0.00000000E+00
  0.00000000E+00  0.00000000E+00  0.00000000E+00
  0.00000000E+00  0.00000000E+00  0.00000000E+00
  0.00000000E+00  0.00000000E+00  0.00000000E+00
  0.00000000E+00  0.00000000E+00  0.00000000E+00
  0.00000000E+00  0.00000000E+00  0.00000000E+00
  0.00000000E+00  0.00000000E+00  0.00000000E+00
  0.00000000E+00  0.00000000E+00  0.00000000E+00
  0.00000000E+00  0.00000000E+00  0.00000000E+00
  0.00000000E+00  0.00000000E+00  0.00000000E+00
  0.00000000E+00  0.00000000E+00  0.00000000E+00
  0.00000000E+00  0.00000000E+00  0.00000000E+00
  0.00000000E+00  0.00000000E+00  0.00000000E+00
  0.00000000E+00  0.00000000E+00  0.00000000E+00
  0.00000000E+00  0.00000000E+00  0.00000000E+00
  0.00000000E+00  0.00000000E+00  0.00000000E+00
  0.00000000E+00  0.00000000E+00  0.00000000E+00
  0.00000000E+00  0.00000000E+00  0.00000000E+00
  0.00000000E+00  0.00000000E+00  0.00000000E+00
  0.00000000E+00  0.00000000E+00  0.00000000E+00
  0.00000000E+00  0.00000000E+00  0.00000000E+00
  0.00000000E+00  0.00000000E+00  0.00000000E+00
