Sr4 In4 Br12                            
   1.00000000000000     
    11.0488134432604141    0.0000000000000000    0.0006042331269027
     0.0000000000000000    4.6020161236862984    0.0000000000000000
     0.0027316930108680    0.0000000000000000   15.8296871039804010
   Br   In   Sr
    12     4     4
Direct
  0.1612038014517481  0.2500000000000000  0.0124591252657993
  0.5059917045143933  0.7500000000000000  0.1058923661166631
  0.8112023604410723  0.2500000000000000  0.2092325224931955
  0.3119076255861870  0.2500000000000000  0.2907608363971192
  0.0064332072232958  0.7500000000000000  0.3939841388641696
  0.6617125041130123  0.2500000000000000  0.4875369653585437
  0.3383651601975615  0.7500000000000000  0.5125150595260592
  0.9938345146201826  0.2500000000000000  0.6058058808282070
  0.6886823066667631  0.7500000000000000  0.7092758725271651
  0.1882179688403127  0.7500000000000000  0.7908021824284432
  0.4935924329045420  0.2500000000000000  0.8940597114581905
  0.8383658915605423  0.7500000000000000  0.9876692922880466
  0.9898107594701315  0.7500000000000000  0.1669491858322090
  0.4905356382688240  0.7500000000000000  0.3332056862214046
  0.5100083643549098  0.2500000000000000  0.6669700020967682
  0.0096239272850625  0.2500000000000000  0.8330975579189683
  0.6746422717440552  0.2500000000000000  0.0448545063540848
  0.1750105638304831  0.2500000000000000  0.4551569839318930
  0.8253715660586778  0.7500000000000000  0.5448190458786755
  0.3249874308682266  0.7500000000000000  0.9552830782143715
 
  0.00000000E+00  0.00000000E+00  0.00000000E+00
  0.00000000E+00  0.00000000E+00  0.00000000E+00
  0.00000000E+00  0.00000000E+00  0.00000000E+00
  0.00000000E+00  0.00000000E+00  0.00000000E+00
  0.00000000E+00  0.00000000E+00  0.00000000E+00
  0.00000000E+00  0.00000000E+00  0.00000000E+00
  0.00000000E+00  0.00000000E+00  0.00000000E+00
  0.00000000E+00  0.00000000E+00  0.00000000E+00
  0.00000000E+00  0.00000000E+00  0.00000000E+00
  0.00000000E+00  0.00000000E+00  0.00000000E+00
  0.00000000E+00  0.00000000E+00  0.00000000E+00
  0.00000000E+00  0.00000000E+00  0.00000000E+00
  0.00000000E+00  0.00000000E+00  0.00000000E+00
  0.00000000E+00  0.00000000E+00  0.00000000E+00
  0.00000000E+00  0.00000000E+00  0.00000000E+00
  0.00000000E+00  0.00000000E+00  0.00000000E+00
  0.00000000E+00  0.00000000E+00  0.00000000E+00
  0.00000000E+00  0.00000000E+00  0.00000000E+00
  0.00000000E+00  0.00000000E+00  0.00000000E+00
  0.00000000E+00  0.00000000E+00  0.00000000E+00
