Ga4 Cl6                                 
   1.00000000000000     
    -7.2346583336439085   -0.0031297739999131   -0.0207783936723164
     3.6151372599739537   -6.2651794803081531    0.0217382118060248
    -3.6008857067805042    2.0772715577899832    5.3582562455458689
   Ga   Cl
     4     6
Direct
  0.3385501437181020  0.6611734667994753  0.9870778776653495
  0.6614516395811165  0.3387802159617195  0.0129509281456848
  0.8387481511345882  0.1612820149535779  0.4869256918938945
  0.1612558438994753  0.8386875530138909  0.5131018295562839
  0.6706446945007301  0.7499045649091016  0.2496576623311739
  0.8297373040411884  0.3297472352453710  0.2499983820720288
  0.2498408700264179  0.1706663136950866  0.2504696029708953
  0.7501278719901308  0.8293694131351330  0.7496430577412241
  0.1702679843705184  0.6702809243680861  0.7500870628969736
  0.3293754967377609  0.2501082979185583  0.7503979047264622
 
  0.00000000E+00  0.00000000E+00  0.00000000E+00
  0.00000000E+00  0.00000000E+00  0.00000000E+00
  0.00000000E+00  0.00000000E+00  0.00000000E+00
  0.00000000E+00  0.00000000E+00  0.00000000E+00
  0.00000000E+00  0.00000000E+00  0.00000000E+00
  0.00000000E+00  0.00000000E+00  0.00000000E+00
  0.00000000E+00  0.00000000E+00  0.00000000E+00
  0.00000000E+00  0.00000000E+00  0.00000000E+00
  0.00000000E+00  0.00000000E+00  0.00000000E+00
  0.00000000E+00  0.00000000E+00  0.00000000E+00
