Ba1 Tl3 I6                              
   1.0000000000000000     
     9.3781232143511701    0.0516000862489195    0.3282768939739166
     0.0516000862489197    9.3781232143511790    0.3282768939739160
     4.9602409005554691    4.9602409005554779    6.9901391933096946
   I    Ba   Tl
     6     1     3
Direct
  0.7434480595753143  0.2565519404246857  0.0000000000000000
  0.2204100054381684  0.2204100054381684  0.0703411871898112
  0.2565519404246857  0.7434480595753143  0.0000000000000000
  0.7795899945618459  0.7795899945618459  0.9296588128101888
  0.7796998381548548  0.7796998381548548  0.5108757438534042
  0.2203001618451523  0.2203001618451523  0.4891242561465958
  0.0000000000000000  0.0000000000000000  0.0000000000000000
  0.5000000000000000  0.5000000000000000  0.0000000000000000
  0.1536204979778546  0.8463795020221454  0.5000000000000000
  0.8463795020221454  0.1536204979778546  0.5000000000000000

  0.00000000E+00  0.00000000E+00  0.00000000E+00
  0.00000000E+00  0.00000000E+00  0.00000000E+00
  0.00000000E+00  0.00000000E+00  0.00000000E+00
  0.00000000E+00  0.00000000E+00  0.00000000E+00
  0.00000000E+00  0.00000000E+00  0.00000000E+00
  0.00000000E+00  0.00000000E+00  0.00000000E+00
  0.00000000E+00  0.00000000E+00  0.00000000E+00
  0.00000000E+00  0.00000000E+00  0.00000000E+00
  0.00000000E+00  0.00000000E+00  0.00000000E+00
  0.00000000E+00  0.00000000E+00  0.00000000E+00
