Ba4 Ga6                                 
   1.00000000000000     
     2.8784392247213484   -6.0718216903449074    0.0000000000000000
     2.8784392247213484    6.0718216903449074    0.0000000000000000
     0.0000000000000000    0.0000000000000000    8.6048833442526469
   Ba   Ga
     4     6
Direct
  0.1562101433441683  0.8437898566558317  0.1011408957765241
  0.6562101433441683  0.3437898566558317  0.3988591042234759
  0.3437898566558317  0.6562101433441683  0.6011408957765241
  0.8437898566558317  0.1562101433441683  0.8988591042234759
  0.5000000000000000  0.5000000000000000  0.0000000000000000
  0.1588406894869792  0.3411593105130208  0.2500000000000000
  0.6588406894869792  0.8411593105130208  0.2500000000000000
  0.0000000000000000  0.0000000000000000  0.5000000000000000
  0.3411593105130208  0.1588406894869792  0.7500000000000000
  0.8411593105130208  0.6588406894869792  0.7500000000000000
 
  0.00000000E+00  0.00000000E+00  0.00000000E+00
  0.00000000E+00  0.00000000E+00  0.00000000E+00
  0.00000000E+00  0.00000000E+00  0.00000000E+00
  0.00000000E+00  0.00000000E+00  0.00000000E+00
  0.00000000E+00  0.00000000E+00  0.00000000E+00
  0.00000000E+00  0.00000000E+00  0.00000000E+00
  0.00000000E+00  0.00000000E+00  0.00000000E+00
  0.00000000E+00  0.00000000E+00  0.00000000E+00
  0.00000000E+00  0.00000000E+00  0.00000000E+00
  0.00000000E+00  0.00000000E+00  0.00000000E+00
