Ba4 Al10 Br2                            
   1.00000000000000     
     8.5143839510478241    0.3883709417481203    1.1882949119487234
     0.5525916064886767    8.1900103641771747   -1.7149068902522810
     5.3608422375914477    3.3311808419141213    6.8443977109935892
   Br   Ba   Al
     2     4    10
Direct
  0.0265723380235414  0.7436788265529373  0.0724791152405331
  0.4934224259465978  0.3444539520165151  0.0109692063024482
  0.2188930483742553  0.0778362985736720  0.0438233278942874
  0.8623567550009312  0.5174084026657724  0.9585062853914508
  0.7715097987511967  0.5510728323090177  0.5276726093367543
  0.7204999672495092  0.0180046397659765  0.0674521635008318
  0.2889399269675792  0.0905145497368522  0.5984420271244204
  0.6424966543219668  0.8266977829675426  0.8383350990418421
  0.3798473208848705  0.7394347706970450  0.5339519222232170
  0.8344816441960319  0.1266953101952950  0.5805394365939947
  0.7100384864062619  0.2296645752410527  0.3762006011517514
  0.3377191519937810  0.6753330683437966  0.2889293031782856
  0.1668068779197256  0.3261761435347879  0.4504979934535172
  0.3906426909207568  0.4253632298179255  0.5218630200497856
  0.0855843072548268  0.8865043547693219  0.5387458074847231
  0.5700886057881718  0.9210612628124792  0.5915920820321503
 
  0.00000000E+00  0.00000000E+00  0.00000000E+00
  0.00000000E+00  0.00000000E+00  0.00000000E+00
  0.00000000E+00  0.00000000E+00  0.00000000E+00
  0.00000000E+00  0.00000000E+00  0.00000000E+00
  0.00000000E+00  0.00000000E+00  0.00000000E+00
  0.00000000E+00  0.00000000E+00  0.00000000E+00
  0.00000000E+00  0.00000000E+00  0.00000000E+00
  0.00000000E+00  0.00000000E+00  0.00000000E+00
  0.00000000E+00  0.00000000E+00  0.00000000E+00
  0.00000000E+00  0.00000000E+00  0.00000000E+00
  0.00000000E+00  0.00000000E+00  0.00000000E+00
  0.00000000E+00  0.00000000E+00  0.00000000E+00
  0.00000000E+00  0.00000000E+00  0.00000000E+00
  0.00000000E+00  0.00000000E+00  0.00000000E+00
  0.00000000E+00  0.00000000E+00  0.00000000E+00
  0.00000000E+00  0.00000000E+00  0.00000000E+00
