Sr4 Ga4 Br20                            
   1.0000000000000000     
    17.1599823667220406    0.0000000000000000    0.0000000000000000
     0.0000000000000000    9.8965021490819698   -0.7321139888008275
     0.0000000000000000    3.0424852456058984    7.2151220805293903
   Sr   Ga   Br
     4     4    20
Direct
  0.9801190125209871  0.4316108970693193  0.2719975117582649
  0.4801190125209871  0.5683891029306807  0.2280024882417280
  0.0198809874790129  0.5683891029306807  0.7280024882417280
  0.5198809874790129  0.4316108970693193  0.7719975117582720
  0.7158075890939486  0.1423202874113088  0.6949382343314880
  0.2158075890939486  0.8576797125886841  0.8050617656685120
  0.2841924109060372  0.8576797125886841  0.3050617656685191
  0.7841924109060514  0.1423202874113088  0.1949382343314880
  0.6175450982079056  0.5816693577552812  0.4531002452146211
  0.1175450982079056  0.4183306422447259  0.0468997547853860
  0.3824549017920944  0.4183306422447259  0.5468997547853789
  0.8824549017920944  0.5816693577552812  0.9531002452146211
  0.7475702216516780  0.3012775326925876  0.3754943525298557
  0.2475702216516780  0.6987224673074195  0.1245056474701443
  0.2524297783483220  0.6987224673074195  0.6245056474701443
  0.7524297783483220  0.3012775326925876  0.8754943525298557
  0.5806475784936680  0.1285253781556506  0.7089052451297491
  0.0806475784936609  0.8714746218443423  0.7910947548702509
  0.4193524215063391  0.8714746218443423  0.2910947548702509
  0.9193524215063320  0.1285253781556506  0.2089052451297491
  0.7919599004237341  0.9443875473031440  0.7678757832901155
  0.2919599004237341  0.0556124526968489  0.7321242167098845
  0.2080400995762517  0.0556124526968489  0.2321242167098774
  0.7080400995762659  0.9443875473031440  0.2678757832901155
  0.4770317838220848  0.7026699978828645  0.8358676296833352
  0.9770317838220848  0.2973300021171283  0.6641323703166648
  0.5229682161779152  0.2973300021171283  0.1641323703166648
  0.0229682161779152  0.7026699978828645  0.3358676296833352

  0.00000000E+00  0.00000000E+00  0.00000000E+00
  0.00000000E+00  0.00000000E+00  0.00000000E+00
  0.00000000E+00  0.00000000E+00  0.00000000E+00
  0.00000000E+00  0.00000000E+00  0.00000000E+00
  0.00000000E+00  0.00000000E+00  0.00000000E+00
  0.00000000E+00  0.00000000E+00  0.00000000E+00
  0.00000000E+00  0.00000000E+00  0.00000000E+00
  0.00000000E+00  0.00000000E+00  0.00000000E+00
  0.00000000E+00  0.00000000E+00  0.00000000E+00
  0.00000000E+00  0.00000000E+00  0.00000000E+00
  0.00000000E+00  0.00000000E+00  0.00000000E+00
  0.00000000E+00  0.00000000E+00  0.00000000E+00
  0.00000000E+00  0.00000000E+00  0.00000000E+00
  0.00000000E+00  0.00000000E+00  0.00000000E+00
  0.00000000E+00  0.00000000E+00  0.00000000E+00
  0.00000000E+00  0.00000000E+00  0.00000000E+00
  0.00000000E+00  0.00000000E+00  0.00000000E+00
  0.00000000E+00  0.00000000E+00  0.00000000E+00
  0.00000000E+00  0.00000000E+00  0.00000000E+00
  0.00000000E+00  0.00000000E+00  0.00000000E+00
  0.00000000E+00  0.00000000E+00  0.00000000E+00
  0.00000000E+00  0.00000000E+00  0.00000000E+00
  0.00000000E+00  0.00000000E+00  0.00000000E+00
  0.00000000E+00  0.00000000E+00  0.00000000E+00
  0.00000000E+00  0.00000000E+00  0.00000000E+00
  0.00000000E+00  0.00000000E+00  0.00000000E+00
  0.00000000E+00  0.00000000E+00  0.00000000E+00
  0.00000000E+00  0.00000000E+00  0.00000000E+00
