Ba4 B2 Br10                             
   1.00000000000000     
     9.4744804268283005   -0.3054154884912173    0.2396077549953204
    -0.2761410416692708    9.9220144880571208   -0.3937923974016722
     4.7364764835871158    4.5087559482227482    6.9444179762147620
   Br   Ba   B 
    10     4     2
Direct
  0.9802151443070812  0.9711018664475120  0.0548367655858755
  0.6241187266800310  0.6896321362102498  0.7626592959484597
  0.4216090668521986  0.8593349302164626  0.4298020450436226
  0.1606662240894465  0.3646681966723548  0.0318620961542848
  0.7880137874437239  0.5513306250634997  0.1338596140205226
  0.2380111558305344  0.6979086371953187  0.2294137750621488
  0.6806025172548047  0.2147654218154784  0.9375312593893739
  0.2440502676717529  0.3011237135730411  0.5623690661174834
  0.9745454207941009  0.9686062071186683  0.5884116463455769
  0.5232656571732619  0.0662377814884039  0.7204884391248925
  0.2714397973487266  0.0602592868878418  0.1358994418137272
  0.7465604282738170  0.1767912692961389  0.2564815982714350
  0.2083230142637831  0.7448793459707090  0.8847608833035423
  0.6480846403055764  0.8408786919422795  0.0395840853277107
  0.2050709930197741  0.0784069456327146  0.6904766357735497
  0.7851231586913698  0.9137749444693242  0.5415633527177803
 
  0.00000000E+00  0.00000000E+00  0.00000000E+00
  0.00000000E+00  0.00000000E+00  0.00000000E+00
  0.00000000E+00  0.00000000E+00  0.00000000E+00
  0.00000000E+00  0.00000000E+00  0.00000000E+00
  0.00000000E+00  0.00000000E+00  0.00000000E+00
  0.00000000E+00  0.00000000E+00  0.00000000E+00
  0.00000000E+00  0.00000000E+00  0.00000000E+00
  0.00000000E+00  0.00000000E+00  0.00000000E+00
  0.00000000E+00  0.00000000E+00  0.00000000E+00
  0.00000000E+00  0.00000000E+00  0.00000000E+00
  0.00000000E+00  0.00000000E+00  0.00000000E+00
  0.00000000E+00  0.00000000E+00  0.00000000E+00
  0.00000000E+00  0.00000000E+00  0.00000000E+00
  0.00000000E+00  0.00000000E+00  0.00000000E+00
  0.00000000E+00  0.00000000E+00  0.00000000E+00
  0.00000000E+00  0.00000000E+00  0.00000000E+00
