Sr2 In2 Cl10                            
   1.0000000000000000     
     5.3379462644747102    0.0000000000000000    0.0000000000000002
    -0.0000000000000010   10.9644097067132407    0.0000000000000007
     0.0000000000000000    0.0000000000000003    9.5071423917341047
   Sr   In   Cl
     2     2    10
Direct
  0.0000000000000000  0.0000000000000000  0.5000000000000000
  0.5000000000000000  0.5000000000000000  0.0000000000000000
  0.5000000000000000  0.0000000000000000  0.0000000000000000
  0.0000000000000000  0.5000000000000000  0.5000000000000000
  0.5000000000000000  0.7104705199976564  0.5000000000000000
  0.5000000000000000  0.2895294800023436  0.5000000000000000
  0.5000000000000000  0.0000000000000000  0.3276534203397432
  0.5000000000000000  0.0000000000000000  0.6723465796602568
  0.0000000000000000  0.0000000000000000  0.0000000000000000
  0.0000000000000000  0.2104705199976564  0.0000000000000000
  0.0000000000000000  0.7895294800023436  0.0000000000000000
  0.0000000000000000  0.5000000000000000  0.8276534203397432
  0.0000000000000000  0.5000000000000000  0.1723465796602497
  0.5000000000000000  0.5000000000000000  0.5000000000000000

  0.00000000E+00  0.00000000E+00  0.00000000E+00
  0.00000000E+00  0.00000000E+00  0.00000000E+00
  0.00000000E+00  0.00000000E+00  0.00000000E+00
  0.00000000E+00  0.00000000E+00  0.00000000E+00
  0.00000000E+00  0.00000000E+00  0.00000000E+00
  0.00000000E+00  0.00000000E+00  0.00000000E+00
  0.00000000E+00  0.00000000E+00  0.00000000E+00
  0.00000000E+00  0.00000000E+00  0.00000000E+00
  0.00000000E+00  0.00000000E+00  0.00000000E+00
  0.00000000E+00  0.00000000E+00  0.00000000E+00
  0.00000000E+00  0.00000000E+00  0.00000000E+00
  0.00000000E+00  0.00000000E+00  0.00000000E+00
  0.00000000E+00  0.00000000E+00  0.00000000E+00
  0.00000000E+00  0.00000000E+00  0.00000000E+00
