Sr1 Ga3 Br6                             
   1.00000000000000     
     8.0381911566372324   -0.0024578604535873    0.0010744987732649
    -0.0024578604535873    8.0381911566372324    0.0010744987732649
     4.0186204627274309    4.0186204627274309    5.6835000125310113
   Br   Sr   Ga
     6     1     3
Direct
  0.7390507062161475  0.2609492937838525  0.0000000000000000
  0.2608633343963476  0.2608633343963476  0.0001102795156740
  0.2609492937838525  0.7390507062161475  0.0000000000000000
  0.7391366656036524  0.7391366656036524  0.9998897204843260
  0.7391013669427977  0.7391013669427977  0.5221688560167053
  0.2608986330572023  0.2608986330572023  0.4778311439832947
  0.0000000000000000  0.0000000000000000  0.0000000000000000
  0.5000000000000000  0.5000000000000000  0.0000000000000000
  0.2495366413812974  0.7504633586187026  0.5000000000000000
  0.7504633586187026  0.2495366413812974  0.5000000000000000
 
  0.00000000E+00  0.00000000E+00  0.00000000E+00
  0.00000000E+00  0.00000000E+00  0.00000000E+00
  0.00000000E+00  0.00000000E+00  0.00000000E+00
  0.00000000E+00  0.00000000E+00  0.00000000E+00
  0.00000000E+00  0.00000000E+00  0.00000000E+00
  0.00000000E+00  0.00000000E+00  0.00000000E+00
  0.00000000E+00  0.00000000E+00  0.00000000E+00
  0.00000000E+00  0.00000000E+00  0.00000000E+00
  0.00000000E+00  0.00000000E+00  0.00000000E+00
  0.00000000E+00  0.00000000E+00  0.00000000E+00
