Ba2F3                                   
   1.00000000000000     
    -6.3980394828977731    0.0060274667709017   -0.0009689637864725
     3.1997334754383209   -5.5384232579992210    0.0006469407868111
    -3.2036354928475141    1.8465697764382718    6.2974051454851496
   Ba   F 
     4     6
Direct
  0.6269255595672263  0.3733281026518611  0.1193475616046982
  0.8443930840634977  0.1555610872576594  0.4670140889837526
  0.1555364307052969  0.8443118108265750  0.5329052313756790
  0.3729815834648278  0.6265935880134847  0.8805724997018203
  0.0260429892247060  0.4289032619362061  0.2010899486763833
  0.5704233553433511  0.7981706678241025  0.2010032074310999
  0.2013304981606083  0.9729911271709142  0.2011972597955776
  0.7986168312106727  0.0269363099826450  0.7987292800993657
  0.4295179256742898  0.2017917446574060  0.7988857939898892
  0.9738317425854888  0.5710122996791824  0.7988551283417493
 
  0.00000000E+00  0.00000000E+00  0.00000000E+00
  0.00000000E+00  0.00000000E+00  0.00000000E+00
  0.00000000E+00  0.00000000E+00  0.00000000E+00
  0.00000000E+00  0.00000000E+00  0.00000000E+00
  0.00000000E+00  0.00000000E+00  0.00000000E+00
  0.00000000E+00  0.00000000E+00  0.00000000E+00
  0.00000000E+00  0.00000000E+00  0.00000000E+00
  0.00000000E+00  0.00000000E+00  0.00000000E+00
  0.00000000E+00  0.00000000E+00  0.00000000E+00
  0.00000000E+00  0.00000000E+00  0.00000000E+00
