Sr10 Ga4                                
   1.00000000000000     
     0.0911920303874891    0.0026444054925380    7.9238627554633672
    -0.0050455031749642   -7.9620828505757792   -0.0047621667498753
     8.5926986975287836    3.9838572735026485   -3.8564706358850862
   Ga   Sr
     4    10
Direct
  0.5929880388878104  0.3614352987098073  0.2398919955646761
  0.0912476016641506  0.8787088796857034  0.2386311669808379
  0.9088173845512557  0.1213083660005552  0.7613823601800291
  0.4071334931785060  0.6386359669596615  0.7602098107852271
  0.2496703858654143  0.9498323658329753  0.9996429492511822
  0.7504204455604935  0.0501856468717818  0.0004158721625558
  0.1528841546266264  0.4558762177069866  0.1685927075163960
  0.6522136501796894  0.7136150247226070  0.1685201977610689
  0.4515837644252017  0.2188611989341069  0.4521823960880909
  0.9525645811723749  0.2340649086112450  0.4532376914550866
  0.0473832317793352  0.7657703502388244  0.5467677110890534
  0.5483448775477697  0.7812506121631060  0.5477961901390387
  0.3478355203811816  0.2863146343708323  0.8314297509229505
  0.8471128701801973  0.5441405291918144  0.8312992001037998
 
  0.00000000E+00  0.00000000E+00  0.00000000E+00
  0.00000000E+00  0.00000000E+00  0.00000000E+00
  0.00000000E+00  0.00000000E+00  0.00000000E+00
  0.00000000E+00  0.00000000E+00  0.00000000E+00
  0.00000000E+00  0.00000000E+00  0.00000000E+00
  0.00000000E+00  0.00000000E+00  0.00000000E+00
  0.00000000E+00  0.00000000E+00  0.00000000E+00
  0.00000000E+00  0.00000000E+00  0.00000000E+00
  0.00000000E+00  0.00000000E+00  0.00000000E+00
  0.00000000E+00  0.00000000E+00  0.00000000E+00
  0.00000000E+00  0.00000000E+00  0.00000000E+00
  0.00000000E+00  0.00000000E+00  0.00000000E+00
  0.00000000E+00  0.00000000E+00  0.00000000E+00
  0.00000000E+00  0.00000000E+00  0.00000000E+00
