Ba1 Al2 I10                             
   1.00000000000000     
     4.7473894575936857    7.1096270803756383    0.5309187371906084
    -4.7473894575936857    7.1096270803756383    0.5309187371906084
     0.0000000000000000    5.8577909166305266    9.5234111274923858
   Ba   Al   I 
     1     2    10
Direct
  0.5634248196536547  0.4365751803463453  0.0000000000000000
  0.9973734644867776  0.0134524281598800  0.7309909509344905
  0.9865475718401200  0.0026265355132224  0.2690090490655095
  0.2125063103905305  0.2538214589488490  0.5757328363923975
  0.7461785410511439  0.7874936896094695  0.4242671636076025
  0.7915690542502674  0.7553576142609160  0.9290291980142698
  0.2446423857390840  0.2084309457497326  0.0709708019857302
  0.9248522619629256  0.0751477380370744  0.0000000000000000
  0.0932006586578211  0.9067993413421789  0.5000000000000000
  0.7040514347986360  0.2793690779719071  0.7032053059984307
  0.7206309220280929  0.2959485652013640  0.2967946940015693
  0.3070617600411651  0.7480401849002121  0.7733737675741494
  0.2519598150997950  0.6929382399588349  0.2266262324258506
 
  0.00000000E+00  0.00000000E+00  0.00000000E+00
  0.00000000E+00  0.00000000E+00  0.00000000E+00
  0.00000000E+00  0.00000000E+00  0.00000000E+00
  0.00000000E+00  0.00000000E+00  0.00000000E+00
  0.00000000E+00  0.00000000E+00  0.00000000E+00
  0.00000000E+00  0.00000000E+00  0.00000000E+00
  0.00000000E+00  0.00000000E+00  0.00000000E+00
  0.00000000E+00  0.00000000E+00  0.00000000E+00
  0.00000000E+00  0.00000000E+00  0.00000000E+00
  0.00000000E+00  0.00000000E+00  0.00000000E+00
  0.00000000E+00  0.00000000E+00  0.00000000E+00
  0.00000000E+00  0.00000000E+00  0.00000000E+00
  0.00000000E+00  0.00000000E+00  0.00000000E+00
