Ba10 In4 Cl32                           
   1.0000000000000000     
     4.8312701054597120   -8.2054451921617524    0.0000000000000000
     4.8312701054597120    8.2054451921617524    0.0000000000000000
     0.0000000000000000    0.0000000000000000   18.3107411873570456
   Ba   In   Cl
    10     4    32
Direct
  0.0000000000000000  0.0000000000000000  0.7159054031050260
  0.0000000000000000  0.0000000000000000  0.2840945968949740
  0.5000000000000000  0.5000000000000000  0.7840945968949740
  0.5000000000000000  0.5000000000000000  0.2159054031050260
  0.5000000000000000  0.5000000000000000  0.5000000000000000
  0.0000000000000000  0.0000000000000000  0.0000000000000000
  0.0000000000000000  0.5000000000000000  0.6413424176883993
  0.5000000000000000  0.0000000000000000  0.3586575823116007
  0.5000000000000000  0.0000000000000000  0.8586575823116007
  0.0000000000000000  0.5000000000000000  0.1413424176883993
  0.5000000000000000  0.0000000000000000  0.6121481875184145
  0.0000000000000000  0.5000000000000000  0.3878518124815855
  0.0000000000000000  0.5000000000000000  0.8878518124815855
  0.5000000000000000  0.0000000000000000  0.1121481875184145
  0.5423899627937203  0.2034860386608628  0.7104667783429548
  0.4576100372062797  0.7965139613391372  0.7104667783429548
  0.2034860386608628  0.5423899627937203  0.2895332216570452
  0.7965139613391372  0.4576100372062797  0.2895332216570452
  0.9576100372062797  0.2965139613391372  0.7895332216570452
  0.0423899627937203  0.7034860386608628  0.7895332216570452
  0.2965139613391372  0.9576100372062797  0.2104667783429548
  0.7034860386608628  0.0423899627937203  0.2104667783429548
  0.1892096583971252  0.8758412476945949  0.6130740755571509
  0.8107903416028748  0.1241587523054051  0.6130740755571509
  0.8758412476945949  0.1892096583971252  0.3869259244428491
  0.1241587523054051  0.8107903416028748  0.3869259244428491
  0.3107903416028748  0.6241587523054051  0.8869259244428491
  0.6892096583971252  0.3758412476945949  0.8869259244428491
  0.6664917462715607  0.9820458861052686  0.0094546019701980
  0.3335082537284393  0.0179541138947314  0.0094546019701980
  0.9820458861052686  0.6664917462715607  0.9905453980298020
  0.0179541138947314  0.3335082537284393  0.9905453980298020
  0.8335082537284393  0.5179541138947314  0.4905453980298020
  0.1664917462715607  0.4820458861052686  0.4905453980298020
  0.5179541138947314  0.8335082537284393  0.5094546019701980
  0.4820458861052686  0.1664917462715607  0.5094546019701980
  0.8584908718998889  0.7599819770037470  0.1518085353578655
  0.1415091281001111  0.2400180229962530  0.1518085353578655
  0.7599819770037470  0.8584908718998889  0.8481914646421345
  0.2400180229962530  0.1415091281001111  0.8481914646421345
  0.6415091281001111  0.7400180229962530  0.3481914646421345
  0.3584908718998889  0.2599819770037470  0.3481914646421345
  0.7400180229962530  0.6415091281001111  0.6518085353578655
  0.2599819770037470  0.3584908718998889  0.6518085353578655
  0.3758412476945949  0.6892096583971252  0.1130740755571509
  0.6241587523054051  0.3107903416028748  0.1130740755571509

  0.00000000E+00  0.00000000E+00  0.00000000E+00
  0.00000000E+00  0.00000000E+00  0.00000000E+00
  0.00000000E+00  0.00000000E+00  0.00000000E+00
  0.00000000E+00  0.00000000E+00  0.00000000E+00
  0.00000000E+00  0.00000000E+00  0.00000000E+00
  0.00000000E+00  0.00000000E+00  0.00000000E+00
  0.00000000E+00  0.00000000E+00  0.00000000E+00
  0.00000000E+00  0.00000000E+00  0.00000000E+00
  0.00000000E+00  0.00000000E+00  0.00000000E+00
  0.00000000E+00  0.00000000E+00  0.00000000E+00
  0.00000000E+00  0.00000000E+00  0.00000000E+00
  0.00000000E+00  0.00000000E+00  0.00000000E+00
  0.00000000E+00  0.00000000E+00  0.00000000E+00
  0.00000000E+00  0.00000000E+00  0.00000000E+00
  0.00000000E+00  0.00000000E+00  0.00000000E+00
  0.00000000E+00  0.00000000E+00  0.00000000E+00
  0.00000000E+00  0.00000000E+00  0.00000000E+00
  0.00000000E+00  0.00000000E+00  0.00000000E+00
  0.00000000E+00  0.00000000E+00  0.00000000E+00
  0.00000000E+00  0.00000000E+00  0.00000000E+00
  0.00000000E+00  0.00000000E+00  0.00000000E+00
  0.00000000E+00  0.00000000E+00  0.00000000E+00
  0.00000000E+00  0.00000000E+00  0.00000000E+00
  0.00000000E+00  0.00000000E+00  0.00000000E+00
  0.00000000E+00  0.00000000E+00  0.00000000E+00
  0.00000000E+00  0.00000000E+00  0.00000000E+00
  0.00000000E+00  0.00000000E+00  0.00000000E+00
  0.00000000E+00  0.00000000E+00  0.00000000E+00
  0.00000000E+00  0.00000000E+00  0.00000000E+00
  0.00000000E+00  0.00000000E+00  0.00000000E+00
  0.00000000E+00  0.00000000E+00  0.00000000E+00
  0.00000000E+00  0.00000000E+00  0.00000000E+00
  0.00000000E+00  0.00000000E+00  0.00000000E+00
  0.00000000E+00  0.00000000E+00  0.00000000E+00
  0.00000000E+00  0.00000000E+00  0.00000000E+00
  0.00000000E+00  0.00000000E+00  0.00000000E+00
  0.00000000E+00  0.00000000E+00  0.00000000E+00
  0.00000000E+00  0.00000000E+00  0.00000000E+00
  0.00000000E+00  0.00000000E+00  0.00000000E+00
  0.00000000E+00  0.00000000E+00  0.00000000E+00
  0.00000000E+00  0.00000000E+00  0.00000000E+00
  0.00000000E+00  0.00000000E+00  0.00000000E+00
  0.00000000E+00  0.00000000E+00  0.00000000E+00
  0.00000000E+00  0.00000000E+00  0.00000000E+00
  0.00000000E+00  0.00000000E+00  0.00000000E+00
  0.00000000E+00  0.00000000E+00  0.00000000E+00
