Mg2 Al2 I10                             
   1.00000000000000     
     6.8206961842115721   -1.0806071371826378    3.0033529323219157
     0.4403612930676718    6.8917114481412991    3.0033532085883867
    -0.0261609616840288   -0.0209341298855796   12.0731836398574579
   Mg   Al   I 
     2     2    10
Direct
  0.2889691416094564  0.7110308569020916  0.2499999998361915
  0.7110308583905436  0.2889691430979084  0.7500000001638085
  0.0000000000000000  0.0000000000000000  0.5000000000000000
  0.0000000000000000  0.0000000000000000  0.0000000000000000
  0.7032147109174645  0.7038737409062463  0.6463020267587112
  0.2961262584770310  0.2967842895110380  0.8536979733383561
  0.2967842890825381  0.2961262590937537  0.3536989732412863
  0.7038737415229690  0.7032147104889646  0.1463020266616439
  0.9885212075150491  0.0114787927203679  0.7499999997094093
  0.0114787924849509  0.9885212072796321  0.2500000002905907
  0.7479474199938707  0.2723974498550419  0.9877639052327325
  0.7276025509829012  0.2520525799397717  0.5122360949530673
  0.2520525800061293  0.7276025501449652  0.0122360947672675
  0.2723974490170988  0.7479474200602283  0.4877639050469327
 
  0.00000000E+00  0.00000000E+00  0.00000000E+00
  0.00000000E+00  0.00000000E+00  0.00000000E+00
  0.00000000E+00  0.00000000E+00  0.00000000E+00
  0.00000000E+00  0.00000000E+00  0.00000000E+00
  0.00000000E+00  0.00000000E+00  0.00000000E+00
  0.00000000E+00  0.00000000E+00  0.00000000E+00
  0.00000000E+00  0.00000000E+00  0.00000000E+00
  0.00000000E+00  0.00000000E+00  0.00000000E+00
  0.00000000E+00  0.00000000E+00  0.00000000E+00
  0.00000000E+00  0.00000000E+00  0.00000000E+00
  0.00000000E+00  0.00000000E+00  0.00000000E+00
  0.00000000E+00  0.00000000E+00  0.00000000E+00
  0.00000000E+00  0.00000000E+00  0.00000000E+00
  0.00000000E+00  0.00000000E+00  0.00000000E+00
