Ca15 Tl1                                
   1.0000000000000000     
     3.8624542400120396   -6.6899666178199366   -0.0000000000000000
     3.8624542400120396    6.6899666178199366    0.0000000000000000
    -0.0000000000000000    0.0000000000000000   12.5410861912423695
   Ca   Tl
    15     1
Direct
  0.0000000000000000  0.0000000000000000  0.0000000000000000
  0.9966497386011994  0.4983248693001485  0.5000000000000000
  0.0015749616618663  0.5007874808311428  0.0000000000000000
  0.5016751306989562  0.4983248693010438  0.5000000000000000
  0.4992125191692764  0.5007874808307236  0.0000000000000000
  0.5016751306998515  0.0033502613988006  0.5000000000000000
  0.4992125191688572  0.9984250383381337  0.0000000000000000
  0.1634583827121219  0.3269177654229054  0.2596942515870495
  0.1634583827121219  0.3269177654229054  0.7403057484129505
  0.1634583827107861  0.8365416172892139  0.2596942515870495
  0.1634583827107861  0.8365416172892139  0.7403057484129505
  0.6730822345770946  0.8365416172878781  0.2596942515870495
  0.6730822345770946  0.8365416172878781  0.7403057484129505
  0.6666669999999968  0.3333330000000032  0.2448913051255772
  0.6666669999999968  0.3333330000000032  0.7551086948744228
  0.0000000000000000  0.0000000000000000  0.5000000000000000

  0.00000000E+00  0.00000000E+00  0.00000000E+00
  0.00000000E+00  0.00000000E+00  0.00000000E+00
  0.00000000E+00  0.00000000E+00  0.00000000E+00
  0.00000000E+00  0.00000000E+00  0.00000000E+00
  0.00000000E+00  0.00000000E+00  0.00000000E+00
  0.00000000E+00  0.00000000E+00  0.00000000E+00
  0.00000000E+00  0.00000000E+00  0.00000000E+00
  0.00000000E+00  0.00000000E+00  0.00000000E+00
  0.00000000E+00  0.00000000E+00  0.00000000E+00
  0.00000000E+00  0.00000000E+00  0.00000000E+00
  0.00000000E+00  0.00000000E+00  0.00000000E+00
  0.00000000E+00  0.00000000E+00  0.00000000E+00
  0.00000000E+00  0.00000000E+00  0.00000000E+00
  0.00000000E+00  0.00000000E+00  0.00000000E+00
  0.00000000E+00  0.00000000E+00  0.00000000E+00
  0.00000000E+00  0.00000000E+00  0.00000000E+00
