Ba15 Al1                                
   1.00000000000000     
     4.3796438017069068   -7.5857664375100731    0.0000000000000000
     4.3796438017069068    7.5857664375100731    0.0000000000000000
     0.0000000000000000    0.0000000000000000   14.2259355214218548
   Ba   Al
    15     1
Direct
  0.3333330000000032  0.6666669999999968  0.5000000000000000
  0.8311418051348483  0.6622836102835947  0.0000000000000000
  0.8352285545570268  0.6704561090910488  0.5000000000000000
  0.8311418051487465  0.1688581948512535  0.0000000000000000
  0.8352285545340266  0.1647714454659734  0.5000000000000000
  0.3377163897164053  0.1688581948651517  0.0000000000000000
  0.3295438909089512  0.1647714454429732  0.5000000000000000
  0.6565170135404088  0.8282590067591613  0.2320343120910309
  0.6565170135404088  0.8282590067591613  0.7679656879089691
  0.1717409932187621  0.8282590067812379  0.2320343120910309
  0.1717409932187621  0.8282590067812379  0.7679656879089691
  0.1717409932408387  0.3434829864595912  0.2320343120910309
  0.1717409932408387  0.3434829864595912  0.7679656879089691
  0.6666669999999968  0.3333330000000032  0.2541348497703027
  0.6666669999999968  0.3333330000000032  0.7458651502296973
  0.3333330000000032  0.6666669999999968  0.0000000000000000
 
  0.00000000E+00  0.00000000E+00  0.00000000E+00
  0.00000000E+00  0.00000000E+00  0.00000000E+00
  0.00000000E+00  0.00000000E+00  0.00000000E+00
  0.00000000E+00  0.00000000E+00  0.00000000E+00
  0.00000000E+00  0.00000000E+00  0.00000000E+00
  0.00000000E+00  0.00000000E+00  0.00000000E+00
  0.00000000E+00  0.00000000E+00  0.00000000E+00
  0.00000000E+00  0.00000000E+00  0.00000000E+00
  0.00000000E+00  0.00000000E+00  0.00000000E+00
  0.00000000E+00  0.00000000E+00  0.00000000E+00
  0.00000000E+00  0.00000000E+00  0.00000000E+00
  0.00000000E+00  0.00000000E+00  0.00000000E+00
  0.00000000E+00  0.00000000E+00  0.00000000E+00
  0.00000000E+00  0.00000000E+00  0.00000000E+00
  0.00000000E+00  0.00000000E+00  0.00000000E+00
  0.00000000E+00  0.00000000E+00  0.00000000E+00
