Sr4 In2 I10                             
   1.0000000000000000     
    -4.6034201774706238    4.6034201774706238    7.6856492821161702
     4.6034201774706238   -4.6034201774706238    7.6856492821161702
     4.6034201774706238    4.6034201774706238   -7.6856492821161702
   Sr   In   I 
     4     2    10
Direct
  0.8441417035194050  0.3441417035194050  0.1882834070388171
  0.3441417035194050  0.1558582964805950  0.5000000000000000
  0.1558582964805950  0.6558582964805950  0.8117165929611829
  0.6558582964805950  0.8441417035194050  0.5000000000000000
  0.2500000000000000  0.2500000000000000  0.0000000000000000
  0.7500000000000000  0.7500000000000000  0.0000000000000000
  0.5000000000000000  0.5000000000000000  0.0000000000000000
  0.0000000000000000  0.0000000000000000  0.0000000000000000
  0.5127300164378070  0.0127300164378070  0.8008512030622370
  0.0127300164378070  0.2118788133755629  0.5000000000000000
  0.7118788133755629  0.5127300164378070  0.5000000000000000
  0.9872699835621930  0.7881211866244371  0.5000000000000000
  0.2881211866244371  0.4872699835621930  0.5000000000000000
  0.7881211866244371  0.2881211866244371  0.8008512030622370
  0.4872699835621930  0.9872699835621930  0.1991487969377630
  0.2118788133755629  0.7118788133755629  0.1991487969377630

  0.00000000E+00  0.00000000E+00  0.00000000E+00
  0.00000000E+00  0.00000000E+00  0.00000000E+00
  0.00000000E+00  0.00000000E+00  0.00000000E+00
  0.00000000E+00  0.00000000E+00  0.00000000E+00
  0.00000000E+00  0.00000000E+00  0.00000000E+00
  0.00000000E+00  0.00000000E+00  0.00000000E+00
  0.00000000E+00  0.00000000E+00  0.00000000E+00
  0.00000000E+00  0.00000000E+00  0.00000000E+00
  0.00000000E+00  0.00000000E+00  0.00000000E+00
  0.00000000E+00  0.00000000E+00  0.00000000E+00
  0.00000000E+00  0.00000000E+00  0.00000000E+00
  0.00000000E+00  0.00000000E+00  0.00000000E+00
  0.00000000E+00  0.00000000E+00  0.00000000E+00
  0.00000000E+00  0.00000000E+00  0.00000000E+00
  0.00000000E+00  0.00000000E+00  0.00000000E+00
  0.00000000E+00  0.00000000E+00  0.00000000E+00
