Be1 Al1 Cl5                             
   1.00000000000000     
    -2.0657756037447337    5.3419010104392814    5.7112401091464156
     2.0657756037447337   -5.3419010104392814    5.7112401091464156
     2.0657756037447337    5.3419010104392814   -5.7112401091464156
   Be   Al   Cl
     1     1     5
Direct
  0.5000000000000000  0.5000000000000000  0.0000000000000000
  0.0000000000000000  0.5000000000000000  0.5000000000000000
  0.3630120942814017  0.0000000000000000  0.3630120942814017
  0.6369879057185983  0.0000000000000000  0.6369879057185983
  0.1898266824277357  0.6898266824277357  0.5000000000000000
  0.8101733175722643  0.3101733175722643  0.5000000000000000
  0.0000000000000000  0.0000000000000000  0.0000000000000000
 
  0.00000000E+00  0.00000000E+00  0.00000000E+00
  0.00000000E+00  0.00000000E+00  0.00000000E+00
  0.00000000E+00  0.00000000E+00  0.00000000E+00
  0.00000000E+00  0.00000000E+00  0.00000000E+00
  0.00000000E+00  0.00000000E+00  0.00000000E+00
  0.00000000E+00  0.00000000E+00  0.00000000E+00
  0.00000000E+00  0.00000000E+00  0.00000000E+00
