Mg4 Tl4 I2                              
   1.0000000000000000     
     4.0578968936178859    0.9598809594200020    0.0000000000000000
    -1.1980558662496417    3.9940743031669776    0.0000000000000000
     0.0000000000000000    0.0000000000000000   18.3242334874602903
   Tl   Mg   I 
     4     4     2
Direct
  0.7122754829569118  0.2877257789711791  0.9442724590668519
  0.2877245170430953  0.7122742210288209  0.0557275409331481
  0.7122754829569118  0.2877257789711791  0.5557275409331481
  0.2877245170430953  0.7122742210288209  0.4442724590668519
  0.8113283953752131  0.1886698183968392  0.1120301172403657
  0.8113283953752131  0.1886698183968392  0.3879698827596343
  0.1886716046247869  0.8113301816031608  0.6120301172403657
  0.1886716046247869  0.8113301816031608  0.8879698827596343
  0.6031440988683556  0.3968236946015011  0.2500000000000000
  0.3968559011316444  0.6031763053984989  0.7500000000000000

  0.00000000E+00  0.00000000E+00  0.00000000E+00
  0.00000000E+00  0.00000000E+00  0.00000000E+00
  0.00000000E+00  0.00000000E+00  0.00000000E+00
  0.00000000E+00  0.00000000E+00  0.00000000E+00
  0.00000000E+00  0.00000000E+00  0.00000000E+00
  0.00000000E+00  0.00000000E+00  0.00000000E+00
  0.00000000E+00  0.00000000E+00  0.00000000E+00
  0.00000000E+00  0.00000000E+00  0.00000000E+00
  0.00000000E+00  0.00000000E+00  0.00000000E+00
  0.00000000E+00  0.00000000E+00  0.00000000E+00
