Ba8 Ga4 F28                             
   1.00000000000000     
    -5.5868662949155281    0.0000000000000000    0.0819285480767219
     0.0341303626462531    0.0000000000000000   -8.9826439875992392
     0.0000000000000000  -12.2170477106198092    0.0000000000000000
   Ba   Ga   F 
     8     4    28
Direct
  0.2604212547024574  0.9406177709942867  0.7050612802908560
  0.7395787452975426  0.0593822290057133  0.2949387197091440
  0.7395787452975426  0.5593822290057133  0.2050612802908560
  0.2604212547024574  0.4406177709942867  0.7949387197091440
  0.7435030340615256  0.6546565878088799  0.5602322542774374
  0.2564969659384744  0.3453434121911201  0.4397677457225626
  0.2564969659384744  0.8453434121911201  0.0602322542774374
  0.7435030340615256  0.1546565878088799  0.9397677457225626
  0.8003466635062679  0.6769859197555803  0.8717321407100727
  0.1996533364937321  0.3230140802444197  0.1282678592899273
  0.1996533364937321  0.8230140802444197  0.3717321407100727
  0.8003466635062679  0.1769859197555803  0.6282678592899273
  0.9962501219595268  0.8143837415911364  0.2382068257035712
  0.0037498780404732  0.1856162584088636  0.7617931742964288
  0.0037498780404732  0.6856162584088636  0.7382068257035712
  0.9962501219595268  0.3143837415911364  0.2617931742964288
  0.7473206104565691  0.9688854089472088  0.6602883333272800
  0.2526793895434309  0.0311145910527912  0.3397116666727200
  0.2526793895434309  0.5311145910527912  0.1602883333272800
  0.7473206104565691  0.4688854089472088  0.8397116666727200
  0.5288697877976531  0.7138015428079854  0.7818319191147935
  0.4711302122023469  0.2861984571920146  0.2181680808852065
  0.4711302122023469  0.7861984571920146  0.2818319191147935
  0.5288697877976531  0.2138015428079854  0.7181680808852065
  0.3539817514677495  0.0174941406606237  0.8985585628123118
  0.6460182485322505  0.9825058593393763  0.1014414371876882
  0.6460182485322505  0.4825058593393763  0.3985585628123047
  0.3539817514677495  0.5174941406606237  0.6014414371876882
  0.9111237273453767  0.8751682226692878  0.4442352074320794
  0.0888762726546233  0.1248317773307122  0.5557647925679206
  0.0888762726546233  0.6248317773307122  0.9442352074320794
  0.9111237273453767  0.3751682226692878  0.0557647925679206
  0.3755665788199565  0.8273177810424173  0.5042224189185589
  0.6244334211800435  0.1726822189575827  0.4957775810814411
  0.6244334211800435  0.6726822189575827  0.0042224189185589
  0.3755665788199565  0.3273177810424173  0.9957775810814411
  0.8935079212577506  0.8802099974346831  0.8926468160360770
  0.1064920787422494  0.1197900025653240  0.1073531839639230
  0.1064920787422494  0.6197900025653169  0.3926468160360770
  0.8935079212577506  0.3802099974346831  0.6073531839639230
 
  0.00000000E+00  0.00000000E+00  0.00000000E+00
  0.00000000E+00  0.00000000E+00  0.00000000E+00
  0.00000000E+00  0.00000000E+00  0.00000000E+00
  0.00000000E+00  0.00000000E+00  0.00000000E+00
  0.00000000E+00  0.00000000E+00  0.00000000E+00
  0.00000000E+00  0.00000000E+00  0.00000000E+00
  0.00000000E+00  0.00000000E+00  0.00000000E+00
  0.00000000E+00  0.00000000E+00  0.00000000E+00
  0.00000000E+00  0.00000000E+00  0.00000000E+00
  0.00000000E+00  0.00000000E+00  0.00000000E+00
  0.00000000E+00  0.00000000E+00  0.00000000E+00
  0.00000000E+00  0.00000000E+00  0.00000000E+00
  0.00000000E+00  0.00000000E+00  0.00000000E+00
  0.00000000E+00  0.00000000E+00  0.00000000E+00
  0.00000000E+00  0.00000000E+00  0.00000000E+00
  0.00000000E+00  0.00000000E+00  0.00000000E+00
  0.00000000E+00  0.00000000E+00  0.00000000E+00
  0.00000000E+00  0.00000000E+00  0.00000000E+00
  0.00000000E+00  0.00000000E+00  0.00000000E+00
  0.00000000E+00  0.00000000E+00  0.00000000E+00
  0.00000000E+00  0.00000000E+00  0.00000000E+00
  0.00000000E+00  0.00000000E+00  0.00000000E+00
  0.00000000E+00  0.00000000E+00  0.00000000E+00
  0.00000000E+00  0.00000000E+00  0.00000000E+00
  0.00000000E+00  0.00000000E+00  0.00000000E+00
  0.00000000E+00  0.00000000E+00  0.00000000E+00
  0.00000000E+00  0.00000000E+00  0.00000000E+00
  0.00000000E+00  0.00000000E+00  0.00000000E+00
  0.00000000E+00  0.00000000E+00  0.00000000E+00
  0.00000000E+00  0.00000000E+00  0.00000000E+00
  0.00000000E+00  0.00000000E+00  0.00000000E+00
  0.00000000E+00  0.00000000E+00  0.00000000E+00
  0.00000000E+00  0.00000000E+00  0.00000000E+00
  0.00000000E+00  0.00000000E+00  0.00000000E+00
  0.00000000E+00  0.00000000E+00  0.00000000E+00
  0.00000000E+00  0.00000000E+00  0.00000000E+00
  0.00000000E+00  0.00000000E+00  0.00000000E+00
  0.00000000E+00  0.00000000E+00  0.00000000E+00
  0.00000000E+00  0.00000000E+00  0.00000000E+00
  0.00000000E+00  0.00000000E+00  0.00000000E+00
