Ca1 B13                                 
   1.00000000000000     
     4.6474638180705092   -3.2221072526887609   -0.2383492684175081
     4.6474638180705092    3.2221072526887609   -0.2383492684175081
    -1.1464720198240375    0.0000000000000000    4.5785532924507262
   Ca   B 
     1    13
Direct
  0.1212261971571138  0.1212261971571138  0.1946025375009270
  0.6769438209334808  0.6769438209334808  0.0925038456165055
  0.5258464951853483  0.2630945982315183  0.2098881152425278
  0.2630945982315183  0.5258464951853483  0.2098881152425278
  0.9701201486655719  0.7141035997215539  0.2737656048510004
  0.7141035997215539  0.9701201486655719  0.2737656048510004
  0.5650970861948466  0.5650970861948466  0.3921330257450037
  0.9708050622955824  0.9708050622955824  0.5494144260736533
  0.4142797833881886  0.4142797833881886  0.5675617715117696
  0.2525199404395977  0.0056366933849787  0.7089667063017515
  0.0056366933849787  0.2525199404395977  0.7089667063017515
  0.7310788563972537  0.4797868069572289  0.7397738118369261
  0.4797868069572289  0.7310788563972537  0.7397738118369261
  0.3093499110477467  0.3093499110477467  0.8389959170877503
 
  0.00000000E+00  0.00000000E+00  0.00000000E+00
  0.00000000E+00  0.00000000E+00  0.00000000E+00
  0.00000000E+00  0.00000000E+00  0.00000000E+00
  0.00000000E+00  0.00000000E+00  0.00000000E+00
  0.00000000E+00  0.00000000E+00  0.00000000E+00
  0.00000000E+00  0.00000000E+00  0.00000000E+00
  0.00000000E+00  0.00000000E+00  0.00000000E+00
  0.00000000E+00  0.00000000E+00  0.00000000E+00
  0.00000000E+00  0.00000000E+00  0.00000000E+00
  0.00000000E+00  0.00000000E+00  0.00000000E+00
  0.00000000E+00  0.00000000E+00  0.00000000E+00
  0.00000000E+00  0.00000000E+00  0.00000000E+00
  0.00000000E+00  0.00000000E+00  0.00000000E+00
  0.00000000E+00  0.00000000E+00  0.00000000E+00
