Ca2 In2 F10                             
   1.0000000000000000     
     3.7976048083926104    0.0000000000000000    0.0000000000000002
    -0.0000000000000005    7.8094175635155834    0.0000000000000005
     0.0000000000000001    0.0000000000000000    8.2548776382179412
   Ca   In   F 
     2     2    10
Direct
  0.0000000000000000  0.0000000000000000  0.5000000000000000
  0.5000000000000000  0.5000000000000000  0.0000000000000000
  0.5000000000000000  0.0000000000000000  0.0000000000000000
  0.0000000000000000  0.5000000000000000  0.5000000000000000
  0.5000000000000000  0.8183103100369209  0.5000000000000000
  0.5000000000000000  0.1816896899630791  0.5000000000000000
  0.5000000000000000  0.0000000000000000  0.2410737699066416
  0.5000000000000000  0.0000000000000000  0.7589262300933584
  0.0000000000000000  0.0000000000000000  0.0000000000000000
  0.0000000000000000  0.3183103100369209  0.0000000000000000
  0.0000000000000000  0.6816896899630791  0.0000000000000000
  0.0000000000000000  0.5000000000000000  0.7410737699066416
  0.0000000000000000  0.5000000000000000  0.2589262300933584
  0.5000000000000000  0.5000000000000000  0.5000000000000000

  0.00000000E+00  0.00000000E+00  0.00000000E+00
  0.00000000E+00  0.00000000E+00  0.00000000E+00
  0.00000000E+00  0.00000000E+00  0.00000000E+00
  0.00000000E+00  0.00000000E+00  0.00000000E+00
  0.00000000E+00  0.00000000E+00  0.00000000E+00
  0.00000000E+00  0.00000000E+00  0.00000000E+00
  0.00000000E+00  0.00000000E+00  0.00000000E+00
  0.00000000E+00  0.00000000E+00  0.00000000E+00
  0.00000000E+00  0.00000000E+00  0.00000000E+00
  0.00000000E+00  0.00000000E+00  0.00000000E+00
  0.00000000E+00  0.00000000E+00  0.00000000E+00
  0.00000000E+00  0.00000000E+00  0.00000000E+00
  0.00000000E+00  0.00000000E+00  0.00000000E+00
  0.00000000E+00  0.00000000E+00  0.00000000E+00
