Be6 Ga33                                
   1.00000000000000     
     8.9858754563817218    0.0000000000000000   -0.0000000000000001
     0.0000000000000000    8.9858754563817218   -0.0000000000000001
     0.0000000000000000    0.0000000000000001    8.9858754563817236
   Be   Ga
     6    33
Direct
  0.2408478430420331  0.5000000000000000  0.0000000000000000
  0.7591521569579669  0.5000000000000000  0.0000000000000000
  0.5000000000000000  0.0000000000000000  0.2408478430420331
  0.0000000000000000  0.2408478430420331  0.5000000000000000
  0.0000000000000000  0.7591521569579669  0.5000000000000000
  0.5000000000000000  0.0000000000000000  0.7591521569579669
  0.0000000000000000  0.0000000000000000  0.0000000000000000
  0.3144607292153907  0.1401486216415933  0.0000000000000000
  0.6855392707846093  0.1401486216415933  0.0000000000000000
  0.5000000000000000  0.3568834634069518  0.0000000000000000
  0.5000000000000000  0.6431165365930482  0.0000000000000000
  0.3144607292153907  0.8598513783584067  0.0000000000000000
  0.6855392707846093  0.8598513783584067  0.0000000000000000
  0.0000000000000000  0.3144607292153907  0.1401486216415933
  0.0000000000000000  0.6855392707846093  0.1401486216415933
  0.5000000000000000  0.5000000000000000  0.2697769826830765
  0.1401486216415933  0.0000000000000000  0.3144607292153907
  0.8598513783584067  0.0000000000000000  0.3144607292153907
  0.2736770942413500  0.2736770942413500  0.2736770942413500
  0.7263229057586500  0.2736770942413500  0.2736770942413500
  0.2736770942413500  0.7263229057586500  0.2736770942413500
  0.7263229057586500  0.7263229057586500  0.2736770942413500
  0.0000000000000000  0.5000000000000000  0.3568834634069518
  0.3568834634069518  0.0000000000000000  0.5000000000000000
  0.6431165365930482  0.0000000000000000  0.5000000000000000
  0.5000000000000000  0.2697769826830765  0.5000000000000000
  0.2697769826830765  0.5000000000000000  0.5000000000000000
  0.7302230173169235  0.5000000000000000  0.5000000000000000
  0.5000000000000000  0.7302230173169235  0.5000000000000000
  0.0000000000000000  0.5000000000000000  0.6431165365930482
  0.2736770942413500  0.2736770942413500  0.7263229057586500
  0.7263229057586500  0.2736770942413500  0.7263229057586500
  0.2736770942413500  0.7263229057586500  0.7263229057586500
  0.7263229057586500  0.7263229057586500  0.7263229057586500
  0.1401486216415933  0.0000000000000000  0.6855392707846093
  0.8598513783584067  0.0000000000000000  0.6855392707846093
  0.5000000000000000  0.5000000000000000  0.7302230173169235
  0.0000000000000000  0.3144607292153907  0.8598513783584067
  0.0000000000000000  0.6855392707846093  0.8598513783584067
 
  0.00000000E+00  0.00000000E+00  0.00000000E+00
  0.00000000E+00  0.00000000E+00  0.00000000E+00
  0.00000000E+00  0.00000000E+00  0.00000000E+00
  0.00000000E+00  0.00000000E+00  0.00000000E+00
  0.00000000E+00  0.00000000E+00  0.00000000E+00
  0.00000000E+00  0.00000000E+00  0.00000000E+00
  0.00000000E+00  0.00000000E+00  0.00000000E+00
  0.00000000E+00  0.00000000E+00  0.00000000E+00
  0.00000000E+00  0.00000000E+00  0.00000000E+00
  0.00000000E+00  0.00000000E+00  0.00000000E+00
  0.00000000E+00  0.00000000E+00  0.00000000E+00
  0.00000000E+00  0.00000000E+00  0.00000000E+00
  0.00000000E+00  0.00000000E+00  0.00000000E+00
  0.00000000E+00  0.00000000E+00  0.00000000E+00
  0.00000000E+00  0.00000000E+00  0.00000000E+00
  0.00000000E+00  0.00000000E+00  0.00000000E+00
  0.00000000E+00  0.00000000E+00  0.00000000E+00
  0.00000000E+00  0.00000000E+00  0.00000000E+00
  0.00000000E+00  0.00000000E+00  0.00000000E+00
  0.00000000E+00  0.00000000E+00  0.00000000E+00
  0.00000000E+00  0.00000000E+00  0.00000000E+00
  0.00000000E+00  0.00000000E+00  0.00000000E+00
  0.00000000E+00  0.00000000E+00  0.00000000E+00
  0.00000000E+00  0.00000000E+00  0.00000000E+00
  0.00000000E+00  0.00000000E+00  0.00000000E+00
  0.00000000E+00  0.00000000E+00  0.00000000E+00
  0.00000000E+00  0.00000000E+00  0.00000000E+00
  0.00000000E+00  0.00000000E+00  0.00000000E+00
  0.00000000E+00  0.00000000E+00  0.00000000E+00
  0.00000000E+00  0.00000000E+00  0.00000000E+00
  0.00000000E+00  0.00000000E+00  0.00000000E+00
  0.00000000E+00  0.00000000E+00  0.00000000E+00
  0.00000000E+00  0.00000000E+00  0.00000000E+00
  0.00000000E+00  0.00000000E+00  0.00000000E+00
  0.00000000E+00  0.00000000E+00  0.00000000E+00
  0.00000000E+00  0.00000000E+00  0.00000000E+00
  0.00000000E+00  0.00000000E+00  0.00000000E+00
  0.00000000E+00  0.00000000E+00  0.00000000E+00
  0.00000000E+00  0.00000000E+00  0.00000000E+00
