Mg1 B2 Cl8                              
   1.00000000000000     
     5.4353196948374460   -3.2444938563326446    0.2477866903808894
     5.4353196948374460    3.2444938563326446    0.2477866903808894
     0.3077389357496709    0.0000000000000000    8.8725569145015726
   B    Mg   Cl
     2     1     8
Direct
  0.2975942104285423  0.2975942104285423  0.2388452852001137
  0.7024057895714577  0.7024057895714577  0.7611547147998863
  0.0000000000000000  0.0000000000000000  0.0000000000000000
  0.5920055599955987  0.1121787787727513  0.1309572843695364
  0.1121787787727513  0.5920055599955987  0.1309572843695364
  0.1216235776691548  0.1216235776691548  0.2372581929662729
  0.6589979720499812  0.6589979720499812  0.5727474315117149
  0.3410020279500188  0.3410020279500188  0.4272525684882851
  0.8783764223308452  0.8783764223308452  0.7627418070337271
  0.8878212212272487  0.4079944400044013  0.8690427156304636
  0.4079944400044013  0.8878212212272487  0.8690427156304636
 
  0.00000000E+00  0.00000000E+00  0.00000000E+00
  0.00000000E+00  0.00000000E+00  0.00000000E+00
  0.00000000E+00  0.00000000E+00  0.00000000E+00
  0.00000000E+00  0.00000000E+00  0.00000000E+00
  0.00000000E+00  0.00000000E+00  0.00000000E+00
  0.00000000E+00  0.00000000E+00  0.00000000E+00
  0.00000000E+00  0.00000000E+00  0.00000000E+00
  0.00000000E+00  0.00000000E+00  0.00000000E+00
  0.00000000E+00  0.00000000E+00  0.00000000E+00
  0.00000000E+00  0.00000000E+00  0.00000000E+00
  0.00000000E+00  0.00000000E+00  0.00000000E+00
