Mg3B                                    
   1.00000000000000     
     6.7546442144368966   -3.9476228499834907    0.0000000000000000
    -0.7706834210052834    6.5457207440978724    0.0000000000000000
     0.0000000000000000    0.0000000000000000    3.4162402510843743
   B    Mg
     2     6
Direct
  0.1473360521586855  0.7916895135861282  0.0000000000000000
  0.6858432195295379  0.8752241683631397  0.5000000000000000
  0.5918741010491928  0.0620902004387105  0.0000000000000000
  0.9706623506738481  0.0632267615575799  0.0000000000000000
  0.5302065944165690  0.5624363862525996  0.0000000000000000
  0.3030774581841129  0.1045062478849985  0.5000000000000000
  0.8626123911542223  0.6039534329438254  0.5000000000000000
  0.2413878328338157  0.6048732889730104  0.5000000000000000
 
  0.00000000E+00  0.00000000E+00  0.00000000E+00
  0.00000000E+00  0.00000000E+00  0.00000000E+00
  0.00000000E+00  0.00000000E+00  0.00000000E+00
  0.00000000E+00  0.00000000E+00  0.00000000E+00
  0.00000000E+00  0.00000000E+00  0.00000000E+00
  0.00000000E+00  0.00000000E+00  0.00000000E+00
  0.00000000E+00  0.00000000E+00  0.00000000E+00
  0.00000000E+00  0.00000000E+00  0.00000000E+00
