Mg16 In12 I1                            
   1.00000000000000     
     7.9657838192582764   -4.6061832439313468    3.2626102546325133
    -0.0044951927076544    9.1732924769886637    3.2192362043929834
    -7.9438805036313598   -4.5879171032061148    3.2349508534297078
   In   I    Mg
    12     1    16
Direct
  0.7960162531269646  0.5877550832114053  0.0002804429998022
  0.6368739498460911  0.7992347004778253  0.0000469317320366
  0.3720932020626933  0.3930485588562433  0.1932443328742224
  0.1785077439325633  0.8066019299046445  0.2000894490518306
  0.8376185911911307  0.2005951005971198  0.2005436476255937
  0.3721887570182787  0.1935230424636458  0.3934747893358193
  0.2081353155250198  0.4121439438817376  0.4122128525890929
  0.7958015391557467  0.0000396578091042  0.5874159698297134
  0.9784907121795072  0.8001350755804779  0.6071117720082313
  0.6365608346404414  0.9999111265641218  0.7989090021162397
  0.9790851829691860  0.6073129215413218  0.8004239907824697
  0.1782355340883370  0.1998342905711183  0.8066645459676565
  0.3694262160109787  0.9999064209529109  0.9994847277701240
  0.9964346672774340  0.3385478403741899  0.9998420038144147
  0.5888847466169409  0.2938786881867941  0.0001711623306093
  0.3064685010607207  0.5984894342539917  0.0000507231528388
  0.0334584036388463  0.0000146857525607  0.0000876788510169
  0.6773549633240634  0.6754532514897988  0.2680112374899295
  0.5885880097586877  0.0000839009720295  0.2938586931485290
  0.0016933813878595  0.5924077694654173  0.3244254851317834
  0.9965914460424870  0.9999660980704235  0.3385463137660167
  0.7080609328751279  0.4015563859219000  0.4015391642117621
  0.4092167864827658  0.7321505156077137  0.4074986272860528
  0.0017986296408878  0.3243686375988730  0.5924588856124942
  0.3063253032229483  0.0000304837720364  0.5984466336563017
  0.6578776752725801  0.6613266824300794  0.6613277011522740
  0.6772024024121137  0.2678857159361030  0.6754083164011391
  0.2949935677242195  0.7061470100469833  0.7062635857862745
  0.4092167515153875  0.4076520477094405  0.7321623335257001
 
  0.00000000E+00  0.00000000E+00  0.00000000E+00
  0.00000000E+00  0.00000000E+00  0.00000000E+00
  0.00000000E+00  0.00000000E+00  0.00000000E+00
  0.00000000E+00  0.00000000E+00  0.00000000E+00
  0.00000000E+00  0.00000000E+00  0.00000000E+00
  0.00000000E+00  0.00000000E+00  0.00000000E+00
  0.00000000E+00  0.00000000E+00  0.00000000E+00
  0.00000000E+00  0.00000000E+00  0.00000000E+00
  0.00000000E+00  0.00000000E+00  0.00000000E+00
  0.00000000E+00  0.00000000E+00  0.00000000E+00
  0.00000000E+00  0.00000000E+00  0.00000000E+00
  0.00000000E+00  0.00000000E+00  0.00000000E+00
  0.00000000E+00  0.00000000E+00  0.00000000E+00
  0.00000000E+00  0.00000000E+00  0.00000000E+00
  0.00000000E+00  0.00000000E+00  0.00000000E+00
  0.00000000E+00  0.00000000E+00  0.00000000E+00
  0.00000000E+00  0.00000000E+00  0.00000000E+00
  0.00000000E+00  0.00000000E+00  0.00000000E+00
  0.00000000E+00  0.00000000E+00  0.00000000E+00
  0.00000000E+00  0.00000000E+00  0.00000000E+00
  0.00000000E+00  0.00000000E+00  0.00000000E+00
  0.00000000E+00  0.00000000E+00  0.00000000E+00
  0.00000000E+00  0.00000000E+00  0.00000000E+00
  0.00000000E+00  0.00000000E+00  0.00000000E+00
  0.00000000E+00  0.00000000E+00  0.00000000E+00
  0.00000000E+00  0.00000000E+00  0.00000000E+00
  0.00000000E+00  0.00000000E+00  0.00000000E+00
  0.00000000E+00  0.00000000E+00  0.00000000E+00
  0.00000000E+00  0.00000000E+00  0.00000000E+00
