Sr5 In9                                 
   1.0000000000000000     
     6.2510107926366816   -0.0026953822202029    0.0129388274529084
    -3.1278389903973731    5.4121837368941481   -0.0128601753553521
    -3.1000956810628404    1.7896632817456788   12.8654245436169585
   In   Sr
     9     5
Direct
  0.0000082990542865  0.9999917035243300  0.9999618252672420
  0.2380829876691521  0.2757366698031092  0.2019430866983143
  0.2378470547144929  0.7621526602573425  0.2007375005785406
  0.7242633389796680  0.7619170125562178  0.2019431258901534
  0.1318063259553313  0.8681936125041858  0.3944045194075585
  0.8681854384868970  0.1318146368448012  0.6055331382571083
  0.2757351185193286  0.2380836909151185  0.7979827528930130
  0.7621583775927192  0.2378419164279819  0.7991995331523398
  0.7619163174302841  0.7242648710383577  0.7979827907901154
  0.6831514282912821  0.3168483449400412  0.0494880783407510
  0.7816174944519716  0.2183809099148277  0.3483100648612307
  0.4999948728589061  0.5000050282454893  0.4999581893227329
  0.2183777905076525  0.7816238414402719  0.6516213681715257
  0.3168551554880636  0.6831451015878898  0.9504340263693578

  0.00000000E+00  0.00000000E+00  0.00000000E+00
  0.00000000E+00  0.00000000E+00  0.00000000E+00
  0.00000000E+00  0.00000000E+00  0.00000000E+00
  0.00000000E+00  0.00000000E+00  0.00000000E+00
  0.00000000E+00  0.00000000E+00  0.00000000E+00
  0.00000000E+00  0.00000000E+00  0.00000000E+00
  0.00000000E+00  0.00000000E+00  0.00000000E+00
  0.00000000E+00  0.00000000E+00  0.00000000E+00
  0.00000000E+00  0.00000000E+00  0.00000000E+00
  0.00000000E+00  0.00000000E+00  0.00000000E+00
  0.00000000E+00  0.00000000E+00  0.00000000E+00
  0.00000000E+00  0.00000000E+00  0.00000000E+00
  0.00000000E+00  0.00000000E+00  0.00000000E+00
  0.00000000E+00  0.00000000E+00  0.00000000E+00
