Mg1 Al3 Br6                             
   1.00000000000000     
     7.5127738771879118   -0.0003744970056393   -0.0006137603055402
    -0.0003744970056393    7.5127738771879118   -0.0006137603055402
     3.7557684073904727    3.7557684073904727    5.3230657264278154
   Br   Mg   Al
     6     1     3
Direct
  0.7482609140020813  0.2517390859979187  0.0000000000000000
  0.2521070280429569  0.2521070280429569  0.9993345143590773
  0.2517390859979187  0.7482609140020813  0.0000000000000000
  0.7478929719570431  0.7478929719570431  0.0006654856409227
  0.7486727155643180  0.7486727155643180  0.5029734873853258
  0.2513272844356820  0.2513272844356820  0.4970265126146742
  0.0000000000000000  0.0000000000000000  0.0000000000000000
  0.5000000000000000  0.5000000000000000  0.0000000000000000
  0.2487747369353599  0.7512252630646401  0.5000000000000000
  0.7512252630646401  0.2487747369353599  0.5000000000000000
 
  0.00000000E+00  0.00000000E+00  0.00000000E+00
  0.00000000E+00  0.00000000E+00  0.00000000E+00
  0.00000000E+00  0.00000000E+00  0.00000000E+00
  0.00000000E+00  0.00000000E+00  0.00000000E+00
  0.00000000E+00  0.00000000E+00  0.00000000E+00
  0.00000000E+00  0.00000000E+00  0.00000000E+00
  0.00000000E+00  0.00000000E+00  0.00000000E+00
  0.00000000E+00  0.00000000E+00  0.00000000E+00
  0.00000000E+00  0.00000000E+00  0.00000000E+00
  0.00000000E+00  0.00000000E+00  0.00000000E+00
