Mg2 Tl7                                 
   1.0000000000000000     
     6.1643558005228050    0.3318178816483777   -1.5292506014527805
    -2.7942905341131783    5.5046653760504407    1.5292517033984860
    -1.6198522145131569    0.9353243518688279    8.2773628119916669
   Tl   Mg
     7     2
Direct
  0.0000000000000000  0.0000000000000000  0.0000000000000000
  0.3192035118649059  0.1714690304783915  0.3652658359254559
  0.7146989128365249  0.2853008657837179  0.1200433489308494
  0.8285309277733788  0.6807966322266381  0.3652659526060731
  0.1714690722266212  0.3192033677733619  0.6347340473939269
  0.2853010871634751  0.7146991342162821  0.8799566510691506
  0.6807964881350941  0.8285309695216085  0.6347341640745441
  0.3052245387241541  0.6947771326508843  0.2730581348277781
  0.6947754612758459  0.3052228673491157  0.7269418651722219

  0.00000000E+00  0.00000000E+00  0.00000000E+00
  0.00000000E+00  0.00000000E+00  0.00000000E+00
  0.00000000E+00  0.00000000E+00  0.00000000E+00
  0.00000000E+00  0.00000000E+00  0.00000000E+00
  0.00000000E+00  0.00000000E+00  0.00000000E+00
  0.00000000E+00  0.00000000E+00  0.00000000E+00
  0.00000000E+00  0.00000000E+00  0.00000000E+00
  0.00000000E+00  0.00000000E+00  0.00000000E+00
  0.00000000E+00  0.00000000E+00  0.00000000E+00
