Mg4 Al4 Cl20                            
   1.0000000000000000     
    11.7193523855612458    0.0000000000000000    0.0000000000000000
     0.0000000000000000    9.1043158845653362    2.3166155489047422
     0.0000000000000000    7.4552574832456937   10.4853361782521777
   Mg   Al   Cl
     4     4    20
Direct
  0.0873830553662103  0.5148908910142183  0.3870219222220754
  0.5873830553662103  0.4851091089857817  0.1129780777779175
  0.9126169446337897  0.4851091089857817  0.6129780777779175
  0.4126169446337897  0.5148908910142183  0.8870219222220825
  0.7217741747925785  0.8444448258939019  0.5115842541695486
  0.2217741747925714  0.1555551741060910  0.9884157458304514
  0.2782258252074286  0.1555551741060910  0.4884157458304514
  0.7782258252074215  0.8444448258939019  0.0115842541695486
  0.7414103729437542  0.1950778295327780  0.3400866940506049
  0.2414103729437613  0.8049221704672220  0.1599133059493951
  0.2585896270562387  0.8049221704672220  0.6599133059493951
  0.7585896270562458  0.1950778295327780  0.8400866940506049
  0.7454797548608809  0.7341167562962880  0.4138242669859338
  0.2454797548608809  0.2658832437037120  0.0861757330140662
  0.2545202451391191  0.2658832437037120  0.5861757330140662
  0.7545202451391191  0.7341167562962880  0.9138242669859338
  0.3663451639094646  0.3162184737864351  0.8247837811192369
  0.8663451639094646  0.6837815262135649  0.6752162188807631
  0.6336548360905354  0.6837815262135649  0.1752162188807631
  0.1336548360905354  0.3162184737864351  0.3247837811192369
  0.5586079235038142  0.7334319213574076  0.6278002150750694
  0.0586079235038142  0.2665680786425924  0.8721997849249306
  0.4413920764961858  0.2665680786425924  0.3721997849249306
  0.9413920764961858  0.7334319213574076  0.1278002150750694
  0.4386825765338358  0.7316439138251596  0.9202482637236784
  0.9386825765338358  0.2683560861748404  0.5797517362763216
  0.5613174234661642  0.2683560861748404  0.0797517362763287
  0.0613174234661642  0.7316439138251596  0.4202482637236713

  0.00000000E+00  0.00000000E+00  0.00000000E+00
  0.00000000E+00  0.00000000E+00  0.00000000E+00
  0.00000000E+00  0.00000000E+00  0.00000000E+00
  0.00000000E+00  0.00000000E+00  0.00000000E+00
  0.00000000E+00  0.00000000E+00  0.00000000E+00
  0.00000000E+00  0.00000000E+00  0.00000000E+00
  0.00000000E+00  0.00000000E+00  0.00000000E+00
  0.00000000E+00  0.00000000E+00  0.00000000E+00
  0.00000000E+00  0.00000000E+00  0.00000000E+00
  0.00000000E+00  0.00000000E+00  0.00000000E+00
  0.00000000E+00  0.00000000E+00  0.00000000E+00
  0.00000000E+00  0.00000000E+00  0.00000000E+00
  0.00000000E+00  0.00000000E+00  0.00000000E+00
  0.00000000E+00  0.00000000E+00  0.00000000E+00
  0.00000000E+00  0.00000000E+00  0.00000000E+00
  0.00000000E+00  0.00000000E+00  0.00000000E+00
  0.00000000E+00  0.00000000E+00  0.00000000E+00
  0.00000000E+00  0.00000000E+00  0.00000000E+00
  0.00000000E+00  0.00000000E+00  0.00000000E+00
  0.00000000E+00  0.00000000E+00  0.00000000E+00
  0.00000000E+00  0.00000000E+00  0.00000000E+00
  0.00000000E+00  0.00000000E+00  0.00000000E+00
  0.00000000E+00  0.00000000E+00  0.00000000E+00
  0.00000000E+00  0.00000000E+00  0.00000000E+00
  0.00000000E+00  0.00000000E+00  0.00000000E+00
  0.00000000E+00  0.00000000E+00  0.00000000E+00
  0.00000000E+00  0.00000000E+00  0.00000000E+00
  0.00000000E+00  0.00000000E+00  0.00000000E+00
