MgAl8                                   
   1.00000000000000     
     9.1466124125974311   -0.0025771327565465    0.0000000000000000
    -4.5755378359990351    7.9198488444490547    0.0000000000000000
     0.0000000000000000    0.0000000000000000    2.8514829548950855
   Al   Mg
     8     1
Direct
  0.3365284809170248  0.1683638524564657  0.0000000000000000
  0.8319352073038289  0.1680685923126077  0.0000000000000000
  0.6668770839960416  0.3331188062531112  0.0000000000000000
  0.1683629518839922  0.3365304764500294  0.0000000000000000
  0.8316370481160078  0.6634695235499706  0.0000000000000000
  0.3331229160039584  0.6668811937468888  0.0000000000000000
  0.1680647926961711  0.8319314076873923  0.0000000000000000
  0.6634715190829752  0.8316361475435343  0.0000000000000000
  0.0000000000000000  0.0000000000000000  0.5000000000000000
 
  0.00000000E+00  0.00000000E+00  0.00000000E+00
  0.00000000E+00  0.00000000E+00  0.00000000E+00
  0.00000000E+00  0.00000000E+00  0.00000000E+00
  0.00000000E+00  0.00000000E+00  0.00000000E+00
  0.00000000E+00  0.00000000E+00  0.00000000E+00
  0.00000000E+00  0.00000000E+00  0.00000000E+00
  0.00000000E+00  0.00000000E+00  0.00000000E+00
  0.00000000E+00  0.00000000E+00  0.00000000E+00
  0.00000000E+00  0.00000000E+00  0.00000000E+00
