Ba4 B2 F10                              
   1.00000000000000     
     8.0573357812905435   -0.0746064881213689    0.0462384610885734
    -0.1319963540207825    8.8308194332337937   -0.6098921490410938
     3.9976564661534604    4.0512036049226756    3.6235832086122675
   F    B    Ba
    10     2     4
Direct
  0.7896787554820790  0.7290810172997269  0.3812297157136442
  0.4386355168720399  0.3532822123585788  0.1725938783382475
  0.4940233802351202  0.0073924341391347  0.2522271570226664
  0.9438370884169416  0.9783214290435041  0.3264283556674954
  0.7847620314803621  0.5626068751895730  0.1235553768214928
  0.1742581832741976  0.7192664643507314  0.3401616244580410
  0.8771344710342035  0.3424870130642219  0.5493541817192167
  0.2752122617453736  0.5070828228068365  0.7576604272417455
  0.0845998483120241  0.0599781840779059  0.6547163219463386
  0.5515252368271746  0.0703859829687019  0.6257582115971445
  0.2415139043396977  0.2477976134892330  0.5133269588212457
  0.7278760003091591  0.7991419128078334  0.5410440333071165
  0.4426981580093567  0.2524030178663210  0.8294275457276754
  0.8726346160301475  0.3365224151670247  0.9498920582076664
  0.1999505409117219  0.7251466157355324  0.9265752716551674
  0.6019600067203967  0.8094039896351433  0.0560488817551104
 
  0.00000000E+00  0.00000000E+00  0.00000000E+00
  0.00000000E+00  0.00000000E+00  0.00000000E+00
  0.00000000E+00  0.00000000E+00  0.00000000E+00
  0.00000000E+00  0.00000000E+00  0.00000000E+00
  0.00000000E+00  0.00000000E+00  0.00000000E+00
  0.00000000E+00  0.00000000E+00  0.00000000E+00
  0.00000000E+00  0.00000000E+00  0.00000000E+00
  0.00000000E+00  0.00000000E+00  0.00000000E+00
  0.00000000E+00  0.00000000E+00  0.00000000E+00
  0.00000000E+00  0.00000000E+00  0.00000000E+00
  0.00000000E+00  0.00000000E+00  0.00000000E+00
  0.00000000E+00  0.00000000E+00  0.00000000E+00
  0.00000000E+00  0.00000000E+00  0.00000000E+00
  0.00000000E+00  0.00000000E+00  0.00000000E+00
  0.00000000E+00  0.00000000E+00  0.00000000E+00
  0.00000000E+00  0.00000000E+00  0.00000000E+00
