Be4 Ga8 I32                             
   1.00000000000000     
    -6.6230670116648831    6.6230670116648831   11.9819793497331748
     6.6230670116648831   -6.6230670116648831   11.9819793497331748
     6.6230670116648831    6.6230670116648831  -11.9819793497331748
   Be   Ga   I 
     4     8    32
Direct
  0.0000000000000000  0.0000000000000000  0.0000000000000000
  0.7500000000000000  0.2500000000000000  0.5000000000000000
  0.2500000000000000  0.7500000000000000  0.5000000000000000
  0.5000000000000000  0.5000000000000000  0.0000000000000000
  0.5564052244551476  0.8750000000000000  0.1814052244551476
  0.1250000000000000  0.8064052244551476  0.1814052244551476
  0.1250000000000000  0.3064052244551476  0.6814052244551476
  0.6935947755448524  0.3750000000000000  0.8185947755448524
  0.6250000000000000  0.9435947755448524  0.8185947755448524
  0.0564052244551476  0.8750000000000000  0.6814052244551476
  0.1935947755448524  0.3750000000000000  0.3185947755448524
  0.6250000000000000  0.4435947755448524  0.3185947755448524
  0.6379625027471150  0.2422100904731437  0.2869024334973034
  0.1010600692498187  0.8879625027471150  0.8957524122739855
  0.7946923430241668  0.8989399307501813  0.7869024334973034
  0.3221018564570599  0.2656833358432493  0.2554921599205855
  0.8221018564570599  0.5666096965364673  0.0564195206138152
  0.8166096965364673  0.5721018564570599  0.5564195206138152
  0.1120374972528850  0.0077899095268563  0.2130975665026966
  0.9922100904731437  0.2053076569758332  0.1042475877260145
  0.4553076569758332  0.7422100904731437  0.6042475877260145
  0.2343166641567507  0.1778981435429401  0.7445078400794145
  0.0101901759226521  0.0666096965364673  0.7445078400794145
  0.9278981435429401  0.6833903034635327  0.4435804793861848
  0.9333903034635327  0.6778981435429401  0.9435804793861848
  0.1489399307501813  0.5446923430241668  0.2869024334973034
  0.2946923430241668  0.5077899095268563  0.8957524122739855
  0.6010600692498187  0.7053076569758332  0.2130975665026966
  0.7398098240773479  0.1833903034635327  0.7554921599205855
  0.2577899095268563  0.8620374972528850  0.7130975665026966
  0.4922100904731437  0.3879625027471150  0.7869024334973034
  0.9553076569758332  0.3510600692498187  0.7130975665026966
  0.3166096965364673  0.7601901759226521  0.2445078400794145
  0.4333903034635327  0.4898098240773479  0.2554921599205855
  0.6489399307501813  0.3620374972528850  0.6042475877260145
  0.6120374972528850  0.3989399307501813  0.1042475877260145
  0.2398098240773479  0.4843166641567507  0.5564195206138152
  0.4278981435429401  0.9843166641567507  0.2445078400794145
  0.1379625027471150  0.8510600692498187  0.3957524122739855
  0.5156833358432493  0.0721018564570599  0.7554921599205855
  0.5101901759226521  0.7656833358432493  0.9435804793861848
  0.0156833358432493  0.2601901759226521  0.4435804793861848
  0.7577899095268563  0.0446923430241668  0.3957524122739855
  0.7343166641567507  0.9898098240773479  0.0564195206138152
 
  0.00000000E+00  0.00000000E+00  0.00000000E+00
  0.00000000E+00  0.00000000E+00  0.00000000E+00
  0.00000000E+00  0.00000000E+00  0.00000000E+00
  0.00000000E+00  0.00000000E+00  0.00000000E+00
  0.00000000E+00  0.00000000E+00  0.00000000E+00
  0.00000000E+00  0.00000000E+00  0.00000000E+00
  0.00000000E+00  0.00000000E+00  0.00000000E+00
  0.00000000E+00  0.00000000E+00  0.00000000E+00
  0.00000000E+00  0.00000000E+00  0.00000000E+00
  0.00000000E+00  0.00000000E+00  0.00000000E+00
  0.00000000E+00  0.00000000E+00  0.00000000E+00
  0.00000000E+00  0.00000000E+00  0.00000000E+00
  0.00000000E+00  0.00000000E+00  0.00000000E+00
  0.00000000E+00  0.00000000E+00  0.00000000E+00
  0.00000000E+00  0.00000000E+00  0.00000000E+00
  0.00000000E+00  0.00000000E+00  0.00000000E+00
  0.00000000E+00  0.00000000E+00  0.00000000E+00
  0.00000000E+00  0.00000000E+00  0.00000000E+00
  0.00000000E+00  0.00000000E+00  0.00000000E+00
  0.00000000E+00  0.00000000E+00  0.00000000E+00
  0.00000000E+00  0.00000000E+00  0.00000000E+00
  0.00000000E+00  0.00000000E+00  0.00000000E+00
  0.00000000E+00  0.00000000E+00  0.00000000E+00
  0.00000000E+00  0.00000000E+00  0.00000000E+00
  0.00000000E+00  0.00000000E+00  0.00000000E+00
  0.00000000E+00  0.00000000E+00  0.00000000E+00
  0.00000000E+00  0.00000000E+00  0.00000000E+00
  0.00000000E+00  0.00000000E+00  0.00000000E+00
  0.00000000E+00  0.00000000E+00  0.00000000E+00
  0.00000000E+00  0.00000000E+00  0.00000000E+00
  0.00000000E+00  0.00000000E+00  0.00000000E+00
  0.00000000E+00  0.00000000E+00  0.00000000E+00
  0.00000000E+00  0.00000000E+00  0.00000000E+00
  0.00000000E+00  0.00000000E+00  0.00000000E+00
  0.00000000E+00  0.00000000E+00  0.00000000E+00
  0.00000000E+00  0.00000000E+00  0.00000000E+00
  0.00000000E+00  0.00000000E+00  0.00000000E+00
  0.00000000E+00  0.00000000E+00  0.00000000E+00
  0.00000000E+00  0.00000000E+00  0.00000000E+00
  0.00000000E+00  0.00000000E+00  0.00000000E+00
  0.00000000E+00  0.00000000E+00  0.00000000E+00
  0.00000000E+00  0.00000000E+00  0.00000000E+00
  0.00000000E+00  0.00000000E+00  0.00000000E+00
  0.00000000E+00  0.00000000E+00  0.00000000E+00
