Mg16 B12 F1                             
   1.00000000000000     
     5.6463961382761401   -3.4519811683597501    2.0049305046812758
    -0.2534828202086050    7.1743539693155700    2.9786984545577502
    -7.0468677533133173   -3.9702131658966371    4.5843602794231728
   B    F    Mg
    12     1    16
Direct
  0.9077837223203034  0.6211087758894607  0.9980693749743708
  0.6786985468740170  0.6263747678008613  0.0092281309558047
  0.4204242272815009  0.5705387700126607  0.4079697522489312
  0.2056363668020182  0.7376591116071651  0.0846481606155720
  0.9505987352505940  0.2004426235788301  0.2005088195280109
  0.3528486583641453  0.4409467756735310  0.5385040638132352
  0.1897752458439257  0.3560486940076828  0.3384562858223603
  0.7068866582648710  0.9822108583221976  0.7050677902046090
  0.9332130762699720  0.9409048716047934  0.7349401405658185
  0.5185463371300898  0.0102377668000955  0.7731556023074759
  0.0658178312998317  0.5104379326864290  0.9554151284844110
  0.9030482194122911  0.0802529231030462  0.6246791429065937
  0.4215883613806710  0.2699839161409017  0.1147610331672126
  0.5925892164855711  0.2876262462785704  0.9691893098674669
  0.4217084447823538  0.5474807428189479  0.1431630587163539
  0.1832454550839273  0.8463310913215238  0.8553614976791621
  0.9776666835799404  0.1737023031037523  0.9572900643230042
  0.8170100511247895  0.7338603313071346  0.4754100790022946
  0.6021380210445528  0.9184736893870706  0.0696395765012028
  0.0205869046742464  0.5415474718697908  0.2364881300252861
  0.0287245397664719  0.9221689750965609  0.2058303307611951
  0.4808202608991579  0.9057587467068728  0.3815906519844177
  0.5091936459833235  0.2950533824724175  0.3495265402602286
  0.2493802030729171  0.0984545117384883  0.5984995831248412
  0.9221928318458126  0.2411695300028924  0.4450160935851741
  0.6678994439897039  0.6825943904530760  0.7654970488204285
  0.7489906357755558  0.3059207091150924  0.6981452496872933
  0.2662608327358384  0.7080358747082371  0.5766266707421579
  0.2559268426616370  0.4446752163919214  0.7873246893250823
 
  0.00000000E+00  0.00000000E+00  0.00000000E+00
  0.00000000E+00  0.00000000E+00  0.00000000E+00
  0.00000000E+00  0.00000000E+00  0.00000000E+00
  0.00000000E+00  0.00000000E+00  0.00000000E+00
  0.00000000E+00  0.00000000E+00  0.00000000E+00
  0.00000000E+00  0.00000000E+00  0.00000000E+00
  0.00000000E+00  0.00000000E+00  0.00000000E+00
  0.00000000E+00  0.00000000E+00  0.00000000E+00
  0.00000000E+00  0.00000000E+00  0.00000000E+00
  0.00000000E+00  0.00000000E+00  0.00000000E+00
  0.00000000E+00  0.00000000E+00  0.00000000E+00
  0.00000000E+00  0.00000000E+00  0.00000000E+00
  0.00000000E+00  0.00000000E+00  0.00000000E+00
  0.00000000E+00  0.00000000E+00  0.00000000E+00
  0.00000000E+00  0.00000000E+00  0.00000000E+00
  0.00000000E+00  0.00000000E+00  0.00000000E+00
  0.00000000E+00  0.00000000E+00  0.00000000E+00
  0.00000000E+00  0.00000000E+00  0.00000000E+00
  0.00000000E+00  0.00000000E+00  0.00000000E+00
  0.00000000E+00  0.00000000E+00  0.00000000E+00
  0.00000000E+00  0.00000000E+00  0.00000000E+00
  0.00000000E+00  0.00000000E+00  0.00000000E+00
  0.00000000E+00  0.00000000E+00  0.00000000E+00
  0.00000000E+00  0.00000000E+00  0.00000000E+00
  0.00000000E+00  0.00000000E+00  0.00000000E+00
  0.00000000E+00  0.00000000E+00  0.00000000E+00
  0.00000000E+00  0.00000000E+00  0.00000000E+00
  0.00000000E+00  0.00000000E+00  0.00000000E+00
  0.00000000E+00  0.00000000E+00  0.00000000E+00
