Ba2 Ga2 Br10                            
   1.00000000000000     
     7.7571658544726656   -4.0879810324867885    2.0086511237393263
    -2.2886922810389683    8.4644604634961400    2.0086510096874233
    -1.6712212018996389   -1.3374932958199039   10.8951292134772100
   Ba   Ga   Br
     2     2    10
Direct
  0.2482041593009328  0.7517958384989853  0.2500000011956729
  0.7517958406990672  0.2482041615010147  0.7499999988043271
  0.0000000000000000  0.0000000000000000  0.5000000000000000
  0.0000000000000000  0.0000000000000000  0.0000000000000000
  0.0412985896400500  0.6892174524396495  0.5773502962710282
  0.3107825499170005  0.9587004100367764  0.9226497016964785
  0.9587004103599526  0.3107825475603505  0.4226507037289764
  0.6892174500829995  0.0412985899632261  0.0773502983035144
  0.9424789610459570  0.0575210409523095  0.7499999986503170
  0.0575210389540501  0.9424789590476976  0.2500000013496830
  0.5410672711106201  0.6441920416205562  0.0280185486227751
  0.3558079543283128  0.4589327292597360  0.4719814554207815
  0.4589327288893870  0.3558079583794367  0.9719814513772320
  0.6441920456716872  0.5410672707402640  0.5280185445792185
 
  0.00000000E+00  0.00000000E+00  0.00000000E+00
  0.00000000E+00  0.00000000E+00  0.00000000E+00
  0.00000000E+00  0.00000000E+00  0.00000000E+00
  0.00000000E+00  0.00000000E+00  0.00000000E+00
  0.00000000E+00  0.00000000E+00  0.00000000E+00
  0.00000000E+00  0.00000000E+00  0.00000000E+00
  0.00000000E+00  0.00000000E+00  0.00000000E+00
  0.00000000E+00  0.00000000E+00  0.00000000E+00
  0.00000000E+00  0.00000000E+00  0.00000000E+00
  0.00000000E+00  0.00000000E+00  0.00000000E+00
  0.00000000E+00  0.00000000E+00  0.00000000E+00
  0.00000000E+00  0.00000000E+00  0.00000000E+00
  0.00000000E+00  0.00000000E+00  0.00000000E+00
  0.00000000E+00  0.00000000E+00  0.00000000E+00
