Be4 Ga4 Br20                            
   1.0000000000000000     
     6.5115094508466065   -0.0000000000000002    0.0000000000000006
    -0.0000000000000006    9.5826787096808612    0.0000000000000008
     0.0000000000000003    0.0000000000000007   20.8057532501934865
   Be   Ga   Br
     4     4    20
Direct
  0.0024686236061910  0.6114502531166650  0.6167775928073524
  0.5024686236061910  0.8885497468833350  0.3832224071926476
  0.9975313763938090  0.1114502531166650  0.8832224071926476
  0.4975313763938090  0.3885497468833350  0.1167775928073524
  0.4278475646403237  0.1402618155668307  0.5384283164311157
  0.9278475646403237  0.3597381844331764  0.4615716835688843
  0.5721524353596763  0.6402618155668307  0.9615716835688843
  0.0721524353596763  0.8597381844331693  0.0384283164311157
  0.9965971469635377  0.5835879381514957  0.5057965651741014
  0.4965971469635448  0.9164120618485043  0.4942034348258986
  0.0034028530364552  0.0835879381514957  0.9942034348258986
  0.5034028530364623  0.4164120618485043  0.0057965651741014
  0.5192400900776448  0.6792663248075783  0.3716364674501165
  0.0192400900776448  0.8207336751924217  0.6283635325498693
  0.4807599099223552  0.1792663248075783  0.1283635325498764
  0.9807599099223552  0.3207336751924217  0.8716364674501165
  0.9982327318107735  0.4399398372583150  0.6714247662336064
  0.4982327318107735  0.0600601627416850  0.3285752337663936
  0.0017672681892265  0.9399398372583150  0.8285752337663936
  0.5017672681892265  0.5600601627416850  0.1714247662336064
  0.5157695049833464  0.1640571500872170  0.6431406062972655
  0.0157695049833464  0.3359428499127830  0.3568593937027345
  0.4842304950166465  0.6640571500872170  0.8568593937027345
  0.9842304950166536  0.8359428499127830  0.1431406062972655
  0.5417595772292358  0.3350964707824460  0.4705598304343113
  0.0417595772292358  0.1649035292175540  0.5294401695656887
  0.4582404227707642  0.8350964707824460  0.0294401695656887
  0.9582404227707642  0.6649035292175540  0.9705598304343113

  0.00000000E+00  0.00000000E+00  0.00000000E+00
  0.00000000E+00  0.00000000E+00  0.00000000E+00
  0.00000000E+00  0.00000000E+00  0.00000000E+00
  0.00000000E+00  0.00000000E+00  0.00000000E+00
  0.00000000E+00  0.00000000E+00  0.00000000E+00
  0.00000000E+00  0.00000000E+00  0.00000000E+00
  0.00000000E+00  0.00000000E+00  0.00000000E+00
  0.00000000E+00  0.00000000E+00  0.00000000E+00
  0.00000000E+00  0.00000000E+00  0.00000000E+00
  0.00000000E+00  0.00000000E+00  0.00000000E+00
  0.00000000E+00  0.00000000E+00  0.00000000E+00
  0.00000000E+00  0.00000000E+00  0.00000000E+00
  0.00000000E+00  0.00000000E+00  0.00000000E+00
  0.00000000E+00  0.00000000E+00  0.00000000E+00
  0.00000000E+00  0.00000000E+00  0.00000000E+00
  0.00000000E+00  0.00000000E+00  0.00000000E+00
  0.00000000E+00  0.00000000E+00  0.00000000E+00
  0.00000000E+00  0.00000000E+00  0.00000000E+00
  0.00000000E+00  0.00000000E+00  0.00000000E+00
  0.00000000E+00  0.00000000E+00  0.00000000E+00
  0.00000000E+00  0.00000000E+00  0.00000000E+00
  0.00000000E+00  0.00000000E+00  0.00000000E+00
  0.00000000E+00  0.00000000E+00  0.00000000E+00
  0.00000000E+00  0.00000000E+00  0.00000000E+00
  0.00000000E+00  0.00000000E+00  0.00000000E+00
  0.00000000E+00  0.00000000E+00  0.00000000E+00
  0.00000000E+00  0.00000000E+00  0.00000000E+00
  0.00000000E+00  0.00000000E+00  0.00000000E+00
