B28                                     
   1.00000000000000     
     5.0366872541542369    0.0000000000000000    0.0000000000000000
     0.0000000000000000    5.6038073318963209    0.0000000000000000
     0.0000000000000000    0.0000000000000000    6.9187705784353977
   B 
    28
Direct
  0.6528402222848939  0.9074568454793450  0.2909742368299675
  0.3471597777151061  0.0925431545206550  0.2909742368299675
  0.1528402222848939  0.5925431545206550  0.2090257631700325
  0.8471597777151061  0.4074568454793450  0.2090257631700325
  0.3471597777151061  0.0925431545206550  0.7090257631700325
  0.6528402222848939  0.9074568454793450  0.7090257631700325
  0.8471597777151061  0.4074568454793450  0.7909742368299675
  0.1528402222848939  0.5925431545206550  0.7909742368299675
  0.1479788651636653  0.7712217095635978  0.0000000000000000
  0.8520211348363347  0.2287782904364022  0.0000000000000000
  0.6479788651636653  0.7287782904364022  0.5000000000000000
  0.3520211348363347  0.2712217095635978  0.5000000000000000
  0.8356493022130280  0.9919649756124471  0.5000000000000000
  0.1643506977869720  0.0080350243875529  0.5000000000000000
  0.3356493022130280  0.5080350243875529  0.0000000000000000
  0.6643506977869720  0.4919649756124471  0.0000000000000000
  0.3394662904970573  0.7810180534771263  0.3743368273567924
  0.6605337095029427  0.2189819465228737  0.3743368273567924
  0.8394662904970573  0.7189819465228737  0.1256631726432076
  0.1605337095029427  0.2810180534771263  0.1256631726432076
  0.6605337095029427  0.2189819465228737  0.6256631726432076
  0.3394662904970573  0.7810180534771263  0.6256631726432076
  0.1605337095029427  0.2810180534771263  0.8743368273567924
  0.8394662904970573  0.7189819465228737  0.8743368273567924
  0.1701356468395545  0.5207350335745033  0.5000000000000000
  0.8298643531604455  0.4792649664254967  0.5000000000000000
  0.6701356468395545  0.9792649664254967  0.0000000000000000
  0.3298643531604455  0.0207350335745033  0.0000000000000000
 
  0.00000000E+00  0.00000000E+00  0.00000000E+00
  0.00000000E+00  0.00000000E+00  0.00000000E+00
  0.00000000E+00  0.00000000E+00  0.00000000E+00
  0.00000000E+00  0.00000000E+00  0.00000000E+00
  0.00000000E+00  0.00000000E+00  0.00000000E+00
  0.00000000E+00  0.00000000E+00  0.00000000E+00
  0.00000000E+00  0.00000000E+00  0.00000000E+00
  0.00000000E+00  0.00000000E+00  0.00000000E+00
  0.00000000E+00  0.00000000E+00  0.00000000E+00
  0.00000000E+00  0.00000000E+00  0.00000000E+00
  0.00000000E+00  0.00000000E+00  0.00000000E+00
  0.00000000E+00  0.00000000E+00  0.00000000E+00
  0.00000000E+00  0.00000000E+00  0.00000000E+00
  0.00000000E+00  0.00000000E+00  0.00000000E+00
  0.00000000E+00  0.00000000E+00  0.00000000E+00
  0.00000000E+00  0.00000000E+00  0.00000000E+00
  0.00000000E+00  0.00000000E+00  0.00000000E+00
  0.00000000E+00  0.00000000E+00  0.00000000E+00
  0.00000000E+00  0.00000000E+00  0.00000000E+00
  0.00000000E+00  0.00000000E+00  0.00000000E+00
  0.00000000E+00  0.00000000E+00  0.00000000E+00
  0.00000000E+00  0.00000000E+00  0.00000000E+00
  0.00000000E+00  0.00000000E+00  0.00000000E+00
  0.00000000E+00  0.00000000E+00  0.00000000E+00
  0.00000000E+00  0.00000000E+00  0.00000000E+00
  0.00000000E+00  0.00000000E+00  0.00000000E+00
  0.00000000E+00  0.00000000E+00  0.00000000E+00
  0.00000000E+00  0.00000000E+00  0.00000000E+00
