Mg2                                     
   1.00000000000000     
     3.1767479793046074    0.0000000008584944    0.0000000000000000
    -1.5883734881641505    2.7511437349606283    0.0000000000000000
     0.0000000000000000    0.0000000000000000    5.1749467706709229
   Mg
     2
Direct
  0.3333330000000032  0.6666669999999968  0.2500000000000000
  0.6666669999999968  0.3333330000000032  0.7500000000000000
 
  0.00000000E+00  0.00000000E+00  0.00000000E+00
  0.00000000E+00  0.00000000E+00  0.00000000E+00
