BaTl4                                   
   1.0000000000000000     
     0.0233288387477162    5.3446089003581951   -0.0118072757033052
     6.4176149391668789   -2.6461527291181848   -0.0261367556879723
    -1.6764564498745598   -2.6599760042033496   -9.9120153025778297
   Ba   Tl
     2     8
Direct
  0.4682946188603836  0.6420443993600458  0.2891445878986758
  0.5317837388915621  0.3579762747009951  0.7109206898625402
  0.8846752420153976  0.7292026912677159  0.0401852705346997
  0.6660571342596171  0.2047965153537206  0.1243295790373153
  0.1845234980627239  0.0652765432823728  0.3126786937818409
  0.8488236950339285  0.2528890728061981  0.4565650677260678
  0.1512031172904926  0.7473083732009016  0.5434512038177033
  0.8155314521925661  0.9348842968846824  0.6874170086703586
  0.3335771270965964  0.7945638319546546  0.8755398635316709
  0.1155303762966966  0.2707580011886961  0.9599680351391413

  0.00000000E+00  0.00000000E+00 -0.00000000E+00
  0.00000000E+00  0.00000000E+00 -0.00000000E+00
  0.00000000E+00  0.00000000E+00 -0.00000000E+00
  0.00000000E+00  0.00000000E+00 -0.00000000E+00
  0.00000000E+00  0.00000000E+00 -0.00000000E+00
  0.00000000E+00  0.00000000E+00 -0.00000000E+00
  0.00000000E+00  0.00000000E+00 -0.00000000E+00
  0.00000000E+00  0.00000000E+00 -0.00000000E+00
  0.00000000E+00  0.00000000E+00 -0.00000000E+00
  0.00000000E+00  0.00000000E+00 -0.00000000E+00
