Be18 Tl11                               
   1.0000000000000000     
     5.3739393044550683   -5.5185904456239170    3.7897367491900225
    -0.2980344758325205    9.6081899172300371    1.9577366117764603
    -5.1304497834435150   -5.4068101697062829    4.4170396861676045
   Tl   Be
    11    18
Direct
  0.8184929393694631  0.8048362240247968  0.9068591766524605
  0.1878737654787699  0.3568756758791523  0.2624859370687176
  0.7109995821188662  0.1208156953209354  0.1590753952960924
  0.1563205090920903  0.6648179882755088  0.1961498557369694
  0.3110420543385857  0.1768645407685625  0.4121679092822319
  0.3718281511347215  0.6604038885475276  0.7421826406855416
  0.5787605201524215  0.7816126451290302  0.2712744588722629
  0.1631402225262519  0.8778569277066453  0.6307935149902093
  0.8304257172316838  0.4068689995192187  0.5943542326705469
  0.7380412187912171  0.0344762567177739  0.6849582438774817
  0.1873935241674758  0.3075353800681526  0.8264349189311773
  0.4788422884348833  0.2040037809530801  0.1108188267419976
  0.5725977105377353  0.4560027596083245  0.1200541023269608
  0.1750796646832740  0.0108138099640271  0.0258170621480147
  0.8286518439627883  0.5744399650259737  0.0027062868804038
  0.9556134560402683  0.4143795913538284  0.8680674963153407
  0.0989952757427801  0.7237454500924088  0.9054178656826011
  0.8195258910761396  0.6781369472197127  0.2919090712017294
  0.3240576495364067  0.9314517883012670  0.0918958493766624
  0.7873034109391739  0.4117263631104038  0.1257665600184623
  0.0299028852060701  0.8638021931642541  0.1860288425782244
  0.7766694008211914  0.7297367749788179  0.5691184844579880
  0.6121730303337642  0.4608020922119209  0.3644209840233827
  0.3563877756368399  0.2111434147920761  0.9248915761752059
  0.9932736456545186  0.9411900004843474  0.4814110530755897
  0.5566774792842963  0.5027764015141827  0.6433266076365669
  0.6397093218317380  0.2737251346715013  0.8826630549861960
  0.3900076895212194  0.9769527122013173  0.8544221312696365
  0.5504153763553745  0.4422435983952937  0.8645278610413456

  0.00000000E+00  0.00000000E+00  0.00000000E+00
  0.00000000E+00  0.00000000E+00  0.00000000E+00
  0.00000000E+00  0.00000000E+00  0.00000000E+00
  0.00000000E+00  0.00000000E+00  0.00000000E+00
  0.00000000E+00  0.00000000E+00  0.00000000E+00
  0.00000000E+00  0.00000000E+00  0.00000000E+00
  0.00000000E+00  0.00000000E+00  0.00000000E+00
  0.00000000E+00  0.00000000E+00  0.00000000E+00
  0.00000000E+00  0.00000000E+00  0.00000000E+00
  0.00000000E+00  0.00000000E+00  0.00000000E+00
  0.00000000E+00  0.00000000E+00  0.00000000E+00
  0.00000000E+00  0.00000000E+00  0.00000000E+00
  0.00000000E+00  0.00000000E+00  0.00000000E+00
  0.00000000E+00  0.00000000E+00  0.00000000E+00
  0.00000000E+00  0.00000000E+00  0.00000000E+00
  0.00000000E+00  0.00000000E+00  0.00000000E+00
  0.00000000E+00  0.00000000E+00  0.00000000E+00
  0.00000000E+00  0.00000000E+00  0.00000000E+00
  0.00000000E+00  0.00000000E+00  0.00000000E+00
  0.00000000E+00  0.00000000E+00  0.00000000E+00
  0.00000000E+00  0.00000000E+00  0.00000000E+00
  0.00000000E+00  0.00000000E+00  0.00000000E+00
  0.00000000E+00  0.00000000E+00  0.00000000E+00
  0.00000000E+00  0.00000000E+00  0.00000000E+00
  0.00000000E+00  0.00000000E+00  0.00000000E+00
  0.00000000E+00  0.00000000E+00  0.00000000E+00
  0.00000000E+00  0.00000000E+00  0.00000000E+00
  0.00000000E+00  0.00000000E+00  0.00000000E+00
  0.00000000E+00  0.00000000E+00  0.00000000E+00
