Ba4 Ga4 F20                             
   1.0000000000000000     
     0.0000000000000000    5.4210786192359262    0.0050532450947459
     9.4113623500261738    0.0000000000000000    0.0000000000000000
     0.0000000000000000   -0.1458681098610876   -7.5054096581603904
   Ba   Ga   F 
     4     4    20
Direct
  0.5186566091224094  0.3284475066533474  0.3619295270187592
  0.4813433908775835  0.8284475066533474  0.6380704729812408
  0.9825481550295123  0.9940960449527836  0.1164778052684738
  0.0174518449704877  0.4940960449527836  0.8835221947315262
  0.4725586533164261  0.7361167503284847  0.1265441201620874
  0.5274413466835810  0.2361167503284776  0.8734558798379126
  0.9777916324491827  0.6269517281859720  0.4241674851111057
  0.0222083675508173  0.1269517281859720  0.5758325148888872
  0.2552338532447678  0.0304754490615338  0.4382650334198601
  0.2478279611319891  0.5385492693957232  0.5377991035742724
  0.7521720388680109  0.0385492693957232  0.4622008964257205
  0.7290355033718683  0.7317818648209098  0.9599466918383968
  0.9195729498123839  0.5121975232595233  0.2275602375846617
  0.4802541813633567  0.9350842361819858  0.1396941958670368
  0.8059704592491812  0.2602364111245308  0.6993900311561418
  0.7043941061483565  0.7496002560983470  0.3268653114654256
  0.0804270501876161  0.0121975232595233  0.7724397624153383
  0.9834667601408782  0.7617882230269544  0.6121638823829798
  0.5197458186366433  0.4350842361819858  0.8603058041329632
  0.7447661467552322  0.5304754490615409  0.5617349665801399
  0.5888937114424166  0.0453099412193509  0.8397792408972151
  0.7634768819498419  0.2469637756905598  0.0626409590374095
  0.0165332398591218  0.2617882230269544  0.3878361176170202
  0.1940295407508117  0.7602364111245308  0.3006099688438653
  0.2709644966281246  0.2317818648209098  0.0400533081616032
  0.2365231180501581  0.7469637756905598  0.9373590409625905
  0.2956058938516435  0.2496002560983470  0.6731346885345744
  0.4111062885575834  0.5453099412193509  0.1602207591027849

  0.00000000E+00  0.00000000E+00  0.00000000E+00
  0.00000000E+00  0.00000000E+00  0.00000000E+00
  0.00000000E+00  0.00000000E+00  0.00000000E+00
  0.00000000E+00  0.00000000E+00  0.00000000E+00
  0.00000000E+00  0.00000000E+00  0.00000000E+00
  0.00000000E+00  0.00000000E+00  0.00000000E+00
  0.00000000E+00  0.00000000E+00  0.00000000E+00
  0.00000000E+00  0.00000000E+00  0.00000000E+00
  0.00000000E+00  0.00000000E+00  0.00000000E+00
  0.00000000E+00  0.00000000E+00  0.00000000E+00
  0.00000000E+00  0.00000000E+00  0.00000000E+00
  0.00000000E+00  0.00000000E+00  0.00000000E+00
  0.00000000E+00  0.00000000E+00  0.00000000E+00
  0.00000000E+00  0.00000000E+00  0.00000000E+00
  0.00000000E+00  0.00000000E+00  0.00000000E+00
  0.00000000E+00  0.00000000E+00  0.00000000E+00
  0.00000000E+00  0.00000000E+00  0.00000000E+00
  0.00000000E+00  0.00000000E+00  0.00000000E+00
  0.00000000E+00  0.00000000E+00  0.00000000E+00
  0.00000000E+00  0.00000000E+00  0.00000000E+00
  0.00000000E+00  0.00000000E+00  0.00000000E+00
  0.00000000E+00  0.00000000E+00  0.00000000E+00
  0.00000000E+00  0.00000000E+00  0.00000000E+00
  0.00000000E+00  0.00000000E+00  0.00000000E+00
  0.00000000E+00  0.00000000E+00  0.00000000E+00
  0.00000000E+00  0.00000000E+00  0.00000000E+00
  0.00000000E+00  0.00000000E+00  0.00000000E+00
  0.00000000E+00  0.00000000E+00  0.00000000E+00
