Mg10 B4 F32                             
   1.00000000000000     
     4.5560710080436078   -4.6311377464452601    0.0000000000000000
     4.5560710080436078    4.6311377464452601    0.0000000000000000
     0.0000000000000000    0.0000000000000000   12.2163770412152388
   Mg   B    F 
    10     4    32
Direct
  0.0000000000000000  0.0000000000000000  0.7459167130517130
  0.0000000000000000  0.0000000000000000  0.2540832869482870
  0.5000000000000000  0.5000000000000000  0.7540832869482870
  0.5000000000000000  0.5000000000000000  0.2459167130517130
  0.5000000000000000  0.5000000000000000  0.5000000000000000
  0.0000000000000000  0.0000000000000000  0.0000000000000000
  0.0000000000000000  0.5000000000000000  0.6190631074393380
  0.5000000000000000  0.0000000000000000  0.3809368925606620
  0.5000000000000000  0.0000000000000000  0.8809368925606620
  0.0000000000000000  0.5000000000000000  0.1190631074393380
  0.5000000000000000  0.0000000000000000  0.6175400679114773
  0.0000000000000000  0.5000000000000000  0.3824599320885298
  0.0000000000000000  0.5000000000000000  0.8824599320885227
  0.5000000000000000  0.0000000000000000  0.1175400679114702
  0.3389596644586348  0.0645942603859382  0.6824698347355422
  0.6610403355413652  0.9354057396140618  0.6824698347355422
  0.0645942603859382  0.3389596644586348  0.3175301652644578
  0.9354057396140618  0.6610403355413652  0.3175301652644578
  0.1610403355413652  0.4354057396140618  0.8175301652644578
  0.8389596644586348  0.5645942603859382  0.8175301652644578
  0.4354057396140618  0.1610403355413652  0.1824698347355422
  0.5645942603859382  0.8389596644586348  0.1824698347355422
  0.0495943499798841  0.7736370836272783  0.6578129158970683
  0.9504056500201230  0.2263629163727217  0.6578129158970683
  0.7736370836272783  0.0495943499798841  0.3421870841029246
  0.2263629163727217  0.9504056500201230  0.3421870841029246
  0.4504056500201159  0.7263629163727217  0.8421870841029317
  0.5495943499798770  0.2736370836272783  0.8421870841029317
  0.6587782595480505  0.0674117853840102  0.0452551995389996
  0.3412217404519495  0.9325882146159898  0.0452551995389996
  0.0674117853840102  0.6587782595480505  0.9547448004610004
  0.9325882146159898  0.3412217404519495  0.9547448004610004
  0.8412217404519495  0.4325882146159898  0.4547448004610004
  0.1587782595480505  0.5674117853840102  0.4547448004610004
  0.4325882146159898  0.8412217404519495  0.5452551995389996
  0.5674117853840102  0.1587782595480505  0.5452551995389996
  0.9594247033288212  0.8128173652290656  0.1268654597643888
  0.0405752966711717  0.1871826347709344  0.1268654597643888
  0.8128173652290656  0.9594247033288212  0.8731345402356183
  0.1871826347709344  0.0405752966711717  0.8731345402356183
  0.5405752966711788  0.6871826347709344  0.3731345402356112
  0.4594247033288283  0.3128173652290656  0.3731345402356112
  0.6871826347709344  0.5405752966711788  0.6268654597643817
  0.3128173652290656  0.4594247033288283  0.6268654597643817
  0.2736370836272783  0.5495943499798770  0.1578129158970754
  0.7263629163727217  0.4504056500201159  0.1578129158970754
 
  0.00000000E+00  0.00000000E+00  0.00000000E+00
  0.00000000E+00  0.00000000E+00  0.00000000E+00
  0.00000000E+00  0.00000000E+00  0.00000000E+00
  0.00000000E+00  0.00000000E+00  0.00000000E+00
  0.00000000E+00  0.00000000E+00  0.00000000E+00
  0.00000000E+00  0.00000000E+00  0.00000000E+00
  0.00000000E+00  0.00000000E+00  0.00000000E+00
  0.00000000E+00  0.00000000E+00  0.00000000E+00
  0.00000000E+00  0.00000000E+00  0.00000000E+00
  0.00000000E+00  0.00000000E+00  0.00000000E+00
  0.00000000E+00  0.00000000E+00  0.00000000E+00
  0.00000000E+00  0.00000000E+00  0.00000000E+00
  0.00000000E+00  0.00000000E+00  0.00000000E+00
  0.00000000E+00  0.00000000E+00  0.00000000E+00
  0.00000000E+00  0.00000000E+00  0.00000000E+00
  0.00000000E+00  0.00000000E+00  0.00000000E+00
  0.00000000E+00  0.00000000E+00  0.00000000E+00
  0.00000000E+00  0.00000000E+00  0.00000000E+00
  0.00000000E+00  0.00000000E+00  0.00000000E+00
  0.00000000E+00  0.00000000E+00  0.00000000E+00
  0.00000000E+00  0.00000000E+00  0.00000000E+00
  0.00000000E+00  0.00000000E+00  0.00000000E+00
  0.00000000E+00  0.00000000E+00  0.00000000E+00
  0.00000000E+00  0.00000000E+00  0.00000000E+00
  0.00000000E+00  0.00000000E+00  0.00000000E+00
  0.00000000E+00  0.00000000E+00  0.00000000E+00
  0.00000000E+00  0.00000000E+00  0.00000000E+00
  0.00000000E+00  0.00000000E+00  0.00000000E+00
  0.00000000E+00  0.00000000E+00  0.00000000E+00
  0.00000000E+00  0.00000000E+00  0.00000000E+00
  0.00000000E+00  0.00000000E+00  0.00000000E+00
  0.00000000E+00  0.00000000E+00  0.00000000E+00
  0.00000000E+00  0.00000000E+00  0.00000000E+00
  0.00000000E+00  0.00000000E+00  0.00000000E+00
  0.00000000E+00  0.00000000E+00  0.00000000E+00
  0.00000000E+00  0.00000000E+00  0.00000000E+00
  0.00000000E+00  0.00000000E+00  0.00000000E+00
  0.00000000E+00  0.00000000E+00  0.00000000E+00
  0.00000000E+00  0.00000000E+00  0.00000000E+00
  0.00000000E+00  0.00000000E+00  0.00000000E+00
  0.00000000E+00  0.00000000E+00  0.00000000E+00
  0.00000000E+00  0.00000000E+00  0.00000000E+00
  0.00000000E+00  0.00000000E+00  0.00000000E+00
  0.00000000E+00  0.00000000E+00  0.00000000E+00
  0.00000000E+00  0.00000000E+00  0.00000000E+00
  0.00000000E+00  0.00000000E+00  0.00000000E+00
