Sr1 Al3 Cl6                             
   1.00000000000000     
     7.4433561713301586    0.1580852820013226    0.1007662349026095
     0.1580852820013225    7.4433561713301595    0.1007662349026100
     3.8734816388196465    3.8734816388196465    5.4763655624485867
   Cl   Sr   Al
     6     1     3
Direct
  0.7226933395807862  0.2773066604192138  0.0000000000000000
  0.2790742377347186  0.2790742377347186  0.9965788414354719
  0.2773066604192138  0.7226933395807862  0.0000000000000000
  0.7209257622652743  0.7209257622652743  0.0034211585645281
  0.7206488158294420  0.7206488158294420  0.5548899875574591
  0.2793511841705580  0.2793511841705580  0.4451100124425409
  0.0000000000000000  0.0000000000000000  0.0000000000000000
  0.5000000000000000  0.5000000000000000  0.0000000000000000
  0.1367737205152153  0.8632262794847847  0.5000000000000000
  0.8632262794847847  0.1367737205152153  0.5000000000000000
 
  0.00000000E+00  0.00000000E+00  0.00000000E+00
  0.00000000E+00  0.00000000E+00  0.00000000E+00
  0.00000000E+00  0.00000000E+00  0.00000000E+00
  0.00000000E+00  0.00000000E+00  0.00000000E+00
  0.00000000E+00  0.00000000E+00  0.00000000E+00
  0.00000000E+00  0.00000000E+00  0.00000000E+00
  0.00000000E+00  0.00000000E+00  0.00000000E+00
  0.00000000E+00  0.00000000E+00  0.00000000E+00
  0.00000000E+00  0.00000000E+00  0.00000000E+00
  0.00000000E+00  0.00000000E+00  0.00000000E+00
