Ga22                                    
   1.00000000000000     
     7.4216230555292855   -0.1504136534559957    2.2063961401342329
     1.6038521175932046    7.2478110892683176    2.2063961450161842
    -0.1912749431912176   -0.1504136248465586    7.7402885970316495
   Ga
    22
Direct
  0.6229263914990781  0.3233456883204440  0.3233456883121590
  0.3770736085009219  0.6766543116795560  0.6766543116878410
  0.9806582264649109  0.2782116950737006  0.2782116950669078
  0.6138911465574637  0.0960237420537098  0.0960237420678496
  0.0193417735350891  0.7217883049262994  0.7217883049330922
  0.3861088534425363  0.9039762579462902  0.9039762579321504
  0.3233456883012877  0.3233456882962855  0.6229263914825651
  0.6766543116823485  0.3770736085036361  0.6766543116956285
  0.7217883049201106  0.0193417735374410  0.7217883049278981
  0.0960237420523384  0.6138911465620822  0.0960237420727452
  0.9039762579374937  0.9039762579312267  0.3861088534207013
  0.6766543116987123  0.6766543117037216  0.3770736085174349
  0.0000000000000000  0.5000000000000000  0.5000000000000000
  0.3233456883176515  0.6229263914963710  0.3233456883043786
  0.2782116950798894  0.9806582264625590  0.2782116950721019
  0.7217883049091043  0.7217883049100919  0.0193417735403187
  0.5000000000000000  0.5000000000000000  0.0000000000000000
  0.0960237420625063  0.0960237420687733  0.6138911465793058
  0.9039762579476616  0.3861088534379178  0.9039762579272477
  0.0000000000000000  0.0000000000000000  0.0000000000000000
  0.2782116950908957  0.2782116950899081  0.9806582264596813
  0.5000000000000000  0.0000000000000000  0.5000000000000000
 
  0.00000000E+00  0.00000000E+00  0.00000000E+00
  0.00000000E+00  0.00000000E+00  0.00000000E+00
  0.00000000E+00  0.00000000E+00  0.00000000E+00
  0.00000000E+00  0.00000000E+00  0.00000000E+00
  0.00000000E+00  0.00000000E+00  0.00000000E+00
  0.00000000E+00  0.00000000E+00  0.00000000E+00
  0.00000000E+00  0.00000000E+00  0.00000000E+00
  0.00000000E+00  0.00000000E+00  0.00000000E+00
  0.00000000E+00  0.00000000E+00  0.00000000E+00
  0.00000000E+00  0.00000000E+00  0.00000000E+00
  0.00000000E+00  0.00000000E+00  0.00000000E+00
  0.00000000E+00  0.00000000E+00  0.00000000E+00
  0.00000000E+00  0.00000000E+00  0.00000000E+00
  0.00000000E+00  0.00000000E+00  0.00000000E+00
  0.00000000E+00  0.00000000E+00  0.00000000E+00
  0.00000000E+00  0.00000000E+00  0.00000000E+00
  0.00000000E+00  0.00000000E+00  0.00000000E+00
  0.00000000E+00  0.00000000E+00  0.00000000E+00
  0.00000000E+00  0.00000000E+00  0.00000000E+00
  0.00000000E+00  0.00000000E+00  0.00000000E+00
  0.00000000E+00  0.00000000E+00  0.00000000E+00
  0.00000000E+00  0.00000000E+00  0.00000000E+00
