Ba4 B4 F20                              
   1.0000000000000000     
     0.0000000000000000    7.0890246553553160    0.3145964284550979
     7.0924800935383647    0.0000000000000000    0.0000000000000000
     0.0000000000000000   -0.4177517806903667   -7.4459731437810577
   Ba   B    F 
     4     4    20
Direct
  0.5804488475365730  0.3276671642980133  0.3121126576492941
  0.4195511524634270  0.8276671642980276  0.6878873423506988
  0.1013595383581745  0.9874021503335584  0.1648468049549336
  0.8986404616418326  0.4874021503335655  0.8351531950450664
  0.6157217151061474  0.8464916463087064  0.1492401425776180
  0.3842782848938526  0.3464916463087064  0.8507598574223891
  0.0824398356275111  0.5269315910587693  0.3483621618768851
  0.9175601643724889  0.0269315910587693  0.6516378381231007
  0.3920452408827089  0.0408195024052560  0.4065952330145350
  0.1859070944049890  0.3642458587600359  0.3190590491712797
  0.8140929055950110  0.8642458587600430  0.6809409508287203
  0.7201193124957470  0.7876433374465961  0.0054293513674537
  0.9900518748801375  0.5994806545416935  0.1868487094158340
  0.4818800391502336  0.9782741440136320  0.0722842674324724
  0.7920553447414775  0.1697670228419312  0.5830911306196072
  0.7418091419106077  0.9296495769736808  0.2827351768488455
  0.0099481251198625  0.0994806545416935  0.8131512905841589
  0.9465818371033095  0.4898817821978199  0.4669003455400471
  0.5181199608497806  0.4782741440136320  0.9277157325675063
  0.6079547591172911  0.5408195024052631  0.5934047669854650
  0.4777041719582442  0.1955884571872488  0.7794448856773002
  0.8420691082987517  0.2537560916330150  0.1007918168482860
  0.0534181628966977  0.9898817821978199  0.5330996544599458
  0.2079446552585225  0.6697670228419241  0.4169088693803857
  0.2798806875042459  0.2876433374465890  0.9945706486325392
  0.1579308917012554  0.7537560916330150  0.8992081831517140
  0.2581908580893852  0.4296495769736879  0.7172648231511403
  0.5222958280417629  0.6955884571872559  0.2205551143227069

  0.00000000E+00  0.00000000E+00  0.00000000E+00
  0.00000000E+00  0.00000000E+00  0.00000000E+00
  0.00000000E+00  0.00000000E+00  0.00000000E+00
  0.00000000E+00  0.00000000E+00  0.00000000E+00
  0.00000000E+00  0.00000000E+00  0.00000000E+00
  0.00000000E+00  0.00000000E+00  0.00000000E+00
  0.00000000E+00  0.00000000E+00  0.00000000E+00
  0.00000000E+00  0.00000000E+00  0.00000000E+00
  0.00000000E+00  0.00000000E+00  0.00000000E+00
  0.00000000E+00  0.00000000E+00  0.00000000E+00
  0.00000000E+00  0.00000000E+00  0.00000000E+00
  0.00000000E+00  0.00000000E+00  0.00000000E+00
  0.00000000E+00  0.00000000E+00  0.00000000E+00
  0.00000000E+00  0.00000000E+00  0.00000000E+00
  0.00000000E+00  0.00000000E+00  0.00000000E+00
  0.00000000E+00  0.00000000E+00  0.00000000E+00
  0.00000000E+00  0.00000000E+00  0.00000000E+00
  0.00000000E+00  0.00000000E+00  0.00000000E+00
  0.00000000E+00  0.00000000E+00  0.00000000E+00
  0.00000000E+00  0.00000000E+00  0.00000000E+00
  0.00000000E+00  0.00000000E+00  0.00000000E+00
  0.00000000E+00  0.00000000E+00  0.00000000E+00
  0.00000000E+00  0.00000000E+00  0.00000000E+00
  0.00000000E+00  0.00000000E+00  0.00000000E+00
  0.00000000E+00  0.00000000E+00  0.00000000E+00
  0.00000000E+00  0.00000000E+00  0.00000000E+00
  0.00000000E+00  0.00000000E+00  0.00000000E+00
  0.00000000E+00  0.00000000E+00  0.00000000E+00
