Ca4 Ga4 F20                             
   1.0000000000000000     
     4.7237350821354003    0.0000000000000000    0.0000000000000003
    -0.0000000000000003    5.3160081438701408    0.0000000000000003
    -0.0000000000000000   -0.0000000000000000   13.6136118283663308
   Ca   Ga   F 
     4     4    20
Direct
  0.7542386604829474  0.6273352765879991  0.6664763152070634
  0.2542386604829474  0.8726647234120009  0.3335236847929366
  0.2457613395170526  0.1273352765879991  0.8335236847929366
  0.7457613395170526  0.3726647234120009  0.1664763152070634
  0.3255266209604954  0.1504235001842034  0.5933252675781517
  0.8255266209604954  0.3495764998158037  0.4066747324218483
  0.6744733790395046  0.6504235001842034  0.9066747324218483
  0.1744733790395046  0.8495764998157966  0.0933252675781517
  0.0270647724649749  0.6310463187337731  0.4412686331434372
  0.5270647724649749  0.8689536812662269  0.5587313668565628
  0.9729352275350251  0.1310463187337731  0.0587313668565628
  0.4729352275350251  0.3689536812662269  0.9412686331434372
  0.5652730764175402  0.5250954785921849  0.3248823630479407
  0.0652730764175402  0.9749045214078151  0.6751176369520522
  0.4347269235824598  0.0250954785921849  0.1751176369520522
  0.9347269235824598  0.4749045214078080  0.8248823630479407
  0.1605912421784268  0.4568065441497637  0.6265744466065968
  0.6605912421784268  0.0431934558502363  0.3734255533934032
  0.8394087578215732  0.9568065441497637  0.8734255533934032
  0.3394087578215732  0.5431934558502363  0.1265744466065968
  0.5555913840936668  0.2155187414843382  0.7079621015640498
  0.0555913840936668  0.2844812585156618  0.2920378984359502
  0.4444086159063332  0.7155187414843382  0.7920378984359502
  0.9444086159063332  0.7844812585156618  0.2079621015640498
  0.6196584482156808  0.3673244388709023  0.5277197062760379
  0.1196584482156808  0.1326755611290977  0.4722802937239621
  0.3803415517843192  0.8673244388709023  0.9722802937239621
  0.8803415517843192  0.6326755611290977  0.0277197062760379

  0.00000000E+00  0.00000000E+00  0.00000000E+00
  0.00000000E+00  0.00000000E+00  0.00000000E+00
  0.00000000E+00  0.00000000E+00  0.00000000E+00
  0.00000000E+00  0.00000000E+00  0.00000000E+00
  0.00000000E+00  0.00000000E+00  0.00000000E+00
  0.00000000E+00  0.00000000E+00  0.00000000E+00
  0.00000000E+00  0.00000000E+00  0.00000000E+00
  0.00000000E+00  0.00000000E+00  0.00000000E+00
  0.00000000E+00  0.00000000E+00  0.00000000E+00
  0.00000000E+00  0.00000000E+00  0.00000000E+00
  0.00000000E+00  0.00000000E+00  0.00000000E+00
  0.00000000E+00  0.00000000E+00  0.00000000E+00
  0.00000000E+00  0.00000000E+00  0.00000000E+00
  0.00000000E+00  0.00000000E+00  0.00000000E+00
  0.00000000E+00  0.00000000E+00  0.00000000E+00
  0.00000000E+00  0.00000000E+00  0.00000000E+00
  0.00000000E+00  0.00000000E+00  0.00000000E+00
  0.00000000E+00  0.00000000E+00  0.00000000E+00
  0.00000000E+00  0.00000000E+00  0.00000000E+00
  0.00000000E+00  0.00000000E+00  0.00000000E+00
  0.00000000E+00  0.00000000E+00  0.00000000E+00
  0.00000000E+00  0.00000000E+00  0.00000000E+00
  0.00000000E+00  0.00000000E+00  0.00000000E+00
  0.00000000E+00  0.00000000E+00  0.00000000E+00
  0.00000000E+00  0.00000000E+00  0.00000000E+00
  0.00000000E+00  0.00000000E+00  0.00000000E+00
  0.00000000E+00  0.00000000E+00  0.00000000E+00
  0.00000000E+00  0.00000000E+00  0.00000000E+00
