InF2                                    
   1.00000000000000     
     6.6517911852558624   -2.5959282879959082   -0.0173514398914256
     6.6517914919216174    2.5959290702207345   -0.0173514786344468
    -1.7115175694919242   -0.0000001397358319    5.4998225425264096
   F    In
     8     4
Direct
  0.8025238976439724  0.9914531529896564  0.0404407351210025
  0.7783626386679572  0.6171194474758508  0.1488997932048122
  0.3828347786554858  0.2216239420842001  0.3510816137331645
  0.0084889791096003  0.1974606519989237  0.4595567756250745
  0.9914531710294980  0.8025238828556169  0.5404407256114965
  0.6171194495688965  0.7783626161636690  0.6488998001507653
  0.2216239329459242  0.3828347748184484  0.8510815976750905
  0.1974606233104765  0.0084890107074571  0.9595567731246319
  0.4999839059460953  0.9999816522159648  0.9999956985806833
  0.2775243802318670  0.7224425766094242  0.2500253747968983
  0.9999816699844146  0.4999839028860436  0.4999957213633976
  0.7224425729058268  0.2775243891947454  0.7500253910129899
 
  0.00000000E+00  0.00000000E+00  0.00000000E+00
  0.00000000E+00  0.00000000E+00  0.00000000E+00
  0.00000000E+00  0.00000000E+00  0.00000000E+00
  0.00000000E+00  0.00000000E+00  0.00000000E+00
  0.00000000E+00  0.00000000E+00  0.00000000E+00
  0.00000000E+00  0.00000000E+00  0.00000000E+00
  0.00000000E+00  0.00000000E+00  0.00000000E+00
  0.00000000E+00  0.00000000E+00  0.00000000E+00
  0.00000000E+00  0.00000000E+00  0.00000000E+00
  0.00000000E+00  0.00000000E+00  0.00000000E+00
  0.00000000E+00  0.00000000E+00  0.00000000E+00
  0.00000000E+00  0.00000000E+00  0.00000000E+00
