MgAl                                    
   1.00000000000000     
     2.0946300247523761    2.0896628547721687    0.0000000000000000
    -0.0309108421937845    4.2091555336792821    0.0000000000000000
     0.0000000000000000    0.0000000000000000    4.3229660039591957
   Al   Mg
     1     1
Direct
  0.0000000000000000  0.0000000000000000  0.0000000000000000
  0.0000000000000000  0.5000000000000000  0.5000000000000000
 
  0.00000000E+00  0.00000000E+00  0.00000000E+00
  0.00000000E+00  0.00000000E+00  0.00000000E+00
