Ca1 Al2 Cl6                             
   1.00000000000000     
     3.4431211709688174    1.9880511377145589    5.6230511326430763
    -3.4431211709688174    1.9880511377145589    5.6230511326430763
     0.0000000000000000   -3.9759240164493996    5.6229881128083319
   Ca   Cl   Al
     1     6     2
Direct
  0.0000000000000000  0.0000000000000000  0.0000000000000000
  0.7330266312629803  0.7330266312629803  0.2669741007042603
  0.7330200191780207  0.2669792877317079  0.2669817892965725
  0.2669792877317079  0.7330200191780207  0.2669817892965725
  0.2669733687370197  0.2669733687370197  0.7330258992957397
  0.7330207122682921  0.2669799808219793  0.7330182107034275
  0.2669799808219793  0.7330207122682921  0.7330182107034275
  0.2500070951739843  0.2500070951739843  0.2499806637949220
  0.7499929048260157  0.7499929048260157  0.7500193362050780
 
  0.00000000E+00  0.00000000E+00  0.00000000E+00
  0.00000000E+00  0.00000000E+00  0.00000000E+00
  0.00000000E+00  0.00000000E+00  0.00000000E+00
  0.00000000E+00  0.00000000E+00  0.00000000E+00
  0.00000000E+00  0.00000000E+00  0.00000000E+00
  0.00000000E+00  0.00000000E+00  0.00000000E+00
  0.00000000E+00  0.00000000E+00  0.00000000E+00
  0.00000000E+00  0.00000000E+00  0.00000000E+00
  0.00000000E+00  0.00000000E+00  0.00000000E+00
