Ca20 Tl4                                
   1.0000000000000000     
     8.5736715147739471    0.0007912666034394   -0.0000281090211111
     0.0013994747295826   15.9340335727148705    0.0007037327329135
    -0.0000244306756795    0.0003128654889223    6.8383952708753624
   Tl   Ca
     4    20
Direct
  0.7387964011592487  0.2501755226082736  0.0527970564174325
  0.2387914396343618  0.2502842873305582  0.4472209364096571
  0.7612131144378793  0.7499923721938231  0.5528213846322245
  0.2612214825021582  0.7498438168660684  0.9472032413942699
  0.6138220414933144  0.7499160704475969  0.1119006853583571
  0.3198421322507770  0.5573074511161380  0.1402793871301427
  0.3200071982617487  0.9428211895456329  0.1398715139373934
  0.0355263921176245  0.1312398874014136  0.1446205165022434
  0.0354101457045601  0.3691912643558126  0.1446752234155184
  0.5352899170202150  0.1311975617853349  0.3553150398999776
  0.5356437498950726  0.3691478677618960  0.3554523326902412
  0.8200035754645825  0.5573809695885075  0.3598564870461658
  0.8198374907729402  0.9428996623589754  0.3600388504911933
  0.1138188933862025  0.7499503883356624  0.3881315391760936
  0.8862146527654389  0.2499782967020607  0.6118842607493775
  0.1800152828053854  0.0571959686246188  0.6399441612810008
  0.1801503571752505  0.4427644095234342  0.6402021724080313
  0.4645835990695772  0.6309646834115696  0.6446777234760077
  0.4644990316558832  0.8688919412262095  0.6445955133263510
  0.9644613489439351  0.6309018610911181  0.8554365673556177
  0.9646235922055411  0.8688317067898765  0.8553478556956335
  0.6801701660181365  0.0571925769245851  0.8599923106197238
  0.6800411326005715  0.4427562490351704  0.8598972544606482
  0.3862168626595874  0.2499739949756616  0.8881379861266723

  0.00000000E+00  0.00000000E+00  0.00000000E+00
  0.00000000E+00  0.00000000E+00  0.00000000E+00
  0.00000000E+00  0.00000000E+00  0.00000000E+00
  0.00000000E+00  0.00000000E+00  0.00000000E+00
  0.00000000E+00  0.00000000E+00  0.00000000E+00
  0.00000000E+00  0.00000000E+00  0.00000000E+00
  0.00000000E+00  0.00000000E+00  0.00000000E+00
  0.00000000E+00  0.00000000E+00  0.00000000E+00
  0.00000000E+00  0.00000000E+00  0.00000000E+00
  0.00000000E+00  0.00000000E+00  0.00000000E+00
  0.00000000E+00  0.00000000E+00  0.00000000E+00
  0.00000000E+00  0.00000000E+00  0.00000000E+00
  0.00000000E+00  0.00000000E+00  0.00000000E+00
  0.00000000E+00  0.00000000E+00  0.00000000E+00
  0.00000000E+00  0.00000000E+00  0.00000000E+00
  0.00000000E+00  0.00000000E+00  0.00000000E+00
  0.00000000E+00  0.00000000E+00  0.00000000E+00
  0.00000000E+00  0.00000000E+00  0.00000000E+00
  0.00000000E+00  0.00000000E+00  0.00000000E+00
  0.00000000E+00  0.00000000E+00  0.00000000E+00
  0.00000000E+00  0.00000000E+00  0.00000000E+00
  0.00000000E+00  0.00000000E+00  0.00000000E+00
  0.00000000E+00  0.00000000E+00  0.00000000E+00
  0.00000000E+00  0.00000000E+00  0.00000000E+00
