Ca23 Tl30                               
   1.0000000000000000     
     0.0014778699934142   -8.5929039035461035    8.5392582378345061
     7.4395640351663870   -4.2996160163095141   -8.5403622385909745
     7.4398334922644205    4.2980159910960518    8.5415602981858019
   Tl   Ca
    30    23
Direct
  0.2122010420367673  0.6683968469410004  0.0714842645938916
  0.4866760813312823  0.7233497943720124  0.0944809089932903
  0.7697934502967456  0.8405459508016264  0.0930071013860854
  0.3572876741895143  0.1587041287621886  0.1261264130698336
  0.0934008224852292  0.2303361879002921  0.1591572406405533
  0.8738259773657830  0.3565554984582064  0.1583874518905759
  0.3314119731288301  0.9287798287756885  0.2122949167678740
  0.8411250031004940  0.0928236211464721  0.2304707855896595
  0.0942490732788031  0.5133739138615141  0.2769944283433858
  0.6322621793464478  0.6621544635773944  0.2829257812410475
  0.0714939567961963  0.7878169748131256  0.3318545279947855
  0.2828543157588683  0.3677521865082340  0.3377611372469360
  0.8414714189315049  0.8733398091977875  0.3567690073438428
  0.6623076532702967  0.2825251304330649  0.3675118644829851
  0.2773566508159178  0.9055447613329690  0.4867502785945987
  0.7233253658469252  0.0942120995900595  0.5134123339762411
  0.3373780525631247  0.7167153042286998  0.6326618269071531
  0.1584400647587287  0.1258877093878255  0.6428591717044227
  0.7165132420662630  0.6324882886576262  0.6625349190389827
  0.9287187818499802  0.2124297003991131  0.6685098514609109
  0.3673677941440587  0.3377232672338266  0.7170379250333951
  0.9053702685793255  0.4868257315370386  0.7226725276068748
  0.1594946426483688  0.9068241290281520  0.7696089044821619
  0.6685693056641497  0.0716063149734012  0.7878860222304809
  0.1254136144904834  0.6429565982447087  0.8418266836954231
  0.9067091302392924  0.7699598314541092  0.8402263366144993
  0.6428557792438454  0.8416901215586634  0.8740458659834971
  0.2308026233756095  0.1593477270749517  0.9067229837237818
  0.5136118062793358  0.2773056524182351  0.9055547126023740
  0.7880232245804351  0.3319266755024799  0.9285181019512336
  0.3298430075586225  0.4346477294029825  0.0702414857656493
  0.0777354235791847  0.9220100664767941  0.0773733757166042
  0.9099549487126666  0.6212199187083058  0.0863063659832548
  0.6215193978305678  0.0856202143942681  0.0899856390983516
  0.5804163091059706  0.3885709458202129  0.1781528146288522
  0.3486497172870600  0.6515574632969319  0.3485430116145025
  0.5655759279660728  0.9299563372003590  0.3297186734676600
  0.8215910187459556  0.5799159334197626  0.3889721512779758
  0.0856847335414272  0.0896282691358863  0.3785873123749610
  0.3886259910520735  0.1781958821052640  0.4197878016760725
  0.9298799780895877  0.3295680157806373  0.4344080733822082
  0.4997759020079400  0.4998992029283116  0.5000843354265641
  0.0703688744718463  0.6704458156672430  0.5653971980914889
  0.6109950981263523  0.8217150981085979  0.5801243282607089
  0.9139500660604156  0.9102085244089650  0.6211920021997557
  0.1779676350406092  0.4198757615753124  0.6114179316741328
  0.4348090680829131  0.0705613646859007  0.6702927446046374
  0.6513969113782139  0.3486759479315253  0.6513699038403615
  0.4195431399260841  0.6113594747486104  0.8219766942908606
  0.3789260641086472  0.9146936640415930  0.9100214507433364
  0.0899898099811409  0.3788041082943252  0.9144301158708643
  0.9227218395360595  0.0779360370192066  0.9222416763028107
  0.6703681693479595  0.5656359766785215  0.9299206385177072

  0.00000000E+00  0.00000000E+00  0.00000000E+00
  0.00000000E+00  0.00000000E+00  0.00000000E+00
  0.00000000E+00  0.00000000E+00  0.00000000E+00
  0.00000000E+00  0.00000000E+00  0.00000000E+00
  0.00000000E+00  0.00000000E+00  0.00000000E+00
  0.00000000E+00  0.00000000E+00  0.00000000E+00
  0.00000000E+00  0.00000000E+00  0.00000000E+00
  0.00000000E+00  0.00000000E+00  0.00000000E+00
  0.00000000E+00  0.00000000E+00  0.00000000E+00
  0.00000000E+00  0.00000000E+00  0.00000000E+00
  0.00000000E+00  0.00000000E+00  0.00000000E+00
  0.00000000E+00  0.00000000E+00  0.00000000E+00
  0.00000000E+00  0.00000000E+00  0.00000000E+00
  0.00000000E+00  0.00000000E+00  0.00000000E+00
  0.00000000E+00  0.00000000E+00  0.00000000E+00
  0.00000000E+00  0.00000000E+00  0.00000000E+00
  0.00000000E+00  0.00000000E+00  0.00000000E+00
  0.00000000E+00  0.00000000E+00  0.00000000E+00
  0.00000000E+00  0.00000000E+00  0.00000000E+00
  0.00000000E+00  0.00000000E+00  0.00000000E+00
  0.00000000E+00  0.00000000E+00  0.00000000E+00
  0.00000000E+00  0.00000000E+00  0.00000000E+00
  0.00000000E+00  0.00000000E+00  0.00000000E+00
  0.00000000E+00  0.00000000E+00  0.00000000E+00
  0.00000000E+00  0.00000000E+00  0.00000000E+00
  0.00000000E+00  0.00000000E+00  0.00000000E+00
  0.00000000E+00  0.00000000E+00  0.00000000E+00
  0.00000000E+00  0.00000000E+00  0.00000000E+00
  0.00000000E+00  0.00000000E+00  0.00000000E+00
  0.00000000E+00  0.00000000E+00  0.00000000E+00
  0.00000000E+00  0.00000000E+00  0.00000000E+00
  0.00000000E+00  0.00000000E+00  0.00000000E+00
  0.00000000E+00  0.00000000E+00  0.00000000E+00
  0.00000000E+00  0.00000000E+00  0.00000000E+00
  0.00000000E+00  0.00000000E+00  0.00000000E+00
  0.00000000E+00  0.00000000E+00  0.00000000E+00
  0.00000000E+00  0.00000000E+00  0.00000000E+00
  0.00000000E+00  0.00000000E+00  0.00000000E+00
  0.00000000E+00  0.00000000E+00  0.00000000E+00
  0.00000000E+00  0.00000000E+00  0.00000000E+00
  0.00000000E+00  0.00000000E+00  0.00000000E+00
  0.00000000E+00  0.00000000E+00  0.00000000E+00
  0.00000000E+00  0.00000000E+00  0.00000000E+00
  0.00000000E+00  0.00000000E+00  0.00000000E+00
  0.00000000E+00  0.00000000E+00  0.00000000E+00
  0.00000000E+00  0.00000000E+00  0.00000000E+00
  0.00000000E+00  0.00000000E+00  0.00000000E+00
  0.00000000E+00  0.00000000E+00  0.00000000E+00
  0.00000000E+00  0.00000000E+00  0.00000000E+00
  0.00000000E+00  0.00000000E+00  0.00000000E+00
  0.00000000E+00  0.00000000E+00  0.00000000E+00
  0.00000000E+00  0.00000000E+00  0.00000000E+00
  0.00000000E+00  0.00000000E+00  0.00000000E+00
