Sr1 Ga2 Cl10                            
   1.00000000000000     
     4.0308921313741850    5.9310579144958586    0.3664816338791644
    -4.0308921313741850    5.9310579144958586    0.3664816338791644
     0.0000000000000000    4.7706194433323557    8.4185128892506196
   Sr   Ga   Cl
     1     2    10
Direct
  0.5582732101449608  0.4417267898550392  0.0000000000000000
  0.0054831309399219  0.0146580632613293  0.7307352492370782
  0.9853419367386707  0.9945168690600781  0.2692647507629218
  0.2145039251168441  0.2600285501654227  0.5912628484500644
  0.7399714498345773  0.7854960748831559  0.4087371515499356
  0.7995302756515201  0.7553922194152776  0.9072730638759339
  0.2446077805847224  0.2004697243484799  0.0927269361240661
  0.9203610997430971  0.0796389002569029  0.0000000000000000
  0.0913909118413727  0.9086090881586273  0.5000000000000000
  0.7058784739191140  0.2838846797296597  0.7064232007707645
  0.7161153202703403  0.2941215260808860  0.2935767992292355
  0.3143640877842273  0.7518226025693409  0.7758226363493819
  0.2481773974306591  0.6856359122157727  0.2241773636506181
 
  0.00000000E+00  0.00000000E+00  0.00000000E+00
  0.00000000E+00  0.00000000E+00  0.00000000E+00
  0.00000000E+00  0.00000000E+00  0.00000000E+00
  0.00000000E+00  0.00000000E+00  0.00000000E+00
  0.00000000E+00  0.00000000E+00  0.00000000E+00
  0.00000000E+00  0.00000000E+00  0.00000000E+00
  0.00000000E+00  0.00000000E+00  0.00000000E+00
  0.00000000E+00  0.00000000E+00  0.00000000E+00
  0.00000000E+00  0.00000000E+00  0.00000000E+00
  0.00000000E+00  0.00000000E+00  0.00000000E+00
  0.00000000E+00  0.00000000E+00  0.00000000E+00
  0.00000000E+00  0.00000000E+00  0.00000000E+00
  0.00000000E+00  0.00000000E+00  0.00000000E+00
