Sr4 B2 I10                              
   1.00000000000000     
     6.4655070098358589   -6.8562714285104205   -0.6843744373157079
     6.4655070098358580    6.8562714285104205   -0.6843744373157080
    -7.1941746302879217   -0.0000000000000001    9.1492040212494512
   I    Sr   B 
    10     4     2
Direct
  0.5167325395358446  0.0243347014774926  0.0160484872909876
  0.0243347014774926  0.5167325395358446  0.0160484872909876
  0.9868008630792318  0.9868008630792318  0.3344207404435835
  0.8103733514728333  0.5337481847421373  0.2651778897909622
  0.5337481847421373  0.8103733514728333  0.2651778897909622
  0.2442145976346382  0.2442145976346382  0.2007181131735152
  0.7709031963504671  0.7709031963504671  0.8068038824640880
  0.4963738774016235  0.2176281503414543  0.7559328314525615
  0.2176281503414543  0.4963738774016235  0.7559328314525615
  0.9846652173942019  0.9846652173942019  0.6654991931153020
  0.8296075382821968  0.1903215595212373  0.0017429916186842
  0.3395848629111313  0.3395848629111313  0.9918419595286210
  0.6518743964254554  0.6518743964254554  0.9809797236980344
  0.1903215595212373  0.8296075382821968  0.0017429916186842
  0.8291040180771461  0.0736329453529123  0.4709659936352395
  0.0736329453529123  0.8291040180771461  0.4709659936352395
 
  0.00000000E+00  0.00000000E+00  0.00000000E+00
  0.00000000E+00  0.00000000E+00  0.00000000E+00
  0.00000000E+00  0.00000000E+00  0.00000000E+00
  0.00000000E+00  0.00000000E+00  0.00000000E+00
  0.00000000E+00  0.00000000E+00  0.00000000E+00
  0.00000000E+00  0.00000000E+00  0.00000000E+00
  0.00000000E+00  0.00000000E+00  0.00000000E+00
  0.00000000E+00  0.00000000E+00  0.00000000E+00
  0.00000000E+00  0.00000000E+00  0.00000000E+00
  0.00000000E+00  0.00000000E+00  0.00000000E+00
  0.00000000E+00  0.00000000E+00  0.00000000E+00
  0.00000000E+00  0.00000000E+00  0.00000000E+00
  0.00000000E+00  0.00000000E+00  0.00000000E+00
  0.00000000E+00  0.00000000E+00  0.00000000E+00
  0.00000000E+00  0.00000000E+00  0.00000000E+00
  0.00000000E+00  0.00000000E+00  0.00000000E+00
