Al4                                     
   1.00000000000000     
     3.9244742154761560    0.0000000000000016   -0.0000000001990204
     0.0000000000000016    3.9244742154761560   -0.0000000001990204
    -1.9622361005542703   -1.9622361005542703    6.2227660523450909
   Al
     4
Direct
  0.2500000000000000  0.7500000000000000  0.5000000000000000
  0.7500000000000000  0.2500000000000000  0.5000000000000000
  0.6026093548630556  0.6026093548630556  0.2052197097264212
  0.3973906451369444  0.3973906451369444  0.7947802902735788
 
  0.00000000E+00  0.00000000E+00  0.00000000E+00
  0.00000000E+00  0.00000000E+00  0.00000000E+00
  0.00000000E+00  0.00000000E+00  0.00000000E+00
  0.00000000E+00  0.00000000E+00  0.00000000E+00
