Ba10 In6                                
   1.0000000000000000     
     7.3325795802141629    0.0000000000000000    0.0000000000000000
    -0.0000000000000000   10.7547320985091854    0.0004370890096786
     0.0000000000000000   -5.3774981902292618    9.3138857633106955
   Ba   In
    10     6
Direct
  0.7500000000000000  0.2663117409654845  0.0000024339582581
  0.2500000000000000  0.7336882590345155  0.9999975660417419
  0.2500000000000000  0.2664117405928366  0.2664115942101972
  0.7500000000000000  0.0000024302794657  0.2663117168772970
  0.0000000541277672  0.6666836902345636  0.3333159776949230
  0.4999999458722328  0.6666836902345636  0.3333159776949230
  0.9999999458722328  0.3333163097654364  0.6666840223050698
  0.5000000541277672  0.3333163097654364  0.6666840223050698
  0.2500000000000000  0.9999975697205343  0.7336882831227030
  0.7500000000000000  0.7335882594071634  0.7335884057898028
  0.2500000000000000  0.3953377984855990  0.9999973533562994
  0.7500000000000000  0.6046622015144010  0.0000026466437006
  0.2500000000000000  0.9999973327322706  0.3953377215179756
  0.7500000000000000  0.3953107251350616  0.3953112317442731
  0.2500000000000000  0.6046892748649384  0.6046887682557269
  0.7500000000000000  0.0000026672677294  0.6046622784820244

  0.00000000E+00  0.00000000E+00  0.00000000E+00
  0.00000000E+00  0.00000000E+00  0.00000000E+00
  0.00000000E+00  0.00000000E+00  0.00000000E+00
  0.00000000E+00  0.00000000E+00  0.00000000E+00
  0.00000000E+00  0.00000000E+00  0.00000000E+00
  0.00000000E+00  0.00000000E+00  0.00000000E+00
  0.00000000E+00  0.00000000E+00  0.00000000E+00
  0.00000000E+00  0.00000000E+00  0.00000000E+00
  0.00000000E+00  0.00000000E+00  0.00000000E+00
  0.00000000E+00  0.00000000E+00  0.00000000E+00
  0.00000000E+00  0.00000000E+00  0.00000000E+00
  0.00000000E+00  0.00000000E+00  0.00000000E+00
  0.00000000E+00  0.00000000E+00  0.00000000E+00
  0.00000000E+00  0.00000000E+00  0.00000000E+00
  0.00000000E+00  0.00000000E+00  0.00000000E+00
  0.00000000E+00  0.00000000E+00  0.00000000E+00
