Be16 Tl16 F80                           
   1.0000000000000000     
    12.8849461932220741    0.0000051990604039    0.0000000000000008
    -0.0000051990604045   12.8849461932220741    0.0000000000000008
     0.0000000000000000    0.0000000000000000    8.3717966606825112
   Be   Tl   F 
    16    16    80
Direct
  0.5930918114345687  0.7323598807115062  0.5721378545004754
  0.2323598807115062  0.9069081885654313  0.0721378545004683
  0.7676401192884867  0.0930918114345687  0.0721378545004683
  0.4069081885654313  0.2676401192884867  0.5721378545004754
  0.2481034393819215  0.0521542703065947  0.5896177347230207
  0.5521542703066089  0.2518965606180714  0.0896177347230136
  0.4478457296933982  0.7481034393819215  0.0896177347230136
  0.7518965606180785  0.9478457296933911  0.5896177347230207
  0.0930918114345687  0.2323598807115062  0.0721378545004683
  0.7323598807115062  0.4069081885654313  0.5721378545004754
  0.2676401192884867  0.5930918114345687  0.5721378545004754
  0.9069081885654313  0.7676401192884867  0.0721378545004683
  0.7481034393819215  0.5521542703066089  0.0896177347230136
  0.0521542703065947  0.7518965606180785  0.5896177347230207
  0.9478457296933911  0.2481034393819215  0.5896177347230207
  0.2518965606180714  0.4478457296933982  0.0896177347230136
  0.0000000000000000  0.0000000000000000  0.6520842457083447
  0.0000000000000000  0.0000000000000000  0.1493407316344602
  0.5000000000000000  0.0000000000000000  0.1216392789974705
  0.5000000000000000  0.0000000000000000  0.6216392789974634
  0.3197423540862161  0.1874316373486593  0.9377599983614999
  0.6874316373486593  0.1802576459137910  0.4377599983615141
  0.3125683626513407  0.8197423540862161  0.4377599983615141
  0.6802576459137839  0.8125683626513407  0.9377599983614999
  0.5000000000000000  0.5000000000000000  0.1520842457083376
  0.5000000000000000  0.5000000000000000  0.6493407316344602
  0.0000000000000000  0.5000000000000000  0.6216392789974634
  0.0000000000000000  0.5000000000000000  0.1216392789974705
  0.8197423540862161  0.6874316373486593  0.4377599983615141
  0.1874316373486593  0.6802576459137839  0.9377599983614999
  0.8125683626513407  0.3197423540862161  0.9377599983614999
  0.1802576459137910  0.3125683626513407  0.4377599983615141
  0.0000000000000000  0.0000000000000000  0.9014610559902607
  0.0000000000000000  0.0000000000000000  0.3981287334486865
  0.1657688837378259  0.9824251048594945  0.6698162704654536
  0.4824251048594874  0.3342311162621669  0.1698162704654536
  0.5175748951405055  0.6657688837378259  0.1698162704654536
  0.8342311162621741  0.0175748951405055  0.6698162704654536
  0.1698312152737387  0.0045567624924203  0.1236283104703659
  0.5045567624924132  0.3301687847262684  0.6236283104703659
  0.4954432375075655  0.6698312152737387  0.6236283104703659
  0.8301687847262613  0.9954432375075868  0.1236283104703659
  0.5000000000000000  0.0000000000000000  0.8701681094443217
  0.5000000000000000  0.0000000000000000  0.3701681094443217
  0.4918720898716415  0.2045874505387388  0.9431992173124542
  0.7045874505387459  0.0081279101283585  0.4431992173124542
  0.2954125494612541  0.9918720898716344  0.4431992173124542
  0.5081279101283656  0.7954125494612541  0.9431992173124542
  0.4387031537845090  0.1583880842580854  0.5228849485523952
  0.6583880842580854  0.0612968462154839  0.0228849485524236
  0.3416119157419146  0.9387031537845090  0.0228849485524236
  0.5612968462154768  0.8416119157419146  0.5228849485523952
  0.3261477936420647  0.2762329587088033  0.7131595422221650
  0.7762329587088104  0.1738522063579282  0.2131595422221650
  0.2237670412911896  0.8261477936420647  0.2131595422221650
  0.6738522063579353  0.7237670412911896  0.7131595422221650
  0.3473648376599030  0.3206607801175849  0.4262438977351266
  0.8206607801175849  0.1526351623400899  0.9262438977351124
  0.1793392198824151  0.8473648376598959  0.9262438977351124
  0.6526351623401041  0.6793392198824151  0.4262438977351266
  0.3276486243911378  0.0693298494110053  0.7330413924537567
  0.5693298494110053  0.1723513756088479  0.2330413924537496
  0.4306701505889947  0.8276486243911449  0.2330413924537496
  0.6723513756088551  0.9306701505889947  0.7330413924537567
  0.3709757802930369  0.1170531852855348  0.1557415725257698
  0.6170531852855348  0.1290242197069702  0.6557415725257769
  0.3829468147144652  0.8709757802930227  0.6557415725257769
  0.6290242197069773  0.8829468147144652  0.1557415725257698
  0.8010142578283634  0.8483361870923005  0.5244556247613517
  0.3483361870923005  0.6989857421716366  0.0244556247613730
  0.6516638129076995  0.3010142578283421  0.0244556247613730
  0.1989857421716437  0.1516638129076995  0.5244556247613517
  0.5000000000000000  0.5000000000000000  0.4014610559902678
  0.5000000000000000  0.5000000000000000  0.8981287334486865
  0.6657688837378259  0.4824251048594874  0.1698162704654536
  0.9824251048594945  0.8342311162621741  0.6698162704654536
  0.0175748951405055  0.1657688837378259  0.6698162704654536
  0.3342311162621669  0.5175748951405055  0.1698162704654536
  0.6698312152737387  0.5045567624924132  0.6236283104703659
  0.0045567624924203  0.8301687847262613  0.1236283104703659
  0.9954432375075868  0.1698312152737387  0.1236283104703659
  0.3301687847262684  0.4954432375075655  0.6236283104703659
  0.0000000000000000  0.5000000000000000  0.3701681094443217
  0.0000000000000000  0.5000000000000000  0.8701681094443217
  0.9918720898716344  0.7045874505387459  0.4431992173124542
  0.2045874505387388  0.5081279101283656  0.9431992173124542
  0.7954125494612541  0.4918720898716415  0.9431992173124542
  0.0081279101283585  0.2954125494612541  0.4431992173124542
  0.9387031537845090  0.6583880842580854  0.0228849485524236
  0.1583880842580854  0.5612968462154768  0.5228849485523952
  0.8416119157419146  0.4387031537845090  0.5228849485523952
  0.0612968462154839  0.3416119157419146  0.0228849485524236
  0.8261477936420647  0.7762329587088104  0.2131595422221650
  0.2762329587088033  0.6738522063579353  0.7131595422221650
  0.7237670412911896  0.3261477936420647  0.7131595422221650
  0.1738522063579282  0.2237670412911896  0.2131595422221650
  0.8473648376598959  0.8206607801175849  0.9262438977351124
  0.3206607801175849  0.6526351623401041  0.4262438977351266
  0.6793392198824151  0.3473648376599030  0.4262438977351266
  0.1526351623400899  0.1793392198824151  0.9262438977351124
  0.8276486243911449  0.5693298494110053  0.2330413924537496
  0.0693298494110053  0.6723513756088551  0.7330413924537567
  0.9306701505889947  0.3276486243911378  0.7330413924537567
  0.1723513756088479  0.4306701505889947  0.2330413924537496
  0.8709757802930227  0.6170531852855348  0.6557415725257769
  0.1170531852855348  0.6290242197069773  0.1557415725257698
  0.8829468147144652  0.3709757802930369  0.1557415725257698
  0.1290242197069702  0.3829468147144652  0.6557415725257769
  0.3010142578283421  0.3483361870923005  0.0244556247613730
  0.8483361870923005  0.1989857421716437  0.5244556247613517
  0.1516638129076995  0.8010142578283634  0.5244556247613517
  0.6989857421716366  0.6516638129076995  0.0244556247613730

  0.00000000E+00  0.00000000E+00  0.00000000E+00
  0.00000000E+00  0.00000000E+00  0.00000000E+00
  0.00000000E+00  0.00000000E+00  0.00000000E+00
  0.00000000E+00  0.00000000E+00  0.00000000E+00
  0.00000000E+00  0.00000000E+00  0.00000000E+00
  0.00000000E+00  0.00000000E+00  0.00000000E+00
  0.00000000E+00  0.00000000E+00  0.00000000E+00
  0.00000000E+00  0.00000000E+00  0.00000000E+00
  0.00000000E+00  0.00000000E+00  0.00000000E+00
  0.00000000E+00  0.00000000E+00  0.00000000E+00
  0.00000000E+00  0.00000000E+00  0.00000000E+00
  0.00000000E+00  0.00000000E+00  0.00000000E+00
  0.00000000E+00  0.00000000E+00  0.00000000E+00
  0.00000000E+00  0.00000000E+00  0.00000000E+00
  0.00000000E+00  0.00000000E+00  0.00000000E+00
  0.00000000E+00  0.00000000E+00  0.00000000E+00
  0.00000000E+00  0.00000000E+00  0.00000000E+00
  0.00000000E+00  0.00000000E+00  0.00000000E+00
  0.00000000E+00  0.00000000E+00  0.00000000E+00
  0.00000000E+00  0.00000000E+00  0.00000000E+00
  0.00000000E+00  0.00000000E+00  0.00000000E+00
  0.00000000E+00  0.00000000E+00  0.00000000E+00
  0.00000000E+00  0.00000000E+00  0.00000000E+00
  0.00000000E+00  0.00000000E+00  0.00000000E+00
  0.00000000E+00  0.00000000E+00  0.00000000E+00
  0.00000000E+00  0.00000000E+00  0.00000000E+00
  0.00000000E+00  0.00000000E+00  0.00000000E+00
  0.00000000E+00  0.00000000E+00  0.00000000E+00
  0.00000000E+00  0.00000000E+00  0.00000000E+00
  0.00000000E+00  0.00000000E+00  0.00000000E+00
  0.00000000E+00  0.00000000E+00  0.00000000E+00
  0.00000000E+00  0.00000000E+00  0.00000000E+00
  0.00000000E+00  0.00000000E+00  0.00000000E+00
  0.00000000E+00  0.00000000E+00  0.00000000E+00
  0.00000000E+00  0.00000000E+00  0.00000000E+00
  0.00000000E+00  0.00000000E+00  0.00000000E+00
  0.00000000E+00  0.00000000E+00  0.00000000E+00
  0.00000000E+00  0.00000000E+00  0.00000000E+00
  0.00000000E+00  0.00000000E+00  0.00000000E+00
  0.00000000E+00  0.00000000E+00  0.00000000E+00
  0.00000000E+00  0.00000000E+00  0.00000000E+00
  0.00000000E+00  0.00000000E+00  0.00000000E+00
  0.00000000E+00  0.00000000E+00  0.00000000E+00
  0.00000000E+00  0.00000000E+00  0.00000000E+00
  0.00000000E+00  0.00000000E+00  0.00000000E+00
  0.00000000E+00  0.00000000E+00  0.00000000E+00
  0.00000000E+00  0.00000000E+00  0.00000000E+00
  0.00000000E+00  0.00000000E+00  0.00000000E+00
  0.00000000E+00  0.00000000E+00  0.00000000E+00
  0.00000000E+00  0.00000000E+00  0.00000000E+00
  0.00000000E+00  0.00000000E+00  0.00000000E+00
  0.00000000E+00  0.00000000E+00  0.00000000E+00
  0.00000000E+00  0.00000000E+00  0.00000000E+00
  0.00000000E+00  0.00000000E+00  0.00000000E+00
  0.00000000E+00  0.00000000E+00  0.00000000E+00
  0.00000000E+00  0.00000000E+00  0.00000000E+00
  0.00000000E+00  0.00000000E+00  0.00000000E+00
  0.00000000E+00  0.00000000E+00  0.00000000E+00
  0.00000000E+00  0.00000000E+00  0.00000000E+00
  0.00000000E+00  0.00000000E+00  0.00000000E+00
  0.00000000E+00  0.00000000E+00  0.00000000E+00
  0.00000000E+00  0.00000000E+00  0.00000000E+00
  0.00000000E+00  0.00000000E+00  0.00000000E+00
  0.00000000E+00  0.00000000E+00  0.00000000E+00
  0.00000000E+00  0.00000000E+00  0.00000000E+00
  0.00000000E+00  0.00000000E+00  0.00000000E+00
  0.00000000E+00  0.00000000E+00  0.00000000E+00
  0.00000000E+00  0.00000000E+00  0.00000000E+00
  0.00000000E+00  0.00000000E+00  0.00000000E+00
  0.00000000E+00  0.00000000E+00  0.00000000E+00
  0.00000000E+00  0.00000000E+00  0.00000000E+00
  0.00000000E+00  0.00000000E+00  0.00000000E+00
  0.00000000E+00  0.00000000E+00  0.00000000E+00
  0.00000000E+00  0.00000000E+00  0.00000000E+00
  0.00000000E+00  0.00000000E+00  0.00000000E+00
  0.00000000E+00  0.00000000E+00  0.00000000E+00
  0.00000000E+00  0.00000000E+00  0.00000000E+00
  0.00000000E+00  0.00000000E+00  0.00000000E+00
  0.00000000E+00  0.00000000E+00  0.00000000E+00
  0.00000000E+00  0.00000000E+00  0.00000000E+00
  0.00000000E+00  0.00000000E+00  0.00000000E+00
  0.00000000E+00  0.00000000E+00  0.00000000E+00
  0.00000000E+00  0.00000000E+00  0.00000000E+00
  0.00000000E+00  0.00000000E+00  0.00000000E+00
  0.00000000E+00  0.00000000E+00  0.00000000E+00
  0.00000000E+00  0.00000000E+00  0.00000000E+00
  0.00000000E+00  0.00000000E+00  0.00000000E+00
  0.00000000E+00  0.00000000E+00  0.00000000E+00
  0.00000000E+00  0.00000000E+00  0.00000000E+00
  0.00000000E+00  0.00000000E+00  0.00000000E+00
  0.00000000E+00  0.00000000E+00  0.00000000E+00
  0.00000000E+00  0.00000000E+00  0.00000000E+00
  0.00000000E+00  0.00000000E+00  0.00000000E+00
  0.00000000E+00  0.00000000E+00  0.00000000E+00
  0.00000000E+00  0.00000000E+00  0.00000000E+00
  0.00000000E+00  0.00000000E+00  0.00000000E+00
  0.00000000E+00  0.00000000E+00  0.00000000E+00
  0.00000000E+00  0.00000000E+00  0.00000000E+00
  0.00000000E+00  0.00000000E+00  0.00000000E+00
  0.00000000E+00  0.00000000E+00  0.00000000E+00
  0.00000000E+00  0.00000000E+00  0.00000000E+00
  0.00000000E+00  0.00000000E+00  0.00000000E+00
  0.00000000E+00  0.00000000E+00  0.00000000E+00
  0.00000000E+00  0.00000000E+00  0.00000000E+00
  0.00000000E+00  0.00000000E+00  0.00000000E+00
  0.00000000E+00  0.00000000E+00  0.00000000E+00
  0.00000000E+00  0.00000000E+00  0.00000000E+00
  0.00000000E+00  0.00000000E+00  0.00000000E+00
  0.00000000E+00  0.00000000E+00  0.00000000E+00
  0.00000000E+00  0.00000000E+00  0.00000000E+00
  0.00000000E+00  0.00000000E+00  0.00000000E+00
  0.00000000E+00  0.00000000E+00  0.00000000E+00
