Ca4 Tl4 F2                              
   1.0000000000000000     
     3.9942252985316955    0.9084293112894440   -0.0865467982938202
    -1.2190783248368746    3.9112128770940138   -0.0823323125496279
     0.4441868278214049    0.5438304707451965   18.5044849669187776
   F    Tl   Ca
     2     4     4
Direct
  0.7945039274250476  0.2071906104355818  0.2499438865380696
  0.2055052676803868  0.7927907164440811  0.7499258170767149
  0.2819807371370260  0.6995188710781761  0.0469099154212529
  0.2957005050431221  0.7229928194136122  0.4531083248988850
  0.7131272809040681  0.2994061706424276  0.5470411481110204
  0.7087596876322735  0.2778647482806704  0.9531581838933221
  0.8024700916241869  0.1760197499309299  0.1349628584029290
  0.8225851910219149  0.2008550823836472  0.3649235252648779
  0.1858577113723214  0.8217928775213252  0.6350503633549778
  0.1895096001596457  0.8015683538695555  0.8650759770379395

  0.00000000E+00  0.00000000E+00  0.00000000E+00
  0.00000000E+00  0.00000000E+00  0.00000000E+00
  0.00000000E+00  0.00000000E+00  0.00000000E+00
  0.00000000E+00  0.00000000E+00  0.00000000E+00
  0.00000000E+00  0.00000000E+00  0.00000000E+00
  0.00000000E+00  0.00000000E+00  0.00000000E+00
  0.00000000E+00  0.00000000E+00  0.00000000E+00
  0.00000000E+00  0.00000000E+00  0.00000000E+00
  0.00000000E+00  0.00000000E+00  0.00000000E+00
  0.00000000E+00  0.00000000E+00  0.00000000E+00
