Be1 B2                                  
   1.00000000000000     
     1.4649844512284729   -2.5374285369078073    0.0000000000000000
     1.4649844512284729    2.5374285369078073    0.0000000000000000
     0.0000000000000000    0.0000000000000000    2.8699226793669630
   Be   B 
     1     2
Direct
  0.0000000000000000  0.0000000000000000  0.0000000000000000
  0.6666669999999968  0.3333330000000032  0.5000000000000000
  0.3333330000000032  0.6666669999999968  0.5000000000000000
 
  0.00000000E+00  0.00000000E+00  0.00000000E+00
  0.00000000E+00  0.00000000E+00  0.00000000E+00
  0.00000000E+00  0.00000000E+00  0.00000000E+00
