Sr3I                                    
   1.00000000000000     
    -2.7164131904812914    2.7164131904812914    6.6428446557113512
     2.7164131904812914   -2.7164131904812914    6.6428446557113512
     2.7164131904812914    2.7164131904812914   -6.6428446557113512
   I    Sr
     1     3
Direct
  0.0000000000000000  0.0000000000000000  0.0000000000000000
  0.7500000000000000  0.2500000000000000  0.5000000000000000
  0.2500000000000000  0.7500000000000000  0.5000000000000000
  0.5000000000000000  0.5000000000000000  0.0000000000000000
 
  0.00000000E+00  0.00000000E+00  0.00000000E+00
  0.00000000E+00  0.00000000E+00  0.00000000E+00
  0.00000000E+00  0.00000000E+00  0.00000000E+00
  0.00000000E+00  0.00000000E+00  0.00000000E+00
