Ba1 Al12                                
   1.00000000000000     
     0.0000000000000000    5.5505238475828653    5.5505238475828653
     5.5505238475828653    0.0000000000000000    5.5505238475828653
     5.5505238475828653    5.5505238475828653    0.0000000000000000
   Al   Ba
    12     1
Direct
  0.8375234840751702  0.5000000000000000  0.1624765159248298
  0.5000000000000000  0.8375234840751702  0.1624765159248298
  0.5000000000000000  0.5000000000000000  0.1624765159248298
  0.5000000000000000  0.1624765159248298  0.5000000000000000
  0.8375234840751702  0.1624765159248298  0.5000000000000000
  0.1624765159248298  0.5000000000000000  0.5000000000000000
  0.8375234840751702  0.5000000000000000  0.5000000000000000
  0.5000000000000000  0.8375234840751702  0.5000000000000000
  0.1624765159248298  0.8375234840751702  0.5000000000000000
  0.5000000000000000  0.1624765159248298  0.8375234840751702
  0.5000000000000000  0.5000000000000000  0.8375234840751702
  0.1624765159248298  0.5000000000000000  0.8375234840751702
  0.0000000000000000  0.0000000000000000  0.0000000000000000
 
  0.00000000E+00  0.00000000E+00  0.00000000E+00
  0.00000000E+00  0.00000000E+00  0.00000000E+00
  0.00000000E+00  0.00000000E+00  0.00000000E+00
  0.00000000E+00  0.00000000E+00  0.00000000E+00
  0.00000000E+00  0.00000000E+00  0.00000000E+00
  0.00000000E+00  0.00000000E+00  0.00000000E+00
  0.00000000E+00  0.00000000E+00  0.00000000E+00
  0.00000000E+00  0.00000000E+00  0.00000000E+00
  0.00000000E+00  0.00000000E+00  0.00000000E+00
  0.00000000E+00  0.00000000E+00  0.00000000E+00
  0.00000000E+00  0.00000000E+00  0.00000000E+00
  0.00000000E+00  0.00000000E+00  0.00000000E+00
  0.00000000E+00  0.00000000E+00  0.00000000E+00
