Ca2                                     
   1.00000000000000     
     1.9377741119738066   -3.3623067029174023    0.0000000000000000
     1.9377741119738066    3.3623067029174023    0.0000000000000000
     0.0000000000000000    0.0000000000000000    6.5208166536217229
   Ca
     2
Direct
  0.8340217593832762  0.1659782406167238  0.2500000000000000
  0.1659782406167238  0.8340217593832762  0.7500000000000000
 
  0.00000000E+00  0.00000000E+00  0.00000000E+00
  0.00000000E+00  0.00000000E+00  0.00000000E+00
