Be4 B4 Br20                             
   1.0000000000000000     
    14.8368340285468019    0.0000000000000000    0.0000000000000000
     0.0000000000000000    6.9512641905744310   -0.2158708875167521
     0.0000000000000000    2.7887661159857857   12.9072246102959447
   Be   B    Br
     4     4    20
Direct
  0.9736171504613935  0.4617427101467015  0.2446898974361176
  0.4736171504613935  0.5382572898533056  0.2553101025638824
  0.0263828495386065  0.5382572898533056  0.7553101025638824
  0.5263828495386065  0.4617427101467015  0.7446898974361176
  0.7389354125993819  0.2385594467532997  0.4817680851187163
  0.2389354125993819  0.7614405532467075  0.0182319148812837
  0.2610645874006181  0.7614405532467075  0.5182319148812837
  0.7610645874006181  0.2385594467532997  0.9817680851187163
  0.6119425237096934  0.2155351990524963  0.5057903472228844
  0.1119425237097005  0.7844648009475037  0.9942096527771227
  0.3880574762903066  0.7844648009475037  0.4942096527771227
  0.8880574762903066  0.2155351990524963  0.0057903472228844
  0.7955248477068224  0.0835443834382232  0.3944956175192758
  0.2955248477068224  0.9164556165617768  0.1055043824807242
  0.2044751522931776  0.9164556165617768  0.6055043824807242
  0.7044751522931776  0.0835443834382232  0.8944956175192758
  0.4340693786265675  0.2574303805603932  0.7665620546383849
  0.9340693786265675  0.7425696194396068  0.7334379453616151
  0.5659306213734325  0.7425696194396068  0.2334379453616151
  0.0659306213734325  0.2574303805603932  0.2665620546383778
  0.6144347588996766  0.6742802889822457  0.7232658141760524
  0.1144347588996695  0.3257197110177543  0.7767341858239476
  0.3855652411003305  0.3257197110177543  0.2767341858239476
  0.8855652411003234  0.6742802889822457  0.2232658141760524
  0.3084317661397336  0.5861865195813252  0.9544268811657233
  0.8084317661397336  0.4138134804186819  0.5455731188342767
  0.6915682338602664  0.4138134804186819  0.0455731188342767
  0.1915682338602664  0.5861865195813252  0.4544268811657233

  0.00000000E+00  0.00000000E+00  0.00000000E+00
  0.00000000E+00  0.00000000E+00  0.00000000E+00
  0.00000000E+00  0.00000000E+00  0.00000000E+00
  0.00000000E+00  0.00000000E+00  0.00000000E+00
  0.00000000E+00  0.00000000E+00  0.00000000E+00
  0.00000000E+00  0.00000000E+00  0.00000000E+00
  0.00000000E+00  0.00000000E+00  0.00000000E+00
  0.00000000E+00  0.00000000E+00  0.00000000E+00
  0.00000000E+00  0.00000000E+00  0.00000000E+00
  0.00000000E+00  0.00000000E+00  0.00000000E+00
  0.00000000E+00  0.00000000E+00  0.00000000E+00
  0.00000000E+00  0.00000000E+00  0.00000000E+00
  0.00000000E+00  0.00000000E+00  0.00000000E+00
  0.00000000E+00  0.00000000E+00  0.00000000E+00
  0.00000000E+00  0.00000000E+00  0.00000000E+00
  0.00000000E+00  0.00000000E+00  0.00000000E+00
  0.00000000E+00  0.00000000E+00  0.00000000E+00
  0.00000000E+00  0.00000000E+00  0.00000000E+00
  0.00000000E+00  0.00000000E+00  0.00000000E+00
  0.00000000E+00  0.00000000E+00  0.00000000E+00
  0.00000000E+00  0.00000000E+00  0.00000000E+00
  0.00000000E+00  0.00000000E+00  0.00000000E+00
  0.00000000E+00  0.00000000E+00  0.00000000E+00
  0.00000000E+00  0.00000000E+00  0.00000000E+00
  0.00000000E+00  0.00000000E+00  0.00000000E+00
  0.00000000E+00  0.00000000E+00  0.00000000E+00
  0.00000000E+00  0.00000000E+00  0.00000000E+00
  0.00000000E+00  0.00000000E+00  0.00000000E+00
