Be17 B11 Br1                            
   1.00000000000000     
     5.2345749516010258   -2.4177642094691301    2.3503087893237704
     1.1292479493648013    7.2065889995795578    3.2373507166125415
    -5.7755278573177335   -3.8921910425625068    1.4409383394648663
   B    Br   Be
    11     1    17
Direct
  0.6944602930728863  0.0217844817986830  0.0000733879443402
  0.3616852587271850  0.3120568493547538  0.1784472662565619
  0.2454301765823459  0.9733995878903343  0.2776689416323350
  0.8795316369995376  0.3014194610259437  0.1656382579804969
  0.2041712706660661  0.3868535067952337  0.3470510643855178
  0.3805582883975234  0.2300723901065638  0.3706518770951064
  0.0097215035967295  0.8594195472099102  0.6292302035369275
  0.8571039022343570  0.0399828109295512  0.6530627726496192
  0.7139093797027272  0.1359436405711776  0.8343768633284299
  0.9676037290037129  0.6958729271393267  0.7222460486053492
  0.1832319777460611  0.1336562989824088  0.8215054613871828
  0.6031119252173411  0.6270827493809605  0.0001279235308047
  0.0411282029287960  0.3398121382929062  0.0001207830296082
  0.1472782536720416  0.6573234552671536  0.9995854749199466
  0.3001336887655910  0.9818606847857936  0.9999114581477713
  0.5320722591435540  0.2221130009670986  0.0000126859754204
  0.8995412370818343  0.8425104363327804  0.0000279109478143
  0.7008660061842065  0.5265735289398989  0.3616811522927250
  0.0623106376661724  0.5966168679151806  0.4553629551189928
  0.7062764768274050  0.9838644173970650  0.2605002672255949
  0.0385495362562054  0.1680709022458160  0.3302524706476149
  0.3633059338129101  0.5969771033066635  0.3476048185451859
  0.7921473106399972  0.4199191809989244  0.5921750076105070
  0.1994416819426235  0.8272284160214980  0.4071380742295787
  0.0159952711107110  0.2498258604347257  0.6527836378625551
  0.7081682571369967  0.8378910965206359  0.6696790296609123
  0.4461250755292596  0.7234713448770691  0.7398431073364122
  0.6073279145089856  0.1418745737319966  0.5450602374526170
  0.3392269148462645  0.1646787407799835  0.6381808606640575
 
  0.00000000E+00  0.00000000E+00  0.00000000E+00
  0.00000000E+00  0.00000000E+00  0.00000000E+00
  0.00000000E+00  0.00000000E+00  0.00000000E+00
  0.00000000E+00  0.00000000E+00  0.00000000E+00
  0.00000000E+00  0.00000000E+00  0.00000000E+00
  0.00000000E+00  0.00000000E+00  0.00000000E+00
  0.00000000E+00  0.00000000E+00  0.00000000E+00
  0.00000000E+00  0.00000000E+00  0.00000000E+00
  0.00000000E+00  0.00000000E+00  0.00000000E+00
  0.00000000E+00  0.00000000E+00  0.00000000E+00
  0.00000000E+00  0.00000000E+00  0.00000000E+00
  0.00000000E+00  0.00000000E+00  0.00000000E+00
  0.00000000E+00  0.00000000E+00  0.00000000E+00
  0.00000000E+00  0.00000000E+00  0.00000000E+00
  0.00000000E+00  0.00000000E+00  0.00000000E+00
  0.00000000E+00  0.00000000E+00  0.00000000E+00
  0.00000000E+00  0.00000000E+00  0.00000000E+00
  0.00000000E+00  0.00000000E+00  0.00000000E+00
  0.00000000E+00  0.00000000E+00  0.00000000E+00
  0.00000000E+00  0.00000000E+00  0.00000000E+00
  0.00000000E+00  0.00000000E+00  0.00000000E+00
  0.00000000E+00  0.00000000E+00  0.00000000E+00
  0.00000000E+00  0.00000000E+00  0.00000000E+00
  0.00000000E+00  0.00000000E+00  0.00000000E+00
  0.00000000E+00  0.00000000E+00  0.00000000E+00
  0.00000000E+00  0.00000000E+00  0.00000000E+00
  0.00000000E+00  0.00000000E+00  0.00000000E+00
  0.00000000E+00  0.00000000E+00  0.00000000E+00
  0.00000000E+00  0.00000000E+00  0.00000000E+00
