Ca2 In2 I10                             
   1.0000000000000000     
     5.8956944957555324   -0.0000000000000003    0.0000000000000003
    -0.0000000000000012   13.1304724424560639    0.0000000000000007
     0.0000000000000001    0.0000000000000004   10.7189997514848088
   Ca   In   I 
     2     2    10
Direct
  0.0000000000000000  0.0000000000000000  0.5000000000000000
  0.5000000000000000  0.5000000000000000  0.0000000000000000
  0.5000000000000000  0.0000000000000000  0.0000000000000000
  0.0000000000000000  0.5000000000000000  0.5000000000000000
  0.5000000000000000  0.7240231398853112  0.5000000000000000
  0.5000000000000000  0.2759768601146888  0.5000000000000000
  0.5000000000000000  0.0000000000000000  0.6744447540889595
  0.5000000000000000  0.0000000000000000  0.3255552459110405
  0.0000000000000000  0.0000000000000000  0.0000000000000000
  0.0000000000000000  0.2240231398853112  0.0000000000000000
  0.0000000000000000  0.7759768601146888  0.0000000000000000
  0.0000000000000000  0.5000000000000000  0.1744447540889595
  0.0000000000000000  0.5000000000000000  0.8255552459110405
  0.5000000000000000  0.5000000000000000  0.5000000000000000

  0.00000000E+00  0.00000000E+00  0.00000000E+00
  0.00000000E+00  0.00000000E+00  0.00000000E+00
  0.00000000E+00  0.00000000E+00  0.00000000E+00
  0.00000000E+00  0.00000000E+00  0.00000000E+00
  0.00000000E+00  0.00000000E+00  0.00000000E+00
  0.00000000E+00  0.00000000E+00  0.00000000E+00
  0.00000000E+00  0.00000000E+00  0.00000000E+00
  0.00000000E+00  0.00000000E+00  0.00000000E+00
  0.00000000E+00  0.00000000E+00  0.00000000E+00
  0.00000000E+00  0.00000000E+00  0.00000000E+00
  0.00000000E+00  0.00000000E+00  0.00000000E+00
  0.00000000E+00  0.00000000E+00  0.00000000E+00
  0.00000000E+00  0.00000000E+00  0.00000000E+00
  0.00000000E+00  0.00000000E+00  0.00000000E+00
