Ca1 Al2 Br10                            
   1.00000000000000     
     4.1195555634968324    5.7807440988470757   -0.0798057705655623
    -4.1195555634968315    5.7807440988470749   -0.0798057705655624
     0.0000000000000001    4.1949079407989593    9.1454664405522834
   Ca   Al   Br
     1     2    10
Direct
  0.5583945530609071  0.4416054469390929  0.0000000000000000
  0.0012391677794952  0.0120193356024956  0.7399694689908713
  0.9879806643975044  0.9987608322205048  0.2600305310091287
  0.2079529204949893  0.2558898596395096  0.6349551540231104
  0.7441101403604904  0.7920470795050107  0.3650448459768896
  0.7979439619499118  0.7433494804546612  0.8606629458632327
  0.2566505195453388  0.2020560380500882  0.1393370541367673
  0.9131799146075750  0.0868200853924250  0.0000000000000000
  0.0930601007050882  0.9069398992949118  0.5000000000000000
  0.6882863043510525  0.2797115087907258  0.7117511133086012
  0.7202884912092742  0.3117136956489475  0.2882488866913988
  0.3079371270598870  0.7330248655215215  0.7920575370277234
  0.2669751344784785  0.6920628729401272  0.2079424629722766
 
  0.00000000E+00  0.00000000E+00  0.00000000E+00
  0.00000000E+00  0.00000000E+00  0.00000000E+00
  0.00000000E+00  0.00000000E+00  0.00000000E+00
  0.00000000E+00  0.00000000E+00  0.00000000E+00
  0.00000000E+00  0.00000000E+00  0.00000000E+00
  0.00000000E+00  0.00000000E+00  0.00000000E+00
  0.00000000E+00  0.00000000E+00  0.00000000E+00
  0.00000000E+00  0.00000000E+00  0.00000000E+00
  0.00000000E+00  0.00000000E+00  0.00000000E+00
  0.00000000E+00  0.00000000E+00  0.00000000E+00
  0.00000000E+00  0.00000000E+00  0.00000000E+00
  0.00000000E+00  0.00000000E+00  0.00000000E+00
  0.00000000E+00  0.00000000E+00  0.00000000E+00
