Ca4 B4 Cl20                             
   1.0000000000000000     
     8.2294092110199966    0.0000000000000000    0.0000000000000000
     0.0000000000000000   15.7867889629397986   -5.5129237917821445
     0.0000000000000000    1.4338397783857308    7.1120503848230294
   Ca   B    Cl
     4     4    20
Direct
  0.1249939857419449  0.4984776107451836  0.2501551740744929
  0.6249939857419449  0.5015223892548164  0.2498448259255071
  0.8750060142580551  0.5015223892548164  0.7498448259255071
  0.3750060142580551  0.4984776107451836  0.7501551740744929
  0.8804433841852628  0.8627719098826319  0.7089395619676182
  0.3804433841852628  0.1372280901173681  0.7910604380323818
  0.1195566158147372  0.1372280901173681  0.2910604380323818
  0.6195566158147372  0.8627719098826319  0.2089395619676182
  0.6265483747133658  0.4161577368229885  0.5538265769996045
  0.1265483747133658  0.5838422631770115  0.9461734230004026
  0.3734516252866342  0.5838422631770115  0.4461734230004026
  0.8734516252866342  0.4161577368229885  0.0538265769995974
  0.8909938765631580  0.9676917619927394  0.7326795966024804
  0.3909938765631509  0.0323082380072606  0.7673204033975196
  0.1090061234368491  0.0323082380072606  0.2673204033975196
  0.6090061234368420  0.9676917619927394  0.2326795966024804
  0.5580932882753729  0.1948692097295037  0.8075226879131847
  0.0580932882753800  0.8051307902704963  0.6924773120868153
  0.4419067117246200  0.8051307902704963  0.1924773120868153
  0.9419067117246271  0.1948692097295037  0.3075226879131847
  0.6909186265325431  0.8147577619386084  0.7018515045245337
  0.1909186265325431  0.1852422380613845  0.7981484954754663
  0.3090813734674498  0.1852422380613845  0.2981484954754734
  0.8090813734674569  0.8147577619386084  0.2018515045245266
  0.3764548366268059  0.4156575251767194  0.0575089536904585
  0.8764548366268059  0.5843424748232806  0.4424910463095486
  0.6235451633731941  0.5843424748232806  0.9424910463095486
  0.1235451633731941  0.4156575251767194  0.5575089536904514

  0.00000000E+00  0.00000000E+00  0.00000000E+00
  0.00000000E+00  0.00000000E+00  0.00000000E+00
  0.00000000E+00  0.00000000E+00  0.00000000E+00
  0.00000000E+00  0.00000000E+00  0.00000000E+00
  0.00000000E+00  0.00000000E+00  0.00000000E+00
  0.00000000E+00  0.00000000E+00  0.00000000E+00
  0.00000000E+00  0.00000000E+00  0.00000000E+00
  0.00000000E+00  0.00000000E+00  0.00000000E+00
  0.00000000E+00  0.00000000E+00  0.00000000E+00
  0.00000000E+00  0.00000000E+00  0.00000000E+00
  0.00000000E+00  0.00000000E+00  0.00000000E+00
  0.00000000E+00  0.00000000E+00  0.00000000E+00
  0.00000000E+00  0.00000000E+00  0.00000000E+00
  0.00000000E+00  0.00000000E+00  0.00000000E+00
  0.00000000E+00  0.00000000E+00  0.00000000E+00
  0.00000000E+00  0.00000000E+00  0.00000000E+00
  0.00000000E+00  0.00000000E+00  0.00000000E+00
  0.00000000E+00  0.00000000E+00  0.00000000E+00
  0.00000000E+00  0.00000000E+00  0.00000000E+00
  0.00000000E+00  0.00000000E+00  0.00000000E+00
  0.00000000E+00  0.00000000E+00  0.00000000E+00
  0.00000000E+00  0.00000000E+00  0.00000000E+00
  0.00000000E+00  0.00000000E+00  0.00000000E+00
  0.00000000E+00  0.00000000E+00  0.00000000E+00
  0.00000000E+00  0.00000000E+00  0.00000000E+00
  0.00000000E+00  0.00000000E+00  0.00000000E+00
  0.00000000E+00  0.00000000E+00  0.00000000E+00
  0.00000000E+00  0.00000000E+00  0.00000000E+00
