Be10 B4 F32                             
   1.00000000000000     
     3.6675888563073400   -3.6710438232116616    0.0000000000000000
     3.6675888563073400    3.6710438232116616    0.0000000000000000
     0.0000000000000000    0.0000000000000000   17.6495264340109159
   Be   B    F 
    10     4    32
Direct
  0.0000000000000000  0.0000000000000000  0.7955799279991780
  0.0000000000000000  0.0000000000000000  0.2044200720008220
  0.5000000000000000  0.5000000000000000  0.7044200720008220
  0.5000000000000000  0.5000000000000000  0.2955799279991780
  0.5000000000000000  0.5000000000000000  0.5000000000000000
  0.0000000000000000  0.0000000000000000  0.0000000000000000
  0.0000000000000000  0.5000000000000000  0.6988036930381796
  0.5000000000000000  0.0000000000000000  0.3011963069618204
  0.5000000000000000  0.0000000000000000  0.8011963069618204
  0.0000000000000000  0.5000000000000000  0.1988036930381796
  0.5000000000000000  0.0000000000000000  0.5872826421259276
  0.0000000000000000  0.5000000000000000  0.4127173578740653
  0.0000000000000000  0.5000000000000000  0.9127173578740724
  0.5000000000000000  0.0000000000000000  0.0872826421259347
  0.2754566289193292  0.9995753173615824  0.6249771413011018
  0.7245433710806708  0.0004246826384176  0.6249771413011018
  0.9995753173615824  0.2754566289193292  0.3750228586988982
  0.0004246826384176  0.7245433710806708  0.3750228586988982
  0.2245433710806708  0.5004246826384176  0.8750228586988982
  0.7754566289193292  0.4995753173615824  0.8750228586988982
  0.5004246826384176  0.2245433710806708  0.1249771413010947
  0.4995753173615824  0.7754566289193292  0.1249771413010947
  0.0000773758824195  0.7508654589087200  0.7475176446405598
  0.9999226241175805  0.2491345410912800  0.7475176446405598
  0.7508654589087200  0.0000773758824195  0.2524823553594402
  0.2491345410912800  0.9999226241175805  0.2524823553594402
  0.4999226241175734  0.7491345410912800  0.7524823553594402
  0.5000773758824195  0.2508654589087200  0.7524823553594402
  0.7206230190162941  0.9997794242848457  0.0338895507776868
  0.2793769809837059  0.0002205757151543  0.0338895507776868
  0.9997794242848457  0.7206230190162941  0.9661104492223132
  0.0002205757151543  0.2793769809837059  0.9661104492223132
  0.7793769809837059  0.5002205757151543  0.4661104492223132
  0.2206230190162941  0.4997794242848457  0.4661104492223132
  0.5002205757151543  0.7793769809837059  0.5338895507776868
  0.4997794242848457  0.2206230190162941  0.5338895507776868
  0.9997725292842787  0.7546563288511408  0.1524250722269613
  0.0002274707157213  0.2453436711488592  0.1524250722269613
  0.7546563288511408  0.9997725292842787  0.8475749277730387
  0.2453436711488592  0.0002274707157213  0.8475749277730387
  0.5002274707157213  0.7453436711488663  0.3475749277730387
  0.4997725292842787  0.2546563288511408  0.3475749277730387
  0.7453436711488592  0.5002274707157213  0.6524250722269613
  0.2546563288511408  0.4997725292842787  0.6524250722269613
  0.2508654589087200  0.5000773758824195  0.2475176446405598
  0.7491345410912800  0.4999226241175805  0.2475176446405598
 
  0.00000000E+00  0.00000000E+00  0.00000000E+00
  0.00000000E+00  0.00000000E+00  0.00000000E+00
  0.00000000E+00  0.00000000E+00  0.00000000E+00
  0.00000000E+00  0.00000000E+00  0.00000000E+00
  0.00000000E+00  0.00000000E+00  0.00000000E+00
  0.00000000E+00  0.00000000E+00  0.00000000E+00
  0.00000000E+00  0.00000000E+00  0.00000000E+00
  0.00000000E+00  0.00000000E+00  0.00000000E+00
  0.00000000E+00  0.00000000E+00  0.00000000E+00
  0.00000000E+00  0.00000000E+00  0.00000000E+00
  0.00000000E+00  0.00000000E+00  0.00000000E+00
  0.00000000E+00  0.00000000E+00  0.00000000E+00
  0.00000000E+00  0.00000000E+00  0.00000000E+00
  0.00000000E+00  0.00000000E+00  0.00000000E+00
  0.00000000E+00  0.00000000E+00  0.00000000E+00
  0.00000000E+00  0.00000000E+00  0.00000000E+00
  0.00000000E+00  0.00000000E+00  0.00000000E+00
  0.00000000E+00  0.00000000E+00  0.00000000E+00
  0.00000000E+00  0.00000000E+00  0.00000000E+00
  0.00000000E+00  0.00000000E+00  0.00000000E+00
  0.00000000E+00  0.00000000E+00  0.00000000E+00
  0.00000000E+00  0.00000000E+00  0.00000000E+00
  0.00000000E+00  0.00000000E+00  0.00000000E+00
  0.00000000E+00  0.00000000E+00  0.00000000E+00
  0.00000000E+00  0.00000000E+00  0.00000000E+00
  0.00000000E+00  0.00000000E+00  0.00000000E+00
  0.00000000E+00  0.00000000E+00  0.00000000E+00
  0.00000000E+00  0.00000000E+00  0.00000000E+00
  0.00000000E+00  0.00000000E+00  0.00000000E+00
  0.00000000E+00  0.00000000E+00  0.00000000E+00
  0.00000000E+00  0.00000000E+00  0.00000000E+00
  0.00000000E+00  0.00000000E+00  0.00000000E+00
  0.00000000E+00  0.00000000E+00  0.00000000E+00
  0.00000000E+00  0.00000000E+00  0.00000000E+00
  0.00000000E+00  0.00000000E+00  0.00000000E+00
  0.00000000E+00  0.00000000E+00  0.00000000E+00
  0.00000000E+00  0.00000000E+00  0.00000000E+00
  0.00000000E+00  0.00000000E+00  0.00000000E+00
  0.00000000E+00  0.00000000E+00  0.00000000E+00
  0.00000000E+00  0.00000000E+00  0.00000000E+00
  0.00000000E+00  0.00000000E+00  0.00000000E+00
  0.00000000E+00  0.00000000E+00  0.00000000E+00
  0.00000000E+00  0.00000000E+00  0.00000000E+00
  0.00000000E+00  0.00000000E+00  0.00000000E+00
  0.00000000E+00  0.00000000E+00  0.00000000E+00
  0.00000000E+00  0.00000000E+00  0.00000000E+00
