Be1 Ga2 Br10                            
   1.00000000000000     
     4.9502334008917375    6.2873724638410522   -0.1019650721323057
    -4.9502334008917375    6.2873724638410522   -0.1019650721323057
     0.0000000000000000    4.2481320905473732    8.7426608322598689
   Be   Ga   Br
     1     2    10
Direct
  0.3552866894384579  0.6447133105615421  0.0000000000000000
  0.0932208712334628  0.9656065886790444  0.7155064984605488
  0.0343934113209556  0.9067791287665372  0.2844935015394512
  0.2849417631283515  0.1676240010804761  0.6491696424721454
  0.8323759989195239  0.7150582368716414  0.3508303575278546
  0.5772253330177222  0.6844226778927691  0.8145946007724802
  0.3155773221072309  0.4227746669822778  0.1854053992275198
  0.8258343495176561  0.1741656504823439  0.0000000000000000
  0.1678832020411178  0.8321167979588822  0.5000000000000000
  0.7852444370167362  0.1193562184676153  0.7667967219671326
  0.8806437815323775  0.2147555629832638  0.2332032780328674
  0.0894619933481593  0.6980901526217593  0.9155753252358210
  0.3019098473782407  0.9105380066518407  0.0844246747641790
 
  0.00000000E+00  0.00000000E+00  0.00000000E+00
  0.00000000E+00  0.00000000E+00  0.00000000E+00
  0.00000000E+00  0.00000000E+00  0.00000000E+00
  0.00000000E+00  0.00000000E+00  0.00000000E+00
  0.00000000E+00  0.00000000E+00  0.00000000E+00
  0.00000000E+00  0.00000000E+00  0.00000000E+00
  0.00000000E+00  0.00000000E+00  0.00000000E+00
  0.00000000E+00  0.00000000E+00  0.00000000E+00
  0.00000000E+00  0.00000000E+00  0.00000000E+00
  0.00000000E+00  0.00000000E+00  0.00000000E+00
  0.00000000E+00  0.00000000E+00  0.00000000E+00
  0.00000000E+00  0.00000000E+00  0.00000000E+00
  0.00000000E+00  0.00000000E+00  0.00000000E+00
