Tl12 I28                                
   1.0000000000000000     
    14.5024681656387315    0.0036076059755896    0.0002064513173671
     0.0030151215707932   11.2399985853150923    0.0008461266227487
    -0.0002869632644205    0.0009403381171694   12.5547447301332831
   I    Tl
    28    12
Direct
  0.1571936661822377  0.6329922906763699  0.1191425501477141
  0.6576817812641238  0.8676092498214629  0.1186231549435135
  0.7533303926396329  0.2506266207867895  0.1309750653202713
  0.2530566865708366  0.2488801699329386  0.1313032283400517
  0.4716320823792444  0.5427190632145980  0.1301304952939120
  0.9712217551929427  0.9548481954353747  0.1308345844485856
  0.5007901780911510  0.1924327178520429  0.3260150347247688
  0.0006152513795641  0.3056604586669707  0.3261022840512737
  0.7047538760349070  0.5617044498205104  0.3103907949699902
  0.2071301878640384  0.9387642706406609  0.3113891712849721
  0.7769703742053125  0.0089375563955443  0.4299946868354780
  0.2779015940606016  0.4910824759557713  0.4299134869007304
  0.9926187039820533  0.6712396803878136  0.4157940619116971
  0.4940034548869434  0.8256056486907468  0.4169734710111399
  0.3446441471909765  0.1307313270963206  0.6202774292314928
  0.8403880823181638  0.3677446934638340  0.6185958032152499
  0.7470158080307243  0.7514624658744111  0.6313874002972000
  0.2466094394623113  0.7489443069011728  0.6313223846487972
  0.0307341432737971  0.0470449879739760  0.6302322820309740
  0.5287629217161438  0.4560394385135780  0.6305601003014729
  0.9988830738015366  0.6950386775527733  0.8252441518905087
  0.4990685617128747  0.8060183833685244  0.8259825045206171
  0.7952942571370230  0.0615039104570911  0.8106803128997910
  0.2925911561724988  0.4378922254726660  0.8105662623050804
  0.7235490853650361  0.5095654983386524  0.9298257999218293
  0.2226418337302931  0.9907428734649386  0.9307426582484624
  0.5076741404333021  0.1726143551533283  0.9153152246290617
  0.0054567954222762  0.3286959327314065  0.9187167091220587
  0.9095071574702303  0.6608922518583924  0.1536645203476255
  0.4107119432303179  0.8367211211074590  0.1555939788324210
  0.8836078476388067  0.1169105481839736  0.2729033194938637
  0.3838992377653838  0.3817091721679517  0.2730822424917960
  0.8245715546909480  0.5698041792535733  0.4864111533211073
  0.3269366193548606  0.9300218273080958  0.4874451905614379
  0.5909965928044656  0.1622064416977125  0.6531376164024323
  0.0860463066113724  0.3432984491969648  0.6571421880843999
  0.6165750853745067  0.6175563888319218  0.7728851585304071
  0.1165343205879594  0.8836722668623551  0.7726867545129750
  0.6748931044725666  0.0690910123810653  0.9862917032415410
  0.1739267994980338  0.4307744165102747  0.9877250807332842

  0.00000000E+00  0.00000000E+00  0.00000000E+00
  0.00000000E+00  0.00000000E+00  0.00000000E+00
  0.00000000E+00  0.00000000E+00  0.00000000E+00
  0.00000000E+00  0.00000000E+00  0.00000000E+00
  0.00000000E+00  0.00000000E+00  0.00000000E+00
  0.00000000E+00  0.00000000E+00  0.00000000E+00
  0.00000000E+00  0.00000000E+00  0.00000000E+00
  0.00000000E+00  0.00000000E+00  0.00000000E+00
  0.00000000E+00  0.00000000E+00  0.00000000E+00
  0.00000000E+00  0.00000000E+00  0.00000000E+00
  0.00000000E+00  0.00000000E+00  0.00000000E+00
  0.00000000E+00  0.00000000E+00  0.00000000E+00
  0.00000000E+00  0.00000000E+00  0.00000000E+00
  0.00000000E+00  0.00000000E+00  0.00000000E+00
  0.00000000E+00  0.00000000E+00  0.00000000E+00
  0.00000000E+00  0.00000000E+00  0.00000000E+00
  0.00000000E+00  0.00000000E+00  0.00000000E+00
  0.00000000E+00  0.00000000E+00  0.00000000E+00
  0.00000000E+00  0.00000000E+00  0.00000000E+00
  0.00000000E+00  0.00000000E+00  0.00000000E+00
  0.00000000E+00  0.00000000E+00  0.00000000E+00
  0.00000000E+00  0.00000000E+00  0.00000000E+00
  0.00000000E+00  0.00000000E+00  0.00000000E+00
  0.00000000E+00  0.00000000E+00  0.00000000E+00
  0.00000000E+00  0.00000000E+00  0.00000000E+00
  0.00000000E+00  0.00000000E+00  0.00000000E+00
  0.00000000E+00  0.00000000E+00  0.00000000E+00
  0.00000000E+00  0.00000000E+00  0.00000000E+00
  0.00000000E+00  0.00000000E+00  0.00000000E+00
  0.00000000E+00  0.00000000E+00  0.00000000E+00
  0.00000000E+00  0.00000000E+00  0.00000000E+00
  0.00000000E+00  0.00000000E+00  0.00000000E+00
  0.00000000E+00  0.00000000E+00  0.00000000E+00
  0.00000000E+00  0.00000000E+00  0.00000000E+00
  0.00000000E+00  0.00000000E+00  0.00000000E+00
  0.00000000E+00  0.00000000E+00  0.00000000E+00
  0.00000000E+00  0.00000000E+00  0.00000000E+00
  0.00000000E+00  0.00000000E+00  0.00000000E+00
  0.00000000E+00  0.00000000E+00  0.00000000E+00
  0.00000000E+00  0.00000000E+00  0.00000000E+00
