Mg4 Al4 Br2                             
   1.00000000000000     
     4.2024919827260039   -0.0985920431391435   -1.1628015686555304
    -2.2047469398827575    3.9162926176750967    0.5998006856200596
    -3.9917818252602442    0.2956421680610384   17.8725606445032028
   Al   Mg   Br
     4     4     2
Direct
  0.3386809177695795  0.6687176250410332  0.9997365231331372
  0.3383281783893608  0.6683732201492916  0.5001041998665485
  0.6604751680963261  0.3298372308843156  0.4997871147878286
  0.6624153191485860  0.3301576925391672  0.0001904612966186
  0.1938326351260073  0.9932003510087029  0.1024902896331739
  0.7897558367567328  0.9964334663935972  0.3974343351494483
  0.2090190200960578  0.0011871894863518  0.6024383831644684
  0.8073284882864584  0.0051563098476279  0.8974262731102485
  0.7414621925642422  0.1322723587885051  0.2494292644733562
  0.2587022437666633  0.8746645558614006  0.7505571553851524
 
  0.00000000E+00  0.00000000E+00  0.00000000E+00
  0.00000000E+00  0.00000000E+00  0.00000000E+00
  0.00000000E+00  0.00000000E+00  0.00000000E+00
  0.00000000E+00  0.00000000E+00  0.00000000E+00
  0.00000000E+00  0.00000000E+00  0.00000000E+00
  0.00000000E+00  0.00000000E+00  0.00000000E+00
  0.00000000E+00  0.00000000E+00  0.00000000E+00
  0.00000000E+00  0.00000000E+00  0.00000000E+00
  0.00000000E+00  0.00000000E+00  0.00000000E+00
  0.00000000E+00  0.00000000E+00  0.00000000E+00
