Sr4 B4 Cl20                             
   1.0000000000000000     
     8.1298699950812381   -0.0000000000000001    0.0000000000000006
    -0.0000000000000006    6.9745934949797270    0.0000000000000006
     0.0000000000000007    0.0000000000000002   17.5718494865292101
   Sr   B    Cl
     4     4    20
Direct
  0.7229926920723173  0.4896260557968191  0.2540283829321908
  0.2229926920723173  0.0103739442031880  0.7459716170678092
  0.2770073079276756  0.9896260557968191  0.2459716170678092
  0.7770073079276756  0.5103739442031809  0.7540283829321908
  0.9792573309935335  0.8050786108879819  0.3813167195492682
  0.4792573309935335  0.6949213891120181  0.6186832804507247
  0.0207426690064665  0.3050786108879819  0.1186832804507247
  0.5207426690064665  0.1949213891120181  0.8813167195492682
  0.8555916813316884  0.5894274481945203  0.4080805235591711
  0.3555916813316813  0.9105725518054726  0.5919194764408289
  0.1444083186683116  0.0894274481945274  0.0919194764408289
  0.6444083186683116  0.4105725518054797  0.9080805235591711
  0.9184785110393250  0.8701225447206582  0.2772561325369196
  0.4184785110393250  0.6298774552793418  0.7227438674630804
  0.0815214889606750  0.3701225447206582  0.2227438674630804
  0.5815214889606750  0.1298774552793418  0.7772561325369196
  0.0593861493160119  0.5074805262852280  0.0577306966253346
  0.5593861493160190  0.9925194737147791  0.9422693033746654
  0.9406138506839881  0.0074805262852209  0.4422693033746654
  0.4406138506839881  0.4925194737147791  0.5577306966253346
  0.4972509762954331  0.7299660086293542  0.1830540504109877
  0.9972509762954331  0.7700339913706458  0.8169459495890123
  0.5027490237045669  0.2299660086293542  0.3169459495890123
  0.0027490237045669  0.2700339913706458  0.6830540504109877
  0.2968500460511763  0.2607546957361464  0.8791525475905999
  0.7968500460511763  0.2392453042638536  0.1208474524094001
  0.7031499539488237  0.7607546957361464  0.6208474524094001
  0.2031499539488237  0.7392453042638536  0.3791525475905999

  0.00000000E+00  0.00000000E+00  0.00000000E+00
  0.00000000E+00  0.00000000E+00  0.00000000E+00
  0.00000000E+00  0.00000000E+00  0.00000000E+00
  0.00000000E+00  0.00000000E+00  0.00000000E+00
  0.00000000E+00  0.00000000E+00  0.00000000E+00
  0.00000000E+00  0.00000000E+00  0.00000000E+00
  0.00000000E+00  0.00000000E+00  0.00000000E+00
  0.00000000E+00  0.00000000E+00  0.00000000E+00
  0.00000000E+00  0.00000000E+00  0.00000000E+00
  0.00000000E+00  0.00000000E+00  0.00000000E+00
  0.00000000E+00  0.00000000E+00  0.00000000E+00
  0.00000000E+00  0.00000000E+00  0.00000000E+00
  0.00000000E+00  0.00000000E+00  0.00000000E+00
  0.00000000E+00  0.00000000E+00  0.00000000E+00
  0.00000000E+00  0.00000000E+00  0.00000000E+00
  0.00000000E+00  0.00000000E+00  0.00000000E+00
  0.00000000E+00  0.00000000E+00  0.00000000E+00
  0.00000000E+00  0.00000000E+00  0.00000000E+00
  0.00000000E+00  0.00000000E+00  0.00000000E+00
  0.00000000E+00  0.00000000E+00  0.00000000E+00
  0.00000000E+00  0.00000000E+00  0.00000000E+00
  0.00000000E+00  0.00000000E+00  0.00000000E+00
  0.00000000E+00  0.00000000E+00  0.00000000E+00
  0.00000000E+00  0.00000000E+00  0.00000000E+00
  0.00000000E+00  0.00000000E+00  0.00000000E+00
  0.00000000E+00  0.00000000E+00  0.00000000E+00
  0.00000000E+00  0.00000000E+00  0.00000000E+00
  0.00000000E+00  0.00000000E+00  0.00000000E+00
