Mg23 Tl30                               
   1.0000000000000000     
     0.0848782932770644   -7.3625244152898528   10.3152592201466398
     6.3192973036235598   -3.6726112704835372  -10.2199969741517815
     6.3940499874353529    3.6114306956996853   10.2760946043038022
   Tl   Mg
    30    23
Direct
  0.1662140072997218  0.6134215748955967  0.1004299388889365
  0.5043176680358599  0.6381544375017825  0.0028996833827435
  0.8739902001639379  0.8466268500188363  0.1053647444017471
  0.3875777937705891  0.1342406914513816  0.1244200212016011
  0.1222551926986242  0.1364927013665849  0.1396840094743865
  0.8777353773871681  0.3729229521282633  0.1373165101443590
  0.3840674507676738  0.8931816383415736  0.1715736244075785
  0.8411201404735849  0.1130963422839741  0.1651308830282900
  0.0168143641281020  0.4864951689069770  0.3505005597102127
  0.5911814325666995  0.6659685249692373  0.2871210515079383
  0.1016906525144563  0.8333998958585340  0.3820553478274320
  0.2922260840283641  0.4125608847505973  0.3232337203679521
  0.8635813563447883  0.8791542964655221  0.3808029081443820
  0.6633080253445414  0.2907201154160362  0.4280117119414726
  0.3536327777701374  0.9821068179841248  0.5114997272373856
  0.6300238818317041  0.0135922210781132  0.5087605326760922
  0.3334873341226299  0.7010186882870642  0.5691240500522170
  0.1358615922801931  0.1229974892017651  0.6193934730322539
  0.7115373010154897  0.5865181423960948  0.6713818761499724
  0.8983351951706382  0.1670248557530556  0.6192425642388670
  0.4098108797586733  0.3382016726758792  0.7152877575527157
  0.9891676974870052  0.4927004114805911  0.6331439977286735
  0.1615351934381124  0.8864532270791514  0.8207486385985447
  0.6147988743054142  0.1081031340125946  0.8297563669837587
  0.1205520906273563  0.6293533949249337  0.8617626046107034
  0.8765121539846277  0.8655332505491131  0.8591673706251299
  0.6115139904300406  0.8678611754101979  0.8752854484501071
  0.1215588056099293  0.1550528037923513  0.8951141780536744
  0.5152212802477152  0.3790231151642800  0.0022892666370282
  0.8337690665162896  0.3864571667333507  0.9003918437582712
  0.2502243137206932  0.4044117517982642  0.0765032979644644
  0.1328715335081938  0.8718484642823441  0.1245919573617869
  0.8806666685817106  0.6225350119112818  0.1303867777789947
  0.6250602985188465  0.1205247704389478  0.1327339471070843
  0.6096387542443509  0.3940392649723705  0.2019912063947729
  0.3090801447809071  0.6829922799767161  0.3079186935213301
  0.5941442300849005  0.8910690129605854  0.2321714922383507
  0.8083565847261553  0.6038170000918655  0.3975244532566293
  0.1294853422784712  0.1232585324372053  0.3732523300813426
  0.3945704285620337  0.1944555228236169  0.3994341539590778
  0.9071934564251478  0.2273829435765933  0.4086320018743379
  0.5046353080858665  0.4972697423826986  0.5046153032497429
  0.0714956450424253  0.7481857663148546  0.5865628128574869
  0.6032990810188039  0.7989249441130042  0.6004006951481600
  0.8696757642592772  0.8779793149987825  0.6261271141850813
  0.2020978971252703  0.3975603903358902  0.5991598851363165
  0.3981098437508379  0.1292599340354883  0.7967400828648223
  0.6870691144966656  0.3177942231252757  0.6908388353900961
  0.3891209857527045  0.6100947169852375  0.8073059911453626
  0.3724027231966360  0.8812139620992596  0.8655865616262872
  0.1182710765419941  0.3801836038987432  0.8694997713395907
  0.8656088116706755  0.1285912107254461  0.8757744176480742
  0.7741241335073568  0.5987739948378561  0.9019538070564366

  0.00000000E+00  0.00000000E+00  0.00000000E+00
  0.00000000E+00  0.00000000E+00  0.00000000E+00
  0.00000000E+00  0.00000000E+00  0.00000000E+00
  0.00000000E+00  0.00000000E+00  0.00000000E+00
  0.00000000E+00  0.00000000E+00  0.00000000E+00
  0.00000000E+00  0.00000000E+00  0.00000000E+00
  0.00000000E+00  0.00000000E+00  0.00000000E+00
  0.00000000E+00  0.00000000E+00  0.00000000E+00
  0.00000000E+00  0.00000000E+00  0.00000000E+00
  0.00000000E+00  0.00000000E+00  0.00000000E+00
  0.00000000E+00  0.00000000E+00  0.00000000E+00
  0.00000000E+00  0.00000000E+00  0.00000000E+00
  0.00000000E+00  0.00000000E+00  0.00000000E+00
  0.00000000E+00  0.00000000E+00  0.00000000E+00
  0.00000000E+00  0.00000000E+00  0.00000000E+00
  0.00000000E+00  0.00000000E+00  0.00000000E+00
  0.00000000E+00  0.00000000E+00  0.00000000E+00
  0.00000000E+00  0.00000000E+00  0.00000000E+00
  0.00000000E+00  0.00000000E+00  0.00000000E+00
  0.00000000E+00  0.00000000E+00  0.00000000E+00
  0.00000000E+00  0.00000000E+00  0.00000000E+00
  0.00000000E+00  0.00000000E+00  0.00000000E+00
  0.00000000E+00  0.00000000E+00  0.00000000E+00
  0.00000000E+00  0.00000000E+00  0.00000000E+00
  0.00000000E+00  0.00000000E+00  0.00000000E+00
  0.00000000E+00  0.00000000E+00  0.00000000E+00
  0.00000000E+00  0.00000000E+00  0.00000000E+00
  0.00000000E+00  0.00000000E+00  0.00000000E+00
  0.00000000E+00  0.00000000E+00  0.00000000E+00
  0.00000000E+00  0.00000000E+00  0.00000000E+00
  0.00000000E+00  0.00000000E+00  0.00000000E+00
  0.00000000E+00  0.00000000E+00  0.00000000E+00
  0.00000000E+00  0.00000000E+00  0.00000000E+00
  0.00000000E+00  0.00000000E+00  0.00000000E+00
  0.00000000E+00  0.00000000E+00  0.00000000E+00
  0.00000000E+00  0.00000000E+00  0.00000000E+00
  0.00000000E+00  0.00000000E+00  0.00000000E+00
  0.00000000E+00  0.00000000E+00  0.00000000E+00
  0.00000000E+00  0.00000000E+00  0.00000000E+00
  0.00000000E+00  0.00000000E+00  0.00000000E+00
  0.00000000E+00  0.00000000E+00  0.00000000E+00
  0.00000000E+00  0.00000000E+00  0.00000000E+00
  0.00000000E+00  0.00000000E+00  0.00000000E+00
  0.00000000E+00  0.00000000E+00  0.00000000E+00
  0.00000000E+00  0.00000000E+00  0.00000000E+00
  0.00000000E+00  0.00000000E+00  0.00000000E+00
  0.00000000E+00  0.00000000E+00  0.00000000E+00
  0.00000000E+00  0.00000000E+00  0.00000000E+00
  0.00000000E+00  0.00000000E+00  0.00000000E+00
  0.00000000E+00  0.00000000E+00  0.00000000E+00
  0.00000000E+00  0.00000000E+00  0.00000000E+00
  0.00000000E+00  0.00000000E+00  0.00000000E+00
  0.00000000E+00  0.00000000E+00  0.00000000E+00
