Mg18 In11                               
   1.00000000000000     
     7.8780131877926811   -4.5687834031327936    3.2095396637675901
    -0.0264890437674642    9.0805731627348933    3.1942102490637643
    -7.8493423041612500   -4.5213753699898618    3.2055432824819232
   In   Mg
    11    18
Direct
  0.6254860306894940  0.8007398058185089  0.0000001622152368
  0.3825833709288631  0.3854503521835824  0.1891838659799916
  0.8057385286013812  0.1942919347760679  0.1950582185722212
  0.1940987752132699  0.8047751687907478  0.1949131758779714
  0.3812601370682316  0.1850500029581923  0.3801703280542696
  0.1855088050325264  0.3822226130980297  0.3830616873412112
  0.8022623346874624  0.9993708267908090  0.6170746007696692
  0.0008652769132311  0.8049485157715779  0.6198087148582445
  0.9992096156045065  0.6099053872772302  0.8050339715478430
  0.6103868538375110  0.9991612398553187  0.8050361216332007
  0.1931993404948500  0.1962452800987506  0.8107412156187337
  0.3422810175074318  0.0053451657681123  0.9999347399419420
  0.5995699093084070  0.3198372027637291  0.0000359352306347
  0.9997846191789392  0.0041622642057177  0.9999032888202422
  0.8169326257690628  0.6260878898314957  0.0000255092530992
  0.9955682288114502  0.3451930933486764  0.0000742818899866
  0.3163384321950105  0.5957736893332140  0.9999957400787594
  0.6919989554826671  0.6877175938762150  0.2814604886251288
  0.5890992699350477  0.9947605080005886  0.3084229756908030
  0.9970524818259534  0.5938251703028925  0.3134797510685061
  0.0017464785568038  0.0000077952976341  0.3368352753032937
  0.4072298949204267  0.7177300025749105  0.4087588969621976
  0.7153166458850748  0.4045460754064365  0.4066010737139507
  0.3085756232338213  0.9979133894711794  0.5933949698674184
  0.9985060823804019  0.3089821369759136  0.5911371739797886
  0.6647656304897538  0.6631038202024087  0.6630488730283091
  0.6836329507977865  0.2804649804345800  0.6866424605949462
  0.2805312609536443  0.6862107488214875  0.6914601938995588
  0.4106728236970127  0.4062143459659993  0.7187063095828492
 
  0.00000000E+00  0.00000000E+00  0.00000000E+00
  0.00000000E+00  0.00000000E+00  0.00000000E+00
  0.00000000E+00  0.00000000E+00  0.00000000E+00
  0.00000000E+00  0.00000000E+00  0.00000000E+00
  0.00000000E+00  0.00000000E+00  0.00000000E+00
  0.00000000E+00  0.00000000E+00  0.00000000E+00
  0.00000000E+00  0.00000000E+00  0.00000000E+00
  0.00000000E+00  0.00000000E+00  0.00000000E+00
  0.00000000E+00  0.00000000E+00  0.00000000E+00
  0.00000000E+00  0.00000000E+00  0.00000000E+00
  0.00000000E+00  0.00000000E+00  0.00000000E+00
  0.00000000E+00  0.00000000E+00  0.00000000E+00
  0.00000000E+00  0.00000000E+00  0.00000000E+00
  0.00000000E+00  0.00000000E+00  0.00000000E+00
  0.00000000E+00  0.00000000E+00  0.00000000E+00
  0.00000000E+00  0.00000000E+00  0.00000000E+00
  0.00000000E+00  0.00000000E+00  0.00000000E+00
  0.00000000E+00  0.00000000E+00  0.00000000E+00
  0.00000000E+00  0.00000000E+00  0.00000000E+00
  0.00000000E+00  0.00000000E+00  0.00000000E+00
  0.00000000E+00  0.00000000E+00  0.00000000E+00
  0.00000000E+00  0.00000000E+00  0.00000000E+00
  0.00000000E+00  0.00000000E+00  0.00000000E+00
  0.00000000E+00  0.00000000E+00  0.00000000E+00
  0.00000000E+00  0.00000000E+00  0.00000000E+00
  0.00000000E+00  0.00000000E+00  0.00000000E+00
  0.00000000E+00  0.00000000E+00  0.00000000E+00
  0.00000000E+00  0.00000000E+00  0.00000000E+00
  0.00000000E+00  0.00000000E+00  0.00000000E+00
